
     Program PWSCF v.7.2 starts on 19Mar2026 at 20:50:51 

     This program is part of the open-source Quantum ESPRESSO suite
     for quantum simulation of materials; please cite
         "P. Giannozzi et al., J. Phys.:Condens. Matter 21 395502 (2009);
         "P. Giannozzi et al., J. Phys.:Condens. Matter 29 465901 (2017);
         "P. Giannozzi et al., J. Chem. Phys. 152 154105 (2020);
          URL http://www.quantum-espresso.org", 
     in publications or presentations arising from this work. More details at
     http://www.quantum-espresso.org/quote

     Parallel version (MPI), running on     1 processors

     MPI processes distributed on     1 nodes
     4841 MiB available memory on the printing compute node when the environment starts
 
     Reading input from ACOptimization/in/iso_003.in
Warning: card &CELL ignored
Warning: card   CELL_DOFREE = 'ALL', ignored
Warning: card   CELL_DYNAMICS = 'BFGS', ignored
Warning: card   PRESS = 0.0, ignored
Warning: card   PRESS_CONV_THR = 0.01, ignored
Warning: card / ignored

     Current dimensions of program PWSCF are:
     Max number of different atomic species (ntypx) = 10
     Max number of k-points (npk) =  40000
     Max angular momentum in pseudopotentials (lmaxx) =  4
     file Mg.rel-pbesol-spnl-kjpaw_psl.1.0.0.UPF: wavefunction(s)  2P 2P renormalized
     file Ni.rel-pbesol-spn-kjpaw_psl.1.0.0.UPF: wavefunction(s)  3P 3P 3D 3D renormalized
     Message from routine setup:
     using ibrav=0 with symmetry is DISCOURAGED, use correct ibrav instead
 
     Subspace diagonalization in iterative solution of the eigenvalue problem:
     a serial algorithm will be used

 
     G-vector sticks info
     --------------------
     sticks:   dense  smooth     PW     G-vecs:    dense   smooth      PW
     Sum        2245    1135    313               283473   100375   15143
 
     Using Slab Decomposition
 

     Title: 
     Optimisation A C for MgNi2                                                 


     bravais-lattice index     =            0
     lattice parameter (alat)  =       9.0394  a.u.
     unit-cell volume          =    2098.5415 (a.u.)^3
     number of atoms/cell      =           24
     number of atomic types    =            2
     number of electrons       =       368.00
     number of Kohn-Sham states=          442
     kinetic-energy cutoff     =      50.0000  Ry
     charge density cutoff     =     400.0000  Ry
     scf convergence threshold =      1.0E-08
     mixing beta               =       0.1000
     number of iterations used =           20  local-TF  mixing
     energy convergence thresh.=      1.0E-05
     force convergence thresh. =      1.0E-03
     Exchange-correlation= SLA  PW   PSX  PSC
                           (   1   4  10   8   0   0   0)
     nstep                     =           50

     Non magnetic calculation with spin-orbit


     GPU acceleration is ACTIVE.


     celldm(1)=   9.039429  celldm(2)=   0.000000  celldm(3)=   0.000000
     celldm(4)=   0.000000  celldm(5)=   0.000000  celldm(6)=   0.000000

     crystal axes: (cart. coord. in units of alat)
               a(1) = (   1.000000   0.000000   0.000000 )  
               a(2) = (  -0.500000   0.866025   0.000000 )  
               a(3) = (   0.000000   0.000000   3.280680 )  

     reciprocal axes: (cart. coord. in units 2 pi/alat)
               b(1) = (  1.000000  0.577350 -0.000000 )  
               b(2) = (  0.000000  1.154701  0.000000 )  
               b(3) = (  0.000000 -0.000000  0.304815 )  


     PseudoPot. # 1 for Mg read from file:
     ./pseudo/Mg.rel-pbesol-spnl-kjpaw_psl.1.0.0.UPF
     MD5 check sum: e6ee56211aa1e9c295d50625d03707fa
     Pseudo is Projector augmented-wave + core cor, Zval = 10.0
     Generated using &quot;atomic&quot; code by A. Dal Corso  v.6.3
     Shape of augmentation charge: PSQ
     Using radial grid of 1129 points,  6 beta functions with: 
                l(1) =   0
                l(2) =   0
                l(3) =   1
                l(4) =   1
                l(5) =   1
                l(6) =   1
     Q(r) pseudized with 0 coefficients 


     PseudoPot. # 2 for Ni read from file:
     ./pseudo/Ni.rel-pbesol-spn-kjpaw_psl.1.0.0.UPF
     MD5 check sum: 1fa4c2409eb3b84dc9841cc3f54c2f43
     Pseudo is Projector augmented-wave + core cor, Zval = 18.0
     Generated using &quot;atomic&quot; code by A. Dal Corso  v.6.3
     Shape of augmentation charge: PSQ
     Using radial grid of 1195 points, 10 beta functions with: 
                l(1) =   0
                l(2) =   0
                l(3) =   1
                l(4) =   1
                l(5) =   1
                l(6) =   1
                l(7) =   2
                l(8) =   2
                l(9) =   2
               l(10) =   2
     Q(r) pseudized with 0 coefficients 


     atomic species   valence    mass     pseudopotential
        Mg            10.00    24.30500     Mg( 1.00)
        Ni            18.00    58.69340     Ni( 1.00)

     24 Sym. Ops., with inversion, found (12 have fractional translation)



   Cartesian axes

     site n.     atom                  positions (alat units)
         1           Mg  tau(   1) = (   0.0000000   0.0000000   1.3319561  )
         2           Mg  tau(   2) = (   0.0000000   0.0000000   2.9722962  )
         3           Mg  tau(   3) = (   0.0000000   0.0000000   1.9487240  )
         4           Mg  tau(   4) = (   0.0000000   0.0000000   0.3083839  )
         5           Mg  tau(   5) = (  -0.0000005   0.5773506   2.1514700  )
         6           Mg  tau(   6) = (   0.5000005   0.2886749   0.5111300  )
         7           Mg  tau(   7) = (   0.5000005   0.2886749   1.1292101  )
         8           Mg  tau(   8) = (  -0.0000005   0.5773506   2.7695501  )
         9           Ni  tau(   9) = (  -0.0000005   0.5773506   1.2297957  )
        10           Ni  tau(  10) = (   0.5000005   0.2886749   2.8701358  )
        11           Ni  tau(  11) = (   0.5000005   0.2886749   2.0508844  )
        12           Ni  tau(  12) = (  -0.0000005   0.5773506   0.4105443  )
        13           Ni  tau(  13) = (   0.0000005   0.2886749   0.8201700  )
        14           Ni  tau(  14) = (   0.7499995   0.1443379   2.4605101  )
        15           Ni  tau(  15) = (   0.4999995   0.5773506   2.4605101  )
        16           Ni  tau(  16) = (  -0.2499995   0.7216876   0.8201700  )
        17           Ni  tau(  17) = (   0.2500005   0.7216876   0.8201700  )
        18           Ni  tau(  18) = (   0.2499995   0.1443379   2.4605101  )
        19           Ni  tau(  19) = (   0.5000000   0.0000000   1.6403400  )
        20           Ni  tau(  20) = (   0.2500000   0.4330127   0.0000000  )
        21           Ni  tau(  21) = (   0.5000000   0.0000000   0.0000000  )
        22           Ni  tau(  22) = (   0.2500000   0.4330127   1.6403400  )
        23           Ni  tau(  23) = (  -0.2500000   0.4330127   0.0000000  )
        24           Ni  tau(  24) = (  -0.2500000   0.4330127   1.6403400  )

     number of k points=     3  Marzari-Vanderbilt smearing, width (Ry)=  0.0300
                       cart. coord. in units 2pi/alat
        k(    1) = (   0.0000000   0.0000000   0.0000000), wk =   0.1111111
        k(    2) = (   0.0000000   0.3849002   0.0000000), wk =   0.6666667
        k(    3) = (   0.3333333   0.5773503   0.0000000), wk =   0.2222222

     Dense  grid:   283473 G-vectors     FFT dimensions: (  60,  60, 192)

     Smooth grid:   100375 G-vectors     FFT dimensions: (  45,  45, 144)

     Estimated max dynamical RAM per process >       4.47 GB

     Check: negative core charge=   -0.000016

     Initial potential from superposition of free atoms

     starting charge     367.9890, renormalised to     368.0000
     Starting wfcs are  400 randomized atomic wfcs +   42 random wfcs
     Checking if some PAW data can be deallocated... 

     total cpu time spent up to now is        9.9 secs

     Self-consistent Calculation

     iteration #  1     ecut=    50.00 Ry     beta= 0.10
     Davidson diagonalization with overlap
     ethr =  1.00E-02,  avg # of iterations =  5.0

     total cpu time spent up to now is       36.2 secs

     total energy              =   -7950.76491641 Ry
     estimated scf accuracy    <       6.95472537 Ry

     iteration #  2     ecut=    50.00 Ry     beta= 0.10
     Davidson diagonalization with overlap
     ethr =  1.89E-03,  avg # of iterations =  1.0

     total cpu time spent up to now is       54.4 secs

     total energy              =   -7950.07640353 Ry
     estimated scf accuracy    <       4.17443103 Ry

     iteration #  3     ecut=    50.00 Ry     beta= 0.10
     Davidson diagonalization with overlap
     ethr =  1.13E-03,  avg # of iterations =  2.0

     total cpu time spent up to now is       74.9 secs

     total energy              =   -7950.17448828 Ry
     estimated scf accuracy    <       0.72332325 Ry

     iteration #  4     ecut=    50.00 Ry     beta= 0.10
     Davidson diagonalization with overlap
     ethr =  1.97E-04,  avg # of iterations =  2.0

     total cpu time spent up to now is       95.5 secs

     total energy              =   -7950.14507778 Ry
     estimated scf accuracy    <       0.39608506 Ry

     iteration #  5     ecut=    50.00 Ry     beta= 0.10
     Davidson diagonalization with overlap
     ethr =  1.08E-04,  avg # of iterations =  2.0

     total cpu time spent up to now is      116.0 secs

     total energy              =   -7950.14688648 Ry
     estimated scf accuracy    <       0.29174848 Ry

     iteration #  6     ecut=    50.00 Ry     beta= 0.10
     Davidson diagonalization with overlap
     ethr =  7.93E-05,  avg # of iterations =  1.3

     total cpu time spent up to now is      134.9 secs

     total energy              =   -7950.13990129 Ry
     estimated scf accuracy    <       0.26851108 Ry

     iteration #  7     ecut=    50.00 Ry     beta= 0.10
     Davidson diagonalization with overlap
     ethr =  7.30E-05,  avg # of iterations =  1.7

     total cpu time spent up to now is      154.6 secs

     total energy              =   -7950.04010812 Ry
     estimated scf accuracy    <       0.20174531 Ry

     iteration #  8     ecut=    50.00 Ry     beta= 0.10
     Davidson diagonalization with overlap
     ethr =  5.48E-05,  avg # of iterations =  3.7

     total cpu time spent up to now is      178.6 secs

     total energy              =   -7950.07700260 Ry
     estimated scf accuracy    <       0.03685318 Ry

     iteration #  9     ecut=    50.00 Ry     beta= 0.10
     Davidson diagonalization with overlap
     c_bands:  2 eigenvalues not converged
     ethr =  1.00E-05,  avg # of iterations = 10.7

     total cpu time spent up to now is      201.7 secs

     total energy              =   -7950.09058102 Ry
     estimated scf accuracy    <       0.02596253 Ry

     iteration # 10     ecut=    50.00 Ry     beta= 0.10
     Davidson diagonalization with overlap
     ethr =  7.06E-06,  avg # of iterations =  5.0

     total cpu time spent up to now is      223.0 secs

     total energy              =   -7950.10096024 Ry
     estimated scf accuracy    <       0.00789014 Ry

     iteration # 11     ecut=    50.00 Ry     beta= 0.10
     Davidson diagonalization with overlap
     ethr =  2.14E-06,  avg # of iterations = 15.0

     total cpu time spent up to now is      252.1 secs

     total energy              =   -7950.10851170 Ry
     estimated scf accuracy    <       0.02433945 Ry

     iteration # 12     ecut=    50.00 Ry     beta= 0.10
     Davidson diagonalization with overlap
     ethr =  2.14E-06,  avg # of iterations =  2.0

     total cpu time spent up to now is      274.0 secs

     total energy              =   -7950.11136474 Ry
     estimated scf accuracy    <       0.00707314 Ry

     iteration # 13     ecut=    50.00 Ry     beta= 0.10
     Davidson diagonalization with overlap
     ethr =  1.92E-06,  avg # of iterations =  2.0

     total cpu time spent up to now is      296.9 secs

     total energy              =   -7950.11286100 Ry
     estimated scf accuracy    <       0.01275193 Ry

     iteration # 14     ecut=    50.00 Ry     beta= 0.10
     Davidson diagonalization with overlap
     ethr =  1.92E-06,  avg # of iterations =  2.0

     total cpu time spent up to now is      320.2 secs

     total energy              =   -7950.11382930 Ry
     estimated scf accuracy    <       0.00528294 Ry

     iteration # 15     ecut=    50.00 Ry     beta= 0.10
     Davidson diagonalization with overlap
     ethr =  1.44E-06,  avg # of iterations =  2.0

     total cpu time spent up to now is      341.0 secs

     total energy              =   -7950.11464042 Ry
     estimated scf accuracy    <       0.00855791 Ry

     iteration # 16     ecut=    50.00 Ry     beta= 0.10
     Davidson diagonalization with overlap
     ethr =  1.44E-06,  avg # of iterations =  2.0

     total cpu time spent up to now is      361.8 secs

     total energy              =   -7950.11484377 Ry
     estimated scf accuracy    <       0.00619391 Ry

     iteration # 17     ecut=    50.00 Ry     beta= 0.10
     Davidson diagonalization with overlap
     ethr =  1.44E-06,  avg # of iterations =  1.0

     total cpu time spent up to now is      380.1 secs

     total energy              =   -7950.11450510 Ry
     estimated scf accuracy    <       0.00611924 Ry

     iteration # 18     ecut=    50.00 Ry     beta= 0.10
     Davidson diagonalization with overlap
     ethr =  1.44E-06,  avg # of iterations =  1.0

     total cpu time spent up to now is      398.4 secs

     total energy              =   -7950.11439712 Ry
     estimated scf accuracy    <       0.00060822 Ry

     iteration # 19     ecut=    50.00 Ry     beta= 0.10
     Davidson diagonalization with overlap
     ethr =  1.65E-07,  avg # of iterations =  2.0

     total cpu time spent up to now is      420.6 secs

     total energy              =   -7950.11449450 Ry
     estimated scf accuracy    <       0.00276033 Ry

     iteration # 20     ecut=    50.00 Ry     beta= 0.10
     Davidson diagonalization with overlap
     ethr =  1.65E-07,  avg # of iterations =  1.3

     total cpu time spent up to now is      439.7 secs

     total energy              =   -7950.11453669 Ry
     estimated scf accuracy    <       0.00007521 Ry

     iteration # 21     ecut=    50.00 Ry     beta= 0.10
     Davidson diagonalization with overlap
     ethr =  2.04E-08,  avg # of iterations =  2.0

     total cpu time spent up to now is      462.8 secs

     total energy              =   -7950.11456241 Ry
     estimated scf accuracy    <       0.00005384 Ry

     iteration # 22     ecut=    50.00 Ry     beta= 0.10
     Davidson diagonalization with overlap
     ethr =  1.46E-08,  avg # of iterations =  2.0

     total cpu time spent up to now is      483.4 secs

     total energy              =   -7950.11456317 Ry
     estimated scf accuracy    <       0.00014673 Ry

     iteration # 23     ecut=    50.00 Ry     beta= 0.10
     Davidson diagonalization with overlap
     ethr =  1.46E-08,  avg # of iterations =  1.0

     total cpu time spent up to now is      501.7 secs

     total energy              =   -7950.11456414 Ry
     estimated scf accuracy    <       0.00000484 Ry

     iteration # 24     ecut=    50.00 Ry     beta= 0.10
     Davidson diagonalization with overlap
     ethr =  1.31E-09,  avg # of iterations =  2.0

     total cpu time spent up to now is      522.4 secs

     total energy              =   -7950.11456524 Ry
     estimated scf accuracy    <       0.00000197 Ry

     iteration # 25     ecut=    50.00 Ry     beta= 0.10
     Davidson diagonalization with overlap
     ethr =  5.36E-10,  avg # of iterations =  1.0

     total cpu time spent up to now is      540.8 secs

     total energy              =   -7950.11456607 Ry
     estimated scf accuracy    <       0.00000067 Ry

     iteration # 26     ecut=    50.00 Ry     beta= 0.10
     Davidson diagonalization with overlap
     ethr =  1.81E-10,  avg # of iterations =  2.0

     total cpu time spent up to now is      561.5 secs

     total energy              =   -7950.11456666 Ry
     estimated scf accuracy    <       0.00000001 Ry

     iteration # 27     ecut=    50.00 Ry     beta= 0.10
     Davidson diagonalization with overlap
     ethr =  2.97E-12,  avg # of iterations =  5.0

     total cpu time spent up to now is      585.3 secs

     total energy              =   -7950.11456722 Ry
     estimated scf accuracy    <       0.00000006 Ry

     iteration # 28     ecut=    50.00 Ry     beta= 0.10
     Davidson diagonalization with overlap
     ethr =  2.97E-12,  avg # of iterations =  1.3

     total cpu time spent up to now is      604.1 secs

     End of self-consistent calculation

          k = 0.0000 0.0000 0.0000 ( 12553 PWs)   bands (ev):

   -89.5766 -89.5766 -89.5750 -89.5750 -89.5744 -89.5744 -89.5727 -89.5727
   -89.5136 -89.5136 -89.5133 -89.5133 -89.5001 -89.5001 -89.4999 -89.4999
   -89.4863 -89.4863 -89.4863 -89.4863 -89.4862 -89.4862 -89.4862 -89.4862
   -89.4727 -89.4727 -89.4727 -89.4727 -89.4726 -89.4726 -89.4726 -89.4726
   -61.7093 -61.7093 -61.7092 -61.7092 -61.7079 -61.7079 -61.7079 -61.7079
   -61.6536 -61.6536 -61.6535 -61.6535 -61.6522 -61.6522 -61.6521 -61.6521
   -51.5652 -51.5652 -51.5590 -51.5590 -51.5577 -51.5577 -51.5534 -51.5534
   -51.5096 -51.5096 -51.5080 -51.5080 -51.4984 -51.4984 -51.4975 -51.4975
   -51.4968 -51.4968 -51.4954 -51.4954 -51.4855 -51.4855 -51.4830 -51.4830
   -51.4222 -51.4222 -51.4141 -51.4141 -51.4052 -51.4052 -51.4005 -51.4005
   -49.4513 -49.4513 -49.4474 -49.4474 -49.4325 -49.4325 -49.4281 -49.4281
   -49.4105 -49.4105 -49.3982 -49.3982 -49.3865 -49.3865 -49.3853 -49.3853
   -49.3343 -49.3343 -49.3296 -49.3296 -49.3295 -49.3295 -49.3162 -49.3162
   -49.3153 -49.3153 -49.3118 -49.3118 -49.3090 -49.3090 -49.2862 -49.2862
   -49.2794 -49.2794 -49.2459 -49.2459 -49.2408 -49.2408 -49.2344 -49.2344
   -49.2264 -49.2264 -49.2209 -49.2209 -49.2065 -49.2065 -49.2055 -49.2055
   -49.1919 -49.1919 -49.1904 -49.1904 -49.1816 -49.1816 -49.1810 -49.1810
   -49.1565 -49.1565 -49.1529 -49.1529 -49.1499 -49.1499 -49.1476 -49.1476
   -28.8430 -28.8430 -28.8429 -28.8429 -28.8377 -28.8377 -28.8376 -28.8376
   -28.7853 -28.7853 -28.7849 -28.7849 -28.7794 -28.7794 -28.7794 -28.7794
   -28.5582 -28.5582 -28.5580 -28.5580 -28.5567 -28.5567 -28.5565 -28.5565
   -28.5549 -28.5549 -28.5547 -28.5547 -28.5448 -28.5448 -28.5448 -28.5448
   -28.5023 -28.5023 -28.5021 -28.5021 -28.4953 -28.4953 -28.4950 -28.4950
   -28.4935 -28.4935 -28.4934 -28.4934 -28.4886 -28.4886 -28.4885 -28.4885
     4.6896   4.6896   5.3056   5.3056   5.3310   5.3310   6.7791   6.7791
     7.4324   7.4324   8.7564   8.7564   8.7757   8.7757   8.8332   8.8332
     9.4033   9.4033   9.4181   9.4181   9.5342   9.5342   9.6235   9.6235
     9.7601   9.7601   9.7715   9.7715   9.7902   9.7902   9.8102   9.8102
     9.8339   9.8339   9.8359   9.8359   9.9390   9.9390   9.9598   9.9598
    10.0111  10.0111  10.0793  10.0793  10.0803  10.0803  10.0852  10.0852
    10.1040  10.1040  10.1629  10.1629  10.2021  10.2021  10.2468  10.2468
    10.2476  10.2476  10.3095  10.3095  10.6079  10.6079  10.6141  10.6141
    10.6141  10.6141  10.6433  10.6433  10.6483  10.6483  10.6749  10.6749
    10.8603  10.8603  10.9181  10.9181  11.0186  11.0186  11.0258  11.0258
    11.0668  11.0668  11.1208  11.1208  11.1495  11.1495  11.1553  11.1553
    11.3126  11.3126  11.3305  11.3305  11.5949  11.5949  11.7554  11.7554
    11.8012  11.8012  11.8281  11.8281  11.8292  11.8292  11.8711  11.8711
    11.9806  11.9806  12.0352  12.0352  12.1400  12.1400  12.1523  12.1523
    12.2744  12.2744  12.2860  12.2860  12.3766  12.3766  12.3812  12.3812
    12.3933  12.3933  12.3994  12.3994  12.4015  12.4015  12.4090  12.4090
    12.4135  12.4135  12.4277  12.4277  12.4421  12.4421  12.4519  12.4519
    12.4586  12.4586  12.4714  12.4714  12.4882  12.4882  12.5088  12.5088
    12.5322  12.5322  12.5665  12.5665  12.5675  12.5675  12.5862  12.5862
    12.6007  12.6007  12.6467  12.6467  12.7208  12.7208  12.9606  12.9606
    13.0135  13.0135  13.2550  13.2550  13.2561  13.2561  13.4898  13.4898
    13.4905  13.4905  13.5070  13.5070  13.5098  13.5098  13.7807  13.7807
    13.9349  13.9349  14.1221  14.1221  14.1788  14.1788  14.1824  14.1824
    14.1943  14.1943  14.2112  14.2112  14.2161  14.2161  14.3267  14.3267
    14.5469  14.5469  14.5769  14.5769  14.5994  14.5994  14.6518  14.6518
    15.9637  15.9637  15.9688  15.9688  15.9804  15.9804  16.0184  16.0184
    16.4736  16.4736  16.5214  16.5214  16.8883  16.8883  16.9090  16.9090
    17.5493  17.5493  17.5811  17.5811  17.5982  17.5982  17.7948  17.7948
    17.8815  17.8815  18.0768  18.0768  18.4862  18.4862  18.4970  18.4970
    18.9172  18.9172  18.9381  18.9381  19.2223  19.2223  19.5507  19.5507
    19.5581  19.5581  19.7579  19.7579  19.9733  19.9733  21.3594  21.3595
    21.4693  21.4694

          k = 0.0000 0.3849 0.0000 ( 12516 PWs)   bands (ev):

   -89.5759 -89.5759 -89.5749 -89.5749 -89.5740 -89.5740 -89.5729 -89.5729
   -89.5079 -89.5079 -89.5078 -89.5078 -89.4945 -89.4945 -89.4944 -89.4944
   -89.4920 -89.4920 -89.4918 -89.4918 -89.4862 -89.4862 -89.4862 -89.4862
   -89.4786 -89.4786 -89.4785 -89.4785 -89.4726 -89.4726 -89.4726 -89.4726
   -61.7092 -61.7092 -61.7092 -61.7092 -61.7077 -61.7077 -61.7077 -61.7077
   -61.6537 -61.6537 -61.6537 -61.6537 -61.6522 -61.6522 -61.6522 -61.6522
   -51.5663 -51.5663 -51.5620 -51.5620 -51.5564 -51.5564 -51.5545 -51.5545
   -51.5032 -51.5032 -51.5005 -51.5005 -51.4906 -51.4906 -51.4879 -51.4879
   -51.4825 -51.4825 -51.4802 -51.4802 -51.4688 -51.4688 -51.4683 -51.4683
   -51.4355 -51.4355 -51.4304 -51.4304 -51.4198 -51.4198 -51.4144 -51.4144
   -49.4496 -49.4496 -49.4404 -49.4404 -49.4391 -49.4391 -49.4294 -49.4294
   -49.3814 -49.3814 -49.3759 -49.3759 -49.3717 -49.3717 -49.3646 -49.3646
   -49.3309 -49.3309 -49.3277 -49.3277 -49.3227 -49.3227 -49.3177 -49.3177
   -49.3047 -49.3047 -49.3022 -49.3022 -49.2986 -49.2986 -49.2821 -49.2821
   -49.2768 -49.2768 -49.2521 -49.2521 -49.2489 -49.2489 -49.2406 -49.2406
   -49.2292 -49.2292 -49.2250 -49.2250 -49.2099 -49.2099 -49.2093 -49.2093
   -49.2057 -49.2057 -49.2002 -49.2002 -49.1876 -49.1876 -49.1863 -49.1863
   -49.1741 -49.1741 -49.1724 -49.1724 -49.1539 -49.1539 -49.1532 -49.1532
   -28.8422 -28.8422 -28.8422 -28.8422 -28.8370 -28.8370 -28.8369 -28.8369
   -28.7862 -28.7862 -28.7861 -28.7861 -28.7808 -28.7808 -28.7807 -28.7807
   -28.5587 -28.5587 -28.5586 -28.5586 -28.5553 -28.5553 -28.5550 -28.5550
   -28.5533 -28.5533 -28.5531 -28.5531 -28.5454 -28.5454 -28.5454 -28.5454
   -28.5016 -28.5016 -28.5015 -28.5015 -28.4964 -28.4964 -28.4962 -28.4962
   -28.4944 -28.4944 -28.4942 -28.4942 -28.4881 -28.4881 -28.4881 -28.4881
     5.6795   5.6795   6.2598   6.2598   6.2908   6.2908   7.6954   7.6954
     8.1575   8.1575   8.3471   8.3471   8.6423   8.6423   8.6838   8.6838
     9.2274   9.2274   9.2606   9.2606   9.4036   9.4036   9.5077   9.5077
     9.5932   9.5932   9.6948   9.6948   9.7651   9.7651   9.8533   9.8533
     9.9125   9.9125   9.9809   9.9809  10.0183  10.0183  10.0472  10.0472
    10.0581  10.0581  10.0819  10.0819  10.2098  10.2098  10.2962  10.2962
    10.3407  10.3407  10.3877  10.3877  10.4394  10.4394  10.4920  10.4920
    10.5110  10.5110  10.5406  10.5406  10.5446  10.5446  10.6472  10.6472
    10.6510  10.6510  10.6884  10.6884  10.6949  10.6949  10.7540  10.7540
    10.7961  10.7961  10.8024  10.8024  10.8725  10.8725  10.9151  10.9151
    10.9931  10.9931  11.0419  11.0419  11.0608  11.0608  11.0864  11.0864
    11.1532  11.1532  11.2313  11.2313  11.2706  11.2706  11.3185  11.3185
    11.3324  11.3324  11.4454  11.4454  11.4535  11.4535  11.5072  11.5072
    11.5243  11.5243  11.5913  11.5913  11.6566  11.6566  11.6697  11.6697
    11.6892  11.6892  11.7431  11.7431  11.8308  11.8308  11.8451  11.8451
    11.9158  11.9158  11.9622  11.9622  11.9867  11.9867  12.0175  12.0175
    12.0857  12.0857  12.1018  12.1018  12.1108  12.1108  12.1738  12.1738
    12.1771  12.1771  12.2337  12.2337  12.2813  12.2813  12.3372  12.3372
    12.3448  12.3448  12.4325  12.4325  12.4415  12.4415  12.4516  12.4516
    12.5042  12.5042  12.5111  12.5111  12.5167  12.5167  12.5452  12.5452
    12.6109  12.6109  12.6384  12.6384  12.6535  12.6535  12.7565  12.7565
    12.7806  12.7806  12.8498  12.8498  12.9310  12.9310  13.0522  13.0522
    13.3321  13.3321  13.3884  13.3884  13.7485  13.7485  13.7617  13.7617
    13.9747  13.9747  14.0718  14.0718  14.1596  14.1596  14.3403  14.3403
    14.4042  14.4042  14.4311  14.4311  14.5027  14.5027  14.6918  14.6918
    15.3121  15.3121  15.7764  15.7764  16.0835  16.0835  16.1219  16.1219
    17.4432  17.4432  17.8540  17.8540  17.9006  17.9006  18.0874  18.0874
    18.8438  18.8438  18.9367  18.9367  19.0394  19.0394  19.1543  19.1543
    19.1686  19.1686  19.3383  19.3383  19.8084  19.8084  20.2612  20.2612
    20.2788  20.2788  20.3782  20.3782  20.8559  20.8559  20.9789  20.9789
    21.2024  21.2024  21.6999  21.6999  22.0497  22.0497  22.3276  22.3276
    22.3453  22.3453

          k = 0.3333 0.5774 0.0000 ( 12582 PWs)   bands (ev):

   -89.5752 -89.5752 -89.5752 -89.5752 -89.5734 -89.5734 -89.5734 -89.5734
   -89.5009 -89.5009 -89.5009 -89.5009 -89.4992 -89.4992 -89.4992 -89.4992
   -89.4866 -89.4866 -89.4865 -89.4865 -89.4865 -89.4865 -89.4864 -89.4864
   -89.4862 -89.4862 -89.4862 -89.4862 -89.4726 -89.4726 -89.4726 -89.4726
   -61.7092 -61.7092 -61.7092 -61.7092 -61.7077 -61.7077 -61.7077 -61.7077
   -61.6538 -61.6538 -61.6538 -61.6538 -61.6523 -61.6523 -61.6522 -61.6522
   -51.5694 -51.5694 -51.5691 -51.5691 -51.5578 -51.5578 -51.5574 -51.5574
   -51.5045 -51.5045 -51.5040 -51.5040 -51.4925 -51.4925 -51.4916 -51.4916
   -51.4655 -51.4655 -51.4613 -51.4613 -51.4594 -51.4594 -51.4587 -51.4587
   -51.4474 -51.4474 -51.4434 -51.4434 -51.4422 -51.4422 -51.4403 -51.4403
   -49.4488 -49.4488 -49.4473 -49.4473 -49.4370 -49.4370 -49.4344 -49.4344
   -49.3588 -49.3588 -49.3553 -49.3553 -49.3523 -49.3523 -49.3495 -49.3495
   -49.3483 -49.3483 -49.3445 -49.3445 -49.3425 -49.3425 -49.3228 -49.3228
   -49.3072 -49.3072 -49.3056 -49.3056 -49.2919 -49.2919 -49.2795 -49.2795
   -49.2681 -49.2681 -49.2654 -49.2654 -49.2565 -49.2565 -49.2559 -49.2559
   -49.2355 -49.2355 -49.2258 -49.2258 -49.2191 -49.2191 -49.2130 -49.2130
   -49.2045 -49.2045 -49.2031 -49.2031 -49.2011 -49.2011 -49.1965 -49.1965
   -49.1867 -49.1867 -49.1862 -49.1862 -49.1648 -49.1648 -49.1643 -49.1643
   -28.8421 -28.8421 -28.8417 -28.8417 -28.8370 -28.8370 -28.8365 -28.8365
   -28.7869 -28.7869 -28.7869 -28.7869 -28.7816 -28.7816 -28.7816 -28.7816
   -28.5601 -28.5601 -28.5575 -28.5575 -28.5554 -28.5554 -28.5554 -28.5554
   -28.5519 -28.5519 -28.5518 -28.5518 -28.5475 -28.5475 -28.5444 -28.5444
   -28.5013 -28.5013 -28.5012 -28.5012 -28.4977 -28.4977 -28.4975 -28.4975
   -28.4946 -28.4946 -28.4942 -28.4942 -28.4881 -28.4881 -28.4880 -28.4880
     7.2954   7.2954   7.2960   7.2960   7.7457   7.7457   7.8592   7.8592
     7.8649   7.8649   8.0486   8.0486   8.1627   8.1627   8.1680   8.1680
     8.3812   8.3812   9.1898   9.1898   9.1901   9.1901   9.2272   9.2272
     9.2348   9.2348   9.2727   9.2727   9.3189   9.3189   9.9345   9.9345
     9.9391   9.9391   9.9646   9.9646  10.0903  10.0903  10.1010  10.1010
    10.2527  10.2527  10.2790  10.2790  10.4056  10.4056  10.4219  10.4219
    10.4939  10.4939  10.4940  10.4940  10.5426  10.5426  10.5514  10.5514
    10.5731  10.5731  10.5768  10.5768  10.6571  10.6571  10.7008  10.7008
    10.7239  10.7239  10.7328  10.7328  10.7368  10.7368  10.7550  10.7550
    10.7726  10.7726  10.8189  10.8189  10.8343  10.8343  10.8486  10.8486
    10.8689  10.8689  10.8702  10.8702  10.9111  10.9111  10.9183  10.9183
    10.9920  10.9920  10.9941  10.9941  11.0246  11.0246  11.0382  11.0382
    11.0707  11.0707  11.2351  11.2351  11.2424  11.2424  11.2561  11.2561
    11.3706  11.3706  11.5090  11.5090  11.5290  11.5290  11.5316  11.5316
    11.5698  11.5698  11.6001  11.6001  11.7640  11.7640  11.7691  11.7691
    11.8490  11.8490  11.8836  11.8836  11.9011  11.9011  11.9126  11.9126
    11.9683  11.9683  11.9741  11.9741  11.9910  11.9910  12.0861  12.0861
    12.1337  12.1337  12.1640  12.1640  12.1795  12.1795  12.1807  12.1807
    12.2093  12.2093  12.2282  12.2282  12.2301  12.2301  12.2725  12.2725
    12.2919  12.2919  12.2960  12.2960  12.3603  12.3603  12.4156  12.4156
    12.5799  12.5799  12.6020  12.6020  12.6913  12.6913  12.6948  12.6948
    12.7187  12.7187  12.7914  12.7914  12.8023  12.8023  12.9078  12.9078
    12.9692  12.9692  13.0258  13.0258  13.0269  13.0269  13.2545  13.2545
    13.3848  13.3848  13.3966  13.3966  13.4730  13.4730  14.8400  14.8400
    14.8616  14.8616  14.9118  14.9118  15.1013  15.1013  15.1083  15.1083
    15.7092  15.7092  17.5279  17.5279  17.5302  17.5302  17.6948  17.6948
    17.9397  17.9397  17.9405  17.9405  18.5490  18.5490  18.6254  18.6254
    18.6263  18.6263  18.6894  18.6894  18.6978  18.6978  18.9472  18.9472
    19.1868  19.1868  19.5876  19.5876  19.6588  19.6588  19.6737  19.6737
    20.4601  20.4601  20.4631  20.4631  20.7990  20.7990  20.8139  20.8139
    20.9037  20.9037  21.5869  21.5869  22.8997  22.8997  22.9090  22.9090
    23.1260  23.1268

     the Fermi energy is    13.1020 ev

!    total energy              =   -7950.11456933 Ry
     total all-electron energy =    -51823.966653 Ry
     estimated scf accuracy    <          1.4E-09 Ry
     smearing contrib. (-TS)   =       0.10461313 Ry
     internal energy E=F+TS    =   -7950.21918246 Ry

     The total energy is F=E-TS. E is the sum of the following terms:
     one-electron contribution =   -4475.67660424 Ry
     hartree contribution      =    2394.48024519 Ry
     xc contribution           =    -681.93792863 Ry
     ewald contribution        =   -3648.89710196 Ry
     one-center paw contrib.   =   -1538.18779282 Ry

     convergence has been achieved in  28 iterations

     Forces acting on atoms (cartesian axes, Ry/au):

     atom    1 type  1   force =     0.00000000    0.00000000    0.00484738
     atom    2 type  1   force =     0.00000000    0.00000000    0.00484738
     atom    3 type  1   force =     0.00000000    0.00000000   -0.00484738
     atom    4 type  1   force =     0.00000000    0.00000000   -0.00484738
     atom    5 type  1   force =     0.00000000    0.00000000    0.00117215
     atom    6 type  1   force =     0.00000000   -0.00000000    0.00117215
     atom    7 type  1   force =     0.00000000    0.00000000   -0.00117215
     atom    8 type  1   force =     0.00000000   -0.00000000   -0.00117215
     atom    9 type  2   force =    -0.00000000    0.00000000    0.00549575
     atom   10 type  2   force =     0.00000000    0.00000000    0.00549575
     atom   11 type  2   force =    -0.00000000   -0.00000000   -0.00549575
     atom   12 type  2   force =     0.00000000    0.00000000   -0.00549575
     atom   13 type  2   force =     0.00000000   -0.00900494    0.00000000
     atom   14 type  2   force =     0.00779851   -0.00450247   -0.00000000
     atom   15 type  2   force =     0.00000000    0.00900494    0.00000000
     atom   16 type  2   force =    -0.00779851    0.00450247   -0.00000000
     atom   17 type  2   force =     0.00779851    0.00450247   -0.00000000
     atom   18 type  2   force =    -0.00779851   -0.00450247    0.00000000
     atom   19 type  2   force =     0.00000000    0.00000000   -0.00000000
     atom   20 type  2   force =     0.00000000    0.00000000   -0.00000000
     atom   21 type  2   force =     0.00000000   -0.00000000   -0.00000000
     atom   22 type  2   force =     0.00000000    0.00000000   -0.00000000
     atom   23 type  2   force =    -0.00000000   -0.00000000    0.00000000
     atom   24 type  2   force =    -0.00000000   -0.00000000    0.00000000
     The non-local contrib.  to forces
     atom    1 type  1   force =     0.00000000    0.00000000    0.02579827
     atom    2 type  1   force =     0.00000000   -0.00000000    0.02579827
     atom    3 type  1   force =     0.00000000    0.00000000   -0.02579827
     atom    4 type  1   force =     0.00000000   -0.00000000   -0.02579827
     atom    5 type  1   force =     0.00000000    0.00000000    0.00009207
     atom    6 type  1   force =     0.00000000    0.00000000    0.00009207
     atom    7 type  1   force =    -0.00000000   -0.00000000   -0.00009207
     atom    8 type  1   force =     0.00000000    0.00000000   -0.00009207
     atom    9 type  2   force =     0.00000000   -0.00000000   -0.00110829
     atom   10 type  2   force =     0.00000000    0.00000000   -0.00110829
     atom   11 type  2   force =     0.00000000    0.00000000    0.00110829
     atom   12 type  2   force =    -0.00000000   -0.00000000    0.00110829
     atom   13 type  2   force =     0.00000000   -0.08598652   -0.00000000
     atom   14 type  2   force =     0.07446652   -0.04299326   -0.00000000
     atom   15 type  2   force =     0.00000000    0.08598652   -0.00000000
     atom   16 type  2   force =    -0.07446652    0.04299326    0.00000000
     atom   17 type  2   force =     0.07446652    0.04299326   -0.00000000
     atom   18 type  2   force =    -0.07446652   -0.04299326    0.00000000
     atom   19 type  2   force =    -0.00000000   -0.00000000    0.00000000
     atom   20 type  2   force =    -0.00000000   -0.00000000   -0.00000000
     atom   21 type  2   force =     0.00000000    0.00000000    0.00000000
     atom   22 type  2   force =    -0.00000000    0.00000000   -0.00000000
     atom   23 type  2   force =     0.00000000    0.00000000    0.00000000
     atom   24 type  2   force =    -0.00000000   -0.00000000    0.00000000
     The ionic contribution  to forces
     atom    1 type  1   force =    -0.00001536    0.00000938   -0.26220308
     atom    2 type  1   force =     0.00001536   -0.00000938   -0.26220308
     atom    3 type  1   force =     0.00001536   -0.00000938    0.26220308
     atom    4 type  1   force =    -0.00001536    0.00000938    0.26220308
     atom    5 type  1   force =     0.00005566   -0.00003156    0.06928668
     atom    6 type  1   force =    -0.00005566    0.00003156    0.06928668
     atom    7 type  1   force =    -0.00005566    0.00003156   -0.06928668
     atom    8 type  1   force =     0.00005566   -0.00003156   -0.06928668
     atom    9 type  2   force =     0.00005752   -0.00003318    1.26434898
     atom   10 type  2   force =    -0.00005752    0.00003318    1.26434898
     atom   11 type  2   force =    -0.00005752    0.00003318   -1.26434898
     atom   12 type  2   force =     0.00005752   -0.00003318   -1.26434898
     atom   13 type  2   force =     0.00007347  -15.78829059    0.00000000
     atom   14 type  2   force =    13.67314522   -7.89419459   -0.00000000
     atom   15 type  2   force =    -0.00007347   15.78829059   -0.00000000
     atom   16 type  2   force =   -13.67314522    7.89419459    0.00000000
     atom   17 type  2   force =    13.67309736    7.89408212    0.00000000
     atom   18 type  2   force =   -13.67309736   -7.89408212   -0.00000000
     atom   19 type  2   force =    -0.00000000    0.00000000    0.00000000
     atom   20 type  2   force =     0.00000000   -0.00000000   -0.00000000
     atom   21 type  2   force =     0.00000000   -0.00000000   -0.00000000
     atom   22 type  2   force =     0.00000000   -0.00000000    0.00000000
     atom   23 type  2   force =     0.00000000   -0.00000000   -0.00000000
     atom   24 type  2   force =     0.00000000   -0.00000000    0.00000000
     The local contribution  to forces
     atom    1 type  1   force =     0.00000000   -0.00000048    0.24139220
     atom    2 type  1   force =     0.00000000    0.00000048    0.24139220
     atom    3 type  1   force =     0.00000000    0.00000048   -0.24139220
     atom    4 type  1   force =     0.00000000   -0.00000048   -0.24139220
     atom    5 type  1   force =     0.00145569   -0.00084098   -0.06822492
     atom    6 type  1   force =    -0.00145569    0.00084098   -0.06822492
     atom    7 type  1   force =    -0.00145569    0.00084098    0.06822492
     atom    8 type  1   force =     0.00145569   -0.00084098    0.06822492
     atom    9 type  2   force =     0.00193349   -0.00111633   -1.25555724
     atom   10 type  2   force =    -0.00193349    0.00111633   -1.25555724
     atom   11 type  2   force =    -0.00193349    0.00111633    1.25555724
     atom   12 type  2   force =     0.00193349   -0.00111633    1.25555724
     atom   13 type  2   force =    -0.00193207   15.86556802    0.00000000
     atom   14 type  2   force =   -13.73732070    7.93124626   -0.00000000
     atom   15 type  2   force =     0.00193207  -15.86556802   -0.00000000
     atom   16 type  2   force =    13.73732070   -7.93124626    0.00000000
     atom   17 type  2   force =   -13.74095089   -7.93111119   -0.00000000
     atom   18 type  2   force =    13.74095089    7.93111119   -0.00000000
     atom   19 type  2   force =     0.00000000    0.00000000    0.00000000
     atom   20 type  2   force =     0.00000000    0.00000000    0.00000000
     atom   21 type  2   force =     0.00000000    0.00000000    0.00000000
     atom   22 type  2   force =     0.00000000    0.00000000    0.00000000
     atom   23 type  2   force =    -0.00000000    0.00000000    0.00000000
     atom   24 type  2   force =    -0.00000000    0.00000000    0.00000000
     The core correction contribution to forces
     atom    1 type  1   force =     0.00000000   -0.00000000   -0.00011162
     atom    2 type  1   force =    -0.00000000    0.00000000   -0.00011162
     atom    3 type  1   force =    -0.00000000    0.00000000    0.00011162
     atom    4 type  1   force =     0.00000000   -0.00000000    0.00011162
     atom    5 type  1   force =     0.00000316   -0.00000183    0.00000654
     atom    6 type  1   force =    -0.00000316    0.00000183    0.00000654
     atom    7 type  1   force =    -0.00000316    0.00000183   -0.00000654
     atom    8 type  1   force =     0.00000316   -0.00000183   -0.00000654
     atom    9 type  2   force =     0.00000119   -0.00000069   -0.00208923
     atom   10 type  2   force =    -0.00000119    0.00000069   -0.00208923
     atom   11 type  2   force =    -0.00000119    0.00000069    0.00208923
     atom   12 type  2   force =     0.00000119   -0.00000069    0.00208923
     atom   13 type  2   force =    -0.00000118    0.00070198    0.00000000
     atom   14 type  2   force =    -0.00060609    0.00034993    0.00000000
     atom   15 type  2   force =     0.00000118   -0.00070198   -0.00000000
     atom   16 type  2   force =     0.00060609   -0.00034993    0.00000000
     atom   17 type  2   force =    -0.00060852   -0.00034997    0.00000000
     atom   18 type  2   force =     0.00060852    0.00034997   -0.00000000
     atom   19 type  2   force =     0.00000000    0.00000000    0.00000000
     atom   20 type  2   force =    -0.00000000   -0.00000000    0.00000000
     atom   21 type  2   force =     0.00000000    0.00000000    0.00000000
     atom   22 type  2   force =     0.00000000    0.00000000    0.00000000
     atom   23 type  2   force =     0.00000000    0.00000000    0.00000000
     atom   24 type  2   force =    -0.00000000    0.00000000    0.00000000
     The Hubbard contrib.    to forces
     atom    1 type  1   force =     0.00000000    0.00000000    0.00000000
     atom    2 type  1   force =     0.00000000    0.00000000    0.00000000
     atom    3 type  1   force =     0.00000000    0.00000000    0.00000000
     atom    4 type  1   force =     0.00000000    0.00000000    0.00000000
     atom    5 type  1   force =     0.00000000    0.00000000    0.00000000
     atom    6 type  1   force =     0.00000000    0.00000000    0.00000000
     atom    7 type  1   force =     0.00000000    0.00000000    0.00000000
     atom    8 type  1   force =     0.00000000    0.00000000    0.00000000
     atom    9 type  2   force =     0.00000000    0.00000000    0.00000000
     atom   10 type  2   force =     0.00000000    0.00000000    0.00000000
     atom   11 type  2   force =     0.00000000    0.00000000    0.00000000
     atom   12 type  2   force =     0.00000000    0.00000000    0.00000000
     atom   13 type  2   force =     0.00000000    0.00000000    0.00000000
     atom   14 type  2   force =     0.00000000    0.00000000    0.00000000
     atom   15 type  2   force =     0.00000000    0.00000000    0.00000000
     atom   16 type  2   force =     0.00000000    0.00000000    0.00000000
     atom   17 type  2   force =     0.00000000    0.00000000    0.00000000
     atom   18 type  2   force =     0.00000000    0.00000000    0.00000000
     atom   19 type  2   force =     0.00000000    0.00000000    0.00000000
     atom   20 type  2   force =     0.00000000    0.00000000    0.00000000
     atom   21 type  2   force =     0.00000000    0.00000000    0.00000000
     atom   22 type  2   force =     0.00000000    0.00000000    0.00000000
     atom   23 type  2   force =     0.00000000    0.00000000    0.00000000
     atom   24 type  2   force =     0.00000000    0.00000000    0.00000000
     The SCF correction term to forces
     atom    1 type  1   force =     0.00000065   -0.00000037   -0.00002840
     atom    2 type  1   force =    -0.00000065    0.00000037   -0.00002840
     atom    3 type  1   force =    -0.00000065    0.00000037    0.00002840
     atom    4 type  1   force =     0.00000065   -0.00000037    0.00002840
     atom    5 type  1   force =    -0.00000066    0.00000038    0.00001178
     atom    6 type  1   force =     0.00000066   -0.00000038    0.00001178
     atom    7 type  1   force =     0.00000066   -0.00000038   -0.00001178
     atom    8 type  1   force =    -0.00000066    0.00000038   -0.00001178
     atom    9 type  2   force =    -0.00000438    0.00000253   -0.00009846
     atom   10 type  2   force =     0.00000438   -0.00000253   -0.00009846
     atom   11 type  2   force =     0.00000438   -0.00000253    0.00009846
     atom   12 type  2   force =    -0.00000438    0.00000253    0.00009846
     atom   13 type  2   force =    -0.00000062    0.00006076   -0.00000000
     atom   14 type  2   force =    -0.00005295    0.00003057    0.00000000
     atom   15 type  2   force =     0.00000062   -0.00006076    0.00000000
     atom   16 type  2   force =     0.00005295   -0.00003057   -0.00000000
     atom   17 type  2   force =    -0.00005293   -0.00002984   -0.00000000
     atom   18 type  2   force =     0.00005293    0.00002984    0.00000000
     atom   19 type  2   force =    -0.00000000   -0.00000000   -0.00000000
     atom   20 type  2   force =     0.00000000   -0.00000000   -0.00000000
     atom   21 type  2   force =     0.00000000    0.00000000   -0.00000000
     atom   22 type  2   force =    -0.00000000   -0.00000000   -0.00000000
     atom   23 type  2   force =     0.00000000    0.00000000   -0.00000000
     atom   24 type  2   force =     0.00000000   -0.00000000   -0.00000000

     Total force =     0.026586     Total SCF correction =     0.000255

     BFGS Geometry Optimization
     Energy error            =      0.0E+00 Ry
     Gradient error          =      9.0E-03 Ry/Bohr

     number of scf cycles    =   1
     number of bfgs steps    =   0

     energy             new  =   -7950.1145693342 Ry

     new trust radius        =       0.0090049386 bohr
     new conv_thr            =       0.0000000100 Ry


ATOMIC_POSITIONS (crystal)
Mg            0.0000000000        0.0000000000        0.4061634565
Mg            0.0000000000        0.0000000000        0.9061634565
Mg            0.0000000000        0.0000000000        0.5938365435
Mg            0.0000000000        0.0000000000        0.0938365435
Mg            0.3333330000        0.6666670000        0.6558395257
Mg            0.6666670000        0.3333330000        0.1558395257
Mg            0.6666670000        0.3333330000        0.3441604743
Mg            0.3333330000        0.6666670000        0.8441604743
Ni            0.3333330000        0.6666670000        0.3750453198
Ni            0.6666670000        0.3333330000        0.8750453198
Ni            0.6666670000        0.3333330000        0.6249546802
Ni            0.3333330000        0.6666670000        0.1249546802
Ni            0.1660918527        0.3321827054        0.2500000000
Ni            0.8339081474        0.1660918527        0.7500000000
Ni            0.8339081473        0.6678172946        0.7500000000
Ni            0.1660918526        0.8339081473        0.2500000000
Ni            0.6678172947        0.8339081473        0.2500000000
Ni            0.3321827053        0.1660918527        0.7500000000
Ni            0.5000000000        0.0000000000        0.5000000000
Ni            0.5000000000        0.5000000000       -0.0000000000
Ni            0.5000000000       -0.0000000000       -0.0000000000
Ni            0.5000000000        0.5000000000        0.5000000000
Ni            0.0000000000        0.5000000000        0.0000000000
Ni            0.0000000000        0.5000000000        0.5000000000



     Writing config-only to output data dir ./ACOptimization/out/iso.save/
     NEW-OLD atomic charge density approx. for the potential

     Check: negative core charge=   -0.000016

     total cpu time spent up to now is      619.0 secs

     Self-consistent Calculation

     iteration #  1     ecut=    50.00 Ry     beta= 0.10
     Davidson diagonalization with overlap
     ethr =  1.00E-06,  avg # of iterations =  6.7

     total cpu time spent up to now is      660.5 secs

     total energy              =   -7950.11907227 Ry
     estimated scf accuracy    <       0.00096096 Ry

     iteration #  2     ecut=    50.00 Ry     beta= 0.10
     Davidson diagonalization with overlap
     ethr =  2.61E-07,  avg # of iterations =  1.3

     total cpu time spent up to now is      679.5 secs

     total energy              =   -7950.11489262 Ry
     estimated scf accuracy    <       0.00073767 Ry

     iteration #  3     ecut=    50.00 Ry     beta= 0.10
     Davidson diagonalization with overlap
     ethr =  2.00E-07,  avg # of iterations =  4.0

     total cpu time spent up to now is      704.8 secs

     total energy              =   -7950.11544972 Ry
     estimated scf accuracy    <       0.00008571 Ry

     iteration #  4     ecut=    50.00 Ry     beta= 0.10
     Davidson diagonalization with overlap
     ethr =  2.33E-08,  avg # of iterations =  2.0

     total cpu time spent up to now is      726.3 secs

     total energy              =   -7950.11530962 Ry
     estimated scf accuracy    <       0.00004523 Ry

     iteration #  5     ecut=    50.00 Ry     beta= 0.10
     Davidson diagonalization with overlap
     ethr =  1.23E-08,  avg # of iterations =  2.0

     total cpu time spent up to now is      748.2 secs

     total energy              =   -7950.11535012 Ry
     estimated scf accuracy    <       0.00006329 Ry

     iteration #  6     ecut=    50.00 Ry     beta= 0.10
     Davidson diagonalization with overlap
     ethr =  1.23E-08,  avg # of iterations =  2.0

     total cpu time spent up to now is      771.2 secs

     total energy              =   -7950.11556019 Ry
     estimated scf accuracy    <       0.00005960 Ry

     iteration #  7     ecut=    50.00 Ry     beta= 0.10
     Davidson diagonalization with overlap
     ethr =  1.23E-08,  avg # of iterations =  2.0

     total cpu time spent up to now is      795.6 secs

     total energy              =   -7950.11510086 Ry
     estimated scf accuracy    <       0.00001950 Ry

     iteration #  8     ecut=    50.00 Ry     beta= 0.10
     Davidson diagonalization with overlap
     ethr =  5.30E-09,  avg # of iterations =  5.0

     total cpu time spent up to now is      825.7 secs

     total energy              =   -7950.11514506 Ry
     estimated scf accuracy    <       0.00001872 Ry

     iteration #  9     ecut=    50.00 Ry     beta= 0.10
     Davidson diagonalization with overlap
     ethr =  5.09E-09,  avg # of iterations =  2.0

     total cpu time spent up to now is      848.5 secs

     total energy              =   -7950.11514036 Ry
     estimated scf accuracy    <       0.00000076 Ry

     iteration # 10     ecut=    50.00 Ry     beta= 0.10
     Davidson diagonalization with overlap
     ethr =  2.07E-10,  avg # of iterations =  2.0

     total cpu time spent up to now is      873.2 secs

     total energy              =   -7950.11514031 Ry
     estimated scf accuracy    <       0.00000084 Ry

     iteration # 11     ecut=    50.00 Ry     beta= 0.10
     Davidson diagonalization with overlap
     ethr =  2.07E-10,  avg # of iterations =  2.0

     total cpu time spent up to now is      895.1 secs

     total energy              =   -7950.11513750 Ry
     estimated scf accuracy    <       0.00000207 Ry

     iteration # 12     ecut=    50.00 Ry     beta= 0.10
     Davidson diagonalization with overlap
     ethr =  2.07E-10,  avg # of iterations =  3.3

     total cpu time spent up to now is      921.2 secs

     total energy              =   -7950.11513845 Ry
     estimated scf accuracy    <       0.00000155 Ry

     iteration # 13     ecut=    50.00 Ry     beta= 0.10
     Davidson diagonalization with overlap
     ethr =  2.07E-10,  avg # of iterations =  3.0

     total cpu time spent up to now is      945.4 secs

     total energy              =   -7950.11513967 Ry
     estimated scf accuracy    <       0.00000002 Ry

     iteration # 14     ecut=    50.00 Ry     beta= 0.10
     Davidson diagonalization with overlap
     ethr =  6.31E-12,  avg # of iterations =  3.3

     total cpu time spent up to now is      970.9 secs

     total energy              =   -7950.11513970 Ry
     estimated scf accuracy    <       0.00000005 Ry

     iteration # 15     ecut=    50.00 Ry     beta= 0.10
     Davidson diagonalization with overlap
     ethr =  6.31E-12,  avg # of iterations =  2.0

     total cpu time spent up to now is      993.7 secs

     total energy              =   -7950.11513971 Ry
     estimated scf accuracy    <       0.00000005 Ry

     iteration # 16     ecut=    50.00 Ry     beta= 0.10
     Davidson diagonalization with overlap
     ethr =  6.31E-12,  avg # of iterations =  1.0

     total cpu time spent up to now is     1012.0 secs

     total energy              =   -7950.11513971 Ry
     estimated scf accuracy    <       0.00000005 Ry

     iteration # 17     ecut=    50.00 Ry     beta= 0.10
     Davidson diagonalization with overlap
     ethr =  6.31E-12,  avg # of iterations =  2.0

     total cpu time spent up to now is     1033.9 secs

     total energy              =   -7950.11513972 Ry
     estimated scf accuracy    <       0.00000001 Ry

     iteration # 18     ecut=    50.00 Ry     beta= 0.10
     Davidson diagonalization with overlap
     ethr =  3.32E-12,  avg # of iterations =  1.0

     total cpu time spent up to now is     1052.0 secs

     End of self-consistent calculation

          k = 0.0000 0.0000 0.0000 ( 12553 PWs)   bands (ev):

   -89.5741 -89.5741 -89.5723 -89.5723 -89.5720 -89.5720 -89.5701 -89.5701
   -89.5125 -89.5125 -89.5120 -89.5120 -89.5024 -89.5024 -89.5021 -89.5021
   -89.4849 -89.4849 -89.4849 -89.4849 -89.4849 -89.4849 -89.4848 -89.4848
   -89.4752 -89.4752 -89.4752 -89.4752 -89.4751 -89.4751 -89.4751 -89.4751
   -61.7091 -61.7091 -61.7090 -61.7090 -61.7077 -61.7077 -61.7077 -61.7077
   -61.6528 -61.6528 -61.6527 -61.6527 -61.6513 -61.6513 -61.6513 -61.6513
   -51.5628 -51.5628 -51.5561 -51.5561 -51.5554 -51.5554 -51.5507 -51.5507
   -51.5085 -51.5085 -51.5066 -51.5066 -51.4997 -51.4997 -51.4979 -51.4979
   -51.4973 -51.4973 -51.4954 -51.4954 -51.4879 -51.4879 -51.4856 -51.4856
   -51.4216 -51.4216 -51.4130 -51.4130 -51.4067 -51.4067 -51.4027 -51.4027
   -49.4500 -49.4500 -49.4462 -49.4462 -49.4300 -49.4300 -49.4248 -49.4248
   -49.4111 -49.4111 -49.4000 -49.4000 -49.3855 -49.3855 -49.3849 -49.3849
   -49.3344 -49.3344 -49.3290 -49.3290 -49.3283 -49.3283 -49.3168 -49.3168
   -49.3127 -49.3127 -49.3121 -49.3121 -49.3104 -49.3104 -49.2837 -49.2837
   -49.2797 -49.2797 -49.2459 -49.2459 -49.2392 -49.2392 -49.2336 -49.2336
   -49.2257 -49.2257 -49.2195 -49.2195 -49.2079 -49.2079 -49.2076 -49.2076
   -49.1913 -49.1913 -49.1899 -49.1899 -49.1806 -49.1806 -49.1796 -49.1796
   -49.1585 -49.1585 -49.1550 -49.1550 -49.1522 -49.1522 -49.1500 -49.1500
   -28.8428 -28.8428 -28.8427 -28.8427 -28.8374 -28.8374 -28.8374 -28.8374
   -28.7845 -28.7845 -28.7841 -28.7841 -28.7786 -28.7786 -28.7785 -28.7785
   -28.5581 -28.5581 -28.5579 -28.5579 -28.5564 -28.5564 -28.5562 -28.5562
   -28.5546 -28.5546 -28.5544 -28.5544 -28.5446 -28.5446 -28.5446 -28.5446
   -28.5017 -28.5017 -28.5014 -28.5014 -28.4945 -28.4945 -28.4942 -28.4942
   -28.4926 -28.4926 -28.4925 -28.4925 -28.4878 -28.4878 -28.4877 -28.4877
     4.6900   4.6900   5.3095   5.3095   5.3274   5.3274   6.7778   6.7778
     7.4341   7.4341   8.7534   8.7534   8.7780   8.7780   8.8404   8.8404
     9.4089   9.4089   9.4163   9.4163   9.5464   9.5464   9.6240   9.6240
     9.7581   9.7581   9.7717   9.7717   9.7903   9.7903   9.8080   9.8080
     9.8315   9.8315   9.8333   9.8333   9.9449   9.9449   9.9655   9.9655
    10.0109  10.0109  10.0784  10.0784  10.0791  10.0791  10.0844  10.0844
    10.1051  10.1051  10.1639  10.1639  10.2100  10.2100  10.2481  10.2481
    10.2550  10.2550  10.3096  10.3096  10.6131  10.6131  10.6132  10.6132
    10.6139  10.6139  10.6412  10.6412  10.6460  10.6460  10.6817  10.6817
    10.8614  10.8614  10.9191  10.9191  11.0214  11.0214  11.0260  11.0260
    11.0677  11.0677  11.1206  11.1206  11.1523  11.1523  11.1571  11.1571
    11.3158  11.3158  11.3341  11.3341  11.5879  11.5879  11.7571  11.7571
    11.8061  11.8061  11.8245  11.8245  11.8280  11.8280  11.8677  11.8677
    11.9836  11.9836  12.0377  12.0377  12.1401  12.1401  12.1509  12.1509
    12.2735  12.2735  12.2851  12.2851  12.3772  12.3772  12.3796  12.3796
    12.3955  12.3955  12.3972  12.3972  12.3984  12.3984  12.4067  12.4067
    12.4097  12.4097  12.4261  12.4261  12.4415  12.4415  12.4486  12.4486
    12.4576  12.4576  12.4705  12.4705  12.4868  12.4868  12.5097  12.5097
    12.5320  12.5320  12.5643  12.5643  12.5655  12.5655  12.5831  12.5831
    12.6003  12.6003  12.6496  12.6496  12.7237  12.7237  12.9644  12.9644
    13.0172  13.0172  13.2531  13.2531  13.2541  13.2541  13.4905  13.4905
    13.4911  13.4911  13.5047  13.5047  13.5076  13.5076  13.7819  13.7819
    13.9351  13.9351  14.1214  14.1214  14.1759  14.1759  14.1819  14.1819
    14.1914  14.1914  14.2083  14.2083  14.2136  14.2136  14.3273  14.3273
    14.5460  14.5460  14.5759  14.5759  14.5973  14.5973  14.6498  14.6498
    15.9648  15.9648  15.9705  15.9705  15.9820  15.9820  16.0196  16.0196
    16.4738  16.4738  16.5219  16.5219  16.8869  16.8869  16.9081  16.9081
    17.5461  17.5461  17.5829  17.5829  17.6000  17.6000  17.7931  17.7931
    17.8779  17.8779  18.0756  18.0756  18.4868  18.4868  18.4973  18.4973
    18.9165  18.9165  18.9373  18.9373  19.2234  19.2234  19.5503  19.5503
    19.5573  19.5573  19.7577  19.7577  19.9733  19.9733  21.3573  21.3573
    21.4715  21.4715

          k = 0.0000 0.3849 0.0000 ( 12516 PWs)   bands (ev):

   -89.5733 -89.5733 -89.5723 -89.5723 -89.5715 -89.5715 -89.5704 -89.5704
   -89.5068 -89.5068 -89.5066 -89.5066 -89.4968 -89.4968 -89.4967 -89.4967
   -89.4907 -89.4907 -89.4905 -89.4905 -89.4849 -89.4849 -89.4849 -89.4849
   -89.4811 -89.4811 -89.4810 -89.4810 -89.4751 -89.4751 -89.4751 -89.4751
   -61.7090 -61.7090 -61.7090 -61.7090 -61.7075 -61.7075 -61.7075 -61.7075
   -61.6528 -61.6528 -61.6528 -61.6528 -61.6513 -61.6513 -61.6513 -61.6513
   -51.5638 -51.5638 -51.5595 -51.5595 -51.5541 -51.5541 -51.5521 -51.5521
   -51.5020 -51.5020 -51.4991 -51.4991 -51.4931 -51.4931 -51.4902 -51.4902
   -51.4811 -51.4811 -51.4787 -51.4787 -51.4709 -51.4709 -51.4707 -51.4707
   -51.4351 -51.4351 -51.4293 -51.4293 -51.4220 -51.4220 -51.4159 -51.4159
   -49.4478 -49.4478 -49.4389 -49.4389 -49.4367 -49.4367 -49.4272 -49.4272
   -49.3815 -49.3815 -49.3769 -49.3769 -49.3715 -49.3715 -49.3649 -49.3649
   -49.3295 -49.3295 -49.3275 -49.3275 -49.3223 -49.3223 -49.3181 -49.3181
   -49.3042 -49.3042 -49.3014 -49.3014 -49.2984 -49.2984 -49.2803 -49.2803
   -49.2767 -49.2767 -49.2520 -49.2520 -49.2481 -49.2481 -49.2400 -49.2400
   -49.2280 -49.2280 -49.2239 -49.2239 -49.2096 -49.2096 -49.2089 -49.2089
   -49.2070 -49.2070 -49.2014 -49.2014 -49.1864 -49.1864 -49.1852 -49.1852
   -49.1762 -49.1762 -49.1746 -49.1746 -49.1561 -49.1561 -49.1554 -49.1554
   -28.8420 -28.8420 -28.8420 -28.8420 -28.8368 -28.8368 -28.8367 -28.8367
   -28.7855 -28.7855 -28.7853 -28.7853 -28.7799 -28.7799 -28.7798 -28.7798
   -28.5586 -28.5586 -28.5584 -28.5584 -28.5550 -28.5550 -28.5547 -28.5547
   -28.5530 -28.5530 -28.5528 -28.5528 -28.5452 -28.5452 -28.5452 -28.5452
   -28.5010 -28.5010 -28.5009 -28.5009 -28.4955 -28.4955 -28.4953 -28.4953
   -28.4935 -28.4935 -28.4933 -28.4933 -28.4873 -28.4873 -28.4873 -28.4873
     5.6804   5.6804   6.2644   6.2644   6.2875   6.2875   7.6943   7.6943
     8.1595   8.1595   8.3486   8.3486   8.6472   8.6472   8.6810   8.6810
     9.2296   9.2296   9.2624   9.2624   9.4102   9.4102   9.5095   9.5095
     9.5954   9.5954   9.7010   9.7010   9.7700   9.7700   9.8533   9.8533
     9.9123   9.9123   9.9829   9.9829  10.0181  10.0181  10.0478  10.0478
    10.0585  10.0585  10.0900  10.0900  10.2108  10.2108  10.2934  10.2934
    10.3415  10.3415  10.3903  10.3903  10.4396  10.4396  10.4947  10.4947
    10.5135  10.5135  10.5443  10.5443  10.5458  10.5458  10.6479  10.6479
    10.6524  10.6524  10.6895  10.6895  10.6947  10.6947  10.7567  10.7567
    10.7934  10.7934  10.8001  10.8001  10.8708  10.8708  10.9179  10.9179
    10.9925  10.9925  11.0440  11.0440  11.0619  11.0619  11.0842  11.0842
    11.1514  11.1514  11.2328  11.2328  11.2718  11.2718  11.3150  11.3150
    11.3300  11.3300  11.4435  11.4435  11.4512  11.4512  11.5056  11.5056
    11.5230  11.5230  11.5900  11.5900  11.6550  11.6550  11.6691  11.6691
    11.6911  11.6911  11.7454  11.7454  11.8304  11.8304  11.8413  11.8413
    11.9150  11.9150  11.9616  11.9616  11.9870  11.9870  12.0163  12.0163
    12.0843  12.0843  12.1001  12.1001  12.1111  12.1111  12.1740  12.1740
    12.1764  12.1764  12.2352  12.2352  12.2828  12.2828  12.3381  12.3381
    12.3472  12.3472  12.4303  12.4303  12.4399  12.4399  12.4497  12.4497
    12.5031  12.5031  12.5114  12.5114  12.5166  12.5166  12.5461  12.5461
    12.6098  12.6098  12.6384  12.6384  12.6536  12.6536  12.7570  12.7570
    12.7814  12.7814  12.8495  12.8495  12.9305  12.9305  13.0555  13.0555
    13.3308  13.3308  13.3840  13.3840  13.7502  13.7502  13.7610  13.7610
    13.9736  13.9736  14.0693  14.0693  14.1589  14.1589  14.3398  14.3398
    14.4030  14.4030  14.4320  14.4320  14.5010  14.5010  14.6934  14.6934
    15.3158  15.3158  15.7741  15.7741  16.0821  16.0821  16.1212  16.1212
    17.4443  17.4443  17.8483  17.8483  17.9014  17.9014  18.0857  18.0857
    18.8427  18.8427  18.9377  18.9377  19.0390  19.0390  19.1566  19.1566
    19.1715  19.1715  19.3385  19.3385  19.8091  19.8091  20.2620  20.2620
    20.2807  20.2807  20.3758  20.3758  20.8558  20.8558  20.9763  20.9763
    21.2026  21.2026  21.6984  21.6984  22.0492  22.0492  22.3290  22.3290
    22.3462  22.3462

          k = 0.3333 0.5774 0.0000 ( 12582 PWs)   bands (ev):

   -89.5726 -89.5726 -89.5726 -89.5726 -89.5709 -89.5709 -89.5709 -89.5709
   -89.5002 -89.5002 -89.5002 -89.5002 -89.4974 -89.4974 -89.4974 -89.4974
   -89.4890 -89.4890 -89.4889 -89.4889 -89.4889 -89.4889 -89.4888 -89.4888
   -89.4849 -89.4849 -89.4849 -89.4849 -89.4751 -89.4751 -89.4751 -89.4751
   -61.7090 -61.7090 -61.7090 -61.7090 -61.7075 -61.7075 -61.7075 -61.7075
   -61.6529 -61.6529 -61.6529 -61.6529 -61.6514 -61.6514 -61.6513 -61.6513
   -51.5670 -51.5670 -51.5667 -51.5667 -51.5554 -51.5554 -51.5551 -51.5551
   -51.5029 -51.5029 -51.5028 -51.5028 -51.4950 -51.4950 -51.4942 -51.4942
   -51.4627 -51.4627 -51.4602 -51.4602 -51.4598 -51.4598 -51.4588 -51.4588
   -51.4497 -51.4497 -51.4456 -51.4456 -51.4432 -51.4432 -51.4418 -51.4418
   -49.4465 -49.4465 -49.4455 -49.4455 -49.4355 -49.4355 -49.4320 -49.4320
   -49.3573 -49.3573 -49.3560 -49.3560 -49.3534 -49.3534 -49.3500 -49.3500
   -49.3479 -49.3479 -49.3454 -49.3454 -49.3440 -49.3440 -49.3194 -49.3194
   -49.3061 -49.3061 -49.3045 -49.3045 -49.2927 -49.2927 -49.2777 -49.2777
   -49.2664 -49.2664 -49.2657 -49.2657 -49.2566 -49.2566 -49.2560 -49.2560
   -49.2341 -49.2341 -49.2244 -49.2244 -49.2186 -49.2186 -49.2118 -49.2118
   -49.2049 -49.2049 -49.2031 -49.2031 -49.2025 -49.2025 -49.1955 -49.1955
   -49.1889 -49.1889 -49.1886 -49.1886 -49.1669 -49.1669 -49.1665 -49.1665
   -28.8419 -28.8419 -28.8415 -28.8415 -28.8368 -28.8368 -28.8363 -28.8363
   -28.7861 -28.7861 -28.7861 -28.7861 -28.7807 -28.7807 -28.7807 -28.7807
   -28.5599 -28.5599 -28.5574 -28.5574 -28.5551 -28.5551 -28.5551 -28.5551
   -28.5517 -28.5517 -28.5515 -28.5515 -28.5473 -28.5473 -28.5442 -28.5442
   -28.5007 -28.5007 -28.5007 -28.5007 -28.4968 -28.4968 -28.4966 -28.4966
   -28.4937 -28.4937 -28.4933 -28.4933 -28.4873 -28.4873 -28.4871 -28.4871
     7.3015   7.3015   7.3022   7.3022   7.7419   7.7419   7.8576   7.8576
     7.8633   7.8633   8.0460   8.0460   8.1670   8.1670   8.1721   8.1721
     8.3759   8.3759   9.1948   9.1948   9.1950   9.1950   9.2303   9.2303
     9.2375   9.2375   9.2692   9.2692   9.3153   9.3153   9.9462   9.9462
     9.9502   9.9502   9.9631   9.9631  10.0965  10.0965  10.1087  10.1087
    10.2534  10.2534  10.2814  10.2814  10.4101  10.4101  10.4264  10.4264
    10.4913  10.4913  10.4953  10.4953  10.5443  10.5443  10.5502  10.5502
    10.5689  10.5689  10.5715  10.5715  10.6505  10.6505  10.7011  10.7011
    10.7278  10.7278  10.7324  10.7324  10.7415  10.7415  10.7511  10.7511
    10.7747  10.7747  10.8174  10.8174  10.8312  10.8312  10.8496  10.8496
    10.8691  10.8691  10.8693  10.8693  10.9149  10.9149  10.9174  10.9174
    10.9904  10.9904  10.9945  10.9945  11.0222  11.0222  11.0384  11.0384
    11.0716  11.0716  11.2328  11.2328  11.2424  11.2424  11.2561  11.2561
    11.3761  11.3761  11.5097  11.5097  11.5300  11.5300  11.5307  11.5307
    11.5684  11.5684  11.5955  11.5955  11.7591  11.7591  11.7640  11.7640
    11.8479  11.8479  11.8808  11.8808  11.8983  11.8983  11.9118  11.9118
    11.9681  11.9681  11.9738  11.9738  11.9917  11.9917  12.0839  12.0839
    12.1338  12.1338  12.1621  12.1621  12.1778  12.1778  12.1801  12.1801
    12.2111  12.2111  12.2292  12.2292  12.2311  12.2311  12.2742  12.2742
    12.2937  12.2937  12.2978  12.2978  12.3615  12.3615  12.4188  12.4188
    12.5807  12.5807  12.6038  12.6038  12.6908  12.6908  12.6926  12.6926
    12.7160  12.7160  12.7927  12.7927  12.8031  12.8031  12.9066  12.9066
    12.9675  12.9675  13.0271  13.0271  13.0282  13.0282  13.2487  13.2487
    13.3881  13.3881  13.3993  13.3993  13.4702  13.4702  14.8384  14.8384
    14.8598  14.8598  14.9074  14.9074  15.1060  15.1060  15.1132  15.1132
    15.7046  15.7046  17.5263  17.5263  17.5287  17.5287  17.6923  17.6923
    17.9422  17.9422  17.9428  17.9428  18.5539  18.5539  18.6236  18.6236
    18.6245  18.6245  18.6908  18.6908  18.6992  18.6992  18.9408  18.9408
    19.1889  19.1889  19.5829  19.5829  19.6583  19.6583  19.6733  19.6733
    20.4623  20.4623  20.4653  20.4653  20.7972  20.7972  20.8122  20.8122
    20.9067  20.9067  21.5878  21.5878  22.9000  22.9000  22.9093  22.9093
    23.1245  23.1279

     the Fermi energy is    13.1022 ev

!    total energy              =   -7950.11513973 Ry
     total all-electron energy =    -51823.967223 Ry
     estimated scf accuracy    <          5.0E-09 Ry
     smearing contrib. (-TS)   =       0.10443248 Ry
     internal energy E=F+TS    =   -7950.21957221 Ry

     The total energy is F=E-TS. E is the sum of the following terms:
     one-electron contribution =   -4473.99756108 Ry
     hartree contribution      =    2393.64236793 Ry
     xc contribution           =    -681.93488308 Ry
     ewald contribution        =   -3649.74214638 Ry
     one-center paw contrib.   =   -1538.18734960 Ry

     convergence has been achieved in  18 iterations

     Forces acting on atoms (cartesian axes, Ry/au):

     atom    1 type  1   force =    -0.00000000   -0.00000000    0.00430949
     atom    2 type  1   force =    -0.00000000   -0.00000000    0.00430949
     atom    3 type  1   force =     0.00000000    0.00000000   -0.00430949
     atom    4 type  1   force =     0.00000000    0.00000000   -0.00430949
     atom    5 type  1   force =    -0.00000000   -0.00000000    0.00100669
     atom    6 type  1   force =     0.00000000    0.00000000    0.00100669
     atom    7 type  1   force =     0.00000000    0.00000000   -0.00100669
     atom    8 type  1   force =     0.00000000    0.00000000   -0.00100669
     atom    9 type  2   force =    -0.00000000   -0.00000000    0.00312574
     atom   10 type  2   force =     0.00000000    0.00000000    0.00312574
     atom   11 type  2   force =     0.00000000    0.00000000   -0.00312574
     atom   12 type  2   force =     0.00000000    0.00000000   -0.00312574
     atom   13 type  2   force =     0.00000000   -0.00505039   -0.00000000
     atom   14 type  2   force =     0.00437376   -0.00252519   -0.00000000
     atom   15 type  2   force =     0.00000000    0.00505039    0.00000000
     atom   16 type  2   force =    -0.00437376    0.00252519    0.00000000
     atom   17 type  2   force =     0.00437376    0.00252519   -0.00000000
     atom   18 type  2   force =    -0.00437376   -0.00252519   -0.00000000
     atom   19 type  2   force =    -0.00000000    0.00000000    0.00000000
     atom   20 type  2   force =     0.00000000    0.00000000    0.00000000
     atom   21 type  2   force =     0.00000000    0.00000000   -0.00000000
     atom   22 type  2   force =     0.00000000   -0.00000000   -0.00000000
     atom   23 type  2   force =     0.00000000    0.00000000    0.00000000
     atom   24 type  2   force =     0.00000000    0.00000000    0.00000000
     The non-local contrib.  to forces
     atom    1 type  1   force =     0.00000000    0.00000000    0.02532534
     atom    2 type  1   force =     0.00000000    0.00000000    0.02532534
     atom    3 type  1   force =     0.00000000    0.00000000   -0.02532534
     atom    4 type  1   force =     0.00000000    0.00000000   -0.02532534
     atom    5 type  1   force =     0.00000000    0.00000000   -0.00074495
     atom    6 type  1   force =     0.00000000   -0.00000000   -0.00074495
     atom    7 type  1   force =    -0.00000000   -0.00000000    0.00074495
     atom    8 type  1   force =     0.00000000    0.00000000    0.00074495
     atom    9 type  2   force =     0.00000000    0.00000000   -0.00095976
     atom   10 type  2   force =     0.00000000    0.00000000   -0.00095976
     atom   11 type  2   force =    -0.00000000   -0.00000000    0.00095976
     atom   12 type  2   force =     0.00000000    0.00000000    0.00095976
     atom   13 type  2   force =     0.00000000   -0.08467965    0.00000000
     atom   14 type  2   force =     0.07333473   -0.04233983    0.00000000
     atom   15 type  2   force =     0.00000000    0.08467965   -0.00000000
     atom   16 type  2   force =    -0.07333473    0.04233983    0.00000000
     atom   17 type  2   force =     0.07333473    0.04233983    0.00000000
     atom   18 type  2   force =    -0.07333473   -0.04233983    0.00000000
     atom   19 type  2   force =     0.00000000   -0.00000000    0.00000000
     atom   20 type  2   force =     0.00000000    0.00000000    0.00000000
     atom   21 type  2   force =     0.00000000    0.00000000   -0.00000000
     atom   22 type  2   force =     0.00000000   -0.00000000   -0.00000000
     atom   23 type  2   force =    -0.00000000   -0.00000000    0.00000000
     atom   24 type  2   force =    -0.00000000    0.00000000    0.00000000
     The ionic contribution  to forces
     atom    1 type  1   force =    -0.00001547    0.00000945   -0.34356853
     atom    2 type  1   force =     0.00001547   -0.00000945   -0.34356853
     atom    3 type  1   force =     0.00001547   -0.00000945    0.34356853
     atom    4 type  1   force =    -0.00001547    0.00000945    0.34356853
     atom    5 type  1   force =     0.00005557   -0.00003151    0.12230749
     atom    6 type  1   force =    -0.00005557    0.00003151    0.12230749
     atom    7 type  1   force =    -0.00005557    0.00003151   -0.12230749
     atom    8 type  1   force =     0.00005557   -0.00003151   -0.12230749
     atom    9 type  2   force =     0.00005820   -0.00003357    0.66484559
     atom   10 type  2   force =    -0.00005820    0.00003357    0.66484559
     atom   11 type  2   force =    -0.00005820    0.00003357   -0.66484559
     atom   12 type  2   force =     0.00005820   -0.00003357   -0.66484559
     atom   13 type  2   force =     0.00007272  -14.90852897    0.00000000
     atom   14 type  2   force =    12.91124943   -7.45431386   -0.00000000
     atom   15 type  2   force =    -0.00007272   14.90852897   -0.00000000
     atom   16 type  2   force =   -12.91124943    7.45431386    0.00000000
     atom   17 type  2   force =    12.91120105    7.45420195    0.00000000
     atom   18 type  2   force =   -12.91120105   -7.45420195   -0.00000000
     atom   19 type  2   force =    -0.00000000    0.00000000    0.00000000
     atom   20 type  2   force =     0.00000000   -0.00000000    0.00000000
     atom   21 type  2   force =     0.00000000    0.00000000    0.00000000
     atom   22 type  2   force =     0.00000000   -0.00000000    0.00000000
     atom   23 type  2   force =     0.00000000   -0.00000000    0.00000000
     atom   24 type  2   force =     0.00000000   -0.00000000    0.00000000
     The local contribution  to forces
     atom    1 type  1   force =     0.00000000   -0.00000048    0.32271060
     atom    2 type  1   force =    -0.00000000    0.00000048    0.32271060
     atom    3 type  1   force =    -0.00000000    0.00000048   -0.32271060
     atom    4 type  1   force =     0.00000000   -0.00000048   -0.32271060
     atom    5 type  1   force =     0.00145572   -0.00084099   -0.12060861
     atom    6 type  1   force =    -0.00145572    0.00084099   -0.12060861
     atom    7 type  1   force =    -0.00145572    0.00084099    0.12060861
     atom    8 type  1   force =     0.00145572   -0.00084099    0.12060861
     atom    9 type  2   force =     0.00193314   -0.00111613   -0.65855853
     atom   10 type  2   force =    -0.00193314    0.00111613   -0.65855853
     atom   11 type  2   force =    -0.00193314    0.00111613    0.65855853
     atom   12 type  2   force =     0.00193314   -0.00111613    0.65855853
     atom   13 type  2   force =    -0.00193169   14.98843235    0.00000000
     atom   14 type  2   force =   -12.97769911    7.49267842   -0.00000000
     atom   15 type  2   force =     0.00193169  -14.98843235   -0.00000000
     atom   16 type  2   force =    12.97769911   -7.49267842    0.00000000
     atom   17 type  2   force =   -12.98132911   -7.49254368    0.00000000
     atom   18 type  2   force =    12.98132911    7.49254368   -0.00000000
     atom   19 type  2   force =     0.00000000    0.00000000    0.00000000
     atom   20 type  2   force =     0.00000000    0.00000000   -0.00000000
     atom   21 type  2   force =     0.00000000    0.00000000   -0.00000000
     atom   22 type  2   force =     0.00000000    0.00000000    0.00000000
     atom   23 type  2   force =    -0.00000000    0.00000000   -0.00000000
     atom   24 type  2   force =    -0.00000000    0.00000000    0.00000000
     The core correction contribution to forces
     atom    1 type  1   force =     0.00000000   -0.00000000   -0.00010800
     atom    2 type  1   force =    -0.00000000    0.00000000   -0.00010800
     atom    3 type  1   force =    -0.00000000    0.00000000    0.00010800
     atom    4 type  1   force =     0.00000000   -0.00000000    0.00010800
     atom    5 type  1   force =     0.00000316   -0.00000183    0.00001075
     atom    6 type  1   force =    -0.00000316    0.00000183    0.00001075
     atom    7 type  1   force =    -0.00000316    0.00000183   -0.00001075
     atom    8 type  1   force =     0.00000316   -0.00000183   -0.00001075
     atom    9 type  2   force =     0.00000119   -0.00000069   -0.00214775
     atom   10 type  2   force =    -0.00000119    0.00000069   -0.00214775
     atom   11 type  2   force =    -0.00000119    0.00000069    0.00214775
     atom   12 type  2   force =     0.00000119   -0.00000069    0.00214775
     atom   13 type  2   force =    -0.00000118    0.00074426    0.00000000
     atom   14 type  2   force =    -0.00064271    0.00037107   -0.00000000
     atom   15 type  2   force =     0.00000118   -0.00074426   -0.00000000
     atom   16 type  2   force =     0.00064271   -0.00037107    0.00000000
     atom   17 type  2   force =    -0.00064514   -0.00037111    0.00000000
     atom   18 type  2   force =     0.00064514    0.00037111   -0.00000000
     atom   19 type  2   force =     0.00000000    0.00000000    0.00000000
     atom   20 type  2   force =    -0.00000000   -0.00000000    0.00000000
     atom   21 type  2   force =    -0.00000000    0.00000000    0.00000000
     atom   22 type  2   force =     0.00000000    0.00000000    0.00000000
     atom   23 type  2   force =     0.00000000    0.00000000    0.00000000
     atom   24 type  2   force =    -0.00000000    0.00000000    0.00000000
     The Hubbard contrib.    to forces
     atom    1 type  1   force =     0.00000000    0.00000000    0.00000000
     atom    2 type  1   force =     0.00000000    0.00000000    0.00000000
     atom    3 type  1   force =     0.00000000    0.00000000    0.00000000
     atom    4 type  1   force =     0.00000000    0.00000000    0.00000000
     atom    5 type  1   force =     0.00000000    0.00000000    0.00000000
     atom    6 type  1   force =     0.00000000    0.00000000    0.00000000
     atom    7 type  1   force =     0.00000000    0.00000000    0.00000000
     atom    8 type  1   force =     0.00000000    0.00000000    0.00000000
     atom    9 type  2   force =     0.00000000    0.00000000    0.00000000
     atom   10 type  2   force =     0.00000000    0.00000000    0.00000000
     atom   11 type  2   force =     0.00000000    0.00000000    0.00000000
     atom   12 type  2   force =     0.00000000    0.00000000    0.00000000
     atom   13 type  2   force =     0.00000000    0.00000000    0.00000000
     atom   14 type  2   force =     0.00000000    0.00000000    0.00000000
     atom   15 type  2   force =     0.00000000    0.00000000    0.00000000
     atom   16 type  2   force =     0.00000000    0.00000000    0.00000000
     atom   17 type  2   force =     0.00000000    0.00000000    0.00000000
     atom   18 type  2   force =     0.00000000    0.00000000    0.00000000
     atom   19 type  2   force =     0.00000000    0.00000000    0.00000000
     atom   20 type  2   force =     0.00000000    0.00000000    0.00000000
     atom   21 type  2   force =     0.00000000    0.00000000    0.00000000
     atom   22 type  2   force =     0.00000000    0.00000000    0.00000000
     atom   23 type  2   force =     0.00000000    0.00000000    0.00000000
     atom   24 type  2   force =     0.00000000    0.00000000    0.00000000
     The SCF correction term to forces
     atom    1 type  1   force =     0.00000003   -0.00000002   -0.00004992
     atom    2 type  1   force =    -0.00000003    0.00000002   -0.00004992
     atom    3 type  1   force =    -0.00000003    0.00000002    0.00004992
     atom    4 type  1   force =     0.00000003   -0.00000002    0.00004992
     atom    5 type  1   force =    -0.00000000   -0.00000000    0.00004201
     atom    6 type  1   force =     0.00000000    0.00000000    0.00004201
     atom    7 type  1   force =     0.00000000    0.00000000   -0.00004201
     atom    8 type  1   force =    -0.00000000   -0.00000000   -0.00004201
     atom    9 type  2   force =    -0.00000012    0.00000007   -0.00005381
     atom   10 type  2   force =     0.00000012   -0.00000007   -0.00005381
     atom   11 type  2   force =     0.00000012   -0.00000007    0.00005381
     atom   12 type  2   force =    -0.00000012    0.00000007    0.00005381
     atom   13 type  2   force =     0.00000001    0.00004027   -0.00000000
     atom   14 type  2   force =    -0.00003487    0.00002013    0.00000000
     atom   15 type  2   force =    -0.00000001   -0.00004027    0.00000000
     atom   16 type  2   force =     0.00003487   -0.00002013   -0.00000000
     atom   17 type  2   force =    -0.00003487   -0.00002014    0.00000000
     atom   18 type  2   force =     0.00003487    0.00002014    0.00000000
     atom   19 type  2   force =     0.00000000    0.00000000   -0.00000000
     atom   20 type  2   force =     0.00000000   -0.00000000   -0.00000000
     atom   21 type  2   force =    -0.00000000   -0.00000000   -0.00000000
     atom   22 type  2   force =    -0.00000000    0.00000000   -0.00000000
     atom   23 type  2   force =    -0.00000000    0.00000000   -0.00000000
     atom   24 type  2   force =     0.00000000    0.00000000   -0.00000000

     Total force =     0.016446     Total SCF correction =     0.000196
     Energy error            =      5.7E-04 Ry
     Gradient error          =      5.1E-03 Ry/Bohr

     number of scf cycles    =   2
     number of bfgs steps    =   1

     energy             old  =   -7950.1145693342 Ry
     energy             new  =   -7950.1151397343 Ry

     CASE: energy            _new < energy            _old

     new trust radius        =       0.0099054325 bohr
     new conv_thr            =       0.0000000008 Ry


ATOMIC_POSITIONS (crystal)
Mg           -0.0000000000       -0.0000000000        0.4064426884
Mg           -0.0000000000       -0.0000000000        0.9064426884
Mg            0.0000000000        0.0000000000        0.5935573116
Mg            0.0000000000        0.0000000000        0.0935573116
Mg            0.3333330000        0.6666670000        0.6559048351
Mg            0.6666670000        0.3333330000        0.1559048351
Mg            0.6666670000        0.3333330000        0.3440951649
Mg            0.3333330000        0.6666670000        0.8440951649
Ni            0.3333330000        0.6666670000        0.3752518883
Ni            0.6666670000        0.3333330000        0.8752518883
Ni            0.6666670000        0.3333330000        0.6247481117
Ni            0.3333330000        0.6666670000        0.1247481117
Ni            0.1654591906        0.3309173813        0.2500000000
Ni            0.8345408095        0.1654591906        0.7500000000
Ni            0.8345408094        0.6690826187        0.7500000000
Ni            0.1654591905        0.8345408094        0.2500000000
Ni            0.6690826188        0.8345408094        0.2500000000
Ni            0.3309173812        0.1654591906        0.7500000000
Ni            0.5000000000        0.0000000000        0.5000000000
Ni            0.5000000000        0.5000000000       -0.0000000000
Ni            0.5000000000        0.0000000000       -0.0000000000
Ni            0.5000000000        0.5000000000        0.5000000000
Ni            0.0000000000        0.5000000000        0.0000000000
Ni            0.0000000000        0.5000000000        0.5000000000



     Writing config-only to output data dir ./ACOptimization/out/iso.save/
     NEW-OLD atomic charge density approx. for the potential

     Check: negative core charge=   -0.000016

     total cpu time spent up to now is     1066.9 secs

     Self-consistent Calculation

     iteration #  1     ecut=    50.00 Ry     beta= 0.10
     Davidson diagonalization with overlap
     ethr =  1.00E-06,  avg # of iterations =  7.0

     total cpu time spent up to now is     1110.0 secs

     total energy              =   -7950.12028364 Ry
     estimated scf accuracy    <       0.00117586 Ry

     iteration #  2     ecut=    50.00 Ry     beta= 0.10
     Davidson diagonalization with overlap
     ethr =  3.20E-07,  avg # of iterations =  1.0

     total cpu time spent up to now is     1128.2 secs

     total energy              =   -7950.11533806 Ry
     estimated scf accuracy    <       0.00088431 Ry

     iteration #  3     ecut=    50.00 Ry     beta= 0.10
     Davidson diagonalization with overlap
     ethr =  2.40E-07,  avg # of iterations =  4.0

     total cpu time spent up to now is     1153.0 secs

     total energy              =   -7950.11592777 Ry
     estimated scf accuracy    <       0.00007615 Ry

     iteration #  4     ecut=    50.00 Ry     beta= 0.10
     Davidson diagonalization with overlap
     ethr =  2.07E-08,  avg # of iterations =  2.0

     total cpu time spent up to now is     1174.5 secs

     total energy              =   -7950.11590503 Ry
     estimated scf accuracy    <       0.00005111 Ry

     iteration #  5     ecut=    50.00 Ry     beta= 0.10
     Davidson diagonalization with overlap
     ethr =  1.39E-08,  avg # of iterations =  2.0

     total cpu time spent up to now is     1195.1 secs

     total energy              =   -7950.11587349 Ry
     estimated scf accuracy    <       0.00004871 Ry

     iteration #  6     ecut=    50.00 Ry     beta= 0.10
     Davidson diagonalization with overlap
     ethr =  1.32E-08,  avg # of iterations =  2.0

     total cpu time spent up to now is     1217.9 secs

     total energy              =   -7950.11624678 Ry
     estimated scf accuracy    <       0.00003884 Ry

     iteration #  7     ecut=    50.00 Ry     beta= 0.10
     Davidson diagonalization with overlap
     ethr =  1.06E-08,  avg # of iterations =  2.3

     total cpu time spent up to now is     1242.7 secs

     total energy              =   -7950.11542478 Ry
     estimated scf accuracy    <       0.00006166 Ry

     iteration #  8     ecut=    50.00 Ry     beta= 0.10
     Davidson diagonalization with overlap
     ethr =  1.06E-08,  avg # of iterations =  5.0

     total cpu time spent up to now is     1271.6 secs

     total energy              =   -7950.11551296 Ry
     estimated scf accuracy    <       0.00001127 Ry

     iteration #  9     ecut=    50.00 Ry     beta= 0.10
     Davidson diagonalization with overlap
     ethr =  3.06E-09,  avg # of iterations =  3.0

     total cpu time spent up to now is     1295.1 secs

     total energy              =   -7950.11549219 Ry
     estimated scf accuracy    <       0.00000142 Ry

     iteration # 10     ecut=    50.00 Ry     beta= 0.10
     Davidson diagonalization with overlap
     ethr =  3.87E-10,  avg # of iterations =  4.0

     total cpu time spent up to now is     1321.3 secs

     total energy              =   -7950.11549384 Ry
     estimated scf accuracy    <       0.00000203 Ry

     iteration # 11     ecut=    50.00 Ry     beta= 0.10
     Davidson diagonalization with overlap
     ethr =  3.87E-10,  avg # of iterations =  1.0

     total cpu time spent up to now is     1339.6 secs

     total energy              =   -7950.11548997 Ry
     estimated scf accuracy    <       0.00000248 Ry

     iteration # 12     ecut=    50.00 Ry     beta= 0.10
     Davidson diagonalization with overlap
     ethr =  3.87E-10,  avg # of iterations =  3.0

     total cpu time spent up to now is     1365.4 secs

     total energy              =   -7950.11549472 Ry
     estimated scf accuracy    <       0.00000032 Ry

     iteration # 13     ecut=    50.00 Ry     beta= 0.10
     Davidson diagonalization with overlap
     ethr =  8.72E-11,  avg # of iterations =  2.0

     total cpu time spent up to now is     1388.6 secs

     total energy              =   -7950.11549477 Ry
     estimated scf accuracy    <       0.00000003 Ry

     iteration # 14     ecut=    50.00 Ry     beta= 0.10
     Davidson diagonalization with overlap
     ethr =  8.40E-12,  avg # of iterations =  2.0

     total cpu time spent up to now is     1412.2 secs

     total energy              =   -7950.11549477 Ry
     estimated scf accuracy    <       0.00000004 Ry

     iteration # 15     ecut=    50.00 Ry     beta= 0.10
     Davidson diagonalization with overlap
     ethr =  8.40E-12,  avg # of iterations =  2.0

     total cpu time spent up to now is     1434.9 secs

     total energy              =   -7950.11549479 Ry
     estimated scf accuracy    <       0.00000009 Ry

     iteration # 16     ecut=    50.00 Ry     beta= 0.10
     Davidson diagonalization with overlap
     ethr =  8.40E-12,  avg # of iterations =  1.3

     total cpu time spent up to now is     1454.0 secs

     total energy              =   -7950.11549481 Ry
     estimated scf accuracy    <       0.00000007 Ry

     iteration # 17     ecut=    50.00 Ry     beta= 0.10
     Davidson diagonalization with overlap
     ethr =  8.40E-12,  avg # of iterations =  2.0

     total cpu time spent up to now is     1475.8 secs

     total energy              =   -7950.11549482 Ry
     estimated scf accuracy    <          8.4E-09 Ry

     iteration # 18     ecut=    50.00 Ry     beta= 0.10
     Davidson diagonalization with overlap
     ethr =  2.29E-12,  avg # of iterations =  2.0

     total cpu time spent up to now is     1499.1 secs

     total energy              =   -7950.11549483 Ry
     estimated scf accuracy    <          2.2E-09 Ry

     iteration # 19     ecut=    50.00 Ry     beta= 0.10
     Davidson diagonalization with overlap
     ethr =  5.98E-13,  avg # of iterations =  2.0

     total cpu time spent up to now is     1522.2 secs

     End of self-consistent calculation

          k = 0.0000 0.0000 0.0000 ( 12553 PWs)   bands (ev):

   -89.5713 -89.5713 -89.5693 -89.5693 -89.5693 -89.5693 -89.5671 -89.5671
   -89.5115 -89.5115 -89.5107 -89.5107 -89.5054 -89.5054 -89.5047 -89.5047
   -89.4834 -89.4834 -89.4834 -89.4834 -89.4834 -89.4834 -89.4833 -89.4833
   -89.4784 -89.4784 -89.4784 -89.4784 -89.4783 -89.4783 -89.4783 -89.4783
   -61.7086 -61.7086 -61.7085 -61.7085 -61.7072 -61.7072 -61.7072 -61.7072
   -61.6520 -61.6520 -61.6519 -61.6519 -61.6505 -61.6505 -61.6505 -61.6505
   -51.5602 -51.5602 -51.5529 -51.5529 -51.5528 -51.5528 -51.5477 -51.5477
   -51.5080 -51.5080 -51.5050 -51.5050 -51.5019 -51.5019 -51.5011 -51.5011
   -51.4965 -51.4965 -51.4939 -51.4939 -51.4904 -51.4904 -51.4888 -51.4888
   -51.4215 -51.4215 -51.4118 -51.4118 -51.4083 -51.4083 -51.4056 -51.4056
   -49.4489 -49.4489 -49.4451 -49.4451 -49.4271 -49.4271 -49.4211 -49.4211
   -49.4119 -49.4119 -49.4020 -49.4020 -49.3858 -49.3858 -49.3832 -49.3832
   -49.3348 -49.3348 -49.3285 -49.3285 -49.3273 -49.3273 -49.3178 -49.3178
   -49.3139 -49.3139 -49.3124 -49.3124 -49.3085 -49.3085 -49.2808 -49.2808
   -49.2799 -49.2799 -49.2458 -49.2458 -49.2373 -49.2373 -49.2332 -49.2332
   -49.2248 -49.2248 -49.2178 -49.2178 -49.2104 -49.2104 -49.2095 -49.2095
   -49.1906 -49.1906 -49.1894 -49.1894 -49.1793 -49.1793 -49.1780 -49.1780
   -49.1613 -49.1613 -49.1577 -49.1577 -49.1554 -49.1554 -49.1532 -49.1532
   -28.8423 -28.8423 -28.8422 -28.8422 -28.8369 -28.8369 -28.8368 -28.8368
   -28.7839 -28.7839 -28.7835 -28.7835 -28.7778 -28.7778 -28.7777 -28.7777
   -28.5578 -28.5578 -28.5575 -28.5575 -28.5557 -28.5557 -28.5555 -28.5555
   -28.5539 -28.5539 -28.5537 -28.5537 -28.5442 -28.5442 -28.5442 -28.5442
   -28.5014 -28.5014 -28.5011 -28.5011 -28.4936 -28.4936 -28.4933 -28.4933
   -28.4916 -28.4916 -28.4916 -28.4916 -28.4870 -28.4870 -28.4869 -28.4869
     4.6903   4.6903   5.3146   5.3146   5.3224   5.3224   6.7756   6.7756
     7.4368   7.4368   8.7502   8.7502   8.7799   8.7799   8.8481   8.8481
     9.4132   9.4132   9.4140   9.4140   9.5597   9.5597   9.6239   9.6239
     9.7546   9.7546   9.7712   9.7712   9.7896   9.7896   9.8051   9.8051
     9.8281   9.8281   9.8300   9.8300   9.9512   9.9512   9.9715   9.9715
    10.0108  10.0108  10.0768  10.0768  10.0773  10.0773  10.0833  10.0833
    10.1063  10.1063  10.1649  10.1649  10.2189  10.2189  10.2484  10.2484
    10.2641  10.2641  10.3096  10.3096  10.6116  10.6116  10.6118  10.6118
    10.6209  10.6209  10.6385  10.6385  10.6432  10.6432  10.6896  10.6896
    10.8624  10.8624  10.9199  10.9199  11.0246  11.0246  11.0264  11.0264
    11.0687  11.0687  11.1205  11.1205  11.1554  11.1554  11.1594  11.1594
    11.3197  11.3197  11.3386  11.3386  11.5804  11.5804  11.7593  11.7593
    11.8119  11.8119  11.8191  11.8191  11.8278  11.8278  11.8642  11.8642
    11.9868  11.9868  12.0403  12.0403  12.1401  12.1401  12.1495  12.1495
    12.2730  12.2730  12.2844  12.2844  12.3774  12.3774  12.3774  12.3774
    12.3941  12.3941  12.3943  12.3943  12.3983  12.3983  12.4039  12.4039
    12.4059  12.4059  12.4241  12.4241  12.4410  12.4410  12.4449  12.4449
    12.4562  12.4562  12.4695  12.4695  12.4851  12.4851  12.5108  12.5108
    12.5319  12.5319  12.5611  12.5611  12.5625  12.5625  12.5794  12.5794
    12.5996  12.5996  12.6531  12.6531  12.7272  12.7272  12.9688  12.9688
    13.0216  13.0216  13.2512  13.2512  13.2520  13.2520  13.4917  13.4917
    13.4921  13.4921  13.5018  13.5018  13.5044  13.5044  13.7840  13.7840
    13.9361  13.9361  14.1222  14.1222  14.1722  14.1722  14.1814  14.1814
    14.1876  14.1876  14.2050  14.2050  14.2095  14.2095  14.3286  14.3286
    14.5456  14.5456  14.5753  14.5753  14.5934  14.5934  14.6462  14.6462
    15.9670  15.9670  15.9726  15.9726  15.9841  15.9841  16.0218  16.0218
    16.4746  16.4746  16.5231  16.5231  16.8852  16.8852  16.9070  16.9070
    17.5410  17.5410  17.5859  17.5859  17.6030  17.6030  17.7898  17.7898
    17.8719  17.8719  18.0737  18.0737  18.4870  18.4870  18.4972  18.4972
    18.9160  18.9160  18.9367  18.9367  19.2249  19.2249  19.5493  19.5493
    19.5560  19.5560  19.7564  19.7564  19.9735  19.9735  21.3509  21.3509
    21.4736  21.4736

          k = 0.0000 0.3849 0.0000 ( 12516 PWs)   bands (ev):

   -89.5704 -89.5704 -89.5693 -89.5693 -89.5687 -89.5687 -89.5675 -89.5675
   -89.5057 -89.5057 -89.5053 -89.5053 -89.4998 -89.4998 -89.4996 -89.4996
   -89.4891 -89.4891 -89.4890 -89.4890 -89.4842 -89.4842 -89.4842 -89.4842
   -89.4834 -89.4834 -89.4834 -89.4834 -89.4783 -89.4783 -89.4783 -89.4783
   -61.7085 -61.7085 -61.7085 -61.7085 -61.7071 -61.7071 -61.7070 -61.7070
   -61.6521 -61.6521 -61.6521 -61.6521 -61.6505 -61.6505 -61.6505 -61.6505
   -51.5610 -51.5610 -51.5567 -51.5567 -51.5514 -51.5514 -51.5494 -51.5494
   -51.5010 -51.5010 -51.4976 -51.4976 -51.4962 -51.4962 -51.4928 -51.4928
   -51.4799 -51.4799 -51.4774 -51.4774 -51.4736 -51.4736 -51.4732 -51.4732
   -51.4350 -51.4350 -51.4282 -51.4282 -51.4249 -51.4249 -51.4175 -51.4175
   -49.4459 -49.4459 -49.4376 -49.4376 -49.4340 -49.4340 -49.4249 -49.4249
   -49.3820 -49.3820 -49.3784 -49.3784 -49.3711 -49.3711 -49.3650 -49.3650
   -49.3286 -49.3286 -49.3276 -49.3276 -49.3223 -49.3223 -49.3183 -49.3183
   -49.3046 -49.3046 -49.3008 -49.3008 -49.2973 -49.2973 -49.2786 -49.2786
   -49.2760 -49.2760 -49.2518 -49.2518 -49.2472 -49.2472 -49.2392 -49.2392
   -49.2268 -49.2268 -49.2225 -49.2225 -49.2117 -49.2117 -49.2080 -49.2080
   -49.2074 -49.2074 -49.2025 -49.2025 -49.1851 -49.1851 -49.1840 -49.1840
   -49.1789 -49.1789 -49.1774 -49.1774 -49.1592 -49.1592 -49.1585 -49.1585
   -28.8416 -28.8416 -28.8415 -28.8415 -28.8362 -28.8362 -28.8362 -28.8362
   -28.7848 -28.7848 -28.7847 -28.7847 -28.7791 -28.7791 -28.7789 -28.7789
   -28.5582 -28.5582 -28.5581 -28.5581 -28.5544 -28.5544 -28.5541 -28.5541
   -28.5524 -28.5524 -28.5522 -28.5522 -28.5448 -28.5448 -28.5447 -28.5447
   -28.5006 -28.5006 -28.5005 -28.5005 -28.4946 -28.4946 -28.4945 -28.4945
   -28.4926 -28.4926 -28.4924 -28.4924 -28.4866 -28.4866 -28.4865 -28.4865
     5.6812   5.6812   6.2703   6.2703   6.2829   6.2829   7.6924   7.6924
     8.1623   8.1623   8.3498   8.3498   8.6530   8.6530   8.6771   8.6771
     9.2314   9.2314   9.2642   9.2642   9.4174   9.4174   9.5115   9.5115
     9.5974   9.5974   9.7075   9.7075   9.7751   9.7751   9.8530   9.8530
     9.9119   9.9119   9.9842   9.9842  10.0166  10.0166  10.0484  10.0484
    10.0587  10.0587  10.0991  10.0991  10.2120  10.2120  10.2897  10.2897
    10.3418  10.3418  10.3931  10.3931  10.4394  10.4394  10.4968  10.4968
    10.5152  10.5152  10.5454  10.5454  10.5508  10.5508  10.6478  10.6478
    10.6539  10.6539  10.6903  10.6903  10.6943  10.6943  10.7593  10.7593
    10.7903  10.7903  10.7977  10.7977  10.8688  10.8688  10.9208  10.9208
    10.9917  10.9917  11.0461  11.0461  11.0632  11.0632  11.0823  11.0823
    11.1495  11.1495  11.2346  11.2346  11.2729  11.2729  11.3112  11.3112
    11.3276  11.3276  11.4406  11.4406  11.4495  11.4495  11.5035  11.5035
    11.5214  11.5214  11.5884  11.5884  11.6531  11.6531  11.6682  11.6682
    11.6941  11.6941  11.7475  11.7475  11.8295  11.8295  11.8376  11.8376
    11.9145  11.9145  11.9603  11.9603  11.9867  11.9867  12.0148  12.0148
    12.0823  12.0823  12.0975  12.0975  12.1115  12.1115  12.1741  12.1741
    12.1757  12.1757  12.2370  12.2370  12.2845  12.2845  12.3388  12.3388
    12.3500  12.3500  12.4275  12.4275  12.4382  12.4382  12.4476  12.4476
    12.5014  12.5014  12.5120  12.5120  12.5167  12.5167  12.5474  12.5474
    12.6083  12.6083  12.6382  12.6382  12.6538  12.6538  12.7576  12.7576
    12.7822  12.7822  12.8492  12.8492  12.9299  12.9299  13.0593  13.0593
    13.3294  13.3294  13.3792  13.3792  13.7520  13.7520  13.7611  13.7611
    13.9720  13.9720  14.0667  14.0667  14.1569  14.1569  14.3394  14.3394
    14.4016  14.4016  14.4334  14.4334  14.4985  14.4985  14.6960  14.6960
    15.3206  15.3206  15.7716  15.7716  16.0798  16.0798  16.1202  16.1202
    17.4458  17.4458  17.8421  17.8421  17.9010  17.9010  18.0826  18.0826
    18.8416  18.8416  18.9390  18.9390  19.0389  19.0389  19.1595  19.1595
    19.1756  19.1756  19.3392  19.3392  19.8105  19.8105  20.2627  20.2627
    20.2843  20.2843  20.3723  20.3723  20.8542  20.8542  20.9712  20.9712
    21.2037  21.2037  21.6965  21.6965  22.0487  22.0487  22.3314  22.3314
    22.3474  22.3474

          k = 0.3333 0.5774 0.0000 ( 12582 PWs)   bands (ev):

   -89.5696 -89.5696 -89.5696 -89.5696 -89.5680 -89.5680 -89.5680 -89.5680
   -89.4995 -89.4995 -89.4995 -89.4995 -89.4956 -89.4956 -89.4955 -89.4955
   -89.4921 -89.4921 -89.4920 -89.4920 -89.4917 -89.4917 -89.4916 -89.4916
   -89.4834 -89.4834 -89.4834 -89.4834 -89.4783 -89.4783 -89.4783 -89.4783
   -61.7086 -61.7086 -61.7086 -61.7086 -61.7070 -61.7070 -61.7070 -61.7070
   -61.6522 -61.6522 -61.6522 -61.6522 -61.6506 -61.6506 -61.6505 -61.6505
   -51.5644 -51.5644 -51.5641 -51.5641 -51.5528 -51.5528 -51.5524 -51.5524
   -51.5015 -51.5015 -51.5012 -51.5012 -51.4983 -51.4983 -51.4974 -51.4974
   -51.4615 -51.4615 -51.4614 -51.4614 -51.4597 -51.4597 -51.4559 -51.4559
   -51.4525 -51.4525 -51.4485 -51.4485 -51.4442 -51.4442 -51.4436 -51.4436
   -49.4440 -49.4440 -49.4436 -49.4436 -49.4341 -49.4341 -49.4294 -49.4294
   -49.3571 -49.3571 -49.3564 -49.3564 -49.3547 -49.3547 -49.3507 -49.3507
   -49.3480 -49.3480 -49.3464 -49.3464 -49.3455 -49.3455 -49.3156 -49.3156
   -49.3053 -49.3053 -49.3028 -49.3028 -49.2938 -49.2938 -49.2755 -49.2755
   -49.2675 -49.2675 -49.2631 -49.2631 -49.2566 -49.2566 -49.2561 -49.2561
   -49.2324 -49.2324 -49.2228 -49.2228 -49.2181 -49.2181 -49.2121 -49.2121
   -49.2058 -49.2058 -49.2046 -49.2046 -49.2020 -49.2020 -49.1941 -49.1941
   -49.1918 -49.1918 -49.1917 -49.1917 -49.1699 -49.1699 -49.1694 -49.1694
   -28.8415 -28.8415 -28.8411 -28.8411 -28.8362 -28.8362 -28.8358 -28.8358
   -28.7855 -28.7855 -28.7854 -28.7854 -28.7798 -28.7798 -28.7798 -28.7798
   -28.5595 -28.5595 -28.5570 -28.5570 -28.5545 -28.5545 -28.5545 -28.5545
   -28.5511 -28.5511 -28.5510 -28.5510 -28.5468 -28.5468 -28.5438 -28.5438
   -28.5004 -28.5004 -28.5003 -28.5003 -28.4959 -28.4959 -28.4957 -28.4957
   -28.4928 -28.4928 -28.4924 -28.4924 -28.4865 -28.4865 -28.4864 -28.4864
     7.3083   7.3083   7.3091   7.3091   7.7381   7.7381   7.8553   7.8553
     7.8610   7.8610   8.0447   8.0447   8.1720   8.1720   8.1770   8.1770
     8.3683   8.3683   9.2005   9.2005   9.2008   9.2008   9.2331   9.2331
     9.2400   9.2400   9.2640   9.2640   9.3119   9.3119   9.9590   9.9590
     9.9608   9.9608   9.9622   9.9622  10.1026  10.1026  10.1164  10.1164
    10.2542  10.2542  10.2842  10.2842  10.4150  10.4150  10.4310  10.4310
    10.4879  10.4879  10.4965  10.4965  10.5445  10.5445  10.5498  10.5498
    10.5594  10.5594  10.5695  10.5695  10.6421  10.6421  10.7025  10.7025
    10.7296  10.7296  10.7304  10.7304  10.7458  10.7458  10.7472  10.7472
    10.7787  10.7787  10.8143  10.8143  10.8271  10.8271  10.8533  10.8533
    10.8678  10.8678  10.8690  10.8690  10.9171  10.9171  10.9194  10.9194
    10.9880  10.9880  10.9953  10.9953  11.0189  11.0189  11.0392  11.0392
    11.0724  11.0724  11.2296  11.2296  11.2421  11.2421  11.2556  11.2556
    11.3826  11.3826  11.5102  11.5102  11.5291  11.5291  11.5309  11.5309
    11.5665  11.5665  11.5904  11.5904  11.7539  11.7539  11.7588  11.7588
    11.8469  11.8469  11.8776  11.8776  11.8953  11.8953  11.9103  11.9103
    11.9676  11.9676  11.9729  11.9729  11.9925  11.9925  12.0812  12.0812
    12.1337  12.1337  12.1602  12.1602  12.1751  12.1751  12.1795  12.1795
    12.2129  12.2129  12.2303  12.2303  12.2319  12.2319  12.2759  12.2759
    12.2959  12.2959  12.2997  12.2997  12.3626  12.3626  12.4226  12.4226
    12.5817  12.5817  12.6060  12.6060  12.6903  12.6903  12.6904  12.6904
    12.7132  12.7132  12.7942  12.7942  12.8041  12.8041  12.9049  12.9049
    12.9653  12.9653  13.0287  13.0287  13.0296  13.0296  13.2424  13.2424
    13.3922  13.3922  13.4026  13.4026  13.4668  13.4668  14.8366  14.8366
    14.8576  14.8576  14.9019  14.9019  15.1119  15.1119  15.1194  15.1194
    15.7004  15.7004  17.5251  17.5251  17.5274  17.5274  17.6892  17.6892
    17.9448  17.9448  17.9452  17.9452  18.5590  18.5590  18.6222  18.6222
    18.6230  18.6230  18.6921  18.6921  18.7007  18.7007  18.9351  18.9351
    19.1889  19.1889  19.5768  19.5768  19.6559  19.6559  19.6711  19.6711
    20.4658  20.4658  20.4687  20.4687  20.7955  20.7955  20.8106  20.8106
    20.9106  20.9106  21.5885  21.5885  22.9010  22.9010  22.9101  22.9101
    23.1212  23.1294

     the Fermi energy is    13.1025 ev

!    total energy              =   -7950.11549484 Ry
     total all-electron energy =    -51823.967578 Ry
     estimated scf accuracy    <          4.8E-10 Ry
     smearing contrib. (-TS)   =       0.10419811 Ry
     internal energy E=F+TS    =   -7950.21969295 Ry

     The total energy is F=E-TS. E is the sum of the following terms:
     one-electron contribution =   -4472.30451515 Ry
     hartree contribution      =    2392.79943904 Ry
     xc contribution           =    -681.93253599 Ry
     ewald contribution        =   -3650.59513434 Ry
     one-center paw contrib.   =   -1538.18694651 Ry

     convergence has been achieved in  19 iterations

     Forces acting on atoms (cartesian axes, Ry/au):

     atom    1 type  1   force =     0.00000000    0.00000000    0.00329506
     atom    2 type  1   force =     0.00000000    0.00000000    0.00329506
     atom    3 type  1   force =    -0.00000000   -0.00000000   -0.00329506
     atom    4 type  1   force =    -0.00000000   -0.00000000   -0.00329506
     atom    5 type  1   force =     0.00000000    0.00000000    0.00071237
     atom    6 type  1   force =     0.00000000    0.00000000    0.00071237
     atom    7 type  1   force =     0.00000000    0.00000000   -0.00071237
     atom    8 type  1   force =     0.00000000    0.00000000   -0.00071237
     atom    9 type  2   force =     0.00000000    0.00000000    0.00054190
     atom   10 type  2   force =     0.00000000    0.00000000    0.00054190
     atom   11 type  2   force =     0.00000000    0.00000000   -0.00054190
     atom   12 type  2   force =     0.00000000    0.00000000   -0.00054190
     atom   13 type  2   force =     0.00000000   -0.00083022    0.00000000
     atom   14 type  2   force =     0.00071899   -0.00041511    0.00000000
     atom   15 type  2   force =     0.00000000    0.00083022    0.00000000
     atom   16 type  2   force =    -0.00071899    0.00041511   -0.00000000
     atom   17 type  2   force =     0.00071899    0.00041511   -0.00000000
     atom   18 type  2   force =    -0.00071899   -0.00041511   -0.00000000
     atom   19 type  2   force =     0.00000000   -0.00000000   -0.00000000
     atom   20 type  2   force =     0.00000000    0.00000000    0.00000000
     atom   21 type  2   force =    -0.00000000    0.00000000   -0.00000000
     atom   22 type  2   force =     0.00000000   -0.00000000    0.00000000
     atom   23 type  2   force =     0.00000000   -0.00000000   -0.00000000
     atom   24 type  2   force =     0.00000000    0.00000000    0.00000000
     The non-local contrib.  to forces
     atom    1 type  1   force =    -0.00000000   -0.00000000    0.02362574
     atom    2 type  1   force =     0.00000000    0.00000000    0.02362574
     atom    3 type  1   force =     0.00000000   -0.00000000   -0.02362574
     atom    4 type  1   force =     0.00000000    0.00000000   -0.02362574
     atom    5 type  1   force =     0.00000000    0.00000000   -0.00203813
     atom    6 type  1   force =     0.00000000    0.00000000   -0.00203813
     atom    7 type  1   force =     0.00000000    0.00000000    0.00203813
     atom    8 type  1   force =     0.00000000    0.00000000    0.00203813
     atom    9 type  2   force =     0.00000000    0.00000000   -0.00066818
     atom   10 type  2   force =     0.00000000    0.00000000   -0.00066818
     atom   11 type  2   force =    -0.00000000   -0.00000000    0.00066818
     atom   12 type  2   force =     0.00000000    0.00000000    0.00066818
     atom   13 type  2   force =     0.00000000   -0.08325996    0.00000000
     atom   14 type  2   force =     0.07210524   -0.04162998    0.00000000
     atom   15 type  2   force =     0.00000000    0.08325996   -0.00000000
     atom   16 type  2   force =    -0.07210524    0.04162998    0.00000000
     atom   17 type  2   force =     0.07210524    0.04162998    0.00000000
     atom   18 type  2   force =    -0.07210524   -0.04162998    0.00000000
     atom   19 type  2   force =    -0.00000000    0.00000000    0.00000000
     atom   20 type  2   force =    -0.00000000   -0.00000000   -0.00000000
     atom   21 type  2   force =     0.00000000    0.00000000   -0.00000000
     atom   22 type  2   force =     0.00000000   -0.00000000    0.00000000
     atom   23 type  2   force =     0.00000000   -0.00000000    0.00000000
     atom   24 type  2   force =    -0.00000000   -0.00000000    0.00000000
     The ionic contribution  to forces
     atom    1 type  1   force =    -0.00001559    0.00000952   -0.48632333
     atom    2 type  1   force =     0.00001559   -0.00000952   -0.48632333
     atom    3 type  1   force =     0.00001559   -0.00000952    0.48632333
     atom    4 type  1   force =    -0.00001559    0.00000952    0.48632333
     atom    5 type  1   force =     0.00005545   -0.00003145    0.18135371
     atom    6 type  1   force =    -0.00005545    0.00003145    0.18135371
     atom    7 type  1   force =    -0.00005545    0.00003145   -0.18135371
     atom    8 type  1   force =     0.00005545   -0.00003145   -0.18135371
     atom    9 type  2   force =     0.00005891   -0.00003398   -0.01890625
     atom   10 type  2   force =    -0.00005891    0.00003398   -0.01890625
     atom   11 type  2   force =    -0.00005891    0.00003398    0.01890625
     atom   12 type  2   force =     0.00005891   -0.00003398    0.01890625
     atom   13 type  2   force =     0.00007189  -13.95268456    0.00000000
     atom   14 type  2   force =    12.08346398   -6.97639172   -0.00000000
     atom   15 type  2   force =    -0.00007189   13.95268456   -0.00000000
     atom   16 type  2   force =   -12.08346398    6.97639172    0.00000000
     atom   17 type  2   force =    12.08341506    6.97628046    0.00000000
     atom   18 type  2   force =   -12.08341506   -6.97628046   -0.00000000
     atom   19 type  2   force =    -0.00000000   -0.00000000    0.00000000
     atom   20 type  2   force =     0.00000000   -0.00000000    0.00000000
     atom   21 type  2   force =    -0.00000000    0.00000000    0.00000000
     atom   22 type  2   force =    -0.00000000   -0.00000000    0.00000000
     atom   23 type  2   force =    -0.00000000   -0.00000000    0.00000000
     atom   24 type  2   force =     0.00000000   -0.00000000    0.00000000
     The local contribution  to forces
     atom    1 type  1   force =     0.00000000   -0.00000048    0.46607378
     atom    2 type  1   force =    -0.00000000    0.00000048    0.46607378
     atom    3 type  1   force =    -0.00000000    0.00000048   -0.46607378
     atom    4 type  1   force =     0.00000000   -0.00000048   -0.46607378
     atom    5 type  1   force =     0.00145577   -0.00084101   -0.17860428
     atom    6 type  1   force =    -0.00145577    0.00084101   -0.17860428
     atom    7 type  1   force =    -0.00145577    0.00084101    0.17860428
     atom    8 type  1   force =     0.00145577   -0.00084101    0.17860428
     atom    9 type  2   force =     0.00193277   -0.00111591    0.02227010
     atom   10 type  2   force =    -0.00193277    0.00111591    0.02227010
     atom   11 type  2   force =    -0.00193277    0.00111591   -0.02227010
     atom   12 type  2   force =     0.00193277   -0.00111591   -0.02227010
     atom   13 type  2   force =    -0.00193124   14.03536642    0.00000000
     atom   14 type  2   force =   -12.15231999    7.01614544   -0.00000000
     atom   15 type  2   force =     0.00193124  -14.03536642   -0.00000000
     atom   16 type  2   force =    12.15231999   -7.01614544   -0.00000000
     atom   17 type  2   force =   -12.15594978   -7.01601109   -0.00000000
     atom   18 type  2   force =    12.15594978    7.01601109   -0.00000000
     atom   19 type  2   force =     0.00000000    0.00000000    0.00000000
     atom   20 type  2   force =     0.00000000    0.00000000    0.00000000
     atom   21 type  2   force =     0.00000000    0.00000000   -0.00000000
     atom   22 type  2   force =     0.00000000    0.00000000    0.00000000
     atom   23 type  2   force =    -0.00000000    0.00000000    0.00000000
     atom   24 type  2   force =    -0.00000000    0.00000000    0.00000000
     The core correction contribution to forces
     atom    1 type  1   force =     0.00000000   -0.00000000   -0.00009817
     atom    2 type  1   force =    -0.00000000    0.00000000   -0.00009817
     atom    3 type  1   force =    -0.00000000    0.00000000    0.00009817
     atom    4 type  1   force =     0.00000000   -0.00000000    0.00009817
     atom    5 type  1   force =     0.00000316   -0.00000183    0.00001684
     atom    6 type  1   force =    -0.00000316    0.00000183    0.00001684
     atom    7 type  1   force =    -0.00000316    0.00000183   -0.00001684
     atom    8 type  1   force =     0.00000316   -0.00000183   -0.00001684
     atom    9 type  2   force =     0.00000119   -0.00000069   -0.00221181
     atom   10 type  2   force =    -0.00000119    0.00000069   -0.00221181
     atom   11 type  2   force =    -0.00000119    0.00000069    0.00221181
     atom   12 type  2   force =     0.00000119   -0.00000069    0.00221181
     atom   13 type  2   force =    -0.00000118    0.00079665    0.00000000
     atom   14 type  2   force =    -0.00068808    0.00039726   -0.00000000
     atom   15 type  2   force =     0.00000118   -0.00079665   -0.00000000
     atom   16 type  2   force =     0.00068808   -0.00039726    0.00000000
     atom   17 type  2   force =    -0.00069051   -0.00039730    0.00000000
     atom   18 type  2   force =     0.00069051    0.00039730   -0.00000000
     atom   19 type  2   force =     0.00000000    0.00000000    0.00000000
     atom   20 type  2   force =     0.00000000    0.00000000    0.00000000
     atom   21 type  2   force =     0.00000000    0.00000000    0.00000000
     atom   22 type  2   force =     0.00000000    0.00000000    0.00000000
     atom   23 type  2   force =     0.00000000    0.00000000    0.00000000
     atom   24 type  2   force =    -0.00000000    0.00000000    0.00000000
     The Hubbard contrib.    to forces
     atom    1 type  1   force =     0.00000000    0.00000000    0.00000000
     atom    2 type  1   force =     0.00000000    0.00000000    0.00000000
     atom    3 type  1   force =     0.00000000    0.00000000    0.00000000
     atom    4 type  1   force =     0.00000000    0.00000000    0.00000000
     atom    5 type  1   force =     0.00000000    0.00000000    0.00000000
     atom    6 type  1   force =     0.00000000    0.00000000    0.00000000
     atom    7 type  1   force =     0.00000000    0.00000000    0.00000000
     atom    8 type  1   force =     0.00000000    0.00000000    0.00000000
     atom    9 type  2   force =     0.00000000    0.00000000    0.00000000
     atom   10 type  2   force =     0.00000000    0.00000000    0.00000000
     atom   11 type  2   force =     0.00000000    0.00000000    0.00000000
     atom   12 type  2   force =     0.00000000    0.00000000    0.00000000
     atom   13 type  2   force =     0.00000000    0.00000000    0.00000000
     atom   14 type  2   force =     0.00000000    0.00000000    0.00000000
     atom   15 type  2   force =     0.00000000    0.00000000    0.00000000
     atom   16 type  2   force =     0.00000000    0.00000000    0.00000000
     atom   17 type  2   force =     0.00000000    0.00000000    0.00000000
     atom   18 type  2   force =     0.00000000    0.00000000    0.00000000
     atom   19 type  2   force =     0.00000000    0.00000000    0.00000000
     atom   20 type  2   force =     0.00000000    0.00000000    0.00000000
     atom   21 type  2   force =     0.00000000    0.00000000    0.00000000
     atom   22 type  2   force =     0.00000000    0.00000000    0.00000000
     atom   23 type  2   force =     0.00000000    0.00000000    0.00000000
     atom   24 type  2   force =     0.00000000    0.00000000    0.00000000
     The SCF correction term to forces
     atom    1 type  1   force =     0.00000003   -0.00000002    0.00001705
     atom    2 type  1   force =    -0.00000003    0.00000002    0.00001705
     atom    3 type  1   force =    -0.00000003    0.00000002   -0.00001705
     atom    4 type  1   force =     0.00000003   -0.00000002   -0.00001705
     atom    5 type  1   force =    -0.00000000   -0.00000000   -0.00001577
     atom    6 type  1   force =     0.00000000    0.00000000   -0.00001577
     atom    7 type  1   force =     0.00000000    0.00000000    0.00001577
     atom    8 type  1   force =    -0.00000000   -0.00000000    0.00001577
     atom    9 type  2   force =    -0.00000013    0.00000007    0.00005804
     atom   10 type  2   force =     0.00000013   -0.00000007    0.00005804
     atom   11 type  2   force =     0.00000013   -0.00000007   -0.00005804
     atom   12 type  2   force =    -0.00000013    0.00000007   -0.00005804
     atom   13 type  2   force =     0.00000001    0.00000981   -0.00000000
     atom   14 type  2   force =    -0.00000849    0.00000491    0.00000000
     atom   15 type  2   force =    -0.00000001   -0.00000981    0.00000000
     atom   16 type  2   force =     0.00000849   -0.00000491   -0.00000000
     atom   17 type  2   force =    -0.00000848   -0.00000491   -0.00000000
     atom   18 type  2   force =     0.00000848    0.00000491    0.00000000
     atom   19 type  2   force =    -0.00000000   -0.00000000   -0.00000000
     atom   20 type  2   force =     0.00000000   -0.00000000    0.00000000
     atom   21 type  2   force =     0.00000000    0.00000000    0.00000000
     atom   22 type  2   force =    -0.00000000   -0.00000000   -0.00000000
     atom   23 type  2   force =     0.00000000   -0.00000000    0.00000000
     atom   24 type  2   force =     0.00000000    0.00000000   -0.00000000

     Total force =     0.007125     Total SCF correction =     0.000127
     Energy error            =      3.6E-04 Ry
     Gradient error          =      3.3E-03 Ry/Bohr

     number of scf cycles    =   3
     number of bfgs steps    =   2

     energy             old  =   -7950.1151397343 Ry
     energy             new  =   -7950.1154948428 Ry

     CASE: energy            _new < energy            _old

     new trust radius        =       0.0074925730 bohr
     new conv_thr            =       0.0000000005 Ry


ATOMIC_POSITIONS (crystal)
Mg           -0.0000000000       -0.0000000000        0.4066953423
Mg           -0.0000000000       -0.0000000000        0.9066953423
Mg            0.0000000000        0.0000000000        0.5933046577
Mg            0.0000000000        0.0000000000        0.0933046577
Mg            0.3333330000        0.6666670000        0.6559610801
Mg            0.6666670000        0.3333330000        0.1559610801
Mg            0.6666670000        0.3333330000        0.3440389199
Mg            0.3333330000        0.6666670000        0.8440389199
Ni            0.3333330000        0.6666670000        0.3753481647
Ni            0.6666670000        0.3333330000        0.8753481647
Ni            0.6666670000        0.3333330000        0.6246518353
Ni            0.3333330000        0.6666670000        0.1246518353
Ni            0.1651680859        0.3303351718        0.2500000000
Ni            0.8348319142        0.1651680859        0.7500000000
Ni            0.8348319141        0.6696648282        0.7500000000
Ni            0.1651680858        0.8348319141        0.2500000000
Ni            0.6696648283        0.8348319141        0.2500000000
Ni            0.3303351717        0.1651680859        0.7500000000
Ni            0.5000000000       -0.0000000000        0.5000000000
Ni            0.5000000000        0.5000000000        0.0000000000
Ni            0.5000000000        0.0000000000       -0.0000000000
Ni            0.5000000000        0.5000000000        0.5000000000
Ni            0.0000000000        0.5000000000       -0.0000000000
Ni            0.0000000000        0.5000000000        0.5000000000



     Writing config-only to output data dir ./ACOptimization/out/iso.save/
     NEW-OLD atomic charge density approx. for the potential

     Check: negative core charge=   -0.000016

     total cpu time spent up to now is     1537.1 secs

     Self-consistent Calculation

     iteration #  1     ecut=    50.00 Ry     beta= 0.10
     Davidson diagonalization with overlap
     ethr =  1.00E-06,  avg # of iterations =  6.0

     Threshold (ethr) on eigenvalues was too large:
     Diagonalizing with lowered threshold

     Davidson diagonalization with overlap
     ethr =  7.33E-08,  avg # of iterations =  2.0

     total cpu time spent up to now is     1593.2 secs

     total energy              =   -7950.11659654 Ry
     estimated scf accuracy    <       0.00029985 Ry

     iteration #  2     ecut=    50.00 Ry     beta= 0.10
     Davidson diagonalization with overlap
     ethr =  8.15E-08,  avg # of iterations =  1.0

     total cpu time spent up to now is     1611.4 secs

     total energy              =   -7950.11584463 Ry
     estimated scf accuracy    <       0.00020275 Ry

     iteration #  3     ecut=    50.00 Ry     beta= 0.10
     Davidson diagonalization with overlap
     ethr =  5.51E-08,  avg # of iterations =  2.0

     total cpu time spent up to now is     1633.5 secs

     total energy              =   -7950.11563234 Ry
     estimated scf accuracy    <       0.00003155 Ry

     iteration #  4     ecut=    50.00 Ry     beta= 0.10
     Davidson diagonalization with overlap
     ethr =  8.57E-09,  avg # of iterations =  4.0

     total cpu time spent up to now is     1659.8 secs

     total energy              =   -7950.11563354 Ry
     estimated scf accuracy    <       0.00001270 Ry

     iteration #  5     ecut=    50.00 Ry     beta= 0.10
     Davidson diagonalization with overlap
     ethr =  3.45E-09,  avg # of iterations =  1.7

     total cpu time spent up to now is     1679.5 secs

     total energy              =   -7950.11562862 Ry
     estimated scf accuracy    <       0.00001448 Ry

     iteration #  6     ecut=    50.00 Ry     beta= 0.10
     Davidson diagonalization with overlap
     ethr =  3.45E-09,  avg # of iterations =  2.0

     total cpu time spent up to now is     1702.6 secs

     total energy              =   -7950.11563643 Ry
     estimated scf accuracy    <       0.00001813 Ry

     iteration #  7     ecut=    50.00 Ry     beta= 0.10
     Davidson diagonalization with overlap
     ethr =  3.45E-09,  avg # of iterations =  1.0

     total cpu time spent up to now is     1720.8 secs

     total energy              =   -7950.11560027 Ry
     estimated scf accuracy    <       0.00000902 Ry

     iteration #  8     ecut=    50.00 Ry     beta= 0.10
     Davidson diagonalization with overlap
     ethr =  2.45E-09,  avg # of iterations =  2.0

     total cpu time spent up to now is     1744.4 secs

     total energy              =   -7950.11557977 Ry
     estimated scf accuracy    <       0.00000063 Ry

     iteration #  9     ecut=    50.00 Ry     beta= 0.10
     Davidson diagonalization with overlap
     ethr =  1.72E-10,  avg # of iterations =  5.0

     total cpu time spent up to now is     1775.3 secs

     total energy              =   -7950.11558319 Ry
     estimated scf accuracy    <       0.00000013 Ry

     iteration # 10     ecut=    50.00 Ry     beta= 0.10
     Davidson diagonalization with overlap
     ethr =  3.51E-11,  avg # of iterations =  3.0

     total cpu time spent up to now is     1799.6 secs

     total energy              =   -7950.11557960 Ry
     estimated scf accuracy    <       0.00000038 Ry

     iteration # 11     ecut=    50.00 Ry     beta= 0.10
     Davidson diagonalization with overlap
     ethr =  3.51E-11,  avg # of iterations =  4.7

     total cpu time spent up to now is     1827.1 secs

     total energy              =   -7950.11557875 Ry
     estimated scf accuracy    <       0.00000006 Ry

     iteration # 12     ecut=    50.00 Ry     beta= 0.10
     Davidson diagonalization with overlap
     ethr =  1.58E-11,  avg # of iterations =  4.7

     total cpu time spent up to now is     1858.1 secs

     total energy              =   -7950.11557919 Ry
     estimated scf accuracy    <       0.00000015 Ry

     iteration # 13     ecut=    50.00 Ry     beta= 0.10
     Davidson diagonalization with overlap
     ethr =  1.58E-11,  avg # of iterations =  2.3

     total cpu time spent up to now is     1881.5 secs

     total energy              =   -7950.11557923 Ry
     estimated scf accuracy    <       0.00000002 Ry

     iteration # 14     ecut=    50.00 Ry     beta= 0.10
     Davidson diagonalization with overlap
     ethr =  5.67E-12,  avg # of iterations =  2.0

     total cpu time spent up to now is     1904.5 secs

     total energy              =   -7950.11557925 Ry
     estimated scf accuracy    <       0.00000002 Ry

     iteration # 15     ecut=    50.00 Ry     beta= 0.10
     Davidson diagonalization with overlap
     ethr =  4.82E-12,  avg # of iterations =  2.0

     total cpu time spent up to now is     1925.7 secs

     total energy              =   -7950.11557923 Ry
     estimated scf accuracy    <       0.00000001 Ry

     iteration # 16     ecut=    50.00 Ry     beta= 0.10
     Davidson diagonalization with overlap
     ethr =  3.07E-12,  avg # of iterations =  2.0

     total cpu time spent up to now is     1949.7 secs

     total energy              =   -7950.11557924 Ry
     estimated scf accuracy    <          2.8E-09 Ry

     iteration # 17     ecut=    50.00 Ry     beta= 0.10
     Davidson diagonalization with overlap
     ethr =  7.52E-13,  avg # of iterations =  2.3

     total cpu time spent up to now is     1973.1 secs

     End of self-consistent calculation

          k = 0.0000 0.0000 0.0000 ( 12553 PWs)   bands (ev):

   -89.5698 -89.5698 -89.5678 -89.5678 -89.5676 -89.5676 -89.5654 -89.5654
   -89.5111 -89.5111 -89.5097 -89.5097 -89.5072 -89.5072 -89.5061 -89.5061
   -89.4824 -89.4824 -89.4824 -89.4824 -89.4823 -89.4823 -89.4823 -89.4823
   -89.4804 -89.4804 -89.4804 -89.4804 -89.4803 -89.4803 -89.4803 -89.4803
   -61.7081 -61.7081 -61.7081 -61.7081 -61.7067 -61.7067 -61.7067 -61.7067
   -61.6520 -61.6520 -61.6518 -61.6518 -61.6504 -61.6504 -61.6503 -61.6503
   -51.5587 -51.5587 -51.5514 -51.5514 -51.5511 -51.5511 -51.5460 -51.5460
   -51.5082 -51.5082 -51.5040 -51.5040 -51.5030 -51.5030 -51.5025 -51.5025
   -51.4966 -51.4966 -51.4928 -51.4928 -51.4913 -51.4913 -51.4909 -51.4909
   -51.4216 -51.4216 -51.4109 -51.4109 -51.4090 -51.4090 -51.4073 -51.4073
   -49.4484 -49.4484 -49.4447 -49.4447 -49.4256 -49.4256 -49.4192 -49.4192
   -49.4123 -49.4123 -49.4031 -49.4031 -49.3858 -49.3858 -49.3820 -49.3820
   -49.3350 -49.3350 -49.3279 -49.3279 -49.3269 -49.3269 -49.3185 -49.3185
   -49.3145 -49.3145 -49.3136 -49.3136 -49.3065 -49.3065 -49.2799 -49.2799
   -49.2791 -49.2791 -49.2456 -49.2456 -49.2361 -49.2361 -49.2331 -49.2331
   -49.2241 -49.2241 -49.2167 -49.2167 -49.2122 -49.2122 -49.2102 -49.2102
   -49.1900 -49.1900 -49.1889 -49.1889 -49.1784 -49.1784 -49.1769 -49.1769
   -49.1632 -49.1632 -49.1596 -49.1596 -49.1575 -49.1575 -49.1554 -49.1554
   -28.8419 -28.8419 -28.8418 -28.8418 -28.8364 -28.8364 -28.8364 -28.8364
   -28.7839 -28.7839 -28.7835 -28.7835 -28.7776 -28.7776 -28.7776 -28.7776
   -28.5574 -28.5574 -28.5572 -28.5572 -28.5552 -28.5552 -28.5550 -28.5550
   -28.5534 -28.5534 -28.5532 -28.5532 -28.5438 -28.5438 -28.5438 -28.5438
   -28.5016 -28.5016 -28.5014 -28.5014 -28.4934 -28.4934 -28.4931 -28.4931
   -28.4914 -28.4914 -28.4913 -28.4913 -28.4869 -28.4869 -28.4868 -28.4868
     4.6905   4.6905   5.3181   5.3181   5.3189   5.3189   6.7737   6.7737
     7.4392   7.4392   8.7491   8.7491   8.7807   8.7807   8.8521   8.8521
     9.4108   9.4108   9.4154   9.4154   9.5665   9.5665   9.6236   9.6236
     9.7515   9.7515   9.7705   9.7705   9.7888   9.7888   9.8035   9.8035
     9.8258   9.8258   9.8279   9.8279   9.9544   9.9544   9.9747   9.9747
    10.0111  10.0111  10.0748  10.0748  10.0768  10.0768  10.0829  10.0829
    10.1069  10.1069  10.1652  10.1652  10.2235  10.2235  10.2485  10.2485
    10.2688  10.2688  10.3095  10.3095  10.6105  10.6105  10.6107  10.6107
    10.6249  10.6249  10.6370  10.6370  10.6416  10.6416  10.6940  10.6940
    10.8627  10.8627  10.9201  10.9201  11.0264  11.0264  11.0270  11.0270
    11.0693  11.0693  11.1208  11.1208  11.1572  11.1572  11.1610  11.1610
    11.3221  11.3221  11.3413  11.3413  11.5774  11.5774  11.7607  11.7607
    11.8149  11.8149  11.8167  11.8167  11.8280  11.8280  11.8631  11.8631
    11.9882  11.9882  12.0415  12.0415  12.1403  12.1403  12.1489  12.1489
    12.2733  12.2733  12.2845  12.2845  12.3761  12.3761  12.3773  12.3773
    12.3917  12.3917  12.3919  12.3919  12.4000  12.4000  12.4023  12.4023
    12.4047  12.4047  12.4228  12.4228  12.4410  12.4410  12.4431  12.4431
    12.4553  12.4553  12.4692  12.4692  12.4842  12.4842  12.5116  12.5116
    12.5322  12.5322  12.5588  12.5588  12.5603  12.5603  12.5772  12.5772
    12.5992  12.5992  12.6553  12.6553  12.7294  12.7294  12.9712  12.9712
    13.0241  13.0241  13.2506  13.2506  13.2514  13.2514  13.4926  13.4926
    13.4929  13.4929  13.4999  13.4999  13.5023  13.5023  13.7861  13.7861
    13.9373  13.9373  14.1243  14.1243  14.1696  14.1696  14.1812  14.1812
    14.1849  14.1849  14.2033  14.2033  14.2059  14.2059  14.3299  14.3299
    14.5459  14.5459  14.5756  14.5756  14.5896  14.5896  14.6426  14.6426
    15.9690  15.9690  15.9737  15.9737  15.9854  15.9854  16.0238  16.0238
    16.4758  16.4758  16.5246  16.5246  16.8844  16.8844  16.9067  16.9067
    17.5367  17.5367  17.5886  17.5886  17.6056  17.6056  17.7867  17.7867
    17.8666  17.8666  18.0723  18.0723  18.4866  18.4866  18.4968  18.4968
    18.9161  18.9161  18.9367  18.9367  19.2262  19.2262  19.5484  19.5484
    19.5549  19.5549  19.7547  19.7547  19.9738  19.9738  21.3429  21.3429
    21.4743  21.4743

          k = 0.0000 0.3849 0.0000 ( 12516 PWs)   bands (ev):

   -89.5688 -89.5688 -89.5676 -89.5676 -89.5671 -89.5671 -89.5658 -89.5658
   -89.5051 -89.5051 -89.5044 -89.5044 -89.5017 -89.5017 -89.5011 -89.5011
   -89.4881 -89.4881 -89.4880 -89.4880 -89.4862 -89.4862 -89.4861 -89.4861
   -89.4824 -89.4824 -89.4824 -89.4824 -89.4803 -89.4803 -89.4803 -89.4803
   -61.7081 -61.7081 -61.7081 -61.7081 -61.7066 -61.7066 -61.7066 -61.7066
   -61.6520 -61.6520 -61.6520 -61.6520 -61.6504 -61.6504 -61.6503 -61.6503
   -51.5595 -51.5595 -51.5552 -51.5552 -51.5500 -51.5500 -51.5479 -51.5479
   -51.5006 -51.5006 -51.4982 -51.4982 -51.4966 -51.4966 -51.4942 -51.4942
   -51.4795 -51.4795 -51.4767 -51.4767 -51.4754 -51.4754 -51.4740 -51.4740
   -51.4350 -51.4350 -51.4273 -51.4273 -51.4266 -51.4266 -51.4183 -51.4183
   -49.4450 -49.4450 -49.4369 -49.4369 -49.4326 -49.4326 -49.4237 -49.4237
   -49.3824 -49.3824 -49.3793 -49.3793 -49.3707 -49.3707 -49.3649 -49.3649
   -49.3289 -49.3289 -49.3271 -49.3271 -49.3225 -49.3225 -49.3180 -49.3180
   -49.3049 -49.3049 -49.3008 -49.3008 -49.2961 -49.2961 -49.2779 -49.2779
   -49.2751 -49.2751 -49.2516 -49.2516 -49.2466 -49.2466 -49.2386 -49.2386
   -49.2262 -49.2262 -49.2216 -49.2216 -49.2133 -49.2133 -49.2082 -49.2082
   -49.2067 -49.2067 -49.2026 -49.2026 -49.1843 -49.1843 -49.1834 -49.1834
   -49.1804 -49.1804 -49.1792 -49.1792 -49.1613 -49.1613 -49.1605 -49.1605
   -28.8411 -28.8411 -28.8410 -28.8410 -28.8357 -28.8357 -28.8357 -28.8357
   -28.7848 -28.7848 -28.7847 -28.7847 -28.7789 -28.7789 -28.7788 -28.7788
   -28.5578 -28.5578 -28.5577 -28.5577 -28.5539 -28.5539 -28.5536 -28.5536
   -28.5519 -28.5519 -28.5516 -28.5516 -28.5444 -28.5444 -28.5443 -28.5443
   -28.5009 -28.5009 -28.5008 -28.5008 -28.4944 -28.4944 -28.4942 -28.4942
   -28.4923 -28.4923 -28.4921 -28.4921 -28.4865 -28.4865 -28.4864 -28.4864
     5.6817   5.6817   6.2741   6.2741   6.2797   6.2797   7.6910   7.6910
     8.1645   8.1645   8.3498   8.3498   8.6564   8.6564   8.6744   8.6744
     9.2320   9.2320   9.2651   9.2651   9.4210   9.4210   9.5126   9.5126
     9.5982   9.5982   9.7106   9.7106   9.7775   9.7775   9.8526   9.8526
     9.9116   9.9116   9.9843   9.9843  10.0150  10.0150  10.0484  10.0484
    10.0588  10.0588  10.1039  10.1039  10.2126  10.2126  10.2877  10.2877
    10.3416  10.3416  10.3945  10.3945  10.4393  10.4393  10.4973  10.4973
    10.5155  10.5155  10.5455  10.5455  10.5538  10.5538  10.6476  10.6476
    10.6545  10.6545  10.6903  10.6903  10.6943  10.6943  10.7604  10.7604
    10.7890  10.7890  10.7966  10.7966  10.8680  10.8680  10.9223  10.9223
    10.9911  10.9911  11.0470  11.0470  11.0638  11.0638  11.0819  11.0819
    11.1487  11.1487  11.2357  11.2357  11.2734  11.2734  11.3096  11.3096
    11.3268  11.3268  11.4391  11.4391  11.4491  11.4491  11.5023  11.5023
    11.5207  11.5207  11.5878  11.5878  11.6523  11.6523  11.6677  11.6677
    11.6960  11.6960  11.7483  11.7483  11.8287  11.8287  11.8364  11.8364
    11.9146  11.9146  11.9590  11.9590  11.9860  11.9860  12.0139  12.0139
    12.0811  12.0811  12.0957  12.0957  12.1120  12.1120  12.1742  12.1742
    12.1752  12.1752  12.2382  12.2382  12.2853  12.2853  12.3389  12.3389
    12.3515  12.3515  12.4258  12.4258  12.4375  12.4375  12.4468  12.4468
    12.5004  12.5004  12.5126  12.5126  12.5169  12.5169  12.5482  12.5482
    12.6072  12.6072  12.6379  12.6379  12.6540  12.6540  12.7580  12.7580
    12.7828  12.7828  12.8493  12.8493  12.9298  12.9298  13.0614  13.0614
    13.3290  13.3290  13.3773  13.3773  13.7532  13.7532  13.7621  13.7621
    13.9708  13.9708  14.0657  14.0657  14.1543  14.1543  14.3392  14.3392
    14.4009  14.4009  14.4347  14.4347  14.4966  14.4966  14.6983  14.6983
    15.3236  15.3236  15.7706  15.7706  16.0779  16.0779  16.1196  16.1196
    17.4470  17.4470  17.8395  17.8395  17.8993  17.8993  18.0796  18.0796
    18.8414  18.8414  18.9398  18.9398  19.0394  19.0394  19.1614  19.1614
    19.1785  19.1785  19.3398  19.3398  19.8117  19.8117  20.2631  20.2631
    20.2880  20.2880  20.3697  20.3697  20.8517  20.8517  20.9663  20.9663
    21.2055  21.2055  21.6956  21.6956  22.0483  22.0483  22.3335  22.3335
    22.3484  22.3484

          k = 0.3333 0.5774 0.0000 ( 12582 PWs)   bands (ev):

   -89.5680 -89.5680 -89.5680 -89.5680 -89.5664 -89.5664 -89.5664 -89.5664
   -89.4988 -89.4988 -89.4988 -89.4988 -89.4952 -89.4952 -89.4952 -89.4952
   -89.4940 -89.4940 -89.4939 -89.4939 -89.4927 -89.4927 -89.4926 -89.4926
   -89.4823 -89.4823 -89.4823 -89.4823 -89.4803 -89.4803 -89.4803 -89.4803
   -61.7081 -61.7081 -61.7081 -61.7081 -61.7066 -61.7066 -61.7066 -61.7066
   -61.6521 -61.6521 -61.6521 -61.6521 -61.6504 -61.6504 -61.6504 -61.6504
   -51.5629 -51.5629 -51.5626 -51.5626 -51.5513 -51.5513 -51.5510 -51.5510
   -51.5006 -51.5006 -51.5002 -51.5002 -51.5001 -51.5001 -51.4993 -51.4993
   -51.4625 -51.4625 -51.4620 -51.4620 -51.4580 -51.4580 -51.4543 -51.4543
   -51.4542 -51.4542 -51.4502 -51.4502 -51.4446 -51.4446 -51.4444 -51.4444
   -49.4428 -49.4428 -49.4427 -49.4427 -49.4335 -49.4335 -49.4281 -49.4281
   -49.3576 -49.3576 -49.3562 -49.3562 -49.3555 -49.3555 -49.3512 -49.3512
   -49.3483 -49.3483 -49.3467 -49.3467 -49.3458 -49.3458 -49.3135 -49.3135
   -49.3050 -49.3050 -49.3018 -49.3018 -49.2944 -49.2944 -49.2743 -49.2743
   -49.2679 -49.2679 -49.2616 -49.2616 -49.2565 -49.2565 -49.2560 -49.2560
   -49.2313 -49.2313 -49.2217 -49.2217 -49.2174 -49.2174 -49.2131 -49.2131
   -49.2075 -49.2075 -49.2037 -49.2037 -49.2017 -49.2017 -49.1937 -49.1937
   -49.1935 -49.1935 -49.1930 -49.1930 -49.1719 -49.1719 -49.1714 -49.1714
   -28.8410 -28.8410 -28.8406 -28.8406 -28.8357 -28.8357 -28.8353 -28.8353
   -28.7855 -28.7855 -28.7854 -28.7854 -28.7797 -28.7797 -28.7796 -28.7796
   -28.5591 -28.5591 -28.5567 -28.5567 -28.5540 -28.5540 -28.5540 -28.5540
   -28.5505 -28.5505 -28.5504 -28.5504 -28.5463 -28.5463 -28.5434 -28.5434
   -28.5007 -28.5007 -28.5006 -28.5006 -28.4956 -28.4956 -28.4954 -28.4954
   -28.4925 -28.4925 -28.4921 -28.4921 -28.4864 -28.4864 -28.4863 -28.4863
     7.3115   7.3115   7.3123   7.3123   7.7367   7.7367   7.8537   7.8537
     7.8595   7.8595   8.0461   8.0461   8.1748   8.1748   8.1797   8.1797
     8.3627   8.3627   9.2038   9.2038   9.2040   9.2040   9.2339   9.2339
     9.2406   9.2406   9.2601   9.2601   9.3109   9.3109   9.9593   9.9593
     9.9651   9.9651   9.9680   9.9680  10.1053  10.1053  10.1198  10.1198
    10.2548  10.2548  10.2857  10.2857  10.4173  10.4173  10.4330  10.4330
    10.4864  10.4864  10.4968  10.4968  10.5439  10.5439  10.5501  10.5501
    10.5551  10.5551  10.5684  10.5684  10.6385  10.6385  10.7036  10.7036
    10.7279  10.7279  10.7311  10.7311  10.7455  10.7455  10.7476  10.7476
    10.7811  10.7811  10.8123  10.8123  10.8251  10.8251  10.8560  10.8560
    10.8670  10.8670  10.8686  10.8686  10.9173  10.9173  10.9217  10.9217
    10.9863  10.9863  10.9959  10.9959  11.0167  11.0167  11.0397  11.0397
    11.0727  11.0727  11.2272  11.2272  11.2416  11.2416  11.2548  11.2548
    11.3861  11.3861  11.5102  11.5102  11.5279  11.5279  11.5311  11.5311
    11.5653  11.5653  11.5882  11.5882  11.7520  11.7520  11.7570  11.7570
    11.8466  11.8466  11.8761  11.8761  11.8942  11.8942  11.9091  11.9091
    11.9673  11.9673  11.9719  11.9719  11.9931  11.9931  12.0798  12.0798
    12.1332  12.1332  12.1596  12.1596  12.1730  12.1730  12.1793  12.1793
    12.2138  12.2138  12.2310  12.2310  12.2320  12.2320  12.2767  12.2767
    12.2972  12.2972  12.3007  12.3007  12.3630  12.3630  12.4246  12.4246
    12.5824  12.5824  12.6072  12.6072  12.6897  12.6897  12.6902  12.6902
    12.7122  12.7122  12.7951  12.7951  12.8047  12.8047  12.9039  12.9039
    12.9640  12.9640  13.0296  13.0296  13.0305  13.0305  13.2397  13.2397
    13.3945  13.3945  13.4046  13.4046  13.4651  13.4651  14.8357  14.8357
    14.8564  14.8564  14.8984  14.8984  15.1156  15.1156  15.1232  15.1232
    15.6996  15.6996  17.5251  17.5251  17.5275  17.5275  17.6873  17.6873
    17.9459  17.9459  17.9461  17.9461  18.5610  18.5610  18.6223  18.6223
    18.6230  18.6230  18.6926  18.6926  18.7011  18.7011  18.9345  18.9345
    19.1860  19.1860  19.5730  19.5730  19.6525  19.6525  19.6678  19.6678
    20.4687  20.4687  20.4716  20.4716  20.7952  20.7952  20.8104  20.8104
    20.9131  20.9131  21.5884  21.5884  22.9022  22.9022  22.9113  22.9113
    23.1169  23.1304

     the Fermi energy is    13.1028 ev

!    total energy              =   -7950.11557925 Ry
     total all-electron energy =    -51823.967663 Ry
     estimated scf accuracy    <          4.9E-10 Ry
     smearing contrib. (-TS)   =       0.10405536 Ry
     internal energy E=F+TS    =   -7950.21963461 Ry

     The total energy is F=E-TS. E is the sum of the following terms:
     one-electron contribution =   -4471.59197423 Ry
     hartree contribution      =    2392.44414966 Ry
     xc contribution           =    -681.93156713 Ry
     ewald contribution        =   -3650.95346270 Ry
     one-center paw contrib.   =   -1538.18678022 Ry

     convergence has been achieved in  17 iterations

     Forces acting on atoms (cartesian axes, Ry/au):

     atom    1 type  1   force =    -0.00000000   -0.00000000    0.00224807
     atom    2 type  1   force =     0.00000000    0.00000000    0.00224807
     atom    3 type  1   force =    -0.00000000   -0.00000000   -0.00224807
     atom    4 type  1   force =     0.00000000    0.00000000   -0.00224807
     atom    5 type  1   force =     0.00000000    0.00000000    0.00048310
     atom    6 type  1   force =     0.00000000    0.00000000    0.00048310
     atom    7 type  1   force =     0.00000000    0.00000000   -0.00048310
     atom    8 type  1   force =    -0.00000000   -0.00000000   -0.00048310
     atom    9 type  2   force =     0.00000000    0.00000000   -0.00061578
     atom   10 type  2   force =     0.00000000    0.00000000   -0.00061578
     atom   11 type  2   force =     0.00000000    0.00000000    0.00061578
     atom   12 type  2   force =     0.00000000    0.00000000    0.00061578
     atom   13 type  2   force =    -0.00000000    0.00097790    0.00000000
     atom   14 type  2   force =    -0.00084688    0.00048895    0.00000000
     atom   15 type  2   force =     0.00000000   -0.00097790    0.00000000
     atom   16 type  2   force =     0.00084688   -0.00048895    0.00000000
     atom   17 type  2   force =    -0.00084688   -0.00048895   -0.00000000
     atom   18 type  2   force =     0.00084688    0.00048895    0.00000000
     atom   19 type  2   force =     0.00000000    0.00000000    0.00000000
     atom   20 type  2   force =    -0.00000000   -0.00000000   -0.00000000
     atom   21 type  2   force =    -0.00000000   -0.00000000    0.00000000
     atom   22 type  2   force =     0.00000000    0.00000000    0.00000000
     atom   23 type  2   force =     0.00000000    0.00000000   -0.00000000
     atom   24 type  2   force =     0.00000000   -0.00000000    0.00000000
     The non-local contrib.  to forces
     atom    1 type  1   force =    -0.00000000   -0.00000000    0.02133461
     atom    2 type  1   force =     0.00000000    0.00000000    0.02133461
     atom    3 type  1   force =    -0.00000000   -0.00000000   -0.02133461
     atom    4 type  1   force =     0.00000000    0.00000000   -0.02133461
     atom    5 type  1   force =    -0.00000000   -0.00000000   -0.00304488
     atom    6 type  1   force =    -0.00000000   -0.00000000   -0.00304488
     atom    7 type  1   force =     0.00000000   -0.00000000    0.00304488
     atom    8 type  1   force =     0.00000000    0.00000000    0.00304488
     atom    9 type  2   force =     0.00000000    0.00000000   -0.00028671
     atom   10 type  2   force =     0.00000000   -0.00000000   -0.00028671
     atom   11 type  2   force =    -0.00000000   -0.00000000    0.00028671
     atom   12 type  2   force =     0.00000000    0.00000000    0.00028671
     atom   13 type  2   force =     0.00000000   -0.08271167   -0.00000000
     atom   14 type  2   force =     0.07163041   -0.04135583    0.00000000
     atom   15 type  2   force =     0.00000000    0.08271167    0.00000000
     atom   16 type  2   force =    -0.07163041    0.04135583    0.00000000
     atom   17 type  2   force =     0.07163041    0.04135583    0.00000000
     atom   18 type  2   force =    -0.07163041   -0.04135583   -0.00000000
     atom   19 type  2   force =     0.00000000   -0.00000000   -0.00000000
     atom   20 type  2   force =     0.00000000    0.00000000    0.00000000
     atom   21 type  2   force =    -0.00000000    0.00000000    0.00000000
     atom   22 type  2   force =     0.00000000    0.00000000    0.00000000
     atom   23 type  2   force =     0.00000000   -0.00000000    0.00000000
     atom   24 type  2   force =     0.00000000    0.00000000   -0.00000000
     The ionic contribution  to forces
     atom    1 type  1   force =    -0.00001564    0.00000954   -0.61788342
     atom    2 type  1   force =     0.00001564   -0.00000954   -0.61788342
     atom    3 type  1   force =     0.00001564   -0.00000954    0.61788342
     atom    4 type  1   force =    -0.00001564    0.00000954    0.61788342
     atom    5 type  1   force =     0.00005537   -0.00003140    0.20920893
     atom    6 type  1   force =    -0.00005537    0.00003140    0.20920893
     atom    7 type  1   force =    -0.00005537    0.00003140   -0.20920893
     atom    8 type  1   force =     0.00005537   -0.00003140   -0.20920893
     atom    9 type  2   force =     0.00005922   -0.00003415   -0.36277531
     atom   10 type  2   force =    -0.00005922    0.00003415   -0.36277531
     atom   11 type  2   force =    -0.00005922    0.00003415    0.36277531
     atom   12 type  2   force =     0.00005922   -0.00003415    0.36277531
     atom   13 type  2   force =     0.00007148  -13.52802774    0.00000000
     atom   14 type  2   force =    11.71570040   -6.76406332   -0.00000000
     atom   15 type  2   force =    -0.00007148   13.52802774   -0.00000000
     atom   16 type  2   force =   -11.71570040    6.76406332    0.00000000
     atom   17 type  2   force =    11.71565125    6.76395241    0.00000000
     atom   18 type  2   force =   -11.71565125   -6.76395241   -0.00000000
     atom   19 type  2   force =    -0.00000000    0.00000000    0.00000000
     atom   20 type  2   force =     0.00000000   -0.00000000    0.00000000
     atom   21 type  2   force =    -0.00000000   -0.00000000    0.00000000
     atom   22 type  2   force =     0.00000000   -0.00000000    0.00000000
     atom   23 type  2   force =     0.00000000   -0.00000000    0.00000000
     atom   24 type  2   force =     0.00000000   -0.00000000    0.00000000
     The local contribution  to forces
     atom    1 type  1   force =    -0.00000000   -0.00000048    0.59888510
     atom    2 type  1   force =    -0.00000000    0.00000048    0.59888510
     atom    3 type  1   force =    -0.00000000    0.00000048   -0.59888510
     atom    4 type  1   force =    -0.00000000   -0.00000048   -0.59888510
     atom    5 type  1   force =     0.00145580   -0.00084102   -0.20571120
     atom    6 type  1   force =    -0.00145580    0.00084102   -0.20571120
     atom    7 type  1   force =    -0.00145580    0.00084102    0.20571120
     atom    8 type  1   force =     0.00145580   -0.00084102    0.20571120
     atom    9 type  2   force =     0.00193262   -0.00111583    0.36464688
     atom   10 type  2   force =    -0.00193262    0.00111583    0.36464688
     atom   11 type  2   force =    -0.00193262    0.00111583   -0.36464688
     atom   12 type  2   force =     0.00193262   -0.00111583   -0.36464688
     atom   13 type  2   force =    -0.00193099   13.61196789   -0.00000000
     atom   14 type  2   force =   -11.78564616    6.80444615   -0.00000000
     atom   15 type  2   force =     0.00193099  -13.61196789   -0.00000000
     atom   16 type  2   force =    11.78564616   -6.80444615    0.00000000
     atom   17 type  2   force =   -11.78927585   -6.80431204    0.00000000
     atom   18 type  2   force =    11.78927585    6.80431204   -0.00000000
     atom   19 type  2   force =     0.00000000    0.00000000    0.00000000
     atom   20 type  2   force =     0.00000000    0.00000000    0.00000000
     atom   21 type  2   force =     0.00000000    0.00000000    0.00000000
     atom   22 type  2   force =     0.00000000    0.00000000    0.00000000
     atom   23 type  2   force =    -0.00000000    0.00000000    0.00000000
     atom   24 type  2   force =    -0.00000000    0.00000000    0.00000000
     The core correction contribution to forces
     atom    1 type  1   force =     0.00000000   -0.00000000   -0.00008640
     atom    2 type  1   force =    -0.00000000    0.00000000   -0.00008640
     atom    3 type  1   force =    -0.00000000    0.00000000    0.00008640
     atom    4 type  1   force =     0.00000000   -0.00000000    0.00008640
     atom    5 type  1   force =     0.00000316   -0.00000183    0.00002152
     atom    6 type  1   force =    -0.00000316    0.00000183    0.00002152
     atom    7 type  1   force =    -0.00000316    0.00000183   -0.00002152
     atom    8 type  1   force =     0.00000316   -0.00000183   -0.00002152
     atom    9 type  2   force =     0.00000119   -0.00000069   -0.00225295
     atom   10 type  2   force =    -0.00000119    0.00000069   -0.00225295
     atom   11 type  2   force =    -0.00000119    0.00000069    0.00225295
     atom   12 type  2   force =     0.00000119   -0.00000069    0.00225295
     atom   13 type  2   force =    -0.00000118    0.00082915    0.00000000
     atom   14 type  2   force =    -0.00071623    0.00041351   -0.00000000
     atom   15 type  2   force =     0.00000118   -0.00082915   -0.00000000
     atom   16 type  2   force =     0.00071623   -0.00041351    0.00000000
     atom   17 type  2   force =    -0.00071866   -0.00041355    0.00000000
     atom   18 type  2   force =     0.00071866    0.00041355   -0.00000000
     atom   19 type  2   force =     0.00000000    0.00000000    0.00000000
     atom   20 type  2   force =     0.00000000   -0.00000000    0.00000000
     atom   21 type  2   force =     0.00000000    0.00000000    0.00000000
     atom   22 type  2   force =     0.00000000    0.00000000    0.00000000
     atom   23 type  2   force =    -0.00000000    0.00000000    0.00000000
     atom   24 type  2   force =    -0.00000000    0.00000000    0.00000000
     The Hubbard contrib.    to forces
     atom    1 type  1   force =     0.00000000    0.00000000    0.00000000
     atom    2 type  1   force =     0.00000000    0.00000000    0.00000000
     atom    3 type  1   force =     0.00000000    0.00000000    0.00000000
     atom    4 type  1   force =     0.00000000    0.00000000    0.00000000
     atom    5 type  1   force =     0.00000000    0.00000000    0.00000000
     atom    6 type  1   force =     0.00000000    0.00000000    0.00000000
     atom    7 type  1   force =     0.00000000    0.00000000    0.00000000
     atom    8 type  1   force =     0.00000000    0.00000000    0.00000000
     atom    9 type  2   force =     0.00000000    0.00000000    0.00000000
     atom   10 type  2   force =     0.00000000    0.00000000    0.00000000
     atom   11 type  2   force =     0.00000000    0.00000000    0.00000000
     atom   12 type  2   force =     0.00000000    0.00000000    0.00000000
     atom   13 type  2   force =     0.00000000    0.00000000    0.00000000
     atom   14 type  2   force =     0.00000000    0.00000000    0.00000000
     atom   15 type  2   force =     0.00000000    0.00000000    0.00000000
     atom   16 type  2   force =     0.00000000    0.00000000    0.00000000
     atom   17 type  2   force =     0.00000000    0.00000000    0.00000000
     atom   18 type  2   force =     0.00000000    0.00000000    0.00000000
     atom   19 type  2   force =     0.00000000    0.00000000    0.00000000
     atom   20 type  2   force =     0.00000000    0.00000000    0.00000000
     atom   21 type  2   force =     0.00000000    0.00000000    0.00000000
     atom   22 type  2   force =     0.00000000    0.00000000    0.00000000
     atom   23 type  2   force =     0.00000000    0.00000000    0.00000000
     atom   24 type  2   force =     0.00000000    0.00000000    0.00000000
     The SCF correction term to forces
     atom    1 type  1   force =     0.00000002   -0.00000001   -0.00000181
     atom    2 type  1   force =    -0.00000002    0.00000001   -0.00000181
     atom    3 type  1   force =    -0.00000002    0.00000001    0.00000181
     atom    4 type  1   force =     0.00000002   -0.00000001    0.00000181
     atom    5 type  1   force =    -0.00000000   -0.00000000    0.00000874
     atom    6 type  1   force =     0.00000000    0.00000000    0.00000874
     atom    7 type  1   force =     0.00000000    0.00000000   -0.00000874
     atom    8 type  1   force =    -0.00000000   -0.00000000   -0.00000874
     atom    9 type  2   force =    -0.00000006    0.00000004    0.00005231
     atom   10 type  2   force =     0.00000006   -0.00000004    0.00005231
     atom   11 type  2   force =     0.00000006   -0.00000004   -0.00005231
     atom   12 type  2   force =    -0.00000006    0.00000004   -0.00005231
     atom   13 type  2   force =     0.00000000   -0.00002120   -0.00000000
     atom   14 type  2   force =     0.00001836   -0.00001060    0.00000000
     atom   15 type  2   force =    -0.00000000    0.00002120    0.00000000
     atom   16 type  2   force =    -0.00001836    0.00001060   -0.00000000
     atom   17 type  2   force =     0.00001836    0.00001059   -0.00000000
     atom   18 type  2   force =    -0.00001836   -0.00001059    0.00000000
     atom   19 type  2   force =     0.00000000   -0.00000000   -0.00000000
     atom   20 type  2   force =     0.00000000   -0.00000000   -0.00000000
     atom   21 type  2   force =     0.00000000    0.00000000   -0.00000000
     atom   22 type  2   force =    -0.00000000    0.00000000   -0.00000000
     atom   23 type  2   force =    -0.00000000   -0.00000000   -0.00000000
     atom   24 type  2   force =     0.00000000    0.00000000   -0.00000000

     Total force =     0.005329     Total SCF correction =     0.000118
     Energy error            =      8.4E-05 Ry
     Gradient error          =      2.2E-03 Ry/Bohr

     number of scf cycles    =   4
     number of bfgs steps    =   3

     energy             old  =   -7950.1154948428 Ry
     energy             new  =   -7950.1155792518 Ry

     CASE: energy            _new < energy            _old

     new trust radius        =       0.0057285317 bohr
     new conv_thr            =       0.0000000004 Ry


ATOMIC_POSITIONS (crystal)
Mg           -0.0000000000       -0.0000000000        0.4068885118
Mg            0.0000000000        0.0000000000        0.9068885118
Mg           -0.0000000000        0.0000000000        0.5931114882
Mg            0.0000000000        0.0000000000        0.0931114882
Mg            0.3333330000        0.6666670000        0.6560036109
Mg            0.6666670000        0.3333330000        0.1560036109
Mg            0.6666670000        0.3333330000        0.3439963891
Mg            0.3333330000        0.6666670000        0.8439963891
Ni            0.3333330000        0.6666670000        0.3753656189
Ni            0.6666670000        0.3333330000        0.8753656189
Ni            0.6666670000        0.3333330000        0.6246343811
Ni            0.3333330000        0.6666670000        0.1246343811
Ni            0.1651134545        0.3302259090        0.2500000000
Ni            0.8348865456        0.1651134545        0.7500000000
Ni            0.8348865455        0.6697740910        0.7500000000
Ni            0.1651134544        0.8348865455        0.2500000000
Ni            0.6697740911        0.8348865455        0.2500000000
Ni            0.3302259089        0.1651134545        0.7500000000
Ni            0.5000000000        0.0000000000        0.5000000000
Ni            0.5000000000        0.5000000000       -0.0000000000
Ni            0.5000000000        0.0000000000       -0.0000000000
Ni            0.5000000000        0.5000000000        0.5000000000
Ni            0.0000000000        0.5000000000       -0.0000000000
Ni            0.0000000000        0.5000000000        0.5000000000



     Writing config-only to output data dir ./ACOptimization/out/iso.save/
     NEW-OLD atomic charge density approx. for the potential

     Check: negative core charge=   -0.000016

     total cpu time spent up to now is     1988.0 secs

     Self-consistent Calculation

     iteration #  1     ecut=    50.00 Ry     beta= 0.10
     Davidson diagonalization with overlap
     ethr =  1.00E-06,  avg # of iterations =  4.7

     Threshold (ethr) on eigenvalues was too large:
     Diagonalizing with lowered threshold

     Davidson diagonalization with overlap
     ethr =  6.70E-09,  avg # of iterations =  5.0

     total cpu time spent up to now is     2043.5 secs

     total energy              =   -7950.11565440 Ry
     estimated scf accuracy    <       0.00002060 Ry

     iteration #  2     ecut=    50.00 Ry     beta= 0.10
     Davidson diagonalization with overlap
     ethr =  5.60E-09,  avg # of iterations =  1.0

     total cpu time spent up to now is     2061.8 secs

     total energy              =   -7950.11563282 Ry
     estimated scf accuracy    <       0.00001093 Ry

     iteration #  3     ecut=    50.00 Ry     beta= 0.10
     Davidson diagonalization with overlap
     ethr =  2.97E-09,  avg # of iterations =  1.0

     total cpu time spent up to now is     2079.7 secs

     total energy              =   -7950.11561592 Ry
     estimated scf accuracy    <       0.00000381 Ry

     iteration #  4     ecut=    50.00 Ry     beta= 0.10
     Davidson diagonalization with overlap
     ethr =  1.03E-09,  avg # of iterations =  4.0

     total cpu time spent up to now is     2105.0 secs

     total energy              =   -7950.11561708 Ry
     estimated scf accuracy    <       0.00000061 Ry

     iteration #  5     ecut=    50.00 Ry     beta= 0.10
     Davidson diagonalization with overlap
     ethr =  1.66E-10,  avg # of iterations =  2.0

     total cpu time spent up to now is     2124.2 secs

     total energy              =   -7950.11561889 Ry
     estimated scf accuracy    <       0.00000062 Ry

     iteration #  6     ecut=    50.00 Ry     beta= 0.10
     Davidson diagonalization with overlap
     ethr =  1.66E-10,  avg # of iterations =  2.0

     total cpu time spent up to now is     2144.8 secs

     total energy              =   -7950.11562084 Ry
     estimated scf accuracy    <       0.00000051 Ry

     iteration #  7     ecut=    50.00 Ry     beta= 0.10
     Davidson diagonalization with overlap
     ethr =  1.40E-10,  avg # of iterations =  2.0

     total cpu time spent up to now is     2167.4 secs

     total energy              =   -7950.11561724 Ry
     estimated scf accuracy    <       0.00000073 Ry

     iteration #  8     ecut=    50.00 Ry     beta= 0.10
     Davidson diagonalization with overlap
     ethr =  1.40E-10,  avg # of iterations =  2.0

     total cpu time spent up to now is     2191.9 secs

     total energy              =   -7950.11561560 Ry
     estimated scf accuracy    <       0.00000031 Ry

     iteration #  9     ecut=    50.00 Ry     beta= 0.10
     Davidson diagonalization with overlap
     ethr =  8.32E-11,  avg # of iterations =  3.3

     total cpu time spent up to now is     2216.3 secs

     total energy              =   -7950.11561519 Ry
     estimated scf accuracy    <       0.00000095 Ry

     iteration # 10     ecut=    50.00 Ry     beta= 0.10
     Davidson diagonalization with overlap
     ethr =  8.32E-11,  avg # of iterations =  4.0

     total cpu time spent up to now is     2240.5 secs

     total energy              =   -7950.11561530 Ry
     estimated scf accuracy    <       0.00000045 Ry

     iteration # 11     ecut=    50.00 Ry     beta= 0.10
     Davidson diagonalization with overlap
     ethr =  8.32E-11,  avg # of iterations =  2.0

     total cpu time spent up to now is     2264.1 secs

     total energy              =   -7950.11561538 Ry
     estimated scf accuracy    <       0.00000002 Ry

     iteration # 12     ecut=    50.00 Ry     beta= 0.10
     Davidson diagonalization with overlap
     ethr =  5.23E-12,  avg # of iterations =  3.3

     total cpu time spent up to now is     2286.9 secs

     total energy              =   -7950.11561540 Ry
     estimated scf accuracy    <       0.00000001 Ry

     iteration # 13     ecut=    50.00 Ry     beta= 0.10
     Davidson diagonalization with overlap
     ethr =  3.71E-12,  avg # of iterations =  2.0

     total cpu time spent up to now is     2309.3 secs

     total energy              =   -7950.11561541 Ry
     estimated scf accuracy    <          9.5E-10 Ry

     iteration # 14     ecut=    50.00 Ry     beta= 0.10
     Davidson diagonalization with overlap
     ethr =  2.59E-13,  avg # of iterations =  4.7

     total cpu time spent up to now is     2337.8 secs

     total energy              =   -7950.11561541 Ry
     estimated scf accuracy    <          2.1E-09 Ry

     iteration # 15     ecut=    50.00 Ry     beta= 0.10
     Davidson diagonalization with overlap
     ethr =  2.59E-13,  avg # of iterations =  2.0

     total cpu time spent up to now is     2360.4 secs

     total energy              =   -7950.11561541 Ry
     estimated scf accuracy    <          4.7E-09 Ry

     iteration # 16     ecut=    50.00 Ry     beta= 0.10
     Davidson diagonalization with overlap
     ethr =  2.59E-13,  avg # of iterations =  2.0

     total cpu time spent up to now is     2381.1 secs

     total energy              =   -7950.11561541 Ry
     estimated scf accuracy    <          3.5E-09 Ry

     iteration # 17     ecut=    50.00 Ry     beta= 0.10
     Davidson diagonalization with overlap
     ethr =  2.59E-13,  avg # of iterations =  2.0

     total cpu time spent up to now is     2405.9 secs

     End of self-consistent calculation

          k = 0.0000 0.0000 0.0000 ( 12553 PWs)   bands (ev):

   -89.5692 -89.5692 -89.5672 -89.5672 -89.5669 -89.5669 -89.5648 -89.5648
   -89.5109 -89.5109 -89.5092 -89.5092 -89.5081 -89.5081 -89.5065 -89.5065
   -89.4818 -89.4818 -89.4818 -89.4818 -89.4817 -89.4817 -89.4817 -89.4817
   -89.4813 -89.4813 -89.4813 -89.4813 -89.4812 -89.4812 -89.4812 -89.4812
   -61.7078 -61.7078 -61.7077 -61.7077 -61.7064 -61.7064 -61.7064 -61.7064
   -61.6523 -61.6523 -61.6522 -61.6522 -61.6506 -61.6506 -61.6506 -61.6506
   -51.5581 -51.5581 -51.5509 -51.5509 -51.5504 -51.5504 -51.5453 -51.5453
   -51.5085 -51.5085 -51.5038 -51.5038 -51.5034 -51.5034 -51.5024 -51.5024
   -51.4969 -51.4969 -51.4922 -51.4922 -51.4918 -51.4918 -51.4914 -51.4914
   -51.4218 -51.4218 -51.4103 -51.4103 -51.4091 -51.4091 -51.4082 -51.4082
   -49.4483 -49.4483 -49.4446 -49.4446 -49.4249 -49.4249 -49.4184 -49.4184
   -49.4123 -49.4123 -49.4035 -49.4035 -49.3857 -49.3857 -49.3815 -49.3815
   -49.3350 -49.3350 -49.3275 -49.3275 -49.3268 -49.3268 -49.3187 -49.3187
   -49.3148 -49.3148 -49.3143 -49.3143 -49.3057 -49.3057 -49.2797 -49.2797
   -49.2784 -49.2784 -49.2455 -49.2455 -49.2354 -49.2354 -49.2331 -49.2331
   -49.2237 -49.2237 -49.2160 -49.2160 -49.2131 -49.2131 -49.2104 -49.2104
   -49.1895 -49.1895 -49.1884 -49.1884 -49.1779 -49.1779 -49.1763 -49.1763
   -49.1643 -49.1643 -49.1607 -49.1607 -49.1587 -49.1587 -49.1567 -49.1567
   -28.8415 -28.8415 -28.8414 -28.8414 -28.8360 -28.8360 -28.8360 -28.8360
   -28.7842 -28.7842 -28.7838 -28.7838 -28.7778 -28.7778 -28.7778 -28.7778
   -28.5572 -28.5572 -28.5569 -28.5569 -28.5548 -28.5548 -28.5546 -28.5546
   -28.5529 -28.5529 -28.5527 -28.5527 -28.5435 -28.5435 -28.5435 -28.5435
   -28.5022 -28.5022 -28.5020 -28.5020 -28.4936 -28.4936 -28.4933 -28.4933
   -28.4915 -28.4915 -28.4914 -28.4914 -28.4872 -28.4872 -28.4871 -28.4871
     4.6905   4.6905   5.3168   5.3168   5.3201   5.3201   6.7723   6.7723
     7.4410   7.4410   8.7494   8.7494   8.7808   8.7808   8.8535   8.8535
     9.4093   9.4093   9.4148   9.4148   9.5688   9.5688   9.6233   9.6233
     9.7491   9.7491   9.7699   9.7699   9.7883   9.7883   9.8030   9.8030
     9.8247   9.8247   9.8271   9.8271   9.9556   9.9556   9.9759   9.9759
    10.0117  10.0117  10.0734  10.0734  10.0767  10.0767  10.0828  10.0828
    10.1070  10.1070  10.1651  10.1651  10.2250  10.2250  10.2485  10.2485
    10.2703  10.2703  10.3095  10.3095  10.6099  10.6099  10.6102  10.6102
    10.6266  10.6266  10.6365  10.6365  10.6410  10.6410  10.6957  10.6957
    10.8627  10.8627  10.9200  10.9200  11.0272  11.0272  11.0276  11.0276
    11.0696  11.0696  11.1213  11.1213  11.1579  11.1579  11.1619  11.1619
    11.3233  11.3233  11.3425  11.3425  11.5774  11.5774  11.7615  11.7615
    11.8160  11.8160  11.8163  11.8163  11.8285  11.8285  11.8633  11.8633
    11.9884  11.9884  12.0417  12.0417  12.1405  12.1405  12.1490  12.1490
    12.2740  12.2740  12.2852  12.2852  12.3756  12.3756  12.3772  12.3772
    12.3903  12.3903  12.3906  12.3906  12.4008  12.4008  12.4014  12.4014
    12.4050  12.4050  12.4221  12.4221  12.4413  12.4413  12.4426  12.4426
    12.4548  12.4548  12.4691  12.4691  12.4838  12.4838  12.5120  12.5120
    12.5326  12.5326  12.5574  12.5574  12.5590  12.5590  12.5762  12.5762
    12.5990  12.5990  12.6563  12.6563  12.7304  12.7304  12.9722  12.9722
    13.0250  13.0250  13.2507  13.2507  13.2516  13.2516  13.4932  13.4932
    13.4932  13.4932  13.4989  13.4989  13.5012  13.5012  13.7877  13.7877
    13.9385  13.9385  14.1267  14.1267  14.1678  14.1678  14.1811  14.1811
    14.1835  14.1835  14.2026  14.2026  14.2033  14.2033  14.3310  14.3310
    14.5464  14.5464  14.5761  14.5761  14.5864  14.5864  14.6398  14.6398
    15.9705  15.9705  15.9741  15.9741  15.9860  15.9860  16.0254  16.0254
    16.4771  16.4771  16.5259  16.5259  16.8843  16.8843  16.9067  16.9067
    17.5337  17.5337  17.5906  17.5906  17.6076  17.6076  17.7843  17.7843
    17.8627  17.8627  18.0716  18.0716  18.4860  18.4860  18.4961  18.4961
    18.9165  18.9165  18.9370  18.9370  19.2272  19.2272  19.5477  19.5477
    19.5541  19.5541  19.7530  19.7530  19.9742  19.9742  21.3356  21.3356
    21.4740  21.4740

          k = 0.0000 0.3849 0.0000 ( 12516 PWs)   bands (ev):

   -89.5682 -89.5682 -89.5669 -89.5669 -89.5665 -89.5665 -89.5651 -89.5651
   -89.5048 -89.5048 -89.5039 -89.5039 -89.5026 -89.5026 -89.5017 -89.5017
   -89.4877 -89.4877 -89.4873 -89.4873 -89.4871 -89.4871 -89.4868 -89.4868
   -89.4818 -89.4818 -89.4818 -89.4818 -89.4812 -89.4812 -89.4812 -89.4812
   -61.7077 -61.7077 -61.7077 -61.7077 -61.7062 -61.7062 -61.7062 -61.7062
   -61.6523 -61.6523 -61.6523 -61.6523 -61.6506 -61.6506 -61.6506 -61.6506
   -51.5589 -51.5589 -51.5546 -51.5546 -51.5494 -51.5494 -51.5474 -51.5474
   -51.5005 -51.5005 -51.4991 -51.4991 -51.4960 -51.4960 -51.4945 -51.4945
   -51.4795 -51.4795 -51.4763 -51.4763 -51.4762 -51.4762 -51.4740 -51.4740
   -51.4351 -51.4351 -51.4274 -51.4274 -51.4267 -51.4267 -51.4185 -51.4185
   -49.4447 -49.4447 -49.4367 -49.4367 -49.4321 -49.4321 -49.4232 -49.4232
   -49.3825 -49.3825 -49.3796 -49.3796 -49.3704 -49.3704 -49.3647 -49.3647
   -49.3291 -49.3291 -49.3267 -49.3267 -49.3226 -49.3226 -49.3177 -49.3177
   -49.3051 -49.3051 -49.3008 -49.3008 -49.2955 -49.2955 -49.2776 -49.2776
   -49.2747 -49.2747 -49.2515 -49.2515 -49.2462 -49.2462 -49.2381 -49.2381
   -49.2260 -49.2260 -49.2211 -49.2211 -49.2143 -49.2143 -49.2083 -49.2083
   -49.2061 -49.2061 -49.2025 -49.2025 -49.1841 -49.1841 -49.1831 -49.1831
   -49.1811 -49.1811 -49.1800 -49.1800 -49.1625 -49.1625 -49.1617 -49.1617
   -28.8408 -28.8408 -28.8407 -28.8407 -28.8354 -28.8354 -28.8353 -28.8353
   -28.7852 -28.7852 -28.7851 -28.7851 -28.7791 -28.7791 -28.7790 -28.7790
   -28.5576 -28.5576 -28.5574 -28.5574 -28.5535 -28.5535 -28.5532 -28.5532
   -28.5515 -28.5515 -28.5512 -28.5512 -28.5440 -28.5440 -28.5440 -28.5440
   -28.5015 -28.5015 -28.5014 -28.5014 -28.4946 -28.4946 -28.4944 -28.4944
   -28.4924 -28.4924 -28.4922 -28.4922 -28.4867 -28.4867 -28.4867 -28.4867
     5.6819   5.6819   6.2761   6.2761   6.2778   6.2778   7.6901   7.6901
     8.1660   8.1660   8.3494   8.3494   8.6578   8.6578   8.6729   8.6729
     9.2320   9.2320   9.2657   9.2657   9.4222   9.4222   9.5132   9.5132
     9.5983   9.5983   9.7116   9.7116   9.7780   9.7780   9.8525   9.8525
     9.9115   9.9115   9.9840   9.9840  10.0139  10.0139  10.0480  10.0480
    10.0589  10.0589  10.1056  10.1056  10.2128  10.2128  10.2870  10.2870
    10.3416  10.3416  10.3949  10.3949  10.4395  10.4395  10.4971  10.4971
    10.5153  10.5153  10.5454  10.5454  10.5546  10.5546  10.6474  10.6474
    10.6544  10.6544  10.6904  10.6904  10.6943  10.6943  10.7607  10.7607
    10.7889  10.7889  10.7962  10.7962  10.8680  10.8680  10.9231  10.9231
    10.9907  10.9907  11.0472  11.0472  11.0639  11.0639  11.0821  11.0821
    11.1488  11.1488  11.2364  11.2364  11.2735  11.2735  11.3094  11.3094
    11.3268  11.3268  11.4389  11.4389  11.4492  11.4492  11.5019  11.5019
    11.5206  11.5206  11.5877  11.5877  11.6522  11.6522  11.6677  11.6677
    11.6969  11.6969  11.7482  11.7482  11.8284  11.8284  11.8366  11.8366
    11.9150  11.9150  11.9579  11.9579  11.9853  11.9853  12.0133  12.0133
    12.0805  12.0805  12.0946  12.0946  12.1123  12.1123  12.1744  12.1744
    12.1748  12.1748  12.2389  12.2389  12.2857  12.2857  12.3387  12.3387
    12.3522  12.3522  12.4250  12.4250  12.4376  12.4376  12.4467  12.4467
    12.5001  12.5001  12.5130  12.5130  12.5171  12.5171  12.5487  12.5487
    12.6065  12.6065  12.6377  12.6377  12.6542  12.6542  12.7582  12.7582
    12.7830  12.7830  12.8495  12.8495  12.9299  12.9299  13.0622  13.0622
    13.3290  13.3290  13.3772  13.3772  13.7542  13.7542  13.7630  13.7630
    13.9699  13.9699  14.0657  14.0657  14.1520  14.1520  14.3393  14.3393
    14.4007  14.4007  14.4356  14.4356  14.4953  14.4953  14.7000  14.7000
    15.3252  15.3252  15.7706  15.7706  16.0765  16.0765  16.1193  16.1193
    17.4478  17.4478  17.8393  17.8393  17.8971  17.8971  18.0772  18.0772
    18.8417  18.8417  18.9402  18.9402  19.0403  19.0403  19.1623  19.1623
    19.1803  19.1803  19.3404  19.3404  19.8126  19.8126  20.2632  20.2632
    20.2911  20.2911  20.3680  20.3680  20.8492  20.8492  20.9624  20.9624
    21.2073  21.2073  21.6953  21.6953  22.0482  22.0482  22.3350  22.3350
    22.3493  22.3493

          k = 0.3333 0.5774 0.0000 ( 12582 PWs)   bands (ev):

   -89.5673 -89.5673 -89.5673 -89.5673 -89.5658 -89.5658 -89.5657 -89.5657
   -89.4983 -89.4983 -89.4983 -89.4983 -89.4956 -89.4956 -89.4956 -89.4956
   -89.4950 -89.4950 -89.4949 -89.4949 -89.4925 -89.4925 -89.4925 -89.4925
   -89.4817 -89.4817 -89.4817 -89.4817 -89.4813 -89.4813 -89.4812 -89.4812
   -61.7078 -61.7078 -61.7078 -61.7078 -61.7062 -61.7062 -61.7062 -61.7062
   -61.6524 -61.6524 -61.6524 -61.6524 -61.6507 -61.6507 -61.6507 -61.6507
   -51.5623 -51.5623 -51.5620 -51.5620 -51.5507 -51.5507 -51.5504 -51.5504
   -51.5011 -51.5011 -51.5002 -51.5002 -51.5000 -51.5000 -51.4995 -51.4995
   -51.4629 -51.4629 -51.4622 -51.4622 -51.4573 -51.4573 -51.4550 -51.4550
   -51.4536 -51.4536 -51.4511 -51.4511 -51.4447 -51.4447 -51.4445 -51.4445
   -49.4424 -49.4424 -49.4421 -49.4421 -49.4333 -49.4333 -49.4276 -49.4276
   -49.3576 -49.3576 -49.3561 -49.3561 -49.3559 -49.3559 -49.3515 -49.3515
   -49.3483 -49.3483 -49.3467 -49.3467 -49.3455 -49.3455 -49.3127 -49.3127
   -49.3049 -49.3049 -49.3012 -49.3012 -49.2945 -49.2945 -49.2737 -49.2737
   -49.2678 -49.2678 -49.2610 -49.2610 -49.2565 -49.2565 -49.2558 -49.2558
   -49.2307 -49.2307 -49.2212 -49.2212 -49.2169 -49.2169 -49.2139 -49.2139
   -49.2084 -49.2084 -49.2032 -49.2032 -49.2016 -49.2016 -49.1948 -49.1948
   -49.1943 -49.1943 -49.1925 -49.1925 -49.1730 -49.1730 -49.1726 -49.1726
   -28.8407 -28.8407 -28.8403 -28.8403 -28.8354 -28.8354 -28.8349 -28.8349
   -28.7859 -28.7859 -28.7858 -28.7858 -28.7799 -28.7799 -28.7799 -28.7799
   -28.5589 -28.5589 -28.5564 -28.5564 -28.5536 -28.5536 -28.5536 -28.5536
   -28.5501 -28.5501 -28.5500 -28.5500 -28.5460 -28.5460 -28.5431 -28.5431
   -28.5012 -28.5012 -28.5012 -28.5012 -28.4958 -28.4958 -28.4956 -28.4956
   -28.4926 -28.4926 -28.4922 -28.4922 -28.4867 -28.4867 -28.4866 -28.4866
     7.3123   7.3123   7.3131   7.3131   7.7370   7.7370   7.8528   7.8528
     7.8586   7.8586   8.0486   8.0486   8.1759   8.1759   8.1808   8.1808
     8.3591   8.3591   9.2051   9.2051   9.2053   9.2053   9.2335   9.2335
     9.2402   9.2402   9.2577   9.2577   9.3114   9.3114   9.9586   9.9586
     9.9668   9.9668   9.9696   9.9696  10.1059  10.1059  10.1205  10.1205
    10.2550  10.2550  10.2860  10.2860  10.4177  10.4177  10.4334  10.4334
    10.4867  10.4867  10.4968  10.4968  10.5438  10.5438  10.5502  10.5502
    10.5548  10.5548  10.5681  10.5681  10.6387  10.6387  10.7043  10.7043
    10.7278  10.7278  10.7311  10.7311  10.7450  10.7450  10.7482  10.7482
    10.7815  10.7815  10.8117  10.8117  10.8250  10.8250  10.8566  10.8566
    10.8666  10.8666  10.8680  10.8680  10.9175  10.9175  10.9223  10.9223
    10.9852  10.9852  10.9963  10.9963  11.0155  11.0155  11.0399  11.0399
    11.0729  11.0729  11.2258  11.2258  11.2410  11.2410  11.2539  11.2539
    11.3872  11.3872  11.5101  11.5101  11.5271  11.5271  11.5309  11.5309
    11.5646  11.5646  11.5878  11.5878  11.7521  11.7521  11.7572  11.7572
    11.8468  11.8468  11.8758  11.8758  11.8943  11.8943  11.9081  11.9081
    11.9672  11.9672  11.9709  11.9709  11.9934  11.9934  12.0792  12.0792
    12.1327  12.1327  12.1598  12.1598  12.1715  12.1715  12.1794  12.1794
    12.2140  12.2140  12.2312  12.2312  12.2319  12.2319  12.2768  12.2768
    12.2975  12.2975  12.3010  12.3010  12.3629  12.3629  12.4251  12.4251
    12.5828  12.5828  12.6075  12.6075  12.6898  12.6898  12.6904  12.6904
    12.7123  12.7123  12.7956  12.7956  12.8051  12.8051  12.9033  12.9033
    12.9633  12.9633  13.0300  13.0300  13.0309  13.0309  13.2394  13.2394
    13.3956  13.3956  13.4055  13.4055  13.4645  13.4645  14.8355  14.8355
    14.8560  14.8560  14.8967  14.8967  15.1174  15.1174  15.1250  15.1250
    15.7008  15.7008  17.5258  17.5258  17.5281  17.5281  17.6863  17.6863
    17.9459  17.9459  17.9461  17.9461  18.5610  18.5610  18.6230  18.6230
    18.6238  18.6238  18.6924  18.6924  18.7010  18.7010  18.9368  18.9368
    19.1820  19.1820  19.5713  19.5713  19.6491  19.6491  19.6644  19.6644
    20.4708  20.4708  20.4737  20.4737  20.7958  20.7958  20.8109  20.8109
    20.9144  20.9144  21.5878  21.5878  22.9035  22.9035  22.9124  22.9124
    23.1119  23.1306

     the Fermi energy is    13.1031 ev

!    total energy              =   -7950.11561541 Ry
     total all-electron energy =    -51823.967699 Ry
     estimated scf accuracy    <          8.2E-11 Ry
     smearing contrib. (-TS)   =       0.10399280 Ry
     internal energy E=F+TS    =   -7950.21960822 Ry

     The total energy is F=E-TS. E is the sum of the following terms:
     one-electron contribution =   -4471.48489313 Ry
     hartree contribution      =    2392.39112643 Ry
     xc contribution           =    -681.93146608 Ry
     ewald contribution        =   -3651.00763333 Ry
     one-center paw contrib.   =   -1538.18674210 Ry

     convergence has been achieved in  17 iterations

     Forces acting on atoms (cartesian axes, Ry/au):

     atom    1 type  1   force =    -0.00000000   -0.00000000    0.00140145
     atom    2 type  1   force =    -0.00000000   -0.00000000    0.00140145
     atom    3 type  1   force =    -0.00000000   -0.00000000   -0.00140145
     atom    4 type  1   force =     0.00000000    0.00000000   -0.00140145
     atom    5 type  1   force =    -0.00000000   -0.00000000    0.00029930
     atom    6 type  1   force =     0.00000000   -0.00000000    0.00029930
     atom    7 type  1   force =     0.00000000    0.00000000   -0.00029930
     atom    8 type  1   force =     0.00000000   -0.00000000   -0.00029930
     atom    9 type  2   force =     0.00000000    0.00000000   -0.00088073
     atom   10 type  2   force =     0.00000000    0.00000000   -0.00088073
     atom   11 type  2   force =    -0.00000000   -0.00000000    0.00088073
     atom   12 type  2   force =     0.00000000    0.00000000    0.00088073
     atom   13 type  2   force =     0.00000000    0.00129328    0.00000000
     atom   14 type  2   force =    -0.00112001    0.00064664    0.00000000
     atom   15 type  2   force =    -0.00000000   -0.00129328   -0.00000000
     atom   16 type  2   force =     0.00112001   -0.00064664    0.00000000
     atom   17 type  2   force =    -0.00112001   -0.00064664    0.00000000
     atom   18 type  2   force =     0.00112001    0.00064664    0.00000000
     atom   19 type  2   force =    -0.00000000   -0.00000000   -0.00000000
     atom   20 type  2   force =    -0.00000000    0.00000000    0.00000000
     atom   21 type  2   force =     0.00000000    0.00000000    0.00000000
     atom   22 type  2   force =     0.00000000    0.00000000   -0.00000000
     atom   23 type  2   force =     0.00000000    0.00000000   -0.00000000
     atom   24 type  2   force =     0.00000000    0.00000000    0.00000000
     The non-local contrib.  to forces
     atom    1 type  1   force =    -0.00000000   -0.00000000    0.01914409
     atom    2 type  1   force =     0.00000000    0.00000000    0.01914409
     atom    3 type  1   force =     0.00000000   -0.00000000   -0.01914409
     atom    4 type  1   force =     0.00000000    0.00000000   -0.01914409
     atom    5 type  1   force =     0.00000000    0.00000000   -0.00374461
     atom    6 type  1   force =     0.00000000    0.00000000   -0.00374461
     atom    7 type  1   force =     0.00000000    0.00000000    0.00374461
     atom    8 type  1   force =     0.00000000    0.00000000    0.00374461
     atom    9 type  2   force =     0.00000000    0.00000000   -0.00007713
     atom   10 type  2   force =    -0.00000000    0.00000000   -0.00007713
     atom   11 type  2   force =    -0.00000000   -0.00000000    0.00007713
     atom   12 type  2   force =     0.00000000    0.00000000    0.00007713
     atom   13 type  2   force =     0.00000000   -0.08244147    0.00000000
     atom   14 type  2   force =     0.07139641   -0.04122073    0.00000000
     atom   15 type  2   force =     0.00000000    0.08244147    0.00000000
     atom   16 type  2   force =    -0.07139641    0.04122073    0.00000000
     atom   17 type  2   force =     0.07139641    0.04122073    0.00000000
     atom   18 type  2   force =    -0.07139641   -0.04122073    0.00000000
     atom   19 type  2   force =     0.00000000   -0.00000000    0.00000000
     atom   20 type  2   force =     0.00000000    0.00000000   -0.00000000
     atom   21 type  2   force =     0.00000000   -0.00000000   -0.00000000
     atom   22 type  2   force =     0.00000000    0.00000000    0.00000000
     atom   23 type  2   force =    -0.00000000    0.00000000   -0.00000000
     atom   24 type  2   force =    -0.00000000   -0.00000000   -0.00000000
     The ionic contribution  to forces
     atom    1 type  1   force =    -0.00001564    0.00000954   -0.71899375
     atom    2 type  1   force =     0.00001564   -0.00000954   -0.71899375
     atom    3 type  1   force =     0.00001564   -0.00000954    0.71899375
     atom    4 type  1   force =    -0.00001564    0.00000954    0.71899375
     atom    5 type  1   force =     0.00005533   -0.00003138    0.21389701
     atom    6 type  1   force =    -0.00005533    0.00003138    0.21389701
     atom    7 type  1   force =    -0.00005533    0.00003138   -0.21389701
     atom    8 type  1   force =     0.00005533   -0.00003138   -0.21389701
     atom    9 type  2   force =     0.00005925   -0.00003417   -0.45854731
     atom   10 type  2   force =    -0.00005925    0.00003417   -0.45854731
     atom   11 type  2   force =    -0.00005925    0.00003417    0.45854731
     atom   12 type  2   force =     0.00005925   -0.00003417    0.45854731
     atom   13 type  2   force =     0.00007137  -13.46678147    0.00000000
     atom   14 type  2   force =    11.66265955   -6.73344017   -0.00000000
     atom   15 type  2   force =    -0.00007137   13.46678147   -0.00000000
     atom   16 type  2   force =   -11.66265955    6.73344017    0.00000000
     atom   17 type  2   force =    11.66261037    6.73332937    0.00000000
     atom   18 type  2   force =   -11.66261037   -6.73332937   -0.00000000
     atom   19 type  2   force =    -0.00000000    0.00000000    0.00000000
     atom   20 type  2   force =    -0.00000000    0.00000000    0.00000000
     atom   21 type  2   force =     0.00000000   -0.00000000    0.00000000
     atom   22 type  2   force =     0.00000000   -0.00000000    0.00000000
     atom   23 type  2   force =     0.00000000   -0.00000000    0.00000000
     atom   24 type  2   force =    -0.00000000   -0.00000000    0.00000000
     The local contribution  to forces
     atom    1 type  1   force =     0.00000000   -0.00000048    0.70131395
     atom    2 type  1   force =     0.00000000    0.00000048    0.70131395
     atom    3 type  1   force =    -0.00000000    0.00000048   -0.70131395
     atom    4 type  1   force =     0.00000000   -0.00000048   -0.70131395
     atom    5 type  1   force =     0.00145581   -0.00084103   -0.20987769
     atom    6 type  1   force =    -0.00145581    0.00084103   -0.20987769
     atom    7 type  1   force =    -0.00145581    0.00084103    0.20987769
     atom    8 type  1   force =     0.00145581   -0.00084103    0.20987769
     atom    9 type  2   force =     0.00193262   -0.00111583    0.46003130
     atom   10 type  2   force =    -0.00193262    0.00111583    0.46003130
     atom   11 type  2   force =    -0.00193262    0.00111583   -0.46003130
     atom   12 type  2   force =     0.00193262   -0.00111583   -0.46003130
     atom   13 type  2   force =    -0.00193088   13.55075246    0.00000000
     atom   14 type  2   force =   -11.73263201    6.77383840   -0.00000000
     atom   15 type  2   force =     0.00193088  -13.55075246   -0.00000000
     atom   16 type  2   force =    11.73263201   -6.77383840    0.00000000
     atom   17 type  2   force =   -11.73626170   -6.77370442    0.00000000
     atom   18 type  2   force =    11.73626170    6.77370442   -0.00000000
     atom   19 type  2   force =     0.00000000    0.00000000    0.00000000
     atom   20 type  2   force =     0.00000000    0.00000000   -0.00000000
     atom   21 type  2   force =     0.00000000    0.00000000   -0.00000000
     atom   22 type  2   force =     0.00000000    0.00000000    0.00000000
     atom   23 type  2   force =    -0.00000000    0.00000000   -0.00000000
     atom   24 type  2   force =    -0.00000000    0.00000000    0.00000000
     The core correction contribution to forces
     atom    1 type  1   force =     0.00000000   -0.00000000   -0.00007573
     atom    2 type  1   force =    -0.00000000    0.00000000   -0.00007573
     atom    3 type  1   force =    -0.00000000    0.00000000    0.00007573
     atom    4 type  1   force =     0.00000000   -0.00000000    0.00007573
     atom    5 type  1   force =     0.00000316   -0.00000183    0.00002469
     atom    6 type  1   force =    -0.00000316    0.00000183    0.00002469
     atom    7 type  1   force =    -0.00000316    0.00000183   -0.00002469
     atom    8 type  1   force =     0.00000316   -0.00000183   -0.00002469
     atom    9 type  2   force =     0.00000119   -0.00000069   -0.00225910
     atom   10 type  2   force =    -0.00000119    0.00000069   -0.00225910
     atom   11 type  2   force =    -0.00000119    0.00000069    0.00225910
     atom   12 type  2   force =     0.00000119   -0.00000069    0.00225910
     atom   13 type  2   force =    -0.00000118    0.00082608    0.00000000
     atom   14 type  2   force =    -0.00071356    0.00041198   -0.00000000
     atom   15 type  2   force =     0.00000118   -0.00082608   -0.00000000
     atom   16 type  2   force =     0.00071356   -0.00041198    0.00000000
     atom   17 type  2   force =    -0.00071600   -0.00041201    0.00000000
     atom   18 type  2   force =     0.00071600    0.00041201   -0.00000000
     atom   19 type  2   force =     0.00000000    0.00000000    0.00000000
     atom   20 type  2   force =     0.00000000   -0.00000000    0.00000000
     atom   21 type  2   force =     0.00000000    0.00000000    0.00000000
     atom   22 type  2   force =     0.00000000    0.00000000    0.00000000
     atom   23 type  2   force =     0.00000000    0.00000000    0.00000000
     atom   24 type  2   force =    -0.00000000    0.00000000    0.00000000
     The Hubbard contrib.    to forces
     atom    1 type  1   force =     0.00000000    0.00000000    0.00000000
     atom    2 type  1   force =     0.00000000    0.00000000    0.00000000
     atom    3 type  1   force =     0.00000000    0.00000000    0.00000000
     atom    4 type  1   force =     0.00000000    0.00000000    0.00000000
     atom    5 type  1   force =     0.00000000    0.00000000    0.00000000
     atom    6 type  1   force =     0.00000000    0.00000000    0.00000000
     atom    7 type  1   force =     0.00000000    0.00000000    0.00000000
     atom    8 type  1   force =     0.00000000    0.00000000    0.00000000
     atom    9 type  2   force =     0.00000000    0.00000000    0.00000000
     atom   10 type  2   force =     0.00000000    0.00000000    0.00000000
     atom   11 type  2   force =     0.00000000    0.00000000    0.00000000
     atom   12 type  2   force =     0.00000000    0.00000000    0.00000000
     atom   13 type  2   force =     0.00000000    0.00000000    0.00000000
     atom   14 type  2   force =     0.00000000    0.00000000    0.00000000
     atom   15 type  2   force =     0.00000000    0.00000000    0.00000000
     atom   16 type  2   force =     0.00000000    0.00000000    0.00000000
     atom   17 type  2   force =     0.00000000    0.00000000    0.00000000
     atom   18 type  2   force =     0.00000000    0.00000000    0.00000000
     atom   19 type  2   force =     0.00000000    0.00000000    0.00000000
     atom   20 type  2   force =     0.00000000    0.00000000    0.00000000
     atom   21 type  2   force =     0.00000000    0.00000000    0.00000000
     atom   22 type  2   force =     0.00000000    0.00000000    0.00000000
     atom   23 type  2   force =     0.00000000    0.00000000    0.00000000
     atom   24 type  2   force =     0.00000000    0.00000000    0.00000000
     The SCF correction term to forces
     atom    1 type  1   force =     0.00000000   -0.00000000    0.00001289
     atom    2 type  1   force =    -0.00000000    0.00000000    0.00001289
     atom    3 type  1   force =    -0.00000000    0.00000000   -0.00001289
     atom    4 type  1   force =     0.00000000   -0.00000000   -0.00001289
     atom    5 type  1   force =    -0.00000000    0.00000000   -0.00000010
     atom    6 type  1   force =     0.00000000   -0.00000000   -0.00000010
     atom    7 type  1   force =     0.00000000   -0.00000000    0.00000010
     atom    8 type  1   force =    -0.00000000    0.00000000    0.00000010
     atom    9 type  2   force =    -0.00000001    0.00000001   -0.00002848
     atom   10 type  2   force =     0.00000001   -0.00000001   -0.00002848
     atom   11 type  2   force =     0.00000001   -0.00000001    0.00002848
     atom   12 type  2   force =    -0.00000001    0.00000001    0.00002848
     atom   13 type  2   force =    -0.00000000   -0.00000378   -0.00000000
     atom   14 type  2   force =     0.00000327   -0.00000189    0.00000000
     atom   15 type  2   force =     0.00000000    0.00000378    0.00000000
     atom   16 type  2   force =    -0.00000327    0.00000189   -0.00000000
     atom   17 type  2   force =     0.00000327    0.00000189   -0.00000000
     atom   18 type  2   force =    -0.00000327   -0.00000189    0.00000000
     atom   19 type  2   force =     0.00000000   -0.00000000   -0.00000000
     atom   20 type  2   force =     0.00000000   -0.00000000    0.00000000
     atom   21 type  2   force =    -0.00000000    0.00000000    0.00000000
     atom   22 type  2   force =    -0.00000000    0.00000000   -0.00000000
     atom   23 type  2   force =    -0.00000000   -0.00000000    0.00000000
     atom   24 type  2   force =     0.00000000    0.00000000   -0.00000000

     Total force =     0.004621     Total SCF correction =     0.000063
     Energy error            =      3.6E-05 Ry
     Gradient error          =      1.4E-03 Ry/Bohr

     number of scf cycles    =   5
     number of bfgs steps    =   4

     energy             old  =   -7950.1155792518 Ry
     energy             new  =   -7950.1156154133 Ry

     CASE: energy            _new < energy            _old

     new trust radius        =       0.0063013848 bohr
     new conv_thr            =       0.0000000002 Ry


ATOMIC_POSITIONS (crystal)
Mg           -0.0000000000       -0.0000000000        0.4071009981
Mg            0.0000000000        0.0000000000        0.9071009981
Mg           -0.0000000000       -0.0000000000        0.5928990019
Mg            0.0000000000        0.0000000000        0.0928990019
Mg            0.3333330000        0.6666670000        0.6560500400
Mg            0.6666670000        0.3333330000        0.1560500400
Mg            0.6666670000        0.3333330000        0.3439499600
Mg            0.3333330000        0.6666670000        0.8439499600
Ni            0.3333330000        0.6666670000        0.3753434913
Ni            0.6666670000        0.3333330000        0.8753434913
Ni            0.6666670000        0.3333330000        0.6246565087
Ni            0.3333330000        0.6666670000        0.1246565087
Ni            0.1651666413        0.3303322826        0.2500000000
Ni            0.8348333589        0.1651666413        0.7500000000
Ni            0.8348333587        0.6696677174        0.7500000000
Ni            0.1651666411        0.8348333587        0.2500000000
Ni            0.6696677176        0.8348333587        0.2500000000
Ni            0.3303322824        0.1651666413        0.7500000000
Ni            0.5000000000        0.0000000000        0.5000000000
Ni            0.5000000000        0.5000000000       -0.0000000000
Ni            0.5000000000        0.0000000000       -0.0000000000
Ni            0.5000000000        0.5000000000        0.5000000000
Ni            0.0000000000        0.5000000000       -0.0000000000
Ni            0.0000000000        0.5000000000        0.5000000000



     Writing config-only to output data dir ./ACOptimization/out/iso.save/
     NEW-OLD atomic charge density approx. for the potential

     Check: negative core charge=   -0.000016

     total cpu time spent up to now is     2420.5 secs

     Self-consistent Calculation

     iteration #  1     ecut=    50.00 Ry     beta= 0.10
     Davidson diagonalization with overlap
     ethr =  1.00E-06,  avg # of iterations = 10.0

     Threshold (ethr) on eigenvalues was too large:
     Diagonalizing with lowered threshold

     Davidson diagonalization with overlap
     ethr =  5.97E-09,  avg # of iterations =  5.0

     total cpu time spent up to now is     2478.0 secs

     total energy              =   -7950.11568832 Ry
     estimated scf accuracy    <       0.00001765 Ry

     iteration #  2     ecut=    50.00 Ry     beta= 0.10
     Davidson diagonalization with overlap
     ethr =  4.80E-09,  avg # of iterations =  1.0

     total cpu time spent up to now is     2495.9 secs

     total energy              =   -7950.11566548 Ry
     estimated scf accuracy    <       0.00000989 Ry

     iteration #  3     ecut=    50.00 Ry     beta= 0.10
     Davidson diagonalization with overlap
     ethr =  2.69E-09,  avg # of iterations =  1.0

     total cpu time spent up to now is     2513.9 secs

     total energy              =   -7950.11564749 Ry
     estimated scf accuracy    <       0.00000387 Ry

     iteration #  4     ecut=    50.00 Ry     beta= 0.10
     Davidson diagonalization with overlap
     ethr =  1.05E-09,  avg # of iterations =  4.0

     total cpu time spent up to now is     2539.2 secs

     total energy              =   -7950.11564808 Ry
     estimated scf accuracy    <       0.00000110 Ry

     iteration #  5     ecut=    50.00 Ry     beta= 0.10
     Davidson diagonalization with overlap
     ethr =  2.99E-10,  avg # of iterations =  1.0

     total cpu time spent up to now is     2557.1 secs

     total energy              =   -7950.11564809 Ry
     estimated scf accuracy    <       0.00000124 Ry

     iteration #  6     ecut=    50.00 Ry     beta= 0.10
     Davidson diagonalization with overlap
     ethr =  2.99E-10,  avg # of iterations =  2.0

     total cpu time spent up to now is     2579.9 secs

     total energy              =   -7950.11564867 Ry
     estimated scf accuracy    <       0.00000102 Ry

     iteration #  7     ecut=    50.00 Ry     beta= 0.10
     Davidson diagonalization with overlap
     ethr =  2.77E-10,  avg # of iterations =  1.0

     total cpu time spent up to now is     2597.9 secs

     total energy              =   -7950.11564680 Ry
     estimated scf accuracy    <       0.00000024 Ry

     iteration #  8     ecut=    50.00 Ry     beta= 0.10
     Davidson diagonalization with overlap
     ethr =  6.59E-11,  avg # of iterations =  4.0

     total cpu time spent up to now is     2623.6 secs

     total energy              =   -7950.11564666 Ry
     estimated scf accuracy    <       0.00000003 Ry

     iteration #  9     ecut=    50.00 Ry     beta= 0.10
     Davidson diagonalization with overlap
     ethr =  7.38E-12,  avg # of iterations =  4.7

     total cpu time spent up to now is     2651.7 secs

     total energy              =   -7950.11564667 Ry
     estimated scf accuracy    <       0.00000001 Ry

     iteration # 10     ecut=    50.00 Ry     beta= 0.10
     Davidson diagonalization with overlap
     ethr =  3.55E-12,  avg # of iterations =  2.0

     total cpu time spent up to now is     2674.2 secs

     total energy              =   -7950.11564666 Ry
     estimated scf accuracy    <       0.00000002 Ry

     iteration # 11     ecut=    50.00 Ry     beta= 0.10
     Davidson diagonalization with overlap
     ethr =  3.55E-12,  avg # of iterations =  3.7

     total cpu time spent up to now is     2699.5 secs

     total energy              =   -7950.11564668 Ry
     estimated scf accuracy    <          3.5E-09 Ry

     iteration # 12     ecut=    50.00 Ry     beta= 0.10
     Davidson diagonalization with overlap
     ethr =  9.41E-13,  avg # of iterations =  3.7

     total cpu time spent up to now is     2729.4 secs

     total energy              =   -7950.11564671 Ry
     estimated scf accuracy    <          3.8E-10 Ry

     iteration # 13     ecut=    50.00 Ry     beta= 0.10
     Davidson diagonalization with overlap
     ethr =  1.02E-13,  avg # of iterations =  3.0

     total cpu time spent up to now is     2754.0 secs

     total energy              =   -7950.11564671 Ry
     estimated scf accuracy    <          5.4E-10 Ry

     iteration # 14     ecut=    50.00 Ry     beta= 0.10
     Davidson diagonalization with overlap
     ethr =  1.02E-13,  avg # of iterations =  2.0

     total cpu time spent up to now is     2774.4 secs

     End of self-consistent calculation

          k = 0.0000 0.0000 0.0000 ( 12553 PWs)   bands (ev):

   -89.5688 -89.5688 -89.5669 -89.5669 -89.5665 -89.5665 -89.5644 -89.5644
   -89.5109 -89.5109 -89.5087 -89.5087 -89.5086 -89.5086 -89.5065 -89.5065
   -89.4820 -89.4820 -89.4819 -89.4819 -89.4819 -89.4819 -89.4818 -89.4818
   -89.4813 -89.4813 -89.4813 -89.4813 -89.4812 -89.4812 -89.4812 -89.4812
   -61.7074 -61.7074 -61.7074 -61.7074 -61.7060 -61.7060 -61.7060 -61.7060
   -61.6528 -61.6528 -61.6527 -61.6527 -61.6511 -61.6511 -61.6511 -61.6511
   -51.5578 -51.5578 -51.5506 -51.5506 -51.5501 -51.5501 -51.5450 -51.5450
   -51.5087 -51.5087 -51.5044 -51.5044 -51.5028 -51.5028 -51.5022 -51.5022
   -51.4971 -51.4971 -51.4924 -51.4924 -51.4917 -51.4917 -51.4912 -51.4912
   -51.4218 -51.4218 -51.4097 -51.4097 -51.4090 -51.4090 -51.4087 -51.4087
   -49.4482 -49.4482 -49.4446 -49.4446 -49.4246 -49.4246 -49.4182 -49.4182
   -49.4122 -49.4122 -49.4037 -49.4037 -49.3854 -49.3854 -49.3810 -49.3810
   -49.3349 -49.3349 -49.3269 -49.3269 -49.3266 -49.3266 -49.3186 -49.3186
   -49.3149 -49.3149 -49.3149 -49.3149 -49.3054 -49.3054 -49.2796 -49.2796
   -49.2780 -49.2780 -49.2455 -49.2455 -49.2349 -49.2349 -49.2332 -49.2332
   -49.2234 -49.2234 -49.2154 -49.2154 -49.2138 -49.2138 -49.2105 -49.2105
   -49.1889 -49.1889 -49.1878 -49.1878 -49.1774 -49.1774 -49.1758 -49.1758
   -49.1652 -49.1652 -49.1617 -49.1617 -49.1597 -49.1597 -49.1577 -49.1577
   -28.8411 -28.8411 -28.8411 -28.8411 -28.8356 -28.8356 -28.8356 -28.8356
   -28.7849 -28.7849 -28.7845 -28.7845 -28.7783 -28.7783 -28.7783 -28.7783
   -28.5569 -28.5569 -28.5566 -28.5566 -28.5543 -28.5543 -28.5541 -28.5541
   -28.5525 -28.5525 -28.5523 -28.5523 -28.5431 -28.5431 -28.5431 -28.5431
   -28.5031 -28.5031 -28.5028 -28.5028 -28.4940 -28.4940 -28.4937 -28.4937
   -28.4918 -28.4918 -28.4917 -28.4917 -28.4878 -28.4878 -28.4877 -28.4877
     4.6905   4.6905   5.3150   5.3150   5.3218   5.3218   6.7708   6.7708
     7.4429   7.4429   8.7506   8.7506   8.7808   8.7808   8.8540   8.8540
     9.4079   9.4079   9.4129   9.4129   9.5693   9.5693   9.6230   9.6230
     9.7465   9.7465   9.7694   9.7694   9.7878   9.7878   9.8028   9.8028
     9.8240   9.8240   9.8267   9.8267   9.9561   9.9561   9.9763   9.9763
    10.0125  10.0125  10.0719  10.0719  10.0769  10.0769  10.0830  10.0830
    10.1070  10.1070  10.1647  10.1647  10.2254  10.2254  10.2485  10.2485
    10.2706  10.2706  10.3095  10.3095  10.6095  10.6095  10.6098  10.6098
    10.6274  10.6274  10.6363  10.6363  10.6409  10.6409  10.6965  10.6965
    10.8624  10.8624  10.9196  10.9196  11.0276  11.0276  11.0285  11.0285
    11.0698  11.0698  11.1221  11.1221  11.1583  11.1583  11.1626  11.1626
    11.3241  11.3241  11.3433  11.3433  11.5789  11.5789  11.7620  11.7620
    11.8163  11.8163  11.8169  11.8169  11.8296  11.8296  11.8641  11.8641
    11.9880  11.9880  12.0414  12.0414  12.1407  12.1407  12.1493  12.1493
    12.2751  12.2751  12.2862  12.2862  12.3754  12.3754  12.3771  12.3771
    12.3892  12.3892  12.3896  12.3896  12.4007  12.4007  12.4012  12.4012
    12.4061  12.4061  12.4215  12.4215  12.4418  12.4418  12.4428  12.4428
    12.4546  12.4546  12.4692  12.4692  12.4837  12.4837  12.5124  12.5124
    12.5332  12.5332  12.5562  12.5562  12.5578  12.5578  12.5756  12.5756
    12.5988  12.5988  12.6571  12.6571  12.7312  12.7312  12.9726  12.9726
    13.0254  13.0254  13.2513  13.2513  13.2522  13.2522  13.4935  13.4935
    13.4937  13.4937  13.4982  13.4982  13.5002  13.5002  13.7895  13.7895
    13.9398  13.9398  14.1297  14.1297  14.1657  14.1657  14.1811  14.1811
    14.1824  14.1824  14.2005  14.2005  14.2024  14.2024  14.3321  14.3321
    14.5472  14.5472  14.5769  14.5769  14.5827  14.5827  14.6365  14.6365
    15.9722  15.9722  15.9743  15.9743  15.9864  15.9864  16.0271  16.0271
    16.4788  16.4788  16.5276  16.5276  16.8844  16.8844  16.9070  16.9070
    17.5305  17.5305  17.5928  17.5928  17.6097  17.6097  17.7816  17.7816
    17.8585  17.8585  18.0709  18.0709  18.4851  18.4851  18.4953  18.4953
    18.9170  18.9170  18.9375  18.9375  19.2282  19.2282  19.5471  19.5471
    19.5535  19.5535  19.7509  19.7509  19.9748  19.9748  21.3267  21.3267
    21.4732  21.4732

          k = 0.0000 0.3849 0.0000 ( 12516 PWs)   bands (ev):

   -89.5679 -89.5679 -89.5666 -89.5666 -89.5662 -89.5662 -89.5648 -89.5648
   -89.5048 -89.5048 -89.5033 -89.5033 -89.5032 -89.5032 -89.5018 -89.5018
   -89.4879 -89.4879 -89.4877 -89.4877 -89.4868 -89.4868 -89.4867 -89.4867
   -89.4819 -89.4819 -89.4818 -89.4818 -89.4812 -89.4812 -89.4812 -89.4812
   -61.7074 -61.7074 -61.7073 -61.7073 -61.7058 -61.7058 -61.7058 -61.7058
   -61.6529 -61.6529 -61.6529 -61.6529 -61.6511 -61.6511 -61.6511 -61.6511
   -51.5586 -51.5586 -51.5543 -51.5543 -51.5491 -51.5491 -51.5470 -51.5470
   -51.5004 -51.5004 -51.4997 -51.4997 -51.4954 -51.4954 -51.4946 -51.4946
   -51.4796 -51.4796 -51.4768 -51.4768 -51.4759 -51.4759 -51.4738 -51.4738
   -51.4350 -51.4350 -51.4280 -51.4280 -51.4261 -51.4261 -51.4185 -51.4185
   -49.4446 -49.4446 -49.4366 -49.4366 -49.4318 -49.4318 -49.4230 -49.4230
   -49.3825 -49.3825 -49.3798 -49.3798 -49.3699 -49.3699 -49.3643 -49.3643
   -49.3292 -49.3292 -49.3264 -49.3264 -49.3226 -49.3226 -49.3173 -49.3173
   -49.3053 -49.3053 -49.3008 -49.3008 -49.2952 -49.2952 -49.2774 -49.2774
   -49.2744 -49.2744 -49.2514 -49.2514 -49.2458 -49.2458 -49.2377 -49.2377
   -49.2258 -49.2258 -49.2206 -49.2206 -49.2150 -49.2150 -49.2084 -49.2084
   -49.2056 -49.2056 -49.2022 -49.2022 -49.1844 -49.1844 -49.1829 -49.1829
   -49.1817 -49.1817 -49.1802 -49.1802 -49.1634 -49.1634 -49.1626 -49.1626
   -28.8404 -28.8404 -28.8403 -28.8403 -28.8350 -28.8350 -28.8349 -28.8349
   -28.7858 -28.7858 -28.7857 -28.7857 -28.7796 -28.7796 -28.7795 -28.7795
   -28.5573 -28.5573 -28.5571 -28.5571 -28.5531 -28.5531 -28.5528 -28.5528
   -28.5511 -28.5511 -28.5508 -28.5508 -28.5437 -28.5437 -28.5436 -28.5436
   -28.5023 -28.5023 -28.5022 -28.5022 -28.4950 -28.4950 -28.4948 -28.4948
   -28.4927 -28.4927 -28.4925 -28.4925 -28.4873 -28.4873 -28.4873 -28.4873
     5.6819   5.6819   6.2762   6.2762   6.2777   6.2777   7.6893   7.6893
     8.1675   8.1675   8.3485   8.3485   8.6587   8.6587   8.6717   8.6717
     9.2318   9.2318   9.2663   9.2663   9.4224   9.4224   9.5136   9.5136
     9.5982   9.5982   9.7117   9.7117   9.7777   9.7777   9.8525   9.8525
     9.9115   9.9115   9.9835   9.9835  10.0131  10.0131  10.0474  10.0474
    10.0590  10.0590  10.1061  10.1061  10.2127  10.2127  10.2869  10.2869
    10.3416  10.3416  10.3949  10.3949  10.4399  10.4399  10.4963  10.4963
    10.5147  10.5147  10.5452  10.5452  10.5544  10.5544  10.6474  10.6474
    10.6541  10.6541  10.6906  10.6906  10.6943  10.6943  10.7607  10.7607
    10.7894  10.7894  10.7963  10.7963  10.8685  10.8685  10.9237  10.9237
    10.9903  10.9903  11.0471  11.0471  11.0638  11.0638  11.0828  11.0828
    11.1495  11.1495  11.2368  11.2368  11.2734  11.2734  11.3099  11.3099
    11.3273  11.3273  11.4392  11.4392  11.4495  11.4495  11.5017  11.5017
    11.5208  11.5208  11.5881  11.5881  11.6525  11.6525  11.6680  11.6680
    11.6974  11.6974  11.7476  11.7476  11.8283  11.8283  11.8373  11.8373
    11.9155  11.9155  11.9567  11.9567  11.9844  11.9844  12.0126  12.0126
    12.0800  12.0800  12.0937  12.0937  12.1128  12.1128  12.1741  12.1741
    12.1748  12.1748  12.2394  12.2394  12.2859  12.2859  12.3384  12.3384
    12.3525  12.3525  12.4245  12.4245  12.4381  12.4381  12.4470  12.4470
    12.5001  12.5001  12.5134  12.5134  12.5172  12.5172  12.5490  12.5490
    12.6059  12.6059  12.6374  12.6374  12.6542  12.6542  12.7583  12.7583
    12.7831  12.7831  12.8498  12.8498  12.9302  12.9302  13.0625  13.0625
    13.3294  13.3294  13.3781  13.3781  13.7552  13.7552  13.7640  13.7640
    13.9691  13.9691  14.0661  14.0661  14.1492  14.1492  14.3395  14.3395
    14.4006  14.4006  14.4365  14.4365  14.4939  14.4939  14.7017  14.7017
    15.3265  15.3265  15.7711  15.7711  16.0749  16.0749  16.1190  16.1190
    17.4487  17.4487  17.8402  17.8402  17.8940  17.8940  18.0745  18.0745
    18.8424  18.8424  18.9405  18.9405  19.0415  19.0415  19.1629  19.1629
    19.1818  19.1818  19.3412  19.3412  19.8136  19.8136  20.2631  20.2631
    20.2946  20.2946  20.3663  20.3663  20.8459  20.8459  20.9579  20.9579
    21.2097  21.2097  21.6954  21.6954  22.0481  22.0481  22.3366  22.3366
    22.3503  22.3503

          k = 0.3333 0.5774 0.0000 ( 12582 PWs)   bands (ev):

   -89.5670 -89.5670 -89.5670 -89.5670 -89.5654 -89.5654 -89.5654 -89.5654
   -89.4977 -89.4977 -89.4977 -89.4977 -89.4961 -89.4961 -89.4960 -89.4960
   -89.4956 -89.4956 -89.4955 -89.4955 -89.4922 -89.4922 -89.4922 -89.4922
   -89.4819 -89.4819 -89.4819 -89.4819 -89.4812 -89.4812 -89.4812 -89.4812
   -61.7074 -61.7074 -61.7074 -61.7074 -61.7058 -61.7058 -61.7058 -61.7058
   -61.6530 -61.6530 -61.6530 -61.6530 -61.6512 -61.6512 -61.6512 -61.6512
   -51.5620 -51.5620 -51.5617 -51.5617 -51.5505 -51.5505 -51.5501 -51.5501
   -51.5017 -51.5017 -51.5008 -51.5008 -51.4994 -51.4994 -51.4989 -51.4989
   -51.4631 -51.4631 -51.4621 -51.4621 -51.4569 -51.4569 -51.4555 -51.4555
   -51.4532 -51.4532 -51.4516 -51.4516 -51.4446 -51.4446 -51.4443 -51.4443
   -49.4423 -49.4423 -49.4419 -49.4419 -49.4332 -49.4332 -49.4273 -49.4273
   -49.3573 -49.3573 -49.3562 -49.3562 -49.3560 -49.3560 -49.3517 -49.3517
   -49.3481 -49.3481 -49.3466 -49.3466 -49.3449 -49.3449 -49.3124 -49.3124
   -49.3047 -49.3047 -49.3009 -49.3009 -49.2944 -49.2944 -49.2735 -49.2735
   -49.2675 -49.2675 -49.2606 -49.2606 -49.2564 -49.2564 -49.2556 -49.2556
   -49.2303 -49.2303 -49.2207 -49.2207 -49.2164 -49.2164 -49.2146 -49.2146
   -49.2091 -49.2091 -49.2028 -49.2028 -49.2015 -49.2015 -49.1957 -49.1957
   -49.1948 -49.1948 -49.1921 -49.1921 -49.1740 -49.1740 -49.1735 -49.1735
   -28.8403 -28.8403 -28.8399 -28.8399 -28.8349 -28.8349 -28.8345 -28.8345
   -28.7865 -28.7865 -28.7864 -28.7864 -28.7803 -28.7803 -28.7803 -28.7803
   -28.5586 -28.5586 -28.5561 -28.5561 -28.5532 -28.5532 -28.5532 -28.5532
   -28.5497 -28.5497 -28.5496 -28.5496 -28.5456 -28.5456 -28.5427 -28.5427
   -28.5021 -28.5021 -28.5020 -28.5020 -28.4962 -28.4962 -28.4960 -28.4960
   -28.4930 -28.4930 -28.4926 -28.4926 -28.4873 -28.4873 -28.4872 -28.4872
     7.3121   7.3121   7.3129   7.3129   7.7381   7.7381   7.8521   7.8521
     7.8580   7.8580   8.0523   8.0523   8.1762   8.1762   8.1812   8.1812
     8.3557   8.3557   9.2058   9.2058   9.2060   9.2060   9.2323   9.2323
     9.2391   9.2391   9.2554   9.2554   9.3130   9.3130   9.9582   9.9582
     9.9667   9.9667   9.9696   9.9696  10.1058  10.1058  10.1201  10.1201
    10.2551  10.2551  10.2860  10.2860  10.4173  10.4173  10.4331  10.4331
    10.4879  10.4879  10.4967  10.4967  10.5439  10.5439  10.5503  10.5503
    10.5565  10.5565  10.5680  10.5680  10.6410  10.6410  10.7049  10.7049
    10.7288  10.7288  10.7309  10.7309  10.7450  10.7450  10.7485  10.7485
    10.7810  10.7810  10.8118  10.8118  10.8258  10.8258  10.8561  10.8561
    10.8666  10.8666  10.8672  10.8672  10.9178  10.9178  10.9223  10.9223
    10.9843  10.9843  10.9965  10.9965  11.0144  11.0144  11.0398  11.0398
    11.0730  11.0730  11.2245  11.2245  11.2402  11.2402  11.2526  11.2526
    11.3874  11.3874  11.5098  11.5098  11.5262  11.5262  11.5305  11.5305
    11.5642  11.5642  11.5884  11.5884  11.7533  11.7533  11.7585  11.7585
    11.8471  11.8471  11.8760  11.8760  11.8950  11.8950  11.9071  11.9071
    11.9671  11.9671  11.9699  11.9699  11.9938  11.9938  12.0789  12.0789
    12.1320  12.1320  12.1605  12.1605  12.1701  12.1701  12.1795  12.1795
    12.2141  12.2141  12.2314  12.2314  12.2316  12.2316  12.2766  12.2766
    12.2976  12.2976  12.3010  12.3010  12.3624  12.3624  12.4252  12.4252
    12.5832  12.5832  12.6076  12.6076  12.6904  12.6904  12.6907  12.6907
    12.7130  12.7130  12.7959  12.7959  12.8053  12.8053  12.9029  12.9029
    12.9628  12.9628  13.0304  13.0304  13.0311  13.0311  13.2403  13.2403
    13.3962  13.3962  13.4061  13.4061  13.4644  13.4644  14.8357  14.8357
    14.8559  14.8559  14.8953  14.8953  15.1188  15.1188  15.1264  15.1264
    15.7034  15.7034  17.5270  17.5270  17.5293  17.5293  17.6856  17.6856
    17.9455  17.9455  17.9456  17.9456  18.5599  18.5599  18.6244  18.6244
    18.6252  18.6252  18.6918  18.6918  18.7004  18.7004  18.9411  18.9411
    19.1766  19.1766  19.5702  19.5702  19.6447  19.6447  19.6602  19.6602
    20.4730  20.4730  20.4760  20.4760  20.7970  20.7970  20.8121  20.8121
    20.9155  20.9155  21.5868  21.5868  22.9050  22.9050  22.9138  22.9138
    23.0884  23.1304

     the Fermi energy is    13.1034 ev

!    total energy              =   -7950.11564672 Ry
     total all-electron energy =    -51823.967730 Ry
     estimated scf accuracy    <          6.2E-11 Ry
     smearing contrib. (-TS)   =       0.10395762 Ry
     internal energy E=F+TS    =   -7950.21960433 Ry

     The total energy is F=E-TS. E is the sum of the following terms:
     one-electron contribution =   -4471.65443544 Ry
     hartree contribution      =    2392.47623256 Ry
     xc contribution           =    -681.93174386 Ry
     ewald contribution        =   -3650.92289767 Ry
     one-center paw contrib.   =   -1538.18675992 Ry

     convergence has been achieved in  14 iterations

     Forces acting on atoms (cartesian axes, Ry/au):

     atom    1 type  1   force =     0.00000000    0.00000000    0.00041167
     atom    2 type  1   force =     0.00000000    0.00000000    0.00041167
     atom    3 type  1   force =    -0.00000000   -0.00000000   -0.00041167
     atom    4 type  1   force =    -0.00000000   -0.00000000   -0.00041167
     atom    5 type  1   force =     0.00000000    0.00000000    0.00010170
     atom    6 type  1   force =     0.00000000    0.00000000    0.00010170
     atom    7 type  1   force =     0.00000000    0.00000000   -0.00010170
     atom    8 type  1   force =     0.00000000    0.00000000   -0.00010170
     atom    9 type  2   force =     0.00000000    0.00000000   -0.00060717
     atom   10 type  2   force =     0.00000000    0.00000000   -0.00060717
     atom   11 type  2   force =     0.00000000   -0.00000000    0.00060717
     atom   12 type  2   force =     0.00000000    0.00000000    0.00060717
     atom   13 type  2   force =     0.00000000    0.00080163    0.00000000
     atom   14 type  2   force =    -0.00069423    0.00040081   -0.00000000
     atom   15 type  2   force =     0.00000000   -0.00080163    0.00000000
     atom   16 type  2   force =     0.00069423   -0.00040081    0.00000000
     atom   17 type  2   force =    -0.00069423   -0.00040081    0.00000000
     atom   18 type  2   force =     0.00069423    0.00040081    0.00000000
     atom   19 type  2   force =     0.00000000    0.00000000    0.00000000
     atom   20 type  2   force =    -0.00000000    0.00000000    0.00000000
     atom   21 type  2   force =    -0.00000000   -0.00000000    0.00000000
     atom   22 type  2   force =     0.00000000   -0.00000000    0.00000000
     atom   23 type  2   force =    -0.00000000   -0.00000000   -0.00000000
     atom   24 type  2   force =     0.00000000   -0.00000000    0.00000000
     The non-local contrib.  to forces
     atom    1 type  1   force =     0.00000000    0.00000000    0.01645302
     atom    2 type  1   force =    -0.00000000   -0.00000000    0.01645302
     atom    3 type  1   force =     0.00000000    0.00000000   -0.01645302
     atom    4 type  1   force =     0.00000000    0.00000000   -0.01645302
     atom    5 type  1   force =     0.00000000   -0.00000000   -0.00445870
     atom    6 type  1   force =    -0.00000000   -0.00000000   -0.00445870
     atom    7 type  1   force =     0.00000000    0.00000000    0.00445870
     atom    8 type  1   force =     0.00000000   -0.00000000    0.00445870
     atom    9 type  2   force =     0.00000000    0.00000000    0.00028562
     atom   10 type  2   force =     0.00000000   -0.00000000    0.00028562
     atom   11 type  2   force =    -0.00000000    0.00000000   -0.00028562
     atom   12 type  2   force =    -0.00000000   -0.00000000   -0.00028562
     atom   13 type  2   force =     0.00000000   -0.08225855    0.00000000
     atom   14 type  2   force =     0.07123799   -0.04112927    0.00000000
     atom   15 type  2   force =     0.00000000    0.08225855    0.00000000
     atom   16 type  2   force =    -0.07123799    0.04112927    0.00000000
     atom   17 type  2   force =     0.07123799    0.04112927    0.00000000
     atom   18 type  2   force =    -0.07123799   -0.04112927   -0.00000000
     atom   19 type  2   force =     0.00000000    0.00000000    0.00000000
     atom   20 type  2   force =     0.00000000    0.00000000   -0.00000000
     atom   21 type  2   force =     0.00000000    0.00000000    0.00000000
     atom   22 type  2   force =     0.00000000   -0.00000000    0.00000000
     atom   23 type  2   force =    -0.00000000   -0.00000000    0.00000000
     atom   24 type  2   force =    -0.00000000    0.00000000    0.00000000
     The ionic contribution  to forces
     atom    1 type  1   force =    -0.00001561    0.00000952   -0.82946241
     atom    2 type  1   force =     0.00001561   -0.00000952   -0.82946241
     atom    3 type  1   force =     0.00001561   -0.00000952    0.82946241
     atom    4 type  1   force =    -0.00001561    0.00000952    0.82946241
     atom    5 type  1   force =     0.00005529   -0.00003136    0.20681828
     atom    6 type  1   force =    -0.00005529    0.00003136    0.20681828
     atom    7 type  1   force =    -0.00005529    0.00003136   -0.20681828
     atom    8 type  1   force =     0.00005529   -0.00003136   -0.20681828
     atom    9 type  2   force =     0.00005914   -0.00003411   -0.44482132
     atom   10 type  2   force =    -0.00005914    0.00003411   -0.44482132
     atom   11 type  2   force =    -0.00005914    0.00003411    0.44482132
     atom   12 type  2   force =     0.00005914   -0.00003411    0.44482132
     atom   13 type  2   force =     0.00007140  -13.57858202    0.00000000
     atom   14 type  2   force =    11.75948161   -6.78934042   -0.00000000
     atom   15 type  2   force =    -0.00007140   13.57858202    0.00000000
     atom   16 type  2   force =   -11.75948161    6.78934042    0.00000000
     atom   17 type  2   force =    11.75943250    6.78922962    0.00000000
     atom   18 type  2   force =   -11.75943250   -6.78922962   -0.00000000
     atom   19 type  2   force =    -0.00000000   -0.00000000    0.00000000
     atom   20 type  2   force =    -0.00000000    0.00000000    0.00000000
     atom   21 type  2   force =     0.00000000   -0.00000000    0.00000000
     atom   22 type  2   force =     0.00000000   -0.00000000    0.00000000
     atom   23 type  2   force =     0.00000000   -0.00000000    0.00000000
     atom   24 type  2   force =     0.00000000   -0.00000000    0.00000000
     The local contribution  to forces
     atom    1 type  1   force =    -0.00000000   -0.00000047    0.81349440
     atom    2 type  1   force =    -0.00000000    0.00000047    0.81349440
     atom    3 type  1   force =     0.00000000    0.00000047   -0.81349440
     atom    4 type  1   force =     0.00000000   -0.00000047   -0.81349440
     atom    5 type  1   force =     0.00145581   -0.00084103   -0.20228231
     atom    6 type  1   force =    -0.00145581    0.00084103   -0.20228231
     atom    7 type  1   force =    -0.00145581    0.00084103    0.20228231
     atom    8 type  1   force =     0.00145581   -0.00084103    0.20228231
     atom    9 type  2   force =     0.00193268   -0.00111586    0.44618383
     atom   10 type  2   force =    -0.00193268    0.00111586    0.44618383
     atom   11 type  2   force =    -0.00193268    0.00111586   -0.44618383
     atom   12 type  2   force =     0.00193268   -0.00111586   -0.44618383
     atom   13 type  2   force =    -0.00193082   13.66191768    0.00000000
     atom   14 type  2   force =   -11.82890383    6.82942097   -0.00000000
     atom   15 type  2   force =     0.00193082  -13.66191768   -0.00000000
     atom   16 type  2   force =    11.82890383   -6.82942097    0.00000000
     atom   17 type  2   force =   -11.83253356   -6.82928708    0.00000000
     atom   18 type  2   force =    11.83253356    6.82928708   -0.00000000
     atom   19 type  2   force =     0.00000000    0.00000000    0.00000000
     atom   20 type  2   force =     0.00000000    0.00000000    0.00000000
     atom   21 type  2   force =     0.00000000    0.00000000    0.00000000
     atom   22 type  2   force =     0.00000000    0.00000000    0.00000000
     atom   23 type  2   force =    -0.00000000    0.00000000    0.00000000
     atom   24 type  2   force =    -0.00000000    0.00000000    0.00000000
     The core correction contribution to forces
     atom    1 type  1   force =     0.00000000   -0.00000000   -0.00006301
     atom    2 type  1   force =    -0.00000000    0.00000000   -0.00006301
     atom    3 type  1   force =    -0.00000000    0.00000000    0.00006301
     atom    4 type  1   force =     0.00000000   -0.00000000    0.00006301
     atom    5 type  1   force =     0.00000316   -0.00000183    0.00002786
     atom    6 type  1   force =    -0.00000316    0.00000183    0.00002786
     atom    7 type  1   force =    -0.00000316    0.00000183   -0.00002786
     atom    8 type  1   force =     0.00000316   -0.00000183   -0.00002786
     atom    9 type  2   force =     0.00000119   -0.00000069   -0.00226409
     atom   10 type  2   force =    -0.00000119    0.00000069   -0.00226409
     atom   11 type  2   force =    -0.00000119    0.00000069    0.00226409
     atom   12 type  2   force =     0.00000119   -0.00000069    0.00226409
     atom   13 type  2   force =    -0.00000118    0.00080399    0.00000000
     atom   14 type  2   force =    -0.00069443    0.00040093   -0.00000000
     atom   15 type  2   force =     0.00000118   -0.00080399   -0.00000000
     atom   16 type  2   force =     0.00069443   -0.00040093    0.00000000
     atom   17 type  2   force =    -0.00069687   -0.00040097    0.00000000
     atom   18 type  2   force =     0.00069687    0.00040097   -0.00000000
     atom   19 type  2   force =     0.00000000    0.00000000    0.00000000
     atom   20 type  2   force =     0.00000000    0.00000000    0.00000000
     atom   21 type  2   force =     0.00000000    0.00000000    0.00000000
     atom   22 type  2   force =     0.00000000    0.00000000    0.00000000
     atom   23 type  2   force =    -0.00000000    0.00000000    0.00000000
     atom   24 type  2   force =    -0.00000000    0.00000000    0.00000000
     The Hubbard contrib.    to forces
     atom    1 type  1   force =     0.00000000    0.00000000    0.00000000
     atom    2 type  1   force =     0.00000000    0.00000000    0.00000000
     atom    3 type  1   force =     0.00000000    0.00000000    0.00000000
     atom    4 type  1   force =     0.00000000    0.00000000    0.00000000
     atom    5 type  1   force =     0.00000000    0.00000000    0.00000000
     atom    6 type  1   force =     0.00000000    0.00000000    0.00000000
     atom    7 type  1   force =     0.00000000    0.00000000    0.00000000
     atom    8 type  1   force =     0.00000000    0.00000000    0.00000000
     atom    9 type  2   force =     0.00000000    0.00000000    0.00000000
     atom   10 type  2   force =     0.00000000    0.00000000    0.00000000
     atom   11 type  2   force =     0.00000000    0.00000000    0.00000000
     atom   12 type  2   force =     0.00000000    0.00000000    0.00000000
     atom   13 type  2   force =     0.00000000    0.00000000    0.00000000
     atom   14 type  2   force =     0.00000000    0.00000000    0.00000000
     atom   15 type  2   force =     0.00000000    0.00000000    0.00000000
     atom   16 type  2   force =     0.00000000    0.00000000    0.00000000
     atom   17 type  2   force =     0.00000000    0.00000000    0.00000000
     atom   18 type  2   force =     0.00000000    0.00000000    0.00000000
     atom   19 type  2   force =     0.00000000    0.00000000    0.00000000
     atom   20 type  2   force =     0.00000000    0.00000000    0.00000000
     atom   21 type  2   force =     0.00000000    0.00000000    0.00000000
     atom   22 type  2   force =     0.00000000    0.00000000    0.00000000
     atom   23 type  2   force =     0.00000000    0.00000000    0.00000000
     atom   24 type  2   force =     0.00000000    0.00000000    0.00000000
     The SCF correction term to forces
     atom    1 type  1   force =    -0.00000000    0.00000000   -0.00001033
     atom    2 type  1   force =     0.00000000   -0.00000000   -0.00001033
     atom    3 type  1   force =     0.00000000   -0.00000000    0.00001033
     atom    4 type  1   force =    -0.00000000    0.00000000    0.00001033
     atom    5 type  1   force =    -0.00000000    0.00000000   -0.00000343
     atom    6 type  1   force =     0.00000000   -0.00000000   -0.00000343
     atom    7 type  1   force =     0.00000000   -0.00000000    0.00000343
     atom    8 type  1   force =    -0.00000000    0.00000000    0.00000343
     atom    9 type  2   force =     0.00000002   -0.00000001    0.00000879
     atom   10 type  2   force =    -0.00000002    0.00000001    0.00000879
     atom   11 type  2   force =    -0.00000002    0.00000001   -0.00000879
     atom   12 type  2   force =     0.00000002   -0.00000001   -0.00000879
     atom   13 type  2   force =    -0.00000001   -0.00002092   -0.00000000
     atom   14 type  2   force =     0.00001811   -0.00001046    0.00000000
     atom   15 type  2   force =     0.00000001    0.00002092    0.00000000
     atom   16 type  2   force =    -0.00001811    0.00001046   -0.00000000
     atom   17 type  2   force =     0.00001811    0.00001047   -0.00000000
     atom   18 type  2   force =    -0.00001811   -0.00001047   -0.00000000
     atom   19 type  2   force =     0.00000000    0.00000000   -0.00000000
     atom   20 type  2   force =     0.00000000   -0.00000000   -0.00000000
     atom   21 type  2   force =     0.00000000    0.00000000    0.00000000
     atom   22 type  2   force =     0.00000000    0.00000000   -0.00000000
     atom   23 type  2   force =    -0.00000000   -0.00000000   -0.00000000
     atom   24 type  2   force =    -0.00000000   -0.00000000   -0.00000000

     Total force =     0.002460     Total SCF correction =     0.000058
     Energy error            =      3.1E-05 Ry
     Gradient error          =      8.0E-04 Ry/Bohr

     number of scf cycles    =   6
     number of bfgs steps    =   5

     energy             old  =   -7950.1156154133 Ry
     energy             new  =   -7950.1156467166 Ry

     CASE: energy            _new < energy            _old

     new trust radius        =       0.0027702197 bohr
     new conv_thr            =       0.0000000002 Ry


ATOMIC_POSITIONS (crystal)
Mg           -0.0000000000       -0.0000000000        0.4071944116
Mg            0.0000000000        0.0000000000        0.9071944116
Mg           -0.0000000000       -0.0000000000        0.5928055884
Mg            0.0000000000        0.0000000000        0.0928055884
Mg            0.3333330000        0.6666670000        0.6560710431
Mg            0.6666670000        0.3333330000        0.1560710431
Mg            0.6666670000        0.3333330000        0.3439289569
Mg            0.3333330000        0.6666670000        0.8439289569
Ni            0.3333330000        0.6666670000        0.3753088756
Ni            0.6666670000        0.3333330000        0.8753088756
Ni            0.6666670000        0.3333330000        0.6246911244
Ni            0.3333330000        0.6666670000        0.1246911244
Ni            0.1652522128        0.3305034256        0.2500000000
Ni            0.8347477873        0.1652522128        0.7500000000
Ni            0.8347477872        0.6694965744        0.7500000000
Ni            0.1652522127        0.8347477872        0.2500000000
Ni            0.6694965745        0.8347477872        0.2500000000
Ni            0.3305034255        0.1652522128        0.7500000000
Ni            0.5000000000        0.0000000000        0.5000000000
Ni            0.5000000000        0.5000000000       -0.0000000000
Ni            0.5000000000       -0.0000000000       -0.0000000000
Ni            0.5000000000        0.5000000000        0.5000000000
Ni            0.0000000000        0.5000000000       -0.0000000000
Ni            0.0000000000        0.5000000000        0.5000000000



     Writing config-only to output data dir ./ACOptimization/out/iso.save/
     NEW-OLD atomic charge density approx. for the potential

     Check: negative core charge=   -0.000016

     total cpu time spent up to now is     2788.9 secs

     Self-consistent Calculation

     iteration #  1     ecut=    50.00 Ry     beta= 0.10
     Davidson diagonalization with overlap
     ethr =  1.00E-06,  avg # of iterations =  3.0

     Threshold (ethr) on eigenvalues was too large:
     Diagonalizing with lowered threshold

     Davidson diagonalization with overlap
     ethr =  9.46E-09,  avg # of iterations =  5.0

     total cpu time spent up to now is     2844.4 secs

     total energy              =   -7950.11575702 Ry
     estimated scf accuracy    <       0.00002434 Ry

     iteration #  2     ecut=    50.00 Ry     beta= 0.10
     Davidson diagonalization with overlap
     ethr =  6.61E-09,  avg # of iterations =  1.0

     total cpu time spent up to now is     2862.3 secs

     total energy              =   -7950.11566075 Ry
     estimated scf accuracy    <       0.00001763 Ry

     iteration #  3     ecut=    50.00 Ry     beta= 0.10
     Davidson diagonalization with overlap
     ethr =  4.79E-09,  avg # of iterations =  3.7

     total cpu time spent up to now is     2885.9 secs

     total energy              =   -7950.11566268 Ry
     estimated scf accuracy    <       0.00000140 Ry

     iteration #  4     ecut=    50.00 Ry     beta= 0.10
     Davidson diagonalization with overlap
     ethr =  3.82E-10,  avg # of iterations =  4.0

     total cpu time spent up to now is     2908.5 secs

     total energy              =   -7950.11566579 Ry
     estimated scf accuracy    <       0.00000138 Ry

     iteration #  5     ecut=    50.00 Ry     beta= 0.10
     Davidson diagonalization with overlap
     ethr =  3.75E-10,  avg # of iterations =  1.0

     total cpu time spent up to now is     2926.5 secs

     total energy              =   -7950.11566351 Ry
     estimated scf accuracy    <       0.00000116 Ry

     iteration #  6     ecut=    50.00 Ry     beta= 0.10
     Davidson diagonalization with overlap
     ethr =  3.14E-10,  avg # of iterations =  2.0

     total cpu time spent up to now is     2949.3 secs

     total energy              =   -7950.11565650 Ry
     estimated scf accuracy    <       0.00000090 Ry

     iteration #  7     ecut=    50.00 Ry     beta= 0.10
     Davidson diagonalization with overlap
     ethr =  2.45E-10,  avg # of iterations =  4.0

     total cpu time spent up to now is     2974.8 secs

     total energy              =   -7950.11565565 Ry
     estimated scf accuracy    <       0.00000017 Ry

     iteration #  8     ecut=    50.00 Ry     beta= 0.10
     Davidson diagonalization with overlap
     ethr =  4.60E-11,  avg # of iterations =  4.0

     total cpu time spent up to now is     2996.7 secs

     total energy              =   -7950.11565524 Ry
     estimated scf accuracy    <       0.00000030 Ry

     iteration #  9     ecut=    50.00 Ry     beta= 0.10
     Davidson diagonalization with overlap
     ethr =  4.60E-11,  avg # of iterations =  2.0

     total cpu time spent up to now is     3019.6 secs

     total energy              =   -7950.11565515 Ry
     estimated scf accuracy    <       0.00000007 Ry

     iteration # 10     ecut=    50.00 Ry     beta= 0.10
     Davidson diagonalization with overlap
     ethr =  1.82E-11,  avg # of iterations =  4.0

     total cpu time spent up to now is     3045.5 secs

     total energy              =   -7950.11565517 Ry
     estimated scf accuracy    <       0.00000001 Ry

     iteration # 11     ecut=    50.00 Ry     beta= 0.10
     Davidson diagonalization with overlap
     ethr =  3.08E-12,  avg # of iterations =  2.7

     total cpu time spent up to now is     3066.7 secs

     total energy              =   -7950.11565507 Ry
     estimated scf accuracy    <       0.00000001 Ry

     iteration # 12     ecut=    50.00 Ry     beta= 0.10
     Davidson diagonalization with overlap
     ethr =  3.08E-12,  avg # of iterations =  4.0

     total cpu time spent up to now is     3096.0 secs

     total energy              =   -7950.11565512 Ry
     estimated scf accuracy    <          1.8E-09 Ry

     iteration # 13     ecut=    50.00 Ry     beta= 0.10
     Davidson diagonalization with overlap
     ethr =  4.82E-13,  avg # of iterations =  3.0

     total cpu time spent up to now is     3122.0 secs

     total energy              =   -7950.11565513 Ry
     estimated scf accuracy    <          5.8E-10 Ry

     iteration # 14     ecut=    50.00 Ry     beta= 0.10
     Davidson diagonalization with overlap
     ethr =  1.58E-13,  avg # of iterations =  2.7

     total cpu time spent up to now is     3145.9 secs

     total energy              =   -7950.11565513 Ry
     estimated scf accuracy    <          2.0E-10 Ry

     iteration # 15     ecut=    50.00 Ry     beta= 0.10
     Davidson diagonalization with overlap
     ethr =  1.00E-13,  avg # of iterations =  2.3

     total cpu time spent up to now is     3169.6 secs

     End of self-consistent calculation

          k = 0.0000 0.0000 0.0000 ( 12553 PWs)   bands (ev):

   -89.5689 -89.5689 -89.5670 -89.5670 -89.5666 -89.5666 -89.5645 -89.5645
   -89.5109 -89.5109 -89.5087 -89.5087 -89.5085 -89.5085 -89.5065 -89.5065
   -89.4820 -89.4820 -89.4820 -89.4820 -89.4819 -89.4819 -89.4819 -89.4819
   -89.4812 -89.4812 -89.4811 -89.4811 -89.4811 -89.4811 -89.4811 -89.4811
   -61.7072 -61.7072 -61.7072 -61.7072 -61.7058 -61.7058 -61.7058 -61.7058
   -61.6532 -61.6532 -61.6531 -61.6531 -61.6515 -61.6515 -61.6514 -61.6514
   -51.5579 -51.5579 -51.5507 -51.5507 -51.5502 -51.5502 -51.5450 -51.5450
   -51.5087 -51.5087 -51.5044 -51.5044 -51.5027 -51.5027 -51.5021 -51.5021
   -51.4971 -51.4971 -51.4925 -51.4925 -51.4916 -51.4916 -51.4911 -51.4911
   -51.4218 -51.4218 -51.4096 -51.4096 -51.4089 -51.4089 -51.4088 -51.4088
   -49.4482 -49.4482 -49.4446 -49.4446 -49.4246 -49.4246 -49.4184 -49.4184
   -49.4121 -49.4121 -49.4037 -49.4037 -49.3853 -49.3853 -49.3809 -49.3809
   -49.3347 -49.3347 -49.3267 -49.3267 -49.3266 -49.3266 -49.3185 -49.3185
   -49.3150 -49.3150 -49.3149 -49.3149 -49.3055 -49.3055 -49.2796 -49.2796
   -49.2781 -49.2781 -49.2455 -49.2455 -49.2347 -49.2347 -49.2332 -49.2332
   -49.2233 -49.2233 -49.2153 -49.2153 -49.2139 -49.2139 -49.2105 -49.2105
   -49.1887 -49.1887 -49.1876 -49.1876 -49.1773 -49.1773 -49.1756 -49.1756
   -49.1655 -49.1655 -49.1619 -49.1619 -49.1599 -49.1599 -49.1579 -49.1579
   -28.8410 -28.8410 -28.8409 -28.8409 -28.8354 -28.8354 -28.8354 -28.8354
   -28.7853 -28.7853 -28.7849 -28.7849 -28.7786 -28.7786 -28.7786 -28.7786
   -28.5567 -28.5567 -28.5565 -28.5565 -28.5541 -28.5541 -28.5539 -28.5539
   -28.5523 -28.5523 -28.5521 -28.5521 -28.5430 -28.5430 -28.5429 -28.5429
   -28.5036 -28.5036 -28.5033 -28.5033 -28.4943 -28.4943 -28.4940 -28.4940
   -28.4921 -28.4921 -28.4920 -28.4920 -28.4882 -28.4882 -28.4880 -28.4880
     4.6904   4.6904   5.3145   5.3145   5.3222   5.3222   6.7701   6.7701
     7.4437   7.4437   8.7516   8.7516   8.7807   8.7807   8.8536   8.8536
     9.4074   9.4074   9.4115   9.4115   9.5684   9.5684   9.6229   9.6229
     9.7454   9.7454   9.7692   9.7692   9.7877   9.7877   9.8031   9.8031
     9.8240   9.8240   9.8269   9.8269   9.9557   9.9557   9.9760   9.9760
    10.0130  10.0130  10.0713  10.0713  10.0771  10.0771  10.0832  10.0832
    10.1069  10.1069  10.1645  10.1645  10.2247  10.2247  10.2485  10.2485
    10.2699  10.2699  10.3096  10.3096  10.6094  10.6094  10.6097  10.6097
    10.6272  10.6272  10.6366  10.6366  10.6412  10.6412  10.6962  10.6962
    10.8621  10.8621  10.9192  10.9192  11.0275  11.0275  11.0290  11.0290
    11.0699  11.0699  11.1225  11.1225  11.1582  11.1582  11.1628  11.1628
    11.3242  11.3242  11.3433  11.3433  11.5805  11.5805  11.7621  11.7621
    11.8159  11.8159  11.8178  11.8178  11.8302  11.8302  11.8649  11.8649
    11.9874  11.9874  12.0409  12.0409  12.1408  12.1408  12.1497  12.1497
    12.2758  12.2758  12.2869  12.2869  12.3756  12.3756  12.3771  12.3771
    12.3890  12.3890  12.3893  12.3893  12.4004  12.4004  12.4012  12.4012
    12.4070  12.4070  12.4213  12.4213  12.4421  12.4421  12.4432  12.4432
    12.4546  12.4546  12.4693  12.4693  12.4838  12.4838  12.5125  12.5125
    12.5335  12.5335  12.5558  12.5558  12.5574  12.5574  12.5757  12.5757
    12.5988  12.5988  12.6573  12.6573  12.7313  12.7313  12.9724  12.9724
    13.0252  13.0252  13.2517  13.2517  13.2526  13.2526  13.4935  13.4935
    13.4938  13.4938  13.4980  13.4980  13.5000  13.5000  13.7903  13.7903
    13.9404  13.9404  14.1312  14.1312  14.1648  14.1648  14.1812  14.1812
    14.1822  14.1822  14.1992  14.1992  14.2025  14.2025  14.3326  14.3326
    14.5476  14.5476  14.5774  14.5774  14.5810  14.5810  14.6349  14.6349
    15.9729  15.9729  15.9742  15.9742  15.9864  15.9864  16.0279  16.0279
    16.4797  16.4797  16.5284  16.5284  16.8847  16.8847  16.9072  16.9072
    17.5292  17.5292  17.5937  17.5937  17.6107  17.6107  17.7805  17.7805
    17.8567  17.8567  18.0707  18.0707  18.4845  18.4845  18.4948  18.4948
    18.9174  18.9174  18.9379  18.9379  19.2286  19.2286  19.5468  19.5468
    19.5533  19.5533  19.7498  19.7498  19.9751  19.9751  21.3223  21.3223
    21.4725  21.4725

          k = 0.0000 0.3849 0.0000 ( 12516 PWs)   bands (ev):

   -89.5680 -89.5680 -89.5666 -89.5666 -89.5663 -89.5663 -89.5649 -89.5649
   -89.5047 -89.5047 -89.5032 -89.5032 -89.5031 -89.5031 -89.5017 -89.5017
   -89.4879 -89.4879 -89.4878 -89.4878 -89.4867 -89.4867 -89.4866 -89.4866
   -89.4819 -89.4819 -89.4819 -89.4819 -89.4811 -89.4811 -89.4811 -89.4811
   -61.7072 -61.7072 -61.7072 -61.7072 -61.7057 -61.7057 -61.7056 -61.7056
   -61.6533 -61.6533 -61.6532 -61.6532 -61.6515 -61.6515 -61.6515 -61.6515
   -51.5587 -51.5587 -51.5543 -51.5543 -51.5492 -51.5492 -51.5471 -51.5471
   -51.5004 -51.5004 -51.4997 -51.4997 -51.4953 -51.4953 -51.4945 -51.4945
   -51.4795 -51.4795 -51.4769 -51.4769 -51.4758 -51.4758 -51.4738 -51.4738
   -51.4350 -51.4350 -51.4280 -51.4280 -51.4260 -51.4260 -51.4184 -51.4184
   -49.4446 -49.4446 -49.4366 -49.4366 -49.4319 -49.4319 -49.4231 -49.4231
   -49.3824 -49.3824 -49.3798 -49.3798 -49.3697 -49.3697 -49.3641 -49.3641
   -49.3291 -49.3291 -49.3263 -49.3263 -49.3225 -49.3225 -49.3172 -49.3172
   -49.3052 -49.3052 -49.3007 -49.3007 -49.2953 -49.2953 -49.2774 -49.2774
   -49.2745 -49.2745 -49.2514 -49.2514 -49.2457 -49.2457 -49.2376 -49.2376
   -49.2258 -49.2258 -49.2205 -49.2205 -49.2151 -49.2151 -49.2084 -49.2084
   -49.2055 -49.2055 -49.2021 -49.2021 -49.1845 -49.1845 -49.1829 -49.1829
   -49.1818 -49.1818 -49.1802 -49.1802 -49.1637 -49.1637 -49.1629 -49.1629
   -28.8402 -28.8402 -28.8402 -28.8402 -28.8348 -28.8348 -28.8347 -28.8347
   -28.7862 -28.7862 -28.7861 -28.7861 -28.7799 -28.7799 -28.7798 -28.7798
   -28.5571 -28.5571 -28.5570 -28.5570 -28.5529 -28.5529 -28.5526 -28.5526
   -28.5509 -28.5509 -28.5506 -28.5506 -28.5435 -28.5435 -28.5435 -28.5435
   -28.5028 -28.5028 -28.5027 -28.5027 -28.4953 -28.4953 -28.4951 -28.4951
   -28.4930 -28.4930 -28.4928 -28.4928 -28.4876 -28.4876 -28.4876 -28.4876
     5.6819   5.6819   6.2758   6.2758   6.2780   6.2780   7.6890   7.6890
     8.1681   8.1681   8.3480   8.3480   8.6586   8.6586   8.6715   8.6715
     9.2315   9.2315   9.2666   9.2666   9.4219   9.4219   9.5136   9.5136
     9.5980   9.5980   9.7112   9.7112   9.7771   9.7771   9.8525   9.8525
     9.9115   9.9115   9.9832   9.9832  10.0129  10.0129  10.0470  10.0470
    10.0590  10.0590  10.1055  10.1055  10.2125  10.2125  10.2871  10.2871
    10.3416  10.3416  10.3947  10.3947  10.4402  10.4402  10.4958  10.4958
    10.5143  10.5143  10.5450  10.5450  10.5537  10.5537  10.6475  10.6475
    10.6538  10.6538  10.6906  10.6906  10.6943  10.6943  10.7605  10.7605
    10.7898  10.7898  10.7966  10.7966  10.8690  10.8690  10.9237  10.9237
    10.9901  10.9901  11.0468  11.0468  11.0636  11.0636  11.0834  11.0834
    11.1500  11.1500  11.2369  11.2369  11.2733  11.2733  11.3106  11.3106
    11.3277  11.3277  11.4397  11.4397  11.4498  11.4498  11.5019  11.5019
    11.5211  11.5211  11.5884  11.5884  11.6529  11.6529  11.6682  11.6682
    11.6974  11.6974  11.7471  11.7471  11.8283  11.8283  11.8380  11.8380
    11.9157  11.9157  11.9562  11.9562  11.9839  11.9839  12.0123  12.0123
    12.0800  12.0800  12.0934  12.0934  12.1130  12.1130  12.1737  12.1737
    12.1750  12.1750  12.2395  12.2395  12.2859  12.2859  12.3381  12.3381
    12.3525  12.3525  12.4245  12.4245  12.4384  12.4384  12.4474  12.4474
    12.5003  12.5003  12.5136  12.5136  12.5172  12.5172  12.5491  12.5491
    12.6058  12.6058  12.6372  12.6372  12.6542  12.6542  12.7584  12.7584
    12.7831  12.7831  12.8499  12.8499  12.9304  12.9304  13.0624  13.0624
    13.3296  13.3296  13.3790  13.3790  13.7557  13.7557  13.7646  13.7646
    13.9687  13.9687  14.0665  14.0665  14.1477  14.1477  14.3396  14.3396
    14.4007  14.4007  14.4369  14.4369  14.4934  14.4934  14.7025  14.7025
    15.3268  15.3268  15.7716  15.7716  16.0743  16.0743  16.1189  16.1189
    17.4490  17.4490  17.8414  17.8414  17.8923  17.8923  18.0732  18.0732
    18.8429  18.8429  18.9406  18.9406  19.0423  19.0423  19.1630  19.1630
    19.1823  19.1823  19.3415  19.3415  19.8141  19.8141  20.2630  20.2630
    20.2963  20.2963  20.3658  20.3658  20.8443  20.8443  20.9558  20.9558
    21.2109  21.2109  21.6956  21.6956  22.0481  22.0481  22.3372  22.3372
    22.3509  22.3509

          k = 0.3333 0.5774 0.0000 ( 12582 PWs)   bands (ev):

   -89.5671 -89.5671 -89.5671 -89.5671 -89.5655 -89.5655 -89.5655 -89.5655
   -89.4974 -89.4974 -89.4974 -89.4974 -89.4961 -89.4961 -89.4960 -89.4960
   -89.4956 -89.4956 -89.4955 -89.4955 -89.4922 -89.4922 -89.4921 -89.4921
   -89.4819 -89.4819 -89.4819 -89.4819 -89.4811 -89.4811 -89.4811 -89.4811
   -61.7072 -61.7072 -61.7072 -61.7072 -61.7057 -61.7057 -61.7057 -61.7057
   -61.6534 -61.6534 -61.6534 -61.6534 -61.6516 -61.6516 -61.6515 -61.6515
   -51.5620 -51.5620 -51.5617 -51.5617 -51.5505 -51.5505 -51.5502 -51.5502
   -51.5017 -51.5017 -51.5008 -51.5008 -51.4993 -51.4993 -51.4988 -51.4988
   -51.4630 -51.4630 -51.4620 -51.4620 -51.4569 -51.4569 -51.4555 -51.4555
   -51.4532 -51.4532 -51.4517 -51.4517 -51.4445 -51.4445 -51.4441 -51.4441
   -49.4423 -49.4423 -49.4419 -49.4419 -49.4332 -49.4332 -49.4274 -49.4274
   -49.3570 -49.3570 -49.3562 -49.3562 -49.3559 -49.3559 -49.3518 -49.3518
   -49.3478 -49.3478 -49.3465 -49.3465 -49.3446 -49.3446 -49.3126 -49.3126
   -49.3047 -49.3047 -49.3009 -49.3009 -49.2942 -49.2942 -49.2735 -49.2735
   -49.2673 -49.2673 -49.2606 -49.2606 -49.2564 -49.2564 -49.2554 -49.2554
   -49.2302 -49.2302 -49.2206 -49.2206 -49.2162 -49.2162 -49.2148 -49.2148
   -49.2093 -49.2093 -49.2029 -49.2029 -49.2014 -49.2014 -49.1959 -49.1959
   -49.1948 -49.1948 -49.1920 -49.1920 -49.1742 -49.1742 -49.1738 -49.1738
   -28.8401 -28.8401 -28.8398 -28.8398 -28.8348 -28.8348 -28.8344 -28.8344
   -28.7869 -28.7869 -28.7868 -28.7868 -28.7807 -28.7807 -28.7807 -28.7807
   -28.5584 -28.5584 -28.5560 -28.5560 -28.5531 -28.5531 -28.5530 -28.5530
   -28.5495 -28.5495 -28.5494 -28.5494 -28.5455 -28.5455 -28.5425 -28.5425
   -28.5026 -28.5026 -28.5025 -28.5025 -28.4965 -28.4965 -28.4963 -28.4963
   -28.4933 -28.4933 -28.4929 -28.4929 -28.4876 -28.4876 -28.4875 -28.4875
     7.3114   7.3114   7.3122   7.3122   7.7390   7.7390   7.8520   7.8520
     7.8579   7.8579   8.0545   8.0545   8.1760   8.1760   8.1809   8.1809
     8.3546   8.3546   9.2057   9.2057   9.2059   9.2059   9.2315   9.2315
     9.2382   9.2382   9.2547   9.2547   9.3142   9.3142   9.9582   9.9582
     9.9655   9.9655   9.9685   9.9685  10.1052  10.1052  10.1192  10.1192
    10.2552  10.2552  10.2858  10.2858  10.4167  10.4167  10.4326  10.4326
    10.4890  10.4890  10.4965  10.4965  10.5442  10.5442  10.5503  10.5503
    10.5583  10.5583  10.5682  10.5682  10.6432  10.6432  10.7050  10.7050
    10.7297  10.7297  10.7307  10.7307  10.7453  10.7453  10.7484  10.7484
    10.7801  10.7801  10.8123  10.8123  10.8266  10.8266  10.8552  10.8552
    10.8667  10.8667  10.8667  10.8667  10.9180  10.9180  10.9218  10.9218
    10.9840  10.9840  10.9965  10.9965  11.0142  11.0142  11.0396  11.0396
    11.0730  11.0730  11.2241  11.2241  11.2397  11.2397  11.2519  11.2519
    11.3869  11.3869  11.5096  11.5096  11.5259  11.5259  11.5303  11.5303
    11.5641  11.5641  11.5891  11.5891  11.7544  11.7544  11.7596  11.7596
    11.8473  11.8473  11.8764  11.8764  11.8956  11.8956  11.9067  11.9067
    11.9671  11.9671  11.9694  11.9694  11.9940  11.9940  12.0790  12.0790
    12.1315  12.1315  12.1610  12.1610  12.1696  12.1696  12.1797  12.1797
    12.2141  12.2141  12.2313  12.2313  12.2313  12.2313  12.2764  12.2764
    12.2974  12.2974  12.3008  12.3008  12.3620  12.3620  12.4248  12.4248
    12.5833  12.5833  12.6073  12.6073  12.6909  12.6909  12.6909  12.6909
    12.7136  12.7136  12.7959  12.7959  12.8054  12.8054  12.9028  12.9028
    12.9627  12.9627  13.0304  13.0304  13.0311  13.0311  13.2413  13.2413
    13.3961  13.3961  13.4062  13.4062  13.4646  13.4646  14.8359  14.8359
    14.8560  14.8560  14.8950  14.8950  15.1191  15.1191  15.1266  15.1266
    15.7053  15.7053  17.5277  17.5277  17.5300  17.5300  17.6854  17.6854
    17.9450  17.9450  17.9451  17.9451  18.5588  18.5588  18.6252  18.6252
    18.6261  18.6261  18.6913  18.6913  18.6999  18.6999  18.9441  18.9441
    19.1735  19.1735  19.5702  19.5702  19.6425  19.6425  19.6579  19.6579
    20.4740  20.4740  20.4770  20.4770  20.7978  20.7978  20.8129  20.8129
    20.9157  20.9157  21.5862  21.5862  22.9057  22.9057  22.9145  22.9145
    23.0858  23.1295

     the Fermi energy is    13.1035 ev

!    total energy              =   -7950.11565513 Ry
     total all-electron energy =    -51823.967738 Ry
     estimated scf accuracy    <          1.2E-10 Ry
     smearing contrib. (-TS)   =       0.10396046 Ry
     internal energy E=F+TS    =   -7950.21961559 Ry

     The total energy is F=E-TS. E is the sum of the following terms:
     one-electron contribution =   -4471.88821349 Ry
     hartree contribution      =    2392.59339380 Ry
     xc contribution           =    -681.93212909 Ry
     ewald contribution        =   -3650.80586588 Ry
     one-center paw contrib.   =   -1538.18680093 Ry

     convergence has been achieved in  15 iterations

     Forces acting on atoms (cartesian axes, Ry/au):

     atom    1 type  1   force =     0.00000000    0.00000000   -0.00003692
     atom    2 type  1   force =     0.00000000    0.00000000   -0.00003692
     atom    3 type  1   force =    -0.00000000   -0.00000000    0.00003692
     atom    4 type  1   force =     0.00000000    0.00000000    0.00003692
     atom    5 type  1   force =    -0.00000000   -0.00000000    0.00001268
     atom    6 type  1   force =    -0.00000000   -0.00000000    0.00001268
     atom    7 type  1   force =     0.00000000    0.00000000   -0.00001268
     atom    8 type  1   force =     0.00000000    0.00000000   -0.00001268
     atom    9 type  2   force =    -0.00000000   -0.00000000   -0.00027930
     atom   10 type  2   force =    -0.00000000   -0.00000000   -0.00027930
     atom   11 type  2   force =     0.00000000    0.00000000    0.00027930
     atom   12 type  2   force =     0.00000000    0.00000000    0.00027930
     atom   13 type  2   force =     0.00000000    0.00025387   -0.00000000
     atom   14 type  2   force =    -0.00021986    0.00012693    0.00000000
     atom   15 type  2   force =     0.00000000   -0.00025387   -0.00000000
     atom   16 type  2   force =     0.00021986   -0.00012693   -0.00000000
     atom   17 type  2   force =    -0.00021986   -0.00012693    0.00000000
     atom   18 type  2   force =     0.00021986    0.00012693   -0.00000000
     atom   19 type  2   force =     0.00000000   -0.00000000    0.00000000
     atom   20 type  2   force =     0.00000000    0.00000000    0.00000000
     atom   21 type  2   force =     0.00000000    0.00000000    0.00000000
     atom   22 type  2   force =     0.00000000    0.00000000    0.00000000
     atom   23 type  2   force =     0.00000000    0.00000000   -0.00000000
     atom   24 type  2   force =     0.00000000   -0.00000000    0.00000000
     The non-local contrib.  to forces
     atom    1 type  1   force =     0.00000000    0.00000000    0.01510426
     atom    2 type  1   force =     0.00000000   -0.00000000    0.01510426
     atom    3 type  1   force =     0.00000000    0.00000000   -0.01510426
     atom    4 type  1   force =     0.00000000   -0.00000000   -0.01510426
     atom    5 type  1   force =     0.00000000    0.00000000   -0.00474927
     atom    6 type  1   force =     0.00000000    0.00000000   -0.00474927
     atom    7 type  1   force =     0.00000000   -0.00000000    0.00474927
     atom    8 type  1   force =     0.00000000    0.00000000    0.00474927
     atom    9 type  2   force =    -0.00000000   -0.00000000    0.00028019
     atom   10 type  2   force =     0.00000000   -0.00000000    0.00028019
     atom   11 type  2   force =     0.00000000    0.00000000   -0.00028019
     atom   12 type  2   force =     0.00000000    0.00000000   -0.00028019
     atom   13 type  2   force =     0.00000000   -0.08209033    0.00000000
     atom   14 type  2   force =     0.07109231   -0.04104516    0.00000000
     atom   15 type  2   force =     0.00000000    0.08209033    0.00000000
     atom   16 type  2   force =    -0.07109231    0.04104516    0.00000000
     atom   17 type  2   force =     0.07109231    0.04104516    0.00000000
     atom   18 type  2   force =    -0.07109231   -0.04104516    0.00000000
     atom   19 type  2   force =    -0.00000000    0.00000000   -0.00000000
     atom   20 type  2   force =    -0.00000000   -0.00000000   -0.00000000
     atom   21 type  2   force =     0.00000000   -0.00000000   -0.00000000
     atom   22 type  2   force =     0.00000000    0.00000000   -0.00000000
     atom   23 type  2   force =     0.00000000    0.00000000   -0.00000000
     atom   24 type  2   force =     0.00000000   -0.00000000    0.00000000
     The ionic contribution  to forces
     atom    1 type  1   force =    -0.00001559    0.00000951   -0.87685582
     atom    2 type  1   force =     0.00001559   -0.00000951   -0.87685582
     atom    3 type  1   force =     0.00001559   -0.00000951    0.87685582
     atom    4 type  1   force =    -0.00001559    0.00000951    0.87685582
     atom    5 type  1   force =     0.00005529   -0.00003136    0.19592405
     atom    6 type  1   force =    -0.00005529    0.00003136    0.19592405
     atom    7 type  1   force =    -0.00005529    0.00003136   -0.19592405
     atom    8 type  1   force =     0.00005529   -0.00003136   -0.19592405
     atom    9 type  2   force =     0.00005903   -0.00003404   -0.36899056
     atom   10 type  2   force =    -0.00005903    0.00003404   -0.36899056
     atom   11 type  2   force =    -0.00005903    0.00003404    0.36899056
     atom   12 type  2   force =     0.00005903   -0.00003404    0.36899056
     atom   13 type  2   force =     0.00007150  -13.72713400    0.00000000
     atom   14 type  2   force =    11.88813137   -6.86361639    0.00000000
     atom   15 type  2   force =    -0.00007150   13.72713400    0.00000000
     atom   16 type  2   force =   -11.88813137    6.86361639    0.00000000
     atom   17 type  2   force =    11.88808234    6.86350552    0.00000000
     atom   18 type  2   force =   -11.88808234   -6.86350552    0.00000000
     atom   19 type  2   force =    -0.00000000    0.00000000    0.00000000
     atom   20 type  2   force =    -0.00000000    0.00000000    0.00000000
     atom   21 type  2   force =     0.00000000   -0.00000000    0.00000000
     atom   22 type  2   force =     0.00000000   -0.00000000    0.00000000
     atom   23 type  2   force =     0.00000000    0.00000000    0.00000000
     atom   24 type  2   force =    -0.00000000   -0.00000000    0.00000000
     The local contribution  to forces
     atom    1 type  1   force =     0.00000000   -0.00000047    0.86177446
     atom    2 type  1   force =     0.00000000    0.00000047    0.86177446
     atom    3 type  1   force =    -0.00000000    0.00000047   -0.86177446
     atom    4 type  1   force =    -0.00000000   -0.00000047   -0.86177446
     atom    5 type  1   force =     0.00145581   -0.00084103   -0.19118731
     atom    6 type  1   force =    -0.00145581    0.00084103   -0.19118731
     atom    7 type  1   force =    -0.00145581    0.00084103    0.19118731
     atom    8 type  1   force =     0.00145581   -0.00084103    0.19118731
     atom    9 type  2   force =     0.00193275   -0.00111591    0.37069190
     atom   10 type  2   force =    -0.00193275    0.00111591    0.37069190
     atom   11 type  2   force =    -0.00193275    0.00111591   -0.37069190
     atom   12 type  2   force =     0.00193275   -0.00111591   -0.37069190
     atom   13 type  2   force =    -0.00193083   13.80974707    0.00000000
     atom   14 type  2   force =   -11.95692777    6.90333565   -0.00000000
     atom   15 type  2   force =     0.00193083  -13.80974707   -0.00000000
     atom   16 type  2   force =    11.95692777   -6.90333565   -0.00000000
     atom   17 type  2   force =   -11.96055754   -6.90320177    0.00000000
     atom   18 type  2   force =    11.96055754    6.90320177   -0.00000000
     atom   19 type  2   force =     0.00000000    0.00000000    0.00000000
     atom   20 type  2   force =     0.00000000    0.00000000    0.00000000
     atom   21 type  2   force =     0.00000000    0.00000000    0.00000000
     atom   22 type  2   force =     0.00000000    0.00000000    0.00000000
     atom   23 type  2   force =    -0.00000000    0.00000000    0.00000000
     atom   24 type  2   force =    -0.00000000    0.00000000    0.00000000
     The core correction contribution to forces
     atom    1 type  1   force =     0.00000000   -0.00000000   -0.00005688
     atom    2 type  1   force =    -0.00000000    0.00000000   -0.00005688
     atom    3 type  1   force =    -0.00000000    0.00000000    0.00005688
     atom    4 type  1   force =     0.00000000   -0.00000000    0.00005688
     atom    5 type  1   force =     0.00000316   -0.00000183    0.00002912
     atom    6 type  1   force =    -0.00000316    0.00000183    0.00002912
     atom    7 type  1   force =    -0.00000316    0.00000183   -0.00002912
     atom    8 type  1   force =     0.00000316   -0.00000183   -0.00002912
     atom    9 type  2   force =     0.00000119   -0.00000069   -0.00225087
     atom   10 type  2   force =    -0.00000119    0.00000069   -0.00225087
     atom   11 type  2   force =    -0.00000119    0.00000069    0.00225087
     atom   12 type  2   force =     0.00000119   -0.00000069    0.00225087
     atom   13 type  2   force =    -0.00000118    0.00077718    0.00000000
     atom   14 type  2   force =    -0.00067122    0.00038753   -0.00000000
     atom   15 type  2   force =     0.00000118   -0.00077718   -0.00000000
     atom   16 type  2   force =     0.00067122   -0.00038753   -0.00000000
     atom   17 type  2   force =    -0.00067365   -0.00038757    0.00000000
     atom   18 type  2   force =     0.00067365    0.00038757   -0.00000000
     atom   19 type  2   force =     0.00000000    0.00000000    0.00000000
     atom   20 type  2   force =    -0.00000000   -0.00000000    0.00000000
     atom   21 type  2   force =     0.00000000    0.00000000    0.00000000
     atom   22 type  2   force =     0.00000000    0.00000000    0.00000000
     atom   23 type  2   force =    -0.00000000    0.00000000    0.00000000
     atom   24 type  2   force =    -0.00000000    0.00000000    0.00000000
     The Hubbard contrib.    to forces
     atom    1 type  1   force =     0.00000000    0.00000000    0.00000000
     atom    2 type  1   force =     0.00000000    0.00000000    0.00000000
     atom    3 type  1   force =     0.00000000    0.00000000    0.00000000
     atom    4 type  1   force =     0.00000000    0.00000000    0.00000000
     atom    5 type  1   force =     0.00000000    0.00000000    0.00000000
     atom    6 type  1   force =     0.00000000    0.00000000    0.00000000
     atom    7 type  1   force =     0.00000000    0.00000000    0.00000000
     atom    8 type  1   force =     0.00000000    0.00000000    0.00000000
     atom    9 type  2   force =     0.00000000    0.00000000    0.00000000
     atom   10 type  2   force =     0.00000000    0.00000000    0.00000000
     atom   11 type  2   force =     0.00000000    0.00000000    0.00000000
     atom   12 type  2   force =     0.00000000    0.00000000    0.00000000
     atom   13 type  2   force =     0.00000000    0.00000000    0.00000000
     atom   14 type  2   force =     0.00000000    0.00000000    0.00000000
     atom   15 type  2   force =     0.00000000    0.00000000    0.00000000
     atom   16 type  2   force =     0.00000000    0.00000000    0.00000000
     atom   17 type  2   force =     0.00000000    0.00000000    0.00000000
     atom   18 type  2   force =     0.00000000    0.00000000    0.00000000
     atom   19 type  2   force =     0.00000000    0.00000000    0.00000000
     atom   20 type  2   force =     0.00000000    0.00000000    0.00000000
     atom   21 type  2   force =     0.00000000    0.00000000    0.00000000
     atom   22 type  2   force =     0.00000000    0.00000000    0.00000000
     atom   23 type  2   force =     0.00000000    0.00000000    0.00000000
     atom   24 type  2   force =     0.00000000    0.00000000    0.00000000
     The SCF correction term to forces
     atom    1 type  1   force =    -0.00000001    0.00000000   -0.00000293
     atom    2 type  1   force =     0.00000001   -0.00000000   -0.00000293
     atom    3 type  1   force =     0.00000001   -0.00000000    0.00000293
     atom    4 type  1   force =    -0.00000001    0.00000000    0.00000293
     atom    5 type  1   force =    -0.00000000    0.00000000   -0.00000391
     atom    6 type  1   force =     0.00000000   -0.00000000   -0.00000391
     atom    7 type  1   force =     0.00000000   -0.00000000    0.00000391
     atom    8 type  1   force =    -0.00000000    0.00000000    0.00000391
     atom    9 type  2   force =     0.00000003   -0.00000002   -0.00000996
     atom   10 type  2   force =    -0.00000003    0.00000002   -0.00000996
     atom   11 type  2   force =    -0.00000003    0.00000002    0.00000996
     atom   12 type  2   force =     0.00000003   -0.00000002    0.00000996
     atom   13 type  2   force =    -0.00000001    0.00001252    0.00000000
     atom   14 type  2   force =    -0.00001085    0.00000626   -0.00000000
     atom   15 type  2   force =     0.00000001   -0.00001252   -0.00000000
     atom   16 type  2   force =     0.00001085   -0.00000626   -0.00000000
     atom   17 type  2   force =    -0.00001085   -0.00000625   -0.00000000
     atom   18 type  2   force =     0.00001085    0.00000625   -0.00000000
     atom   19 type  2   force =     0.00000000   -0.00000000    0.00000000
     atom   20 type  2   force =     0.00000000   -0.00000000   -0.00000000
     atom   21 type  2   force =    -0.00000000    0.00000000   -0.00000000
     atom   22 type  2   force =    -0.00000000    0.00000000   -0.00000000
     atom   23 type  2   force =    -0.00000000   -0.00000000   -0.00000000
     atom   24 type  2   force =     0.00000000    0.00000000   -0.00000000

     Total force =     0.000840     Total SCF correction =     0.000038
     Energy error            =      8.4E-06 Ry
     Gradient error          =      2.8E-04 Ry/Bohr

     bfgs converged in   7 scf cycles and   6 bfgs steps
     (criteria: energy <  1.0E-05 Ry, force <  1.0E-03 Ry/Bohr)

     End of BFGS Geometry Optimization

     Final energy             =   -7950.1156551282 Ry

     File ./ACOptimization/out/iso.bfgs deleted, as requested
Begin final coordinates

ATOMIC_POSITIONS (crystal)
Mg           -0.0000000000       -0.0000000000        0.4071944116
Mg            0.0000000000        0.0000000000        0.9071944116
Mg           -0.0000000000       -0.0000000000        0.5928055884
Mg            0.0000000000        0.0000000000        0.0928055884
Mg            0.3333330000        0.6666670000        0.6560710431
Mg            0.6666670000        0.3333330000        0.1560710431
Mg            0.6666670000        0.3333330000        0.3439289569
Mg            0.3333330000        0.6666670000        0.8439289569
Ni            0.3333330000        0.6666670000        0.3753088756
Ni            0.6666670000        0.3333330000        0.8753088756
Ni            0.6666670000        0.3333330000        0.6246911244
Ni            0.3333330000        0.6666670000        0.1246911244
Ni            0.1652522128        0.3305034256        0.2500000000
Ni            0.8347477873        0.1652522128        0.7500000000
Ni            0.8347477872        0.6694965744        0.7500000000
Ni            0.1652522127        0.8347477872        0.2500000000
Ni            0.6694965745        0.8347477872        0.2500000000
Ni            0.3305034255        0.1652522128        0.7500000000
Ni            0.5000000000        0.0000000000        0.5000000000
Ni            0.5000000000        0.5000000000       -0.0000000000
Ni            0.5000000000       -0.0000000000       -0.0000000000
Ni            0.5000000000        0.5000000000        0.5000000000
Ni            0.0000000000        0.5000000000       -0.0000000000
Ni            0.0000000000        0.5000000000        0.5000000000
End final coordinates



     Writing all to output data dir ./ACOptimization/out/iso.save/
 
     init_run     :      9.04s CPU      9.34s WALL (       1 calls)
     electrons    :   3069.87s CPU   3071.38s WALL (       7 calls)
     update_pot   :     17.09s CPU     17.10s WALL (       6 calls)
     forces       :     31.66s CPU     31.65s WALL (       7 calls)

     Called by init_run:
     wfcinit      :      5.83s CPU      5.97s WALL (       1 calls)
                                        5.97s GPU  (       1 calls)
     potinit      :      2.61s CPU      2.64s WALL (       1 calls)
     hinit0       :      0.36s CPU      0.38s WALL (       1 calls)

     Called by electrons:
     c_bands      :   2423.18s CPU   2424.15s WALL (     132 calls)
     sum_band     :    302.51s CPU    302.71s WALL (     132 calls)
     v_of_rho     :      3.82s CPU      3.85s WALL (     135 calls)
     newd         :     33.05s CPU     36.32s WALL (     135 calls)
                                       22.94s GPU  (     129 calls)
     PAW_pot      :    318.96s CPU    318.89s WALL (     141 calls)
     mix_rho      :     20.69s CPU     20.99s WALL (     132 calls)

     Called by c_bands:
     init_us_2    :      1.84s CPU      1.84s WALL (     834 calls)
     init_us_2:cp :      0.23s CPU      0.23s WALL (      18 calls)
     init_us_2:gp :      1.60s CPU      1.60s WALL (     816 calls)
     cegterg      :   2372.37s CPU   2373.34s WALL (     396 calls)

     Called by *egterg:
     cdiaghg      :    119.65s CPU    119.99s WALL (    1483 calls)
                                      119.97s GPU  (    1483 calls)
     h_psi        :   1065.07s CPU   1066.13s WALL (    1516 calls)
                                     1065.76s GPU  (    1516 calls)
     s_psi        :     10.68s CPU    198.28s WALL (    1516 calls)
                                      197.43s GPU  (    1516 calls)
     g_psi        :      0.01s CPU      1.87s WALL (    1117 calls)
                                        1.85s GPU  (    1117 calls)

     Called by h_psi:
     h_psi:calbec :      0.09s CPU    198.13s WALL (    1516 calls)
                                      198.12s GPU  (    1516 calls)
     vloc_psi     :    671.65s CPU    672.68s WALL (    1516 calls)
                                      672.66s GPU  (    1516 calls)
     add_vuspsi   :      5.92s CPU    193.59s WALL (    1516 calls)
                                      193.57s GPU  (    1516 calls)

     General routines
     calbec       :     31.27s CPU     15.71s WALL (    2014 calls)
     fft          :      3.54s CPU      4.93s WALL (    3376 calls)
                                        1.40s GPU  (    2836 calls)
     ffts         :      1.57s CPU      2.27s WALL (    3819 calls)
                                        0.74s GPU  (    3279 calls)
     fftw         :     11.68s CPU    451.93s WALL ( 2040956 calls)
                                      441.68s GPU  ( 2040956 calls)
     interpolate  :      5.81s CPU      5.82s WALL (     540 calls)
 
     Parallel routines
 
     PWSCF        :  53m 5.21s CPU  52m55.56s WALL

 
   This run was terminated on:  21:43:46  19Mar2026            

=------------------------------------------------------------------------------=
   JOB DONE.
=------------------------------------------------------------------------------=
