
     Program PWSCF v.7.2 starts on 19Mar2026 at 18:39:50 

     This program is part of the open-source Quantum ESPRESSO suite
     for quantum simulation of materials; please cite
         "P. Giannozzi et al., J. Phys.:Condens. Matter 21 395502 (2009);
         "P. Giannozzi et al., J. Phys.:Condens. Matter 29 465901 (2017);
         "P. Giannozzi et al., J. Chem. Phys. 152 154105 (2020);
          URL http://www.quantum-espresso.org", 
     in publications or presentations arising from this work. More details at
     http://www.quantum-espresso.org/quote

     Parallel version (MPI), running on     1 processors

     MPI processes distributed on     1 nodes
     5303 MiB available memory on the printing compute node when the environment starts
 
     Reading input from ACOptimization/in/iso_004.in
Warning: card &CELL ignored
Warning: card   CELL_DOFREE = 'ALL', ignored
Warning: card   CELL_DYNAMICS = 'BFGS', ignored
Warning: card   PRESS = 0.0, ignored
Warning: card   PRESS_CONV_THR = 0.01, ignored
Warning: card / ignored

     Current dimensions of program PWSCF are:
     Max number of different atomic species (ntypx) = 10
     Max number of k-points (npk) =  40000
     Max angular momentum in pseudopotentials (lmaxx) =  4
     file Mg.rel-pbesol-spnl-kjpaw_psl.1.0.0.UPF: wavefunction(s)  2P 2P renormalized
     file Ni.rel-pbesol-spn-kjpaw_psl.1.0.0.UPF: wavefunction(s)  3P 3P 3D 3D renormalized
     Message from routine setup:
     using ibrav=0 with symmetry is DISCOURAGED, use correct ibrav instead
 
     Subspace diagonalization in iterative solution of the eigenvalue problem:
     a serial algorithm will be used

 
     G-vector sticks info
     --------------------
     sticks:   dense  smooth     PW     G-vecs:    dense   smooth      PW
     Sum        2287    1147    313               290741   102861   15419
 
     Using Slab Decomposition
 

     Title: 
     Optimisation A C for MgNi2                                                 


     bravais-lattice index     =            0
     lattice parameter (alat)  =       9.1160  a.u.
     unit-cell volume          =    2152.3507 (a.u.)^3
     number of atoms/cell      =           24
     number of atomic types    =            2
     number of electrons       =       368.00
     number of Kohn-Sham states=          442
     kinetic-energy cutoff     =      50.0000  Ry
     charge density cutoff     =     400.0000  Ry
     scf convergence threshold =      1.0E-08
     mixing beta               =       0.1000
     number of iterations used =           20  local-TF  mixing
     energy convergence thresh.=      1.0E-05
     force convergence thresh. =      1.0E-03
     Exchange-correlation= SLA  PW   PSX  PSC
                           (   1   4  10   8   0   0   0)
     nstep                     =           50

     Non magnetic calculation with spin-orbit


     GPU acceleration is ACTIVE.


     celldm(1)=   9.116039  celldm(2)=   0.000000  celldm(3)=   0.000000
     celldm(4)=   0.000000  celldm(5)=   0.000000  celldm(6)=   0.000000

     crystal axes: (cart. coord. in units of alat)
               a(1) = (   1.000000   0.000000   0.000000 )  
               a(2) = (  -0.500000   0.866025   0.000000 )  
               a(3) = (   0.000000   0.000000   3.280680 )  

     reciprocal axes: (cart. coord. in units 2 pi/alat)
               b(1) = (  1.000000  0.577350 -0.000000 )  
               b(2) = (  0.000000  1.154700  0.000000 )  
               b(3) = (  0.000000 -0.000000  0.304815 )  


     PseudoPot. # 1 for Mg read from file:
     ./pseudo/Mg.rel-pbesol-spnl-kjpaw_psl.1.0.0.UPF
     MD5 check sum: e6ee56211aa1e9c295d50625d03707fa
     Pseudo is Projector augmented-wave + core cor, Zval = 10.0
     Generated using &quot;atomic&quot; code by A. Dal Corso  v.6.3
     Shape of augmentation charge: PSQ
     Using radial grid of 1129 points,  6 beta functions with: 
                l(1) =   0
                l(2) =   0
                l(3) =   1
                l(4) =   1
                l(5) =   1
                l(6) =   1
     Q(r) pseudized with 0 coefficients 


     PseudoPot. # 2 for Ni read from file:
     ./pseudo/Ni.rel-pbesol-spn-kjpaw_psl.1.0.0.UPF
     MD5 check sum: 1fa4c2409eb3b84dc9841cc3f54c2f43
     Pseudo is Projector augmented-wave + core cor, Zval = 18.0
     Generated using &quot;atomic&quot; code by A. Dal Corso  v.6.3
     Shape of augmentation charge: PSQ
     Using radial grid of 1195 points, 10 beta functions with: 
                l(1) =   0
                l(2) =   0
                l(3) =   1
                l(4) =   1
                l(5) =   1
                l(6) =   1
                l(7) =   2
                l(8) =   2
                l(9) =   2
               l(10) =   2
     Q(r) pseudized with 0 coefficients 


     atomic species   valence    mass     pseudopotential
        Mg            10.00    24.30500     Mg( 1.00)
        Ni            18.00    58.69340     Ni( 1.00)

     24 Sym. Ops., with inversion, found (12 have fractional translation)



   Cartesian axes

     site n.     atom                  positions (alat units)
         1           Mg  tau(   1) = (   0.0000000   0.0000000   1.3319561  )
         2           Mg  tau(   2) = (   0.0000000   0.0000000   2.9722960  )
         3           Mg  tau(   3) = (   0.0000000   0.0000000   1.9487239  )
         4           Mg  tau(   4) = (   0.0000000   0.0000000   0.3083839  )
         5           Mg  tau(   5) = (  -0.0000005   0.5773506   2.1514699  )
         6           Mg  tau(   6) = (   0.5000005   0.2886749   0.5111299  )
         7           Mg  tau(   7) = (   0.5000005   0.2886749   1.1292100  )
         8           Mg  tau(   8) = (  -0.0000005   0.5773506   2.7695500  )
         9           Ni  tau(   9) = (  -0.0000005   0.5773506   1.2297957  )
        10           Ni  tau(  10) = (   0.5000005   0.2886749   2.8701356  )
        11           Ni  tau(  11) = (   0.5000005   0.2886749   2.0508843  )
        12           Ni  tau(  12) = (  -0.0000005   0.5773506   0.4105443  )
        13           Ni  tau(  13) = (   0.0000005   0.2886749   0.8201700  )
        14           Ni  tau(  14) = (   0.7499995   0.1443379   2.4605100  )
        15           Ni  tau(  15) = (   0.4999995   0.5773506   2.4605100  )
        16           Ni  tau(  16) = (  -0.2499995   0.7216876   0.8201700  )
        17           Ni  tau(  17) = (   0.2500005   0.7216876   0.8201700  )
        18           Ni  tau(  18) = (   0.2499995   0.1443379   2.4605100  )
        19           Ni  tau(  19) = (   0.5000000   0.0000000   1.6403400  )
        20           Ni  tau(  20) = (   0.2500000   0.4330127   0.0000000  )
        21           Ni  tau(  21) = (   0.5000000   0.0000000   0.0000000  )
        22           Ni  tau(  22) = (   0.2500000   0.4330127   1.6403400  )
        23           Ni  tau(  23) = (  -0.2500000   0.4330127   0.0000000  )
        24           Ni  tau(  24) = (  -0.2500000   0.4330127   1.6403400  )

     number of k points=     3  Marzari-Vanderbilt smearing, width (Ry)=  0.0300
                       cart. coord. in units 2pi/alat
        k(    1) = (   0.0000000   0.0000000   0.0000000), wk =   0.1111111
        k(    2) = (   0.0000000   0.3849001   0.0000000), wk =   0.6666667
        k(    3) = (   0.3333333   0.5773502   0.0000000), wk =   0.2222222

     Dense  grid:   290741 G-vectors     FFT dimensions: (  60,  60, 192)

     Smooth grid:   102861 G-vectors     FFT dimensions: (  45,  45, 144)

     Estimated max dynamical RAM per process >       4.58 GB

     Check: negative core charge=   -0.000016

     Initial potential from superposition of free atoms

     starting charge     367.9890, renormalised to     368.0000
     Starting wfcs are  400 randomized atomic wfcs +   42 random wfcs
     Checking if some PAW data can be deallocated... 

     total cpu time spent up to now is        9.8 secs

     Self-consistent Calculation

     iteration #  1     ecut=    50.00 Ry     beta= 0.10
     Davidson diagonalization with overlap
     ethr =  1.00E-02,  avg # of iterations =  4.7

     total cpu time spent up to now is       38.2 secs

     total energy              =   -7950.75588045 Ry
     estimated scf accuracy    <       7.31566564 Ry

     iteration #  2     ecut=    50.00 Ry     beta= 0.10
     Davidson diagonalization with overlap
     ethr =  1.99E-03,  avg # of iterations =  1.0

     total cpu time spent up to now is       56.1 secs

     total energy              =   -7950.03619187 Ry
     estimated scf accuracy    <       4.36784607 Ry

     iteration #  3     ecut=    50.00 Ry     beta= 0.10
     Davidson diagonalization with overlap
     ethr =  1.19E-03,  avg # of iterations =  2.0

     total cpu time spent up to now is       76.6 secs

     total energy              =   -7950.15586348 Ry
     estimated scf accuracy    <       0.73570114 Ry

     iteration #  4     ecut=    50.00 Ry     beta= 0.10
     Davidson diagonalization with overlap
     ethr =  2.00E-04,  avg # of iterations =  2.0

     total cpu time spent up to now is       98.1 secs

     total energy              =   -7950.12811244 Ry
     estimated scf accuracy    <       0.40171305 Ry

     iteration #  5     ecut=    50.00 Ry     beta= 0.10
     Davidson diagonalization with overlap
     ethr =  1.09E-04,  avg # of iterations =  2.0

     total cpu time spent up to now is      119.3 secs

     total energy              =   -7950.12156729 Ry
     estimated scf accuracy    <       0.30245496 Ry

     iteration #  6     ecut=    50.00 Ry     beta= 0.10
     Davidson diagonalization with overlap
     ethr =  8.22E-05,  avg # of iterations =  1.3

     total cpu time spent up to now is      138.9 secs

     total energy              =   -7950.12249869 Ry
     estimated scf accuracy    <       0.26359367 Ry

     iteration #  7     ecut=    50.00 Ry     beta= 0.10
     Davidson diagonalization with overlap
     ethr =  7.16E-05,  avg # of iterations =  1.0

     total cpu time spent up to now is      157.3 secs

     total energy              =   -7950.01150808 Ry
     estimated scf accuracy    <       0.23204908 Ry

     iteration #  8     ecut=    50.00 Ry     beta= 0.10
     Davidson diagonalization with overlap
     ethr =  6.31E-05,  avg # of iterations =  5.0

     total cpu time spent up to now is      182.1 secs

     total energy              =   -7950.05544489 Ry
     estimated scf accuracy    <       0.02689428 Ry

     iteration #  9     ecut=    50.00 Ry     beta= 0.10
     Davidson diagonalization with overlap
     c_bands:  2 eigenvalues not converged
     c_bands:  1 eigenvalues not converged
     ethr =  7.31E-06,  avg # of iterations = 16.0

     total cpu time spent up to now is      209.2 secs

     total energy              =   -7950.07076605 Ry
     estimated scf accuracy    <       0.02343472 Ry

     iteration # 10     ecut=    50.00 Ry     beta= 0.10
     Davidson diagonalization with overlap
     ethr =  6.37E-06,  avg # of iterations =  7.0

     total cpu time spent up to now is      233.3 secs

     total energy              =   -7950.08039519 Ry
     estimated scf accuracy    <       0.00509145 Ry

     iteration # 11     ecut=    50.00 Ry     beta= 0.10
     Davidson diagonalization with overlap
     c_bands:  1 eigenvalues not converged
     ethr =  1.38E-06,  avg # of iterations =  8.0

     total cpu time spent up to now is      258.8 secs

     total energy              =   -7950.08415942 Ry
     estimated scf accuracy    <       0.00863501 Ry

     iteration # 12     ecut=    50.00 Ry     beta= 0.10
     Davidson diagonalization with overlap
     c_bands:  1 eigenvalues not converged
     ethr =  1.38E-06,  avg # of iterations =  8.0

     total cpu time spent up to now is      284.3 secs

     total energy              =   -7950.07948349 Ry
     estimated scf accuracy    <       0.01452335 Ry

     iteration # 13     ecut=    50.00 Ry     beta= 0.10
     Davidson diagonalization with overlap
     ethr =  1.38E-06,  avg # of iterations =  2.3

     total cpu time spent up to now is      309.3 secs

     total energy              =   -7950.08731507 Ry
     estimated scf accuracy    <       0.02967266 Ry

     iteration # 14     ecut=    50.00 Ry     beta= 0.10
     Davidson diagonalization with overlap
     ethr =  1.38E-06,  avg # of iterations =  2.3

     total cpu time spent up to now is      333.0 secs

     total energy              =   -7950.09053333 Ry
     estimated scf accuracy    <       0.00970317 Ry

     iteration # 15     ecut=    50.00 Ry     beta= 0.10
     Davidson diagonalization with overlap
     ethr =  1.38E-06,  avg # of iterations =  1.0

     total cpu time spent up to now is      351.3 secs

     total energy              =   -7950.09119653 Ry
     estimated scf accuracy    <       0.00886809 Ry

     iteration # 16     ecut=    50.00 Ry     beta= 0.10
     Davidson diagonalization with overlap
     ethr =  1.38E-06,  avg # of iterations =  2.3

     total cpu time spent up to now is      372.9 secs

     total energy              =   -7950.09146824 Ry
     estimated scf accuracy    <       0.00833388 Ry

     iteration # 17     ecut=    50.00 Ry     beta= 0.10
     Davidson diagonalization with overlap
     ethr =  1.38E-06,  avg # of iterations =  1.0

     total cpu time spent up to now is      391.2 secs

     total energy              =   -7950.09171288 Ry
     estimated scf accuracy    <       0.00830195 Ry

     iteration # 18     ecut=    50.00 Ry     beta= 0.10
     Davidson diagonalization with overlap
     ethr =  1.38E-06,  avg # of iterations =  1.0

     total cpu time spent up to now is      409.5 secs

     total energy              =   -7950.09124880 Ry
     estimated scf accuracy    <       0.00970222 Ry

     iteration # 19     ecut=    50.00 Ry     beta= 0.10
     Davidson diagonalization with overlap
     ethr =  1.38E-06,  avg # of iterations =  1.3

     total cpu time spent up to now is      428.6 secs

     total energy              =   -7950.09119228 Ry
     estimated scf accuracy    <       0.00056448 Ry

     iteration # 20     ecut=    50.00 Ry     beta= 0.10
     Davidson diagonalization with overlap
     ethr =  1.53E-07,  avg # of iterations =  2.3

     total cpu time spent up to now is      449.7 secs

     total energy              =   -7950.09113548 Ry
     estimated scf accuracy    <       0.00016151 Ry

     iteration # 21     ecut=    50.00 Ry     beta= 0.10
     Davidson diagonalization with overlap
     ethr =  4.39E-08,  avg # of iterations =  2.0

     total cpu time spent up to now is      472.8 secs

     total energy              =   -7950.09127746 Ry
     estimated scf accuracy    <       0.00170230 Ry

     iteration # 22     ecut=    50.00 Ry     beta= 0.10
     Davidson diagonalization with overlap
     ethr =  4.39E-08,  avg # of iterations =  2.0

     total cpu time spent up to now is      494.4 secs

     total energy              =   -7950.09126809 Ry
     estimated scf accuracy    <       0.00074610 Ry

     iteration # 23     ecut=    50.00 Ry     beta= 0.10
     Davidson diagonalization with overlap
     ethr =  4.39E-08,  avg # of iterations =  1.3

     total cpu time spent up to now is      513.6 secs

     total energy              =   -7950.09127594 Ry
     estimated scf accuracy    <       0.00024157 Ry

     iteration # 24     ecut=    50.00 Ry     beta= 0.10
     Davidson diagonalization with overlap
     ethr =  4.39E-08,  avg # of iterations =  1.3

     total cpu time spent up to now is      532.7 secs

     total energy              =   -7950.09127830 Ry
     estimated scf accuracy    <       0.00002643 Ry

     iteration # 25     ecut=    50.00 Ry     beta= 0.10
     Davidson diagonalization with overlap
     ethr =  7.18E-09,  avg # of iterations =  1.3

     total cpu time spent up to now is      551.9 secs

     total energy              =   -7950.09127953 Ry
     estimated scf accuracy    <       0.00000332 Ry

     iteration # 26     ecut=    50.00 Ry     beta= 0.10
     Davidson diagonalization with overlap
     ethr =  9.03E-10,  avg # of iterations =  1.3

     total cpu time spent up to now is      571.0 secs

     total energy              =   -7950.09127995 Ry
     estimated scf accuracy    <       0.00000037 Ry

     iteration # 27     ecut=    50.00 Ry     beta= 0.10
     Davidson diagonalization with overlap
     ethr =  9.99E-11,  avg # of iterations =  2.0

     total cpu time spent up to now is      593.5 secs

     total energy              =   -7950.09128056 Ry
     estimated scf accuracy    <       0.00000026 Ry

     iteration # 28     ecut=    50.00 Ry     beta= 0.10
     Davidson diagonalization with overlap
     ethr =  7.01E-11,  avg # of iterations =  1.3

     total cpu time spent up to now is      612.6 secs

     total energy              =   -7950.09128100 Ry
     estimated scf accuracy    <       0.00000010 Ry

     iteration # 29     ecut=    50.00 Ry     beta= 0.10
     Davidson diagonalization with overlap
     ethr =  2.76E-11,  avg # of iterations =  1.0

     total cpu time spent up to now is      631.0 secs

     total energy              =   -7950.09128135 Ry
     estimated scf accuracy    <       0.00000003 Ry

     iteration # 30     ecut=    50.00 Ry     beta= 0.10
     Davidson diagonalization with overlap
     ethr =  7.06E-12,  avg # of iterations =  2.0

     total cpu time spent up to now is      652.5 secs

     End of self-consistent calculation

          k = 0.0000 0.0000 0.0000 ( 12841 PWs)   bands (ev):

   -89.9525 -89.9525 -89.9511 -89.9511 -89.9507 -89.9507 -89.9491 -89.9491
   -89.8935 -89.8935 -89.8933 -89.8933 -89.8800 -89.8800 -89.8798 -89.8798
   -89.8691 -89.8691 -89.8690 -89.8690 -89.8690 -89.8690 -89.8689 -89.8689
   -89.8553 -89.8553 -89.8553 -89.8553 -89.8552 -89.8552 -89.8552 -89.8552
   -62.1774 -62.1774 -62.1773 -62.1773 -62.1760 -62.1760 -62.1760 -62.1760
   -62.1225 -62.1225 -62.1224 -62.1224 -62.1211 -62.1211 -62.1210 -62.1210
   -51.9364 -51.9364 -51.9354 -51.9354 -51.9323 -51.9323 -51.9242 -51.9242
   -51.8864 -51.8864 -51.8818 -51.8818 -51.8763 -51.8763 -51.8716 -51.8716
   -51.8709 -51.8709 -51.8689 -51.8689 -51.8601 -51.8601 -51.8579 -51.8579
   -51.8051 -51.8051 -51.8008 -51.8008 -51.7929 -51.7929 -51.7882 -51.7882
   -49.8202 -49.8202 -49.8182 -49.8182 -49.8071 -49.8071 -49.8037 -49.8037
   -49.7832 -49.7832 -49.7702 -49.7702 -49.7619 -49.7619 -49.7573 -49.7573
   -49.7069 -49.7069 -49.7052 -49.7052 -49.7003 -49.7003 -49.6908 -49.6908
   -49.6885 -49.6885 -49.6882 -49.6882 -49.6839 -49.6839 -49.6590 -49.6590
   -49.6579 -49.6579 -49.6239 -49.6239 -49.6217 -49.6217 -49.6129 -49.6129
   -49.6101 -49.6101 -49.6053 -49.6053 -49.5906 -49.5906 -49.5868 -49.5868
   -49.5790 -49.5790 -49.5771 -49.5771 -49.5651 -49.5651 -49.5567 -49.5567
   -49.5404 -49.5404 -49.5399 -49.5399 -49.5281 -49.5281 -49.5279 -49.5279
   -29.3096 -29.3096 -29.3096 -29.3096 -29.3051 -29.3051 -29.3048 -29.3048
   -29.2529 -29.2529 -29.2528 -29.2528 -29.2479 -29.2479 -29.2479 -29.2479
   -29.0246 -29.0246 -29.0245 -29.0245 -29.0232 -29.0232 -29.0231 -29.0231
   -29.0216 -29.0216 -29.0213 -29.0213 -29.0130 -29.0130 -29.0125 -29.0125
   -28.9695 -28.9695 -28.9694 -28.9694 -28.9636 -28.9636 -28.9634 -28.9634
   -28.9618 -28.9618 -28.9616 -28.9616 -28.9575 -28.9575 -28.9572 -28.9572
     4.4173   4.4173   5.0219   5.0219   5.0482   5.0482   6.4786   6.4786
     7.1152   7.1152   8.4669   8.4669   8.4980   8.4980   8.5335   8.5335
     9.0899   9.0899   9.1215   9.1215   9.2322   9.2322   9.3069   9.3069
     9.4515   9.4515   9.4589   9.4589   9.4778   9.4778   9.4986   9.4986
     9.5249   9.5249   9.5263   9.5263   9.6197   9.6197   9.6406   9.6406
     9.6938   9.6938   9.7590   9.7590   9.7593   9.7593   9.7662   9.7662
     9.7830   9.7830   9.8440   9.8440   9.8822   9.8822   9.9268   9.9268
     9.9270   9.9270   9.9891   9.9891  10.2719  10.2719  10.2827  10.2827
    10.2829  10.2829  10.3102  10.3102  10.3152  10.3152  10.3391  10.3391
    10.5202  10.5202  10.5788  10.5788  10.6691  10.6691  10.6695  10.6695
    10.7177  10.7177  10.7694  10.7694  10.8012  10.8012  10.8036  10.8036
    10.9532  10.9532  10.9710  10.9710  11.2254  11.2254  11.3783  11.3783
    11.4215  11.4215  11.4483  11.4483  11.4559  11.4559  11.4968  11.4968
    11.6023  11.6023  11.6570  11.6570  11.7529  11.7529  11.7640  11.7640
    11.8827  11.8827  11.8937  11.8937  11.9829  11.9829  11.9833  11.9833
    11.9940  11.9940  12.0012  12.0012  12.0044  12.0044  12.0070  12.0070
    12.0146  12.0146  12.0290  12.0290  12.0409  12.0409  12.0524  12.0524
    12.0623  12.0623  12.0732  12.0732  12.0877  12.0877  12.1099  12.1099
    12.1315  12.1315  12.1653  12.1653  12.1654  12.1654  12.1833  12.1833
    12.1996  12.1996  12.2336  12.2336  12.3078  12.3078  12.5418  12.5418
    12.5944  12.5944  12.8262  12.8262  12.8275  12.8275  13.0489  13.0489
    13.0512  13.0512  13.0670  13.0670  13.0687  13.0687  13.3753  13.3753
    13.5082  13.5082  13.6817  13.6817  13.7417  13.7417  13.7605  13.7605
    13.7749  13.7749  13.7922  13.7922  13.7956  13.7956  13.8776  13.8776
    14.1126  14.1126  14.1420  14.1420  14.1621  14.1621  14.2133  14.2133
    15.4982  15.4982  15.5287  15.5287  15.5401  15.5401  15.5520  15.5520
    15.9818  15.9818  16.0283  16.0283  16.4193  16.4193  16.4393  16.4393
    17.0368  17.0368  17.0775  17.0775  17.0946  17.0946  17.2443  17.2443
    17.3319  17.3319  17.5295  17.5295  17.9654  17.9654  17.9765  17.9765
    18.4229  18.4229  18.4435  18.4435  18.6059  18.6059  19.0311  19.0311
    19.0390  19.0390  19.1482  19.1482  19.3506  19.3506  20.7657  20.7658
    20.8422  20.8423

          k = 0.0000 0.3849 0.0000 ( 12856 PWs)   bands (ev):

   -89.9519 -89.9519 -89.9511 -89.9511 -89.9502 -89.9502 -89.9494 -89.9494
   -89.8885 -89.8885 -89.8883 -89.8883 -89.8752 -89.8752 -89.8748 -89.8748
   -89.8742 -89.8742 -89.8738 -89.8738 -89.8690 -89.8690 -89.8690 -89.8690
   -89.8606 -89.8606 -89.8606 -89.8606 -89.8552 -89.8552 -89.8552 -89.8552
   -62.1773 -62.1773 -62.1773 -62.1773 -62.1760 -62.1760 -62.1760 -62.1760
   -62.1225 -62.1225 -62.1225 -62.1225 -62.1212 -62.1212 -62.1211 -62.1211
   -51.9393 -51.9393 -51.9367 -51.9367 -51.9320 -51.9320 -51.9294 -51.9294
   -51.8821 -51.8821 -51.8804 -51.8804 -51.8701 -51.8701 -51.8672 -51.8672
   -51.8637 -51.8637 -51.8605 -51.8605 -51.8508 -51.8508 -51.8484 -51.8484
   -51.8202 -51.8202 -51.8148 -51.8148 -51.8048 -51.8048 -51.8002 -51.8002
   -49.8216 -49.8216 -49.8131 -49.8131 -49.8123 -49.8123 -49.8028 -49.8028
   -49.7591 -49.7591 -49.7531 -49.7531 -49.7487 -49.7487 -49.7445 -49.7445
   -49.7079 -49.7079 -49.7054 -49.7054 -49.7024 -49.7024 -49.6963 -49.6963
   -49.6844 -49.6844 -49.6815 -49.6815 -49.6804 -49.6804 -49.6611 -49.6611
   -49.6587 -49.6587 -49.6355 -49.6355 -49.6333 -49.6333 -49.6260 -49.6260
   -49.6090 -49.6090 -49.6068 -49.6068 -49.5936 -49.5936 -49.5904 -49.5904
   -49.5850 -49.5850 -49.5816 -49.5816 -49.5724 -49.5724 -49.5710 -49.5710
   -49.5569 -49.5569 -49.5551 -49.5551 -49.5393 -49.5393 -49.5369 -49.5369
   -29.3092 -29.3092 -29.3091 -29.3091 -29.3045 -29.3045 -29.3044 -29.3044
   -29.2540 -29.2540 -29.2540 -29.2540 -29.2491 -29.2491 -29.2490 -29.2490
   -29.0253 -29.0253 -29.0251 -29.0251 -29.0222 -29.0222 -29.0220 -29.0220
   -29.0203 -29.0203 -29.0202 -29.0202 -29.0133 -29.0133 -29.0131 -29.0131
   -28.9691 -28.9691 -28.9691 -28.9691 -28.9646 -28.9646 -28.9644 -28.9644
   -28.9628 -28.9628 -28.9626 -28.9626 -28.9569 -28.9569 -28.9569 -28.9569
     5.3888   5.3888   5.9603   5.9603   5.9909   5.9909   7.3769   7.3769
     7.8333   7.8333   8.0239   8.0239   8.3231   8.3231   8.3639   8.3639
     8.9186   8.9186   8.9543   8.9543   9.0944   9.0944   9.1942   9.1942
     9.2702   9.2702   9.3784   9.3784   9.4453   9.4453   9.5255   9.5255
     9.5951   9.5951   9.6579   9.6579   9.6958   9.6958   9.7259   9.7259
     9.7366   9.7366   9.7506   9.7506   9.8728   9.8728   9.9676   9.9676
    10.0110  10.0110  10.0593  10.0593  10.1091  10.1091  10.1608  10.1608
    10.1801  10.1801  10.2090  10.2090  10.2140  10.2140  10.3095  10.3095
    10.3134  10.3134  10.3490  10.3490  10.3553  10.3553  10.4170  10.4170
    10.4534  10.4534  10.4599  10.4599  10.5282  10.5282  10.5696  10.5696
    10.6459  10.6459  10.6917  10.6917  10.7132  10.7132  10.7349  10.7349
    10.7954  10.7954  10.8768  10.8768  10.9109  10.9109  10.9611  10.9611
    10.9728  10.9728  11.0786  11.0786  11.0883  11.0883  11.1437  11.1437
    11.1602  11.1602  11.2232  11.2232  11.2860  11.2860  11.2970  11.2970
    11.3164  11.3164  11.3694  11.3694  11.4549  11.4549  11.4692  11.4692
    11.5392  11.5392  11.5804  11.5804  11.6043  11.6043  11.6353  11.6353
    11.7019  11.7019  11.7172  11.7172  11.7276  11.7276  11.7850  11.7850
    11.7896  11.7896  11.8463  11.8463  11.8885  11.8885  11.9431  11.9431
    11.9488  11.9488  12.0328  12.0328  12.0413  12.0413  12.0522  12.0522
    12.1023  12.1023  12.1076  12.1076  12.1144  12.1144  12.1416  12.1416
    12.2064  12.2064  12.2327  12.2327  12.2483  12.2483  12.3434  12.3434
    12.3689  12.3689  12.4355  12.4355  12.5129  12.5129  12.6300  12.6300
    12.8968  12.8968  12.9616  12.9616  13.3069  13.3069  13.3202  13.3202
    13.5255  13.5255  13.6261  13.6261  13.7133  13.7133  13.8811  13.8811
    13.9519  13.9519  13.9757  13.9757  14.0582  14.0582  14.2528  14.2528
    14.8540  14.8540  15.3041  15.3041  15.6068  15.6068  15.6457  15.6457
    16.9183  16.9183  17.3654  17.3654  17.4116  17.4116  17.5688  17.5688
    18.3291  18.3291  18.4094  18.4094  18.4925  18.4925  18.6098  18.6098
    18.6486  18.6486  18.8180  18.8180  19.2606  19.2606  19.6886  19.6886
    19.7591  19.7591  19.8077  19.8077  20.3260  20.3260  20.3763  20.3763
    20.6547  20.6547  21.0985  21.0985  21.4474  21.4474  21.7514  21.7569
    21.7676  21.7686

          k = 0.3333 0.5774 0.0000 ( 12828 PWs)   bands (ev):

   -89.9513 -89.9513 -89.9513 -89.9513 -89.9498 -89.9498 -89.9498 -89.9498
   -89.8821 -89.8821 -89.8821 -89.8821 -89.8806 -89.8806 -89.8806 -89.8806
   -89.8690 -89.8690 -89.8690 -89.8690 -89.8678 -89.8678 -89.8677 -89.8677
   -89.8677 -89.8677 -89.8676 -89.8676 -89.8552 -89.8552 -89.8552 -89.8552
   -62.1773 -62.1773 -62.1773 -62.1773 -62.1759 -62.1759 -62.1759 -62.1759
   -62.1226 -62.1226 -62.1226 -62.1226 -62.1212 -62.1212 -62.1211 -62.1211
   -51.9416 -51.9416 -51.9414 -51.9414 -51.9311 -51.9311 -51.9308 -51.9308
   -51.8769 -51.8769 -51.8764 -51.8764 -51.8683 -51.8683 -51.8608 -51.8608
   -51.8461 -51.8461 -51.8418 -51.8418 -51.8416 -51.8416 -51.8412 -51.8412
   -51.8274 -51.8274 -51.8234 -51.8234 -51.8215 -51.8215 -51.8200 -51.8200
   -49.8197 -49.8197 -49.8183 -49.8183 -49.8081 -49.8081 -49.8062 -49.8062
   -49.7334 -49.7334 -49.7321 -49.7321 -49.7287 -49.7287 -49.7248 -49.7248
   -49.7223 -49.7223 -49.7184 -49.7184 -49.7178 -49.7178 -49.6998 -49.6998
   -49.6844 -49.6844 -49.6801 -49.6801 -49.6727 -49.6727 -49.6541 -49.6541
   -49.6512 -49.6512 -49.6463 -49.6463 -49.6357 -49.6357 -49.6352 -49.6352
   -49.6144 -49.6144 -49.6035 -49.6035 -49.5959 -49.5959 -49.5915 -49.5915
   -49.5814 -49.5814 -49.5809 -49.5809 -49.5798 -49.5798 -49.5740 -49.5740
   -49.5636 -49.5636 -49.5616 -49.5616 -49.5447 -49.5447 -49.5411 -49.5411
   -29.3090 -29.3090 -29.3087 -29.3087 -29.3044 -29.3044 -29.3040 -29.3040
   -29.2545 -29.2545 -29.2544 -29.2544 -29.2497 -29.2497 -29.2497 -29.2497
   -29.0262 -29.0262 -29.0241 -29.0241 -29.0222 -29.0222 -29.0221 -29.0221
   -29.0192 -29.0192 -29.0191 -29.0191 -29.0149 -29.0149 -29.0123 -29.0123
   -28.9688 -28.9688 -28.9687 -28.9687 -28.9656 -28.9656 -28.9655 -28.9655
   -28.9629 -28.9629 -28.9626 -28.9626 -28.9568 -28.9568 -28.9567 -28.9567
     6.9846   6.9846   6.9853   6.9853   7.4270   7.4270   7.5419   7.5419
     7.5473   7.5473   7.7279   7.7279   7.8393   7.8393   7.8444   7.8444
     8.0574   8.0574   8.8698   8.8698   8.8703   8.8703   8.8949   8.8949
     8.9021   8.9021   8.9452   8.9452   8.9987   8.9987   9.6197   9.6197
     9.6242   9.6242   9.6477   9.6477   9.7639   9.7639   9.7757   9.7757
     9.9273   9.9273   9.9554   9.9554  10.0717  10.0717  10.0876  10.0876
    10.1592  10.1592  10.1620  10.1620  10.2101  10.2101  10.2165  10.2165
    10.2372  10.2372  10.2390  10.2390  10.3188  10.3188  10.3641  10.3641
    10.3843  10.3843  10.3926  10.3926  10.3999  10.3999  10.4160  10.4160
    10.4319  10.4319  10.4786  10.4786  10.4935  10.4935  10.5080  10.5080
    10.5286  10.5286  10.5293  10.5293  10.5689  10.5689  10.5775  10.5775
    10.6472  10.6472  10.6484  10.6484  10.6806  10.6806  10.6907  10.6907
    10.7256  10.7256  10.8837  10.8837  10.8922  10.8922  10.9063  10.9063
    11.0159  11.0159  11.1451  11.1451  11.1644  11.1644  11.1693  11.1693
    11.2081  11.2081  11.2347  11.2347  11.3922  11.3922  11.3973  11.3973
    11.4725  11.4725  11.5051  11.5051  11.5229  11.5229  11.5353  11.5353
    11.5854  11.5854  11.5961  11.5961  11.6098  11.6098  11.7032  11.7032
    11.7482  11.7482  11.7766  11.7766  11.7927  11.7927  11.7944  11.7944
    11.8204  11.8204  11.8373  11.8373  11.8386  11.8386  11.8819  11.8819
    11.8993  11.8993  11.9042  11.9042  11.9670  11.9670  12.0212  12.0212
    12.1803  12.1803  12.1995  12.1995  12.2840  12.2840  12.2867  12.2867
    12.3101  12.3101  12.3787  12.3787  12.3901  12.3901  12.4896  12.4896
    12.5479  12.5479  12.6036  12.6036  12.6049  12.6049  12.8294  12.8294
    12.9537  12.9537  12.9653  12.9653  13.0365  13.0365  14.3819  14.3819
    14.4034  14.4034  14.4527  14.4527  14.6344  14.6344  14.6414  14.6414
    15.2286  15.2286  17.0369  17.0369  17.0391  17.0391  17.1996  17.1996
    17.4452  17.4452  17.4460  17.4460  18.0215  18.0215  18.1108  18.1108
    18.1117  18.1117  18.1637  18.1637  18.1719  18.1719  18.4305  18.4305
    18.6555  18.6555  19.0355  19.0355  19.1219  19.1219  19.1364  19.1364
    19.9040  19.9040  19.9068  19.9068  20.2097  20.2097  20.2242  20.2242
    20.3186  20.3186  20.9652  20.9652  22.3123  22.3123  22.3213  22.3213
    22.5261  22.5261

     the Fermi energy is    12.6773 ev

!    total energy              =   -7950.09128279 Ry
     total all-electron energy =    -51823.943366 Ry
     estimated scf accuracy    <          2.5E-09 Ry
     smearing contrib. (-TS)   =       0.10978687 Ry
     internal energy E=F+TS    =   -7950.20106966 Ry

     The total energy is F=E-TS. E is the sum of the following terms:
     one-electron contribution =   -4526.82302725 Ry
     hartree contribution      =    2414.61408483 Ry
     xc contribution           =    -681.60238496 Ry
     ewald contribution        =   -3618.23241142 Ry
     one-center paw contrib.   =   -1538.15733086 Ry

     convergence has been achieved in  30 iterations

     Forces acting on atoms (cartesian axes, Ry/au):

     atom    1 type  1   force =    -0.00000000    0.00000000    0.00457647
     atom    2 type  1   force =    -0.00000000   -0.00000000    0.00457647
     atom    3 type  1   force =     0.00000000    0.00000000   -0.00457647
     atom    4 type  1   force =    -0.00000000   -0.00000000   -0.00457647
     atom    5 type  1   force =     0.00000000    0.00000000    0.00107496
     atom    6 type  1   force =     0.00000000    0.00000000    0.00107496
     atom    7 type  1   force =    -0.00000000   -0.00000000   -0.00107496
     atom    8 type  1   force =     0.00000000    0.00000000   -0.00107496
     atom    9 type  2   force =    -0.00000000   -0.00000000    0.00501383
     atom   10 type  2   force =    -0.00000000   -0.00000000    0.00501383
     atom   11 type  2   force =     0.00000000   -0.00000000   -0.00501383
     atom   12 type  2   force =     0.00000000   -0.00000000   -0.00501383
     atom   13 type  2   force =     0.00000000   -0.00694098    0.00000000
     atom   14 type  2   force =     0.00601107   -0.00347049   -0.00000000
     atom   15 type  2   force =     0.00000000    0.00694098    0.00000000
     atom   16 type  2   force =    -0.00601107    0.00347049    0.00000000
     atom   17 type  2   force =     0.00601107    0.00347049    0.00000000
     atom   18 type  2   force =    -0.00601107   -0.00347049    0.00000000
     atom   19 type  2   force =    -0.00000000    0.00000000   -0.00000000
     atom   20 type  2   force =     0.00000000    0.00000000    0.00000000
     atom   21 type  2   force =     0.00000000   -0.00000000    0.00000000
     atom   22 type  2   force =    -0.00000000   -0.00000000    0.00000000
     atom   23 type  2   force =    -0.00000000    0.00000000   -0.00000000
     atom   24 type  2   force =     0.00000000   -0.00000000    0.00000000
     The non-local contrib.  to forces
     atom    1 type  1   force =    -0.00000000   -0.00000000    0.02547939
     atom    2 type  1   force =     0.00000000    0.00000000    0.02547939
     atom    3 type  1   force =    -0.00000000   -0.00000000   -0.02547939
     atom    4 type  1   force =     0.00000000    0.00000000   -0.02547939
     atom    5 type  1   force =     0.00000000    0.00000000    0.00053378
     atom    6 type  1   force =    -0.00000000   -0.00000000    0.00053378
     atom    7 type  1   force =     0.00000000    0.00000000   -0.00053378
     atom    8 type  1   force =    -0.00000000   -0.00000000   -0.00053378
     atom    9 type  2   force =     0.00000000   -0.00000000   -0.00471105
     atom   10 type  2   force =    -0.00000000   -0.00000000   -0.00471105
     atom   11 type  2   force =     0.00000000   -0.00000000    0.00471105
     atom   12 type  2   force =     0.00000000    0.00000000    0.00471105
     atom   13 type  2   force =     0.00000000   -0.08880095   -0.00000000
     atom   14 type  2   force =     0.07690388   -0.04440047    0.00000000
     atom   15 type  2   force =     0.00000000    0.08880095   -0.00000000
     atom   16 type  2   force =    -0.07690388    0.04440047    0.00000000
     atom   17 type  2   force =     0.07690388    0.04440047    0.00000000
     atom   18 type  2   force =    -0.07690388   -0.04440047    0.00000000
     atom   19 type  2   force =     0.00000000    0.00000000    0.00000000
     atom   20 type  2   force =    -0.00000000   -0.00000000   -0.00000000
     atom   21 type  2   force =    -0.00000000   -0.00000000    0.00000000
     atom   22 type  2   force =     0.00000000   -0.00000000    0.00000000
     atom   23 type  2   force =    -0.00000000   -0.00000000   -0.00000000
     atom   24 type  2   force =     0.00000000    0.00000000    0.00000000
     The ionic contribution  to forces
     atom    1 type  1   force =    -0.00001510    0.00001058   -0.25781262
     atom    2 type  1   force =     0.00001510   -0.00001058   -0.25781262
     atom    3 type  1   force =     0.00001510   -0.00001058    0.25781262
     atom    4 type  1   force =    -0.00001510    0.00001058    0.25781262
     atom    5 type  1   force =     0.00005473   -0.00002953    0.06812914
     atom    6 type  1   force =    -0.00005473    0.00002953    0.06812914
     atom    7 type  1   force =    -0.00005473    0.00002953   -0.06812914
     atom    8 type  1   force =     0.00005473   -0.00002953   -0.06812914
     atom    9 type  2   force =     0.00005656   -0.00003255    1.24318801
     atom   10 type  2   force =    -0.00005656    0.00003255    1.24318801
     atom   11 type  2   force =    -0.00005656    0.00003255   -1.24318801
     atom   12 type  2   force =     0.00005656   -0.00003255   -1.24318801
     atom   13 type  2   force =     0.00007224  -15.52404433    0.00000000
     atom   14 type  2   force =    13.44429954   -7.76207182    0.00000000
     atom   15 type  2   force =    -0.00007224   15.52404433   -0.00000000
     atom   16 type  2   force =   -13.44429954    7.76207182    0.00000000
     atom   17 type  2   force =    13.44425248    7.76196124    0.00000000
     atom   18 type  2   force =   -13.44425248   -7.76196124    0.00000000
     atom   19 type  2   force =    -0.00000000    0.00000000    0.00000000
     atom   20 type  2   force =    -0.00000000    0.00000000    0.00000000
     atom   21 type  2   force =    -0.00000000   -0.00000000    0.00000000
     atom   22 type  2   force =    -0.00000000   -0.00000000    0.00000000
     atom   23 type  2   force =     0.00000000    0.00000000    0.00000000
     atom   24 type  2   force =     0.00000000   -0.00000000    0.00000000
     The local contribution  to forces
     atom    1 type  1   force =     0.00000000   -0.00000174    0.23703302
     atom    2 type  1   force =    -0.00000000    0.00000174    0.23703302
     atom    3 type  1   force =    -0.00000000    0.00000174   -0.23703302
     atom    4 type  1   force =    -0.00000000   -0.00000174   -0.23703302
     atom    5 type  1   force =     0.00146951   -0.00085036   -0.06757895
     atom    6 type  1   force =    -0.00146951    0.00085036   -0.06757895
     atom    7 type  1   force =    -0.00146951    0.00085036    0.06757895
     atom    8 type  1   force =     0.00146951   -0.00085036    0.06757895
     atom    9 type  2   force =     0.00195135   -0.00112671   -1.23144968
     atom   10 type  2   force =    -0.00195135    0.00112671   -1.23144968
     atom   11 type  2   force =    -0.00195135    0.00112671    1.23144968
     atom   12 type  2   force =     0.00195135   -0.00112671    1.23144968
     atom   13 type  2   force =    -0.00194991   15.60631816    0.00000000
     atom   14 type  2   force =   -13.51277255    7.80160452   -0.00000000
     atom   15 type  2   force =     0.00194991  -15.60631816   -0.00000000
     atom   16 type  2   force =    13.51277255   -7.80160452    0.00000000
     atom   17 type  2   force =   -13.51644263   -7.80147188    0.00000000
     atom   18 type  2   force =    13.51644263    7.80147188   -0.00000000
     atom   19 type  2   force =     0.00000000    0.00000000    0.00000000
     atom   20 type  2   force =     0.00000000    0.00000000    0.00000000
     atom   21 type  2   force =    -0.00000000    0.00000000    0.00000000
     atom   22 type  2   force =     0.00000000    0.00000000    0.00000000
     atom   23 type  2   force =    -0.00000000   -0.00000000    0.00000000
     atom   24 type  2   force =    -0.00000000    0.00000000    0.00000000
     The core correction contribution to forces
     atom    1 type  1   force =    -0.00000000    0.00000000   -0.00012066
     atom    2 type  1   force =     0.00000000   -0.00000000   -0.00012066
     atom    3 type  1   force =     0.00000000   -0.00000000    0.00012066
     atom    4 type  1   force =    -0.00000000    0.00000000    0.00012066
     atom    5 type  1   force =     0.00000319   -0.00000184   -0.00001008
     atom    6 type  1   force =    -0.00000319    0.00000184   -0.00001008
     atom    7 type  1   force =    -0.00000319    0.00000184    0.00001008
     atom    8 type  1   force =     0.00000319   -0.00000184    0.00001008
     atom    9 type  2   force =     0.00000120   -0.00000069   -0.00192924
     atom   10 type  2   force =    -0.00000120    0.00000069   -0.00192924
     atom   11 type  2   force =    -0.00000120    0.00000069    0.00192924
     atom   12 type  2   force =     0.00000120   -0.00000069    0.00192924
     atom   13 type  2   force =    -0.00000119    0.00074860    0.00000000
     atom   14 type  2   force =    -0.00064645    0.00037323   -0.00000000
     atom   15 type  2   force =     0.00000119   -0.00074860   -0.00000000
     atom   16 type  2   force =     0.00064645   -0.00037323    0.00000000
     atom   17 type  2   force =    -0.00064890   -0.00037327    0.00000000
     atom   18 type  2   force =     0.00064890    0.00037327   -0.00000000
     atom   19 type  2   force =     0.00000000    0.00000000    0.00000000
     atom   20 type  2   force =     0.00000000    0.00000000    0.00000000
     atom   21 type  2   force =    -0.00000000    0.00000000    0.00000000
     atom   22 type  2   force =     0.00000000    0.00000000    0.00000000
     atom   23 type  2   force =     0.00000000    0.00000000    0.00000000
     atom   24 type  2   force =    -0.00000000    0.00000000    0.00000000
     The Hubbard contrib.    to forces
     atom    1 type  1   force =     0.00000000    0.00000000    0.00000000
     atom    2 type  1   force =     0.00000000    0.00000000    0.00000000
     atom    3 type  1   force =     0.00000000    0.00000000    0.00000000
     atom    4 type  1   force =     0.00000000    0.00000000    0.00000000
     atom    5 type  1   force =     0.00000000    0.00000000    0.00000000
     atom    6 type  1   force =     0.00000000    0.00000000    0.00000000
     atom    7 type  1   force =     0.00000000    0.00000000    0.00000000
     atom    8 type  1   force =     0.00000000    0.00000000    0.00000000
     atom    9 type  2   force =     0.00000000    0.00000000    0.00000000
     atom   10 type  2   force =     0.00000000    0.00000000    0.00000000
     atom   11 type  2   force =     0.00000000    0.00000000    0.00000000
     atom   12 type  2   force =     0.00000000    0.00000000    0.00000000
     atom   13 type  2   force =     0.00000000    0.00000000    0.00000000
     atom   14 type  2   force =     0.00000000    0.00000000    0.00000000
     atom   15 type  2   force =     0.00000000    0.00000000    0.00000000
     atom   16 type  2   force =     0.00000000    0.00000000    0.00000000
     atom   17 type  2   force =     0.00000000    0.00000000    0.00000000
     atom   18 type  2   force =     0.00000000    0.00000000    0.00000000
     atom   19 type  2   force =     0.00000000    0.00000000    0.00000000
     atom   20 type  2   force =     0.00000000    0.00000000    0.00000000
     atom   21 type  2   force =     0.00000000    0.00000000    0.00000000
     atom   22 type  2   force =     0.00000000    0.00000000    0.00000000
     atom   23 type  2   force =     0.00000000    0.00000000    0.00000000
     atom   24 type  2   force =     0.00000000    0.00000000    0.00000000
     The SCF correction term to forces
     atom    1 type  1   force =     0.00000046   -0.00000027   -0.00000266
     atom    2 type  1   force =    -0.00000046    0.00000027   -0.00000266
     atom    3 type  1   force =    -0.00000046    0.00000027    0.00000266
     atom    4 type  1   force =     0.00000046   -0.00000027    0.00000266
     atom    5 type  1   force =    -0.00000049    0.00000028    0.00000107
     atom    6 type  1   force =     0.00000049   -0.00000028    0.00000107
     atom    7 type  1   force =     0.00000049   -0.00000028   -0.00000107
     atom    8 type  1   force =    -0.00000049    0.00000028   -0.00000107
     atom    9 type  2   force =    -0.00000315    0.00000182   -0.00008421
     atom   10 type  2   force =     0.00000315   -0.00000182   -0.00008421
     atom   11 type  2   force =     0.00000315   -0.00000182    0.00008421
     atom   12 type  2   force =    -0.00000315    0.00000182    0.00008421
     atom   13 type  2   force =    -0.00000053   -0.00009247   -0.00000000
     atom   14 type  2   force =     0.00007984   -0.00004609    0.00000000
     atom   15 type  2   force =     0.00000053    0.00009247    0.00000000
     atom   16 type  2   force =    -0.00007984    0.00004609   -0.00000000
     atom   17 type  2   force =     0.00007982    0.00004669   -0.00000000
     atom   18 type  2   force =    -0.00007982   -0.00004669    0.00000000
     atom   19 type  2   force =    -0.00000000   -0.00000000   -0.00000000
     atom   20 type  2   force =     0.00000000    0.00000000   -0.00000000
     atom   21 type  2   force =     0.00000000    0.00000000   -0.00000000
     atom   22 type  2   force =     0.00000000    0.00000000   -0.00000000
     atom   23 type  2   force =    -0.00000000    0.00000000   -0.00000000
     atom   24 type  2   force =    -0.00000000    0.00000000   -0.00000000

     Total force =     0.021864     Total SCF correction =     0.000282

     BFGS Geometry Optimization
     Energy error            =      0.0E+00 Ry
     Gradient error          =      6.9E-03 Ry/Bohr

     number of scf cycles    =   1
     number of bfgs steps    =   0

     energy             new  =   -7950.0912827902 Ry

     new trust radius        =       0.0069409850 bohr
     new conv_thr            =       0.0000000100 Ry


ATOMIC_POSITIONS (crystal)
Mg           -0.0000000000        0.0000000000        0.4061530245
Mg           -0.0000000000        0.0000000000        0.9061530245
Mg            0.0000000000        0.0000000000        0.5938469755
Mg           -0.0000000000       -0.0000000000        0.0938469755
Mg            0.3333330000        0.6666670000        0.6558359437
Mg            0.6666670000        0.3333330000        0.1558359437
Mg            0.6666670000        0.3333330000        0.3441640563
Mg            0.3333330000        0.6666670000        0.8441640563
Ni            0.3333330000        0.6666670000        0.3750276484
Ni            0.6666670000        0.3333330000        0.8750276484
Ni            0.6666670000        0.3333330000        0.6249723516
Ni            0.3333330000        0.6666670000        0.1249723516
Ni            0.1662274035        0.3324538070        0.2500000000
Ni            0.8337725966        0.1662274035        0.7500000000
Ni            0.8337725965        0.6675461930        0.7500000000
Ni            0.1662274034        0.8337725965        0.2500000000
Ni            0.6675461931        0.8337725965        0.2500000000
Ni            0.3324538069        0.1662274035        0.7500000000
Ni            0.5000000000        0.0000000000        0.5000000000
Ni            0.5000000000        0.5000000000        0.0000000000
Ni            0.5000000000       -0.0000000000        0.0000000000
Ni            0.5000000000        0.5000000000        0.5000000000
Ni            0.0000000000        0.5000000000       -0.0000000000
Ni            0.0000000000        0.5000000000        0.5000000000



     Writing config-only to output data dir ./ACOptimization/out/iso.save/
     NEW-OLD atomic charge density approx. for the potential

     Check: negative core charge=   -0.000016

     total cpu time spent up to now is      667.3 secs

     Self-consistent Calculation

     iteration #  1     ecut=    50.00 Ry     beta= 0.10
     Davidson diagonalization with overlap
     ethr =  1.00E-06,  avg # of iterations =  6.0

     total cpu time spent up to now is      707.4 secs

     total energy              =   -7950.09419921 Ry
     estimated scf accuracy    <       0.00066293 Ry

     iteration #  2     ecut=    50.00 Ry     beta= 0.10
     Davidson diagonalization with overlap
     ethr =  1.80E-07,  avg # of iterations =  2.0

     total cpu time spent up to now is      727.9 secs

     total energy              =   -7950.09164447 Ry
     estimated scf accuracy    <       0.00052174 Ry

     iteration #  3     ecut=    50.00 Ry     beta= 0.10
     Davidson diagonalization with overlap
     ethr =  1.42E-07,  avg # of iterations =  4.0

     total cpu time spent up to now is      753.1 secs

     total energy              =   -7950.09194676 Ry
     estimated scf accuracy    <       0.00003923 Ry

     iteration #  4     ecut=    50.00 Ry     beta= 0.10
     Davidson diagonalization with overlap
     ethr =  1.07E-08,  avg # of iterations =  2.3

     total cpu time spent up to now is      774.3 secs

     total energy              =   -7950.09180194 Ry
     estimated scf accuracy    <       0.00002702 Ry

     iteration #  5     ecut=    50.00 Ry     beta= 0.10
     Davidson diagonalization with overlap
     ethr =  7.34E-09,  avg # of iterations =  2.0

     total cpu time spent up to now is      797.4 secs

     total energy              =   -7950.09172992 Ry
     estimated scf accuracy    <       0.00003860 Ry

     iteration #  6     ecut=    50.00 Ry     beta= 0.10
     Davidson diagonalization with overlap
     ethr =  7.34E-09,  avg # of iterations =  2.3

     total cpu time spent up to now is      821.9 secs

     total energy              =   -7950.09179487 Ry
     estimated scf accuracy    <       0.00009189 Ry

     iteration #  7     ecut=    50.00 Ry     beta= 0.10
     Davidson diagonalization with overlap
     ethr =  7.34E-09,  avg # of iterations =  2.0

     total cpu time spent up to now is      843.3 secs

     total energy              =   -7950.09168285 Ry
     estimated scf accuracy    <       0.00004869 Ry

     iteration #  8     ecut=    50.00 Ry     beta= 0.10
     Davidson diagonalization with overlap
     ethr =  7.34E-09,  avg # of iterations =  3.3

     total cpu time spent up to now is      867.5 secs

     total energy              =   -7950.09168437 Ry
     estimated scf accuracy    <       0.00002273 Ry

     iteration #  9     ecut=    50.00 Ry     beta= 0.10
     Davidson diagonalization with overlap
     ethr =  6.18E-09,  avg # of iterations =  2.0

     total cpu time spent up to now is      888.7 secs

     total energy              =   -7950.09168643 Ry
     estimated scf accuracy    <       0.00000104 Ry

     iteration # 10     ecut=    50.00 Ry     beta= 0.10
     Davidson diagonalization with overlap
     ethr =  2.82E-10,  avg # of iterations =  3.3

     total cpu time spent up to now is      914.5 secs

     total energy              =   -7950.09168654 Ry
     estimated scf accuracy    <       0.00000040 Ry

     iteration # 11     ecut=    50.00 Ry     beta= 0.10
     Davidson diagonalization with overlap
     ethr =  1.07E-10,  avg # of iterations =  2.0

     total cpu time spent up to now is      935.0 secs

     total energy              =   -7950.09168362 Ry
     estimated scf accuracy    <       0.00000038 Ry

     iteration # 12     ecut=    50.00 Ry     beta= 0.10
     Davidson diagonalization with overlap
     ethr =  1.02E-10,  avg # of iterations =  4.0

     total cpu time spent up to now is      959.3 secs

     total energy              =   -7950.09167751 Ry
     estimated scf accuracy    <       0.00000104 Ry

     iteration # 13     ecut=    50.00 Ry     beta= 0.10
     Davidson diagonalization with overlap
     ethr =  1.02E-10,  avg # of iterations =  4.7

     total cpu time spent up to now is      990.3 secs

     total energy              =   -7950.09168108 Ry
     estimated scf accuracy    <       0.00000002 Ry

     iteration # 14     ecut=    50.00 Ry     beta= 0.10
     Davidson diagonalization with overlap
     ethr =  4.55E-12,  avg # of iterations =  3.7

     total cpu time spent up to now is     1015.2 secs

     total energy              =   -7950.09168107 Ry
     estimated scf accuracy    <       0.00000005 Ry

     iteration # 15     ecut=    50.00 Ry     beta= 0.10
     Davidson diagonalization with overlap
     ethr =  4.55E-12,  avg # of iterations =  6.3

     total cpu time spent up to now is     1041.4 secs

     End of self-consistent calculation

          k = 0.0000 0.0000 0.0000 ( 12841 PWs)   bands (ev):

   -89.9506 -89.9506 -89.9490 -89.9490 -89.9488 -89.9488 -89.9471 -89.9471
   -89.8925 -89.8925 -89.8922 -89.8922 -89.8819 -89.8819 -89.8817 -89.8817
   -89.8678 -89.8678 -89.8678 -89.8678 -89.8678 -89.8678 -89.8677 -89.8677
   -89.8573 -89.8573 -89.8573 -89.8573 -89.8573 -89.8573 -89.8572 -89.8572
   -62.1773 -62.1773 -62.1771 -62.1771 -62.1758 -62.1758 -62.1758 -62.1758
   -62.1220 -62.1220 -62.1219 -62.1219 -62.1205 -62.1205 -62.1205 -62.1205
   -51.9342 -51.9342 -51.9336 -51.9336 -51.9304 -51.9304 -51.9221 -51.9221
   -51.8852 -51.8852 -51.8812 -51.8812 -51.8751 -51.8751 -51.8736 -51.8736
   -51.8703 -51.8703 -51.8702 -51.8702 -51.8622 -51.8622 -51.8594 -51.8594
   -51.8041 -51.8041 -51.7997 -51.7997 -51.7947 -51.7947 -51.7900 -51.7900
   -49.8192 -49.8192 -49.8174 -49.8174 -49.8047 -49.8047 -49.8017 -49.8017
   -49.7837 -49.7837 -49.7715 -49.7715 -49.7605 -49.7605 -49.7575 -49.7575
   -49.7068 -49.7068 -49.7046 -49.7046 -49.6996 -49.6996 -49.6896 -49.6896
   -49.6890 -49.6890 -49.6883 -49.6883 -49.6846 -49.6846 -49.6579 -49.6579
   -49.6571 -49.6571 -49.6237 -49.6237 -49.6204 -49.6204 -49.6117 -49.6117
   -49.6094 -49.6094 -49.6039 -49.6039 -49.5923 -49.5923 -49.5886 -49.5886
   -49.5782 -49.5782 -49.5765 -49.5765 -49.5639 -49.5639 -49.5556 -49.5556
   -49.5420 -49.5420 -49.5415 -49.5415 -49.5300 -49.5300 -49.5298 -49.5298
   -29.3095 -29.3095 -29.3095 -29.3095 -29.3049 -29.3049 -29.3046 -29.3046
   -29.2525 -29.2525 -29.2523 -29.2523 -29.2474 -29.2474 -29.2474 -29.2474
   -29.0245 -29.0245 -29.0244 -29.0244 -29.0230 -29.0230 -29.0229 -29.0229
   -29.0213 -29.0213 -29.0211 -29.0211 -29.0128 -29.0128 -29.0124 -29.0124
   -28.9692 -28.9692 -28.9691 -28.9691 -28.9630 -28.9630 -28.9628 -28.9628
   -28.9612 -28.9612 -28.9610 -28.9610 -28.9570 -28.9570 -28.9567 -28.9567
     4.4176   4.4176   5.0255   5.0255   5.0449   5.0449   6.4774   6.4774
     7.1167   7.1167   8.4644   8.4644   8.4996   8.4996   8.5394   8.5394
     9.0941   9.0941   9.1200   9.1200   9.2418   9.2418   9.3073   9.3073
     9.4500   9.4500   9.4589   9.4589   9.4777   9.4777   9.4967   9.4967
     9.5225   9.5225   9.5238   9.5238   9.6246   9.6246   9.6453   9.6453
     9.6938   9.6938   9.7580   9.7580   9.7585   9.7585   9.7657   9.7657
     9.7840   9.7840   9.8449   9.8449   9.8886   9.8886   9.9271   9.9271
     9.9336   9.9336   9.9891   9.9891  10.2768  10.2768  10.2818  10.2818
    10.2821  10.2821  10.3083  10.3083  10.3132  10.3132  10.3446  10.3446
    10.5211  10.5211  10.5796  10.5796  10.6691  10.6691  10.6717  10.6717
    10.7182  10.7182  10.7695  10.7695  10.8034  10.8034  10.8052  10.8052
    10.9556  10.9556  10.9738  10.9738  11.2200  11.2200  11.3799  11.3799
    11.4255  11.4255  11.4487  11.4487  11.4521  11.4521  11.4937  11.4937
    11.6050  11.6050  11.6594  11.6594  11.7532  11.7532  11.7632  11.7632
    11.8823  11.8823  11.8932  11.8932  11.9818  11.9818  11.9836  11.9836
    11.9960  11.9960  11.9992  11.9992  12.0019  12.0019  12.0052  12.0052
    12.0117  12.0117  12.0277  12.0277  12.0405  12.0405  12.0496  12.0496
    12.0620  12.0620  12.0722  12.0722  12.0866  12.0866  12.1107  12.1107
    12.1315  12.1315  12.1635  12.1635  12.1637  12.1637  12.1808  12.1808
    12.1992  12.1992  12.2357  12.2357  12.3100  12.3100  12.5447  12.5447
    12.5972  12.5972  12.8250  12.8250  12.8262  12.8262  13.0496  13.0496
    13.0518  13.0518  13.0652  13.0652  13.0669  13.0669  13.3764  13.3764
    13.5085  13.5085  13.6816  13.6816  13.7412  13.7412  13.7581  13.7581
    13.7725  13.7725  13.7898  13.7898  13.7933  13.7933  13.8783  13.8783
    14.1120  14.1120  14.1413  14.1413  14.1602  14.1602  14.2115  14.2115
    15.4993  15.4993  15.5302  15.5302  15.5415  15.5415  15.5531  15.5531
    15.9821  15.9821  16.0288  16.0288  16.4182  16.4182  16.4386  16.4386
    17.0341  17.0341  17.0793  17.0793  17.0963  17.0963  17.2427  17.2427
    17.3286  17.3286  17.5286  17.5286  17.9658  17.9658  17.9767  17.9767
    18.4225  18.4225  18.4430  18.4430  18.6066  18.6066  19.0305  19.0305
    19.0381  19.0381  19.1479  19.1479  19.3507  19.3507  20.7633  20.7633
    20.8435  20.8435

          k = 0.0000 0.3849 0.0000 ( 12856 PWs)   bands (ev):

   -89.9499 -89.9499 -89.9490 -89.9490 -89.9483 -89.9483 -89.9474 -89.9474
   -89.8874 -89.8874 -89.8872 -89.8872 -89.8768 -89.8768 -89.8768 -89.8768
   -89.8730 -89.8730 -89.8728 -89.8728 -89.8678 -89.8678 -89.8678 -89.8678
   -89.8626 -89.8626 -89.8626 -89.8626 -89.8573 -89.8573 -89.8573 -89.8573
   -62.1772 -62.1772 -62.1771 -62.1771 -62.1758 -62.1758 -62.1758 -62.1758
   -62.1220 -62.1220 -62.1220 -62.1220 -62.1206 -62.1206 -62.1206 -62.1206
   -51.9374 -51.9374 -51.9347 -51.9347 -51.9302 -51.9302 -51.9275 -51.9275
   -51.8809 -51.8809 -51.8792 -51.8792 -51.8721 -51.8721 -51.8691 -51.8691
   -51.8624 -51.8624 -51.8591 -51.8591 -51.8527 -51.8527 -51.8503 -51.8503
   -51.8197 -51.8197 -51.8137 -51.8137 -51.8066 -51.8066 -51.8015 -51.8015
   -49.8202 -49.8202 -49.8119 -49.8119 -49.8103 -49.8103 -49.8011 -49.8011
   -49.7591 -49.7591 -49.7541 -49.7541 -49.7483 -49.7483 -49.7447 -49.7447
   -49.7069 -49.7069 -49.7054 -49.7054 -49.7019 -49.7019 -49.6971 -49.6971
   -49.6843 -49.6843 -49.6807 -49.6807 -49.6800 -49.6800 -49.6611 -49.6611
   -49.6571 -49.6571 -49.6350 -49.6350 -49.6327 -49.6327 -49.6254 -49.6254
   -49.6079 -49.6079 -49.6055 -49.6055 -49.5929 -49.5929 -49.5897 -49.5897
   -49.5864 -49.5864 -49.5830 -49.5830 -49.5714 -49.5714 -49.5699 -49.5699
   -49.5586 -49.5586 -49.5568 -49.5568 -49.5411 -49.5411 -49.5387 -49.5387
   -29.3091 -29.3091 -29.3089 -29.3089 -29.3043 -29.3043 -29.3042 -29.3042
   -29.2536 -29.2536 -29.2535 -29.2535 -29.2486 -29.2486 -29.2485 -29.2485
   -29.0252 -29.0252 -29.0250 -29.0250 -29.0219 -29.0219 -29.0218 -29.0218
   -29.0201 -29.0201 -29.0199 -29.0199 -29.0131 -29.0131 -29.0130 -29.0130
   -28.9688 -28.9688 -28.9688 -28.9688 -28.9640 -28.9640 -28.9639 -28.9639
   -28.9622 -28.9622 -28.9620 -28.9620 -28.9564 -28.9564 -28.9564 -28.9564
     5.3894   5.3894   5.9643   5.9643   5.9878   5.9878   7.3759   7.3759
     7.8350   7.8350   8.0250   8.0250   8.3272   8.3272   8.3613   8.3613
     8.9203   8.9203   8.9555   8.9555   9.0996   9.0996   9.1956   9.1956
     9.2719   9.2719   9.3832   9.3832   9.4490   9.4490   9.5256   9.5256
     9.5949   9.5949   9.6592   9.6592   9.6948   9.6948   9.7264   9.7264
     9.7371   9.7371   9.7569   9.7569   9.8736   9.8736   9.9655   9.9655
    10.0116  10.0116  10.0615  10.0615  10.1094  10.1094  10.1628  10.1628
    10.1821  10.1821  10.2124  10.2124  10.2144  10.2144  10.3098  10.3098
    10.3146  10.3146  10.3498  10.3498  10.3552  10.3552  10.4191  10.4191
    10.4512  10.4512  10.4583  10.4583  10.5271  10.5271  10.5719  10.5719
    10.6455  10.6455  10.6936  10.6936  10.7140  10.7140  10.7331  10.7331
    10.7941  10.7941  10.8782  10.8782  10.9120  10.9120  10.9584  10.9584
    10.9712  10.9712  11.0779  11.0779  11.0862  11.0862  11.1424  11.1424
    11.1591  11.1591  11.2222  11.2222  11.2850  11.2850  11.2968  11.2968
    11.3177  11.3177  11.3710  11.3710  11.4547  11.4547  11.4665  11.4665
    11.5389  11.5389  11.5800  11.5800  11.6047  11.6047  11.6344  11.6344
    11.7007  11.7007  11.7158  11.7158  11.7278  11.7278  11.7852  11.7852
    11.7894  11.7894  11.8473  11.8473  11.8896  11.8896  11.9443  11.9443
    11.9499  11.9499  12.0310  12.0310  12.0402  12.0402  12.0507  12.0507
    12.1014  12.1014  12.1082  12.1082  12.1140  12.1140  12.1423  12.1423
    12.2056  12.2056  12.2327  12.2327  12.2484  12.2484  12.3437  12.3437
    12.3695  12.3695  12.4355  12.4355  12.5126  12.5126  12.6325  12.6325
    12.8960  12.8960  12.9584  12.9584  13.3081  13.3081  13.3199  13.3199
    13.5246  13.5246  13.6242  13.6242  13.7127  13.7127  13.8807  13.8807
    13.9509  13.9509  13.9765  13.9765  14.0568  14.0568  14.2542  14.2542
    14.8567  14.8567  15.3022  15.3022  15.6056  15.6056  15.6454  15.6454
    16.9193  16.9193  17.3607  17.3607  17.4123  17.4123  17.5672  17.5672
    18.3284  18.3284  18.4105  18.4105  18.4923  18.4923  18.6114  18.6114
    18.6515  18.6515  18.8182  18.8182  19.2615  19.2615  19.6893  19.6893
    19.7608  19.7608  19.8056  19.8056  20.3254  20.3254  20.3738  20.3738
    20.6552  20.6552  21.0971  21.0971  21.4473  21.4473  21.7400  21.7401
    21.7658  21.7658

          k = 0.3333 0.5774 0.0000 ( 12828 PWs)   bands (ev):

   -89.9493 -89.9493 -89.9493 -89.9493 -89.9478 -89.9478 -89.9478 -89.9478
   -89.8813 -89.8813 -89.8813 -89.8813 -89.8791 -89.8791 -89.8791 -89.8791
   -89.8698 -89.8698 -89.8697 -89.8697 -89.8697 -89.8697 -89.8696 -89.8696
   -89.8677 -89.8677 -89.8677 -89.8677 -89.8573 -89.8573 -89.8572 -89.8572
   -62.1771 -62.1771 -62.1771 -62.1771 -62.1757 -62.1757 -62.1757 -62.1757
   -62.1221 -62.1221 -62.1220 -62.1220 -62.1206 -62.1206 -62.1206 -62.1206
   -51.9397 -51.9397 -51.9394 -51.9394 -51.9294 -51.9294 -51.9290 -51.9290
   -51.8755 -51.8755 -51.8753 -51.8753 -51.8703 -51.8703 -51.8628 -51.8628
   -51.8438 -51.8438 -51.8423 -51.8423 -51.8421 -51.8421 -51.8395 -51.8395
   -51.8291 -51.8291 -51.8251 -51.8251 -51.8223 -51.8223 -51.8212 -51.8212
   -49.8178 -49.8178 -49.8169 -49.8169 -49.8071 -49.8071 -49.8045 -49.8045
   -49.7328 -49.7328 -49.7320 -49.7320 -49.7295 -49.7295 -49.7252 -49.7252
   -49.7222 -49.7222 -49.7194 -49.7194 -49.7189 -49.7189 -49.6972 -49.6972
   -49.6831 -49.6831 -49.6798 -49.6798 -49.6736 -49.6736 -49.6525 -49.6525
   -49.6492 -49.6492 -49.6469 -49.6469 -49.6355 -49.6355 -49.6351 -49.6351
   -49.6131 -49.6131 -49.6023 -49.6023 -49.5953 -49.5953 -49.5907 -49.5907
   -49.5814 -49.5814 -49.5814 -49.5814 -49.5803 -49.5803 -49.5732 -49.5732
   -49.5654 -49.5654 -49.5634 -49.5634 -49.5464 -49.5464 -49.5428 -49.5428
   -29.3089 -29.3089 -29.3085 -29.3085 -29.3042 -29.3042 -29.3038 -29.3038
   -29.2541 -29.2541 -29.2540 -29.2540 -29.2492 -29.2492 -29.2491 -29.2491
   -29.0261 -29.0261 -29.0240 -29.0240 -29.0220 -29.0220 -29.0219 -29.0219
   -29.0190 -29.0190 -29.0189 -29.0189 -29.0147 -29.0147 -29.0122 -29.0122
   -28.9685 -28.9685 -28.9684 -28.9684 -28.9650 -28.9650 -28.9649 -28.9649
   -28.9623 -28.9623 -28.9620 -28.9620 -28.9563 -28.9563 -28.9562 -28.9562
     6.9895   6.9895   6.9902   6.9902   7.4242   7.4242   7.5401   7.5401
     7.5456   7.5456   7.7264   7.7264   7.8428   7.8428   7.8478   7.8478
     8.0528   8.0528   8.8738   8.8738   8.8742   8.8742   8.8971   8.8971
     8.9041   8.9041   8.9420   8.9420   8.9963   8.9963   9.6288   9.6288
     9.6328   9.6328   9.6463   9.6463   9.7685   9.7685   9.7814   9.7814
     9.9277   9.9277   9.9570   9.9570  10.0750  10.0750  10.0909  10.0909
    10.1601  10.1601  10.1601  10.1601  10.2103  10.2103  10.2166  10.2166
    10.2333  10.2333  10.2360  10.2360  10.3140  10.3140  10.3645  10.3645
    10.3881  10.3881  10.3929  10.3929  10.4035  10.4035  10.4131  10.4131
    10.4329  10.4329  10.4778  10.4778  10.4915  10.4915  10.5085  10.5085
    10.5284  10.5284  10.5287  10.5287  10.5717  10.5717  10.5771  10.5771
    10.6459  10.6459  10.6488  10.6488  10.6785  10.6785  10.6908  10.6908
    10.7264  10.7264  10.8818  10.8818  10.8924  10.8924  10.9063  10.9063
    11.0203  11.0203  11.1454  11.1454  11.1650  11.1650  11.1685  11.1685
    11.2069  11.2069  11.2312  11.2312  11.3890  11.3890  11.3939  11.3939
    11.4722  11.4722  11.5031  11.5031  11.5211  11.5211  11.5347  11.5347
    11.5852  11.5852  11.5958  11.5958  11.6100  11.6100  11.7016  11.7016
    11.7484  11.7484  11.7755  11.7755  11.7912  11.7912  11.7939  11.7939
    11.8217  11.8217  11.8378  11.8378  11.8395  11.8395  11.8830  11.8830
    11.9006  11.9006  11.9056  11.9056  11.9680  11.9680  12.0234  12.0234
    12.1809  12.1809  12.2008  12.2008  12.2837  12.2837  12.2853  12.2853
    12.3082  12.3082  12.3796  12.3796  12.3906  12.3906  12.4887  12.4887
    12.5466  12.5466  12.6047  12.6047  12.6060  12.6060  12.8253  12.8253
    12.9563  12.9563  12.9673  12.9673  13.0344  13.0344  14.3807  14.3807
    14.4020  14.4020  14.4496  14.4496  14.6380  14.6380  14.6452  14.6452
    15.2249  15.2249  17.0360  17.0360  17.0382  17.0382  17.1975  17.1975
    17.4472  17.4472  17.4479  17.4479  18.0253  18.0253  18.1098  18.1098
    18.1106  18.1106  18.1647  18.1647  18.1731  18.1731  18.4258  18.4258
    18.6562  18.6562  19.0315  19.0315  19.1215  19.1215  19.1360  19.1360
    19.9059  19.9059  19.9088  19.9088  20.2085  20.2085  20.2230  20.2230
    20.3213  20.3213  20.9657  20.9657  22.3127  22.3127  22.3217  22.3217
    22.5270  22.5270

     the Fermi energy is    12.6775 ev

!    total energy              =   -7950.09168110 Ry
     total all-electron energy =    -51823.943764 Ry
     estimated scf accuracy    <          6.3E-09 Ry
     smearing contrib. (-TS)   =       0.10966184 Ry
     internal energy E=F+TS    =   -7950.20134293 Ry

     The total energy is F=E-TS. E is the sum of the following terms:
     one-electron contribution =   -4525.53433741 Ry
     hartree contribution      =    2413.96958801 Ry
     xc contribution           =    -681.59988035 Ry
     ewald contribution        =   -3618.87975655 Ry
     one-center paw contrib.   =   -1538.15695664 Ry

     convergence has been achieved in  15 iterations

     Forces acting on atoms (cartesian axes, Ry/au):

     atom    1 type  1   force =     0.00000000   -0.00000000    0.00406197
     atom    2 type  1   force =    -0.00000000   -0.00000000    0.00406197
     atom    3 type  1   force =     0.00000000    0.00000000   -0.00406197
     atom    4 type  1   force =     0.00000000    0.00000000   -0.00406197
     atom    5 type  1   force =     0.00000000    0.00000000    0.00093330
     atom    6 type  1   force =     0.00000000    0.00000000    0.00093330
     atom    7 type  1   force =     0.00000000    0.00000000   -0.00093330
     atom    8 type  1   force =     0.00000000   -0.00000000   -0.00093330
     atom    9 type  2   force =     0.00000000    0.00000000    0.00314001
     atom   10 type  2   force =    -0.00000000   -0.00000000    0.00314001
     atom   11 type  2   force =     0.00000000    0.00000000   -0.00314001
     atom   12 type  2   force =     0.00000000    0.00000000   -0.00314001
     atom   13 type  2   force =     0.00000000   -0.00405222   -0.00000000
     atom   14 type  2   force =     0.00350933   -0.00202611    0.00000000
     atom   15 type  2   force =     0.00000000    0.00405222   -0.00000000
     atom   16 type  2   force =    -0.00350933    0.00202611    0.00000000
     atom   17 type  2   force =     0.00350933    0.00202611    0.00000000
     atom   18 type  2   force =    -0.00350933   -0.00202611    0.00000000
     atom   19 type  2   force =    -0.00000000   -0.00000000    0.00000000
     atom   20 type  2   force =    -0.00000000   -0.00000000    0.00000000
     atom   21 type  2   force =    -0.00000000   -0.00000000   -0.00000000
     atom   22 type  2   force =     0.00000000   -0.00000000    0.00000000
     atom   23 type  2   force =    -0.00000000    0.00000000   -0.00000000
     atom   24 type  2   force =     0.00000000   -0.00000000   -0.00000000
     The non-local contrib.  to forces
     atom    1 type  1   force =     0.00000000    0.00000000    0.02475746
     atom    2 type  1   force =     0.00000000    0.00000000    0.02475746
     atom    3 type  1   force =     0.00000000    0.00000000   -0.02475746
     atom    4 type  1   force =     0.00000000    0.00000000   -0.02475746
     atom    5 type  1   force =     0.00000000    0.00000000   -0.00021193
     atom    6 type  1   force =    -0.00000000   -0.00000000   -0.00021193
     atom    7 type  1   force =     0.00000000    0.00000000    0.00021193
     atom    8 type  1   force =     0.00000000    0.00000000    0.00021193
     atom    9 type  2   force =     0.00000000    0.00000000   -0.00514597
     atom   10 type  2   force =    -0.00000000   -0.00000000   -0.00514597
     atom   11 type  2   force =     0.00000000    0.00000000    0.00514597
     atom   12 type  2   force =     0.00000000    0.00000000    0.00514597
     atom   13 type  2   force =     0.00000000   -0.08684043    0.00000000
     atom   14 type  2   force =     0.07520603   -0.04342022    0.00000000
     atom   15 type  2   force =     0.00000000    0.08684043    0.00000000
     atom   16 type  2   force =    -0.07520603    0.04342022   -0.00000000
     atom   17 type  2   force =     0.07520603    0.04342022    0.00000000
     atom   18 type  2   force =    -0.07520603   -0.04342022    0.00000000
     atom   19 type  2   force =    -0.00000000   -0.00000000   -0.00000000
     atom   20 type  2   force =     0.00000000   -0.00000000    0.00000000
     atom   21 type  2   force =     0.00000000    0.00000000    0.00000000
     atom   22 type  2   force =     0.00000000   -0.00000000   -0.00000000
     atom   23 type  2   force =    -0.00000000    0.00000000    0.00000000
     atom   24 type  2   force =     0.00000000    0.00000000    0.00000000
     The ionic contribution  to forces
     atom    1 type  1   force =    -0.00001519    0.00001063   -0.34085732
     atom    2 type  1   force =     0.00001519   -0.00001063   -0.34085732
     atom    3 type  1   force =     0.00001519   -0.00001063    0.34085732
     atom    4 type  1   force =    -0.00001519    0.00001063    0.34085732
     atom    5 type  1   force =     0.00005465   -0.00002949    0.11579796
     atom    6 type  1   force =    -0.00005465    0.00002949    0.11579796
     atom    7 type  1   force =    -0.00005465    0.00002949   -0.11579796
     atom    8 type  1   force =     0.00005465   -0.00002949   -0.11579796
     atom    9 type  2   force =     0.00005706   -0.00003283    0.73785487
     atom   10 type  2   force =    -0.00005706    0.00003283    0.73785487
     atom   11 type  2   force =    -0.00005706    0.00003283   -0.73785487
     atom   12 type  2   force =     0.00005706   -0.00003283   -0.73785487
     atom   13 type  2   force =     0.00007163  -14.85431326    0.00000000
     atom   14 type  2   force =    12.86429538   -7.42720629    0.00000000
     atom   15 type  2   force =    -0.00007163   14.85431326   -0.00000000
     atom   16 type  2   force =   -12.86429538    7.42720629    0.00000000
     atom   17 type  2   force =    12.86424798    7.42709621    0.00000000
     atom   18 type  2   force =   -12.86424798   -7.42709621    0.00000000
     atom   19 type  2   force =    -0.00000000    0.00000000    0.00000000
     atom   20 type  2   force =    -0.00000000    0.00000000    0.00000000
     atom   21 type  2   force =     0.00000000   -0.00000000    0.00000000
     atom   22 type  2   force =     0.00000000   -0.00000000    0.00000000
     atom   23 type  2   force =     0.00000000    0.00000000    0.00000000
     atom   24 type  2   force =     0.00000000   -0.00000000    0.00000000
     The local contribution  to forces
     atom    1 type  1   force =     0.00000000   -0.00000174    0.32033737
     atom    2 type  1   force =    -0.00000000    0.00000174    0.32033737
     atom    3 type  1   force =     0.00000000    0.00000174   -0.32033737
     atom    4 type  1   force =     0.00000000   -0.00000174   -0.32033737
     atom    5 type  1   force =     0.00146955   -0.00085036   -0.11468360
     atom    6 type  1   force =    -0.00146955    0.00085036   -0.11468360
     atom    7 type  1   force =    -0.00146955    0.00085036    0.11468360
     atom    8 type  1   force =     0.00146955   -0.00085036    0.11468360
     atom    9 type  2   force =     0.00195108   -0.00112656   -0.72756216
     atom   10 type  2   force =    -0.00195108    0.00112656   -0.72756216
     atom   11 type  2   force =    -0.00195108    0.00112656    0.72756216
     atom   12 type  2   force =     0.00195108   -0.00112656    0.72756216
     atom   13 type  2   force =    -0.00194959   14.93743579    0.00000000
     atom   14 type  2   force =   -12.93350388    7.46716328   -0.00000000
     atom   15 type  2   force =     0.00194959  -14.93743579   -0.00000000
     atom   16 type  2   force =    12.93350388   -7.46716328    0.00000000
     atom   17 type  2   force =   -12.93717384   -7.46703094    0.00000000
     atom   18 type  2   force =    12.93717384    7.46703094   -0.00000000
     atom   19 type  2   force =     0.00000000    0.00000000    0.00000000
     atom   20 type  2   force =     0.00000000    0.00000000    0.00000000
     atom   21 type  2   force =    -0.00000000    0.00000000    0.00000000
     atom   22 type  2   force =     0.00000000    0.00000000    0.00000000
     atom   23 type  2   force =    -0.00000000   -0.00000000    0.00000000
     atom   24 type  2   force =    -0.00000000    0.00000000    0.00000000
     The core correction contribution to forces
     atom    1 type  1   force =    -0.00000000    0.00000000   -0.00011615
     atom    2 type  1   force =     0.00000000   -0.00000000   -0.00011615
     atom    3 type  1   force =     0.00000000   -0.00000000    0.00011615
     atom    4 type  1   force =    -0.00000000    0.00000000    0.00011615
     atom    5 type  1   force =     0.00000319   -0.00000184   -0.00000646
     atom    6 type  1   force =    -0.00000319    0.00000184   -0.00000646
     atom    7 type  1   force =    -0.00000319    0.00000184    0.00000646
     atom    8 type  1   force =     0.00000319   -0.00000184    0.00000646
     atom    9 type  2   force =     0.00000120   -0.00000069   -0.00196403
     atom   10 type  2   force =    -0.00000120    0.00000069   -0.00196403
     atom   11 type  2   force =    -0.00000120    0.00000069    0.00196403
     atom   12 type  2   force =     0.00000120   -0.00000069    0.00196403
     atom   13 type  2   force =    -0.00000119    0.00075538    0.00000000
     atom   14 type  2   force =    -0.00065232    0.00037662   -0.00000000
     atom   15 type  2   force =     0.00000119   -0.00075538   -0.00000000
     atom   16 type  2   force =     0.00065232   -0.00037662    0.00000000
     atom   17 type  2   force =    -0.00065477   -0.00037666    0.00000000
     atom   18 type  2   force =     0.00065477    0.00037666   -0.00000000
     atom   19 type  2   force =     0.00000000    0.00000000    0.00000000
     atom   20 type  2   force =     0.00000000    0.00000000    0.00000000
     atom   21 type  2   force =    -0.00000000    0.00000000    0.00000000
     atom   22 type  2   force =     0.00000000    0.00000000    0.00000000
     atom   23 type  2   force =    -0.00000000    0.00000000    0.00000000
     atom   24 type  2   force =    -0.00000000    0.00000000    0.00000000
     The Hubbard contrib.    to forces
     atom    1 type  1   force =     0.00000000    0.00000000    0.00000000
     atom    2 type  1   force =     0.00000000    0.00000000    0.00000000
     atom    3 type  1   force =     0.00000000    0.00000000    0.00000000
     atom    4 type  1   force =     0.00000000    0.00000000    0.00000000
     atom    5 type  1   force =     0.00000000    0.00000000    0.00000000
     atom    6 type  1   force =     0.00000000    0.00000000    0.00000000
     atom    7 type  1   force =     0.00000000    0.00000000    0.00000000
     atom    8 type  1   force =     0.00000000    0.00000000    0.00000000
     atom    9 type  2   force =     0.00000000    0.00000000    0.00000000
     atom   10 type  2   force =     0.00000000    0.00000000    0.00000000
     atom   11 type  2   force =     0.00000000    0.00000000    0.00000000
     atom   12 type  2   force =     0.00000000    0.00000000    0.00000000
     atom   13 type  2   force =     0.00000000    0.00000000    0.00000000
     atom   14 type  2   force =     0.00000000    0.00000000    0.00000000
     atom   15 type  2   force =     0.00000000    0.00000000    0.00000000
     atom   16 type  2   force =     0.00000000    0.00000000    0.00000000
     atom   17 type  2   force =     0.00000000    0.00000000    0.00000000
     atom   18 type  2   force =     0.00000000    0.00000000    0.00000000
     atom   19 type  2   force =     0.00000000    0.00000000    0.00000000
     atom   20 type  2   force =     0.00000000    0.00000000    0.00000000
     atom   21 type  2   force =     0.00000000    0.00000000    0.00000000
     atom   22 type  2   force =     0.00000000    0.00000000    0.00000000
     atom   23 type  2   force =     0.00000000    0.00000000    0.00000000
     atom   24 type  2   force =     0.00000000    0.00000000    0.00000000
     The SCF correction term to forces
     atom    1 type  1   force =     0.00000004   -0.00000002   -0.00005939
     atom    2 type  1   force =    -0.00000004    0.00000002   -0.00005939
     atom    3 type  1   force =    -0.00000004    0.00000002    0.00005939
     atom    4 type  1   force =     0.00000004   -0.00000002    0.00005939
     atom    5 type  1   force =     0.00000000   -0.00000000    0.00003733
     atom    6 type  1   force =    -0.00000000    0.00000000    0.00003733
     atom    7 type  1   force =    -0.00000000    0.00000000   -0.00003733
     atom    8 type  1   force =     0.00000000   -0.00000000   -0.00003733
     atom    9 type  2   force =    -0.00000015    0.00000008   -0.00004269
     atom   10 type  2   force =     0.00000015   -0.00000008   -0.00004269
     atom   11 type  2   force =     0.00000015   -0.00000008    0.00004269
     atom   12 type  2   force =    -0.00000015    0.00000008    0.00004269
     atom   13 type  2   force =     0.00000002   -0.00001989   -0.00000000
     atom   14 type  2   force =     0.00001726   -0.00000995   -0.00000000
     atom   15 type  2   force =    -0.00000002    0.00001989    0.00000000
     atom   16 type  2   force =    -0.00001726    0.00000995    0.00000000
     atom   17 type  2   force =     0.00001725    0.00000992    0.00000000
     atom   18 type  2   force =    -0.00001725   -0.00000992   -0.00000000
     atom   19 type  2   force =    -0.00000000   -0.00000000   -0.00000000
     atom   20 type  2   force =     0.00000000   -0.00000000   -0.00000000
     atom   21 type  2   force =    -0.00000000   -0.00000000   -0.00000000
     atom   22 type  2   force =    -0.00000000    0.00000000   -0.00000000
     atom   23 type  2   force =    -0.00000000   -0.00000000   -0.00000000
     atom   24 type  2   force =     0.00000000    0.00000000   -0.00000000

     Total force =     0.014403     Total SCF correction =     0.000171
     Energy error            =      4.0E-04 Ry
     Gradient error          =      4.1E-03 Ry/Bohr

     number of scf cycles    =   2
     number of bfgs steps    =   1

     energy             old  =   -7950.0912827902 Ry
     energy             new  =   -7950.0916810968 Ry

     CASE: energy            _new < energy            _old

     new trust radius        =       0.0076350835 bohr
     new conv_thr            =       0.0000000007 Ry


ATOMIC_POSITIONS (crystal)
Mg           -0.0000000000       -0.0000000000        0.4064036684
Mg           -0.0000000000       -0.0000000000        0.9064036684
Mg            0.0000000000        0.0000000000        0.5935963316
Mg           -0.0000000000        0.0000000000        0.0935963316
Mg            0.3333330000        0.6666670000        0.6558935848
Mg            0.6666670000        0.3333330000        0.1558935848
Mg            0.6666670000        0.3333330000        0.3441064152
Mg            0.3333330000        0.6666670000        0.8441064152
Ni            0.3333330000        0.6666670000        0.3752246672
Ni            0.6666670000        0.3333330000        0.8752246672
Ni            0.6666670000        0.3333330000        0.6247753328
Ni            0.3333330000        0.6666670000        0.1247753328
Ni            0.1657438473        0.3314866947        0.2500000000
Ni            0.8342561530        0.1657438473        0.7500000000
Ni            0.8342561527        0.6685133053        0.7500000000
Ni            0.1657438470        0.8342561527        0.2500000000
Ni            0.6685133056        0.8342561527        0.2500000000
Ni            0.3314866944        0.1657438473        0.7500000000
Ni            0.5000000000       -0.0000000000        0.5000000000
Ni            0.5000000000        0.5000000000        0.0000000000
Ni            0.5000000000       -0.0000000000       -0.0000000000
Ni            0.5000000000        0.5000000000        0.5000000000
Ni            0.0000000000        0.5000000000       -0.0000000000
Ni            0.0000000000        0.5000000000        0.5000000000



     Writing config-only to output data dir ./ACOptimization/out/iso.save/
     NEW-OLD atomic charge density approx. for the potential

     Check: negative core charge=   -0.000016

     total cpu time spent up to now is     1056.2 secs

     Self-consistent Calculation

     iteration #  1     ecut=    50.00 Ry     beta= 0.10
     Davidson diagonalization with overlap
     ethr =  1.00E-06,  avg # of iterations =  6.0

     total cpu time spent up to now is     1097.1 secs

     total energy              =   -7950.09512473 Ry
     estimated scf accuracy    <       0.00081168 Ry

     iteration #  2     ecut=    50.00 Ry     beta= 0.10
     Davidson diagonalization with overlap
     ethr =  2.21E-07,  avg # of iterations =  2.0

     total cpu time spent up to now is     1117.4 secs

     total energy              =   -7950.09180048 Ry
     estimated scf accuracy    <       0.00063593 Ry

     iteration #  3     ecut=    50.00 Ry     beta= 0.10
     Davidson diagonalization with overlap
     ethr =  1.73E-07,  avg # of iterations =  4.0

     total cpu time spent up to now is     1142.9 secs

     total energy              =   -7950.09228691 Ry
     estimated scf accuracy    <       0.00006512 Ry

     iteration #  4     ecut=    50.00 Ry     beta= 0.10
     Davidson diagonalization with overlap
     ethr =  1.77E-08,  avg # of iterations =  2.0

     total cpu time spent up to now is     1164.8 secs

     total energy              =   -7950.09221359 Ry
     estimated scf accuracy    <       0.00003412 Ry

     iteration #  5     ecut=    50.00 Ry     beta= 0.10
     Davidson diagonalization with overlap
     ethr =  9.27E-09,  avg # of iterations =  1.3

     total cpu time spent up to now is     1183.6 secs

     total energy              =   -7950.09209381 Ry
     estimated scf accuracy    <       0.00003635 Ry

     iteration #  6     ecut=    50.00 Ry     beta= 0.10
     Davidson diagonalization with overlap
     ethr =  9.27E-09,  avg # of iterations =  2.3

     total cpu time spent up to now is     1207.6 secs

     total energy              =   -7950.09227291 Ry
     estimated scf accuracy    <       0.00006988 Ry

     iteration #  7     ecut=    50.00 Ry     beta= 0.10
     Davidson diagonalization with overlap
     ethr =  9.27E-09,  avg # of iterations =  2.0

     total cpu time spent up to now is     1232.2 secs

     total energy              =   -7950.09198811 Ry
     estimated scf accuracy    <       0.00001644 Ry

     iteration #  8     ecut=    50.00 Ry     beta= 0.10
     Davidson diagonalization with overlap
     ethr =  4.47E-09,  avg # of iterations =  4.0

     total cpu time spent up to now is     1258.8 secs

     total energy              =   -7950.09197945 Ry
     estimated scf accuracy    <       0.00000498 Ry

     iteration #  9     ecut=    50.00 Ry     beta= 0.10
     Davidson diagonalization with overlap
     ethr =  1.35E-09,  avg # of iterations =  2.0

     total cpu time spent up to now is     1280.2 secs

     total energy              =   -7950.09197086 Ry
     estimated scf accuracy    <       0.00000071 Ry

     iteration # 10     ecut=    50.00 Ry     beta= 0.10
     Davidson diagonalization with overlap
     ethr =  1.92E-10,  avg # of iterations =  4.0

     total cpu time spent up to now is     1307.6 secs

     total energy              =   -7950.09197209 Ry
     estimated scf accuracy    <       0.00000116 Ry

     iteration # 11     ecut=    50.00 Ry     beta= 0.10
     Davidson diagonalization with overlap
     ethr =  1.92E-10,  avg # of iterations =  1.0

     total cpu time spent up to now is     1325.8 secs

     total energy              =   -7950.09197074 Ry
     estimated scf accuracy    <       0.00000109 Ry

     iteration # 12     ecut=    50.00 Ry     beta= 0.10
     Davidson diagonalization with overlap
     ethr =  1.92E-10,  avg # of iterations =  3.7

     total cpu time spent up to now is     1351.8 secs

     total energy              =   -7950.09197079 Ry
     estimated scf accuracy    <       0.00000135 Ry

     iteration # 13     ecut=    50.00 Ry     beta= 0.10
     Davidson diagonalization with overlap
     ethr =  1.92E-10,  avg # of iterations =  3.0

     total cpu time spent up to now is     1375.2 secs

     total energy              =   -7950.09197166 Ry
     estimated scf accuracy    <       0.00000003 Ry

     iteration # 14     ecut=    50.00 Ry     beta= 0.10
     Davidson diagonalization with overlap
     ethr =  8.23E-12,  avg # of iterations =  2.7

     total cpu time spent up to now is     1399.6 secs

     total energy              =   -7950.09197161 Ry
     estimated scf accuracy    <          9.8E-09 Ry

     iteration # 15     ecut=    50.00 Ry     beta= 0.10
     Davidson diagonalization with overlap
     ethr =  2.67E-12,  avg # of iterations =  3.7

     total cpu time spent up to now is     1426.2 secs

     total energy              =   -7950.09197165 Ry
     estimated scf accuracy    <       0.00000003 Ry

     iteration # 16     ecut=    50.00 Ry     beta= 0.10
     Davidson diagonalization with overlap
     ethr =  2.67E-12,  avg # of iterations =  1.0

     total cpu time spent up to now is     1444.4 secs

     total energy              =   -7950.09197169 Ry
     estimated scf accuracy    <       0.00000002 Ry

     iteration # 17     ecut=    50.00 Ry     beta= 0.10
     Davidson diagonalization with overlap
     ethr =  2.67E-12,  avg # of iterations =  2.0

     total cpu time spent up to now is     1466.6 secs

     total energy              =   -7950.09197166 Ry
     estimated scf accuracy    <       0.00000004 Ry

     iteration # 18     ecut=    50.00 Ry     beta= 0.10
     Davidson diagonalization with overlap
     ethr =  2.67E-12,  avg # of iterations =  2.3

     total cpu time spent up to now is     1490.5 secs

     total energy              =   -7950.09197167 Ry
     estimated scf accuracy    <          8.8E-09 Ry

     iteration # 19     ecut=    50.00 Ry     beta= 0.10
     Davidson diagonalization with overlap
     ethr =  2.40E-12,  avg # of iterations =  2.0

     total cpu time spent up to now is     1513.6 secs

     total energy              =   -7950.09197168 Ry
     estimated scf accuracy    <          1.6E-09 Ry

     iteration # 20     ecut=    50.00 Ry     beta= 0.10
     Davidson diagonalization with overlap
     ethr =  4.48E-13,  avg # of iterations =  2.0

     total cpu time spent up to now is     1536.0 secs

     total energy              =   -7950.09197168 Ry
     estimated scf accuracy    <          1.2E-09 Ry

     iteration # 21     ecut=    50.00 Ry     beta= 0.10
     Davidson diagonalization with overlap
     ethr =  3.20E-13,  avg # of iterations =  2.0

     total cpu time spent up to now is     1556.8 secs

     End of self-consistent calculation

          k = 0.0000 0.0000 0.0000 ( 12841 PWs)   bands (ev):

   -89.9484 -89.9484 -89.9467 -89.9467 -89.9467 -89.9467 -89.9448 -89.9448
   -89.8913 -89.8913 -89.8908 -89.8908 -89.8844 -89.8844 -89.8840 -89.8840
   -89.8664 -89.8664 -89.8663 -89.8663 -89.8663 -89.8663 -89.8663 -89.8663
   -89.8600 -89.8600 -89.8600 -89.8600 -89.8599 -89.8599 -89.8599 -89.8599
   -62.1770 -62.1770 -62.1768 -62.1768 -62.1756 -62.1756 -62.1755 -62.1755
   -62.1213 -62.1213 -62.1212 -62.1212 -62.1198 -62.1198 -62.1198 -62.1198
   -51.9318 -51.9318 -51.9315 -51.9315 -51.9284 -51.9284 -51.9197 -51.9197
   -51.8837 -51.8837 -51.8811 -51.8811 -51.8762 -51.8762 -51.8736 -51.8736
   -51.8715 -51.8715 -51.8700 -51.8700 -51.8649 -51.8649 -51.8608 -51.8608
   -51.8029 -51.8029 -51.7983 -51.7983 -51.7970 -51.7970 -51.7924 -51.7924
   -49.8182 -49.8182 -49.8168 -49.8168 -49.8019 -49.8019 -49.7993 -49.7993
   -49.7845 -49.7845 -49.7731 -49.7731 -49.7589 -49.7589 -49.7576 -49.7576
   -49.7069 -49.7069 -49.7039 -49.7039 -49.6991 -49.6991 -49.6912 -49.6912
   -49.6902 -49.6902 -49.6854 -49.6854 -49.6853 -49.6853 -49.6578 -49.6578
   -49.6549 -49.6549 -49.6233 -49.6233 -49.6188 -49.6188 -49.6103 -49.6103
   -49.6085 -49.6085 -49.6022 -49.6022 -49.5945 -49.5945 -49.5910 -49.5910
   -49.5774 -49.5774 -49.5758 -49.5758 -49.5625 -49.5625 -49.5542 -49.5542
   -49.5441 -49.5441 -49.5438 -49.5438 -49.5327 -49.5327 -49.5323 -49.5323
   -29.3092 -29.3092 -29.3092 -29.3092 -29.3046 -29.3046 -29.3043 -29.3043
   -29.2519 -29.2519 -29.2518 -29.2518 -29.2467 -29.2467 -29.2467 -29.2467
   -29.0243 -29.0243 -29.0242 -29.0242 -29.0226 -29.0226 -29.0225 -29.0225
   -29.0209 -29.0209 -29.0206 -29.0206 -29.0126 -29.0126 -29.0121 -29.0121
   -28.9689 -28.9689 -28.9687 -28.9687 -28.9622 -28.9622 -28.9621 -28.9621
   -28.9604 -28.9604 -28.9602 -28.9602 -28.9563 -28.9563 -28.9561 -28.9561
     4.4179   4.4179   5.0303   5.0303   5.0405   5.0405   6.4755   6.4755
     7.1192   7.1192   8.4615   8.4615   8.5010   8.5010   8.5459   8.5459
     9.0980   9.0980   9.1176   9.1176   9.2525   9.2525   9.3073   9.3073
     9.4474   9.4474   9.4583   9.4583   9.4770   9.4770   9.4941   9.4941
     9.5190   9.5190   9.5206   9.5206   9.6301   9.6301   9.6507   9.6507
     9.6938   9.6938   9.7562   9.7562   9.7577   9.7577   9.7650   9.7650
     9.7851   9.7851   9.8458   9.8458   9.8959   9.8959   9.9273   9.9273
     9.9411   9.9411   9.9890   9.9890  10.2804  10.2804  10.2808  10.2808
    10.2827  10.2827  10.3059  10.3059  10.3107  10.3107  10.3512  10.3512
    10.5220  10.5220  10.5803  10.5803  10.6691  10.6691  10.6742  10.6742
    10.7187  10.7187  10.7697  10.7697  10.8059  10.8059  10.8073  10.8073
    10.9586  10.9586  10.9773  10.9773  11.2141  11.2141  11.3819  11.3819
    11.4302  11.4302  11.4476  11.4476  11.4494  11.4494  11.4904  11.4904
    11.6081  11.6081  11.6621  11.6621  11.7536  11.7536  11.7623  11.7623
    11.8821  11.8821  11.8928  11.8928  11.9803  11.9803  11.9836  11.9836
    11.9962  11.9962  11.9983  11.9983  11.9986  11.9986  12.0032  12.0032
    12.0087  12.0087  12.0261  12.0261  12.0401  12.0401  12.0464  12.0464
    12.0614  12.0614  12.0711  12.0711  12.0853  12.0853  12.1118  12.1118
    12.1316  12.1316  12.1608  12.1608  12.1612  12.1612  12.1777  12.1777
    12.1987  12.1987  12.2384  12.2384  12.3127  12.3127  12.5480  12.5480
    12.6005  12.6005  12.8239  12.8239  12.8250  12.8250  13.0506  13.0506
    13.0527  13.0527  13.0626  13.0626  13.0646  13.0646  13.3783  13.3783
    13.5095  13.5095  13.6828  13.6828  13.7408  13.7408  13.7548  13.7548
    13.7692  13.7692  13.7870  13.7870  13.7898  13.7898  13.8796  13.8796
    14.1115  14.1115  14.1408  14.1408  14.1568  14.1568  14.2084  14.2084
    15.5013  15.5013  15.5321  15.5321  15.5434  15.5434  15.5552  15.5552
    15.9829  15.9829  16.0300  16.0300  16.4169  16.4169  16.4379  16.4379
    17.0299  17.0299  17.0820  17.0820  17.0990  17.0990  17.2398  17.2398
    17.3233  17.3233  17.5272  17.5272  17.9659  17.9659  17.9766  17.9766
    18.4222  18.4222  18.4426  18.4426  18.6076  18.6076  19.0294  19.0294
    19.0367  19.0367  19.1468  19.1468  19.3510  19.3510  20.7573  20.7573
    20.8449  20.8449

          k = 0.0000 0.3849 0.0000 ( 12856 PWs)   bands (ev):

   -89.9477 -89.9477 -89.9467 -89.9467 -89.9461 -89.9461 -89.9451 -89.9451
   -89.8861 -89.8861 -89.8859 -89.8859 -89.8793 -89.8793 -89.8792 -89.8792
   -89.8715 -89.8715 -89.8714 -89.8714 -89.8663 -89.8663 -89.8663 -89.8663
   -89.8652 -89.8652 -89.8652 -89.8652 -89.8599 -89.8599 -89.8599 -89.8599
   -62.1769 -62.1769 -62.1768 -62.1768 -62.1755 -62.1755 -62.1755 -62.1755
   -62.1213 -62.1213 -62.1213 -62.1213 -62.1199 -62.1199 -62.1198 -62.1198
   -51.9352 -51.9352 -51.9324 -51.9324 -51.9282 -51.9282 -51.9254 -51.9254
   -51.8795 -51.8795 -51.8779 -51.8779 -51.8748 -51.8748 -51.8715 -51.8715
   -51.8610 -51.8610 -51.8576 -51.8576 -51.8552 -51.8552 -51.8527 -51.8527
   -51.8192 -51.8192 -51.8125 -51.8125 -51.8090 -51.8090 -51.8030 -51.8030
   -49.8189 -49.8189 -49.8108 -49.8108 -49.8082 -49.8082 -49.7992 -49.7992
   -49.7595 -49.7595 -49.7555 -49.7555 -49.7480 -49.7480 -49.7447 -49.7447
   -49.7068 -49.7068 -49.7051 -49.7051 -49.7015 -49.7015 -49.6978 -49.6978
   -49.6848 -49.6848 -49.6811 -49.6811 -49.6779 -49.6779 -49.6609 -49.6609
   -49.6551 -49.6551 -49.6343 -49.6343 -49.6318 -49.6318 -49.6246 -49.6246
   -49.6067 -49.6067 -49.6039 -49.6039 -49.5925 -49.5925 -49.5895 -49.5895
   -49.5874 -49.5874 -49.5847 -49.5847 -49.5701 -49.5701 -49.5685 -49.5685
   -49.5609 -49.5609 -49.5591 -49.5591 -49.5436 -49.5436 -49.5412 -49.5412
   -29.3088 -29.3088 -29.3087 -29.3087 -29.3040 -29.3040 -29.3039 -29.3039
   -29.2530 -29.2530 -29.2529 -29.2529 -29.2478 -29.2478 -29.2477 -29.2477
   -29.0250 -29.0250 -29.0248 -29.0248 -29.0216 -29.0216 -29.0214 -29.0214
   -29.0197 -29.0197 -29.0195 -29.0195 -29.0129 -29.0129 -29.0127 -29.0127
   -28.9685 -28.9685 -28.9684 -28.9684 -28.9632 -28.9632 -28.9631 -28.9631
   -28.9613 -28.9613 -28.9611 -28.9611 -28.9558 -28.9558 -28.9558 -28.9558
     5.3902   5.3902   5.9695   5.9695   5.9836   5.9836   7.3743   7.3743
     7.8375   7.8375   8.0258   8.0258   8.3321   8.3321   8.3577   8.3577
     8.9218   8.9218   8.9565   8.9565   9.1054   9.1054   9.1972   9.1972
     9.2734   9.2734   9.3885   9.3885   9.4531   9.4531   9.5254   9.5254
     9.5945   9.5945   9.6599   9.6599   9.6926   9.6926   9.7268   9.7268
     9.7376   9.7376   9.7643   9.7643   9.8747   9.8747   9.9628   9.9628
    10.0117  10.0117  10.0639  10.0639  10.1093  10.1093  10.1646  10.1646
    10.1836  10.1836  10.2145  10.2145  10.2168  10.2168  10.3096  10.3096
    10.3159  10.3159  10.3504  10.3504  10.3550  10.3550  10.4212  10.4212
    10.4487  10.4487  10.4564  10.4564  10.5257  10.5257  10.5743  10.5743
    10.6450  10.6450  10.6955  10.6955  10.7149  10.7149  10.7312  10.7312
    10.7925  10.7925  10.8798  10.8798  10.9131  10.9131  10.9554  10.9554
    10.9697  10.9697  11.0767  11.0767  11.0843  11.0843  11.1407  11.1407
    11.1578  11.1578  11.2210  11.2210  11.2839  11.2839  11.2965  11.2965
    11.3196  11.3196  11.3725  11.3725  11.4543  11.4543  11.4637  11.4637
    11.5388  11.5388  11.5790  11.5790  11.6047  11.6047  11.6333  11.6333
    11.6992  11.6992  11.7138  11.7138  11.7281  11.7281  11.7854  11.7854
    11.7893  11.7893  11.8486  11.8486  11.8907  11.8907  11.9453  11.9453
    11.9511  11.9511  12.0285  12.0285  12.0391  12.0391  12.0491  12.0491
    12.1001  12.1001  12.1091  12.1091  12.1137  12.1137  12.1432  12.1432
    12.2043  12.2043  12.2325  12.2325  12.2485  12.2485  12.3441  12.3441
    12.3701  12.3701  12.4355  12.4355  12.5123  12.5123  12.6353  12.6353
    12.8953  12.8953  12.9551  12.9551  13.3096  13.3096  13.3200  13.3200
    13.5232  13.5232  13.6222  13.6222  13.7110  13.7110  13.8804  13.8804
    13.9497  13.9497  13.9779  13.9779  14.0546  14.0546  14.2566  14.2566
    14.8601  14.8601  15.2999  15.2999  15.6036  15.6036  15.6451  15.6451
    16.9206  16.9206  17.3555  17.3555  17.4123  17.4123  17.5645  17.5645
    18.3277  18.3277  18.4120  18.4120  18.4922  18.4922  18.6136  18.6136
    18.6554  18.6554  18.8187  18.8187  19.2628  19.2628  19.6901  19.6901
    19.7640  19.7640  19.8025  19.8025  20.3235  20.3235  20.3695  20.3695
    20.6565  20.6565  21.0953  21.0953  21.4471  21.4471  21.7406  21.7406
    21.7679  21.7680

          k = 0.3333 0.5774 0.0000 ( 12828 PWs)   bands (ev):

   -89.9470 -89.9470 -89.9470 -89.9470 -89.9456 -89.9456 -89.9456 -89.9456
   -89.8804 -89.8804 -89.8804 -89.8804 -89.8773 -89.8773 -89.8773 -89.8773
   -89.8723 -89.8723 -89.8722 -89.8722 -89.8721 -89.8721 -89.8721 -89.8721
   -89.8663 -89.8663 -89.8663 -89.8663 -89.8599 -89.8599 -89.8599 -89.8599
   -62.1768 -62.1768 -62.1768 -62.1768 -62.1754 -62.1754 -62.1754 -62.1754
   -62.1214 -62.1214 -62.1214 -62.1214 -62.1199 -62.1199 -62.1199 -62.1199
   -51.9375 -51.9375 -51.9372 -51.9372 -51.9275 -51.9275 -51.9271 -51.9271
   -51.8740 -51.8740 -51.8739 -51.8739 -51.8730 -51.8730 -51.8654 -51.8654
   -51.8433 -51.8433 -51.8432 -51.8432 -51.8411 -51.8411 -51.8370 -51.8370
   -51.8314 -51.8314 -51.8275 -51.8275 -51.8232 -51.8232 -51.8226 -51.8226
   -49.8157 -49.8157 -49.8154 -49.8154 -49.8061 -49.8061 -49.8026 -49.8026
   -49.7338 -49.7338 -49.7307 -49.7307 -49.7305 -49.7305 -49.7258 -49.7258
   -49.7225 -49.7225 -49.7206 -49.7206 -49.7197 -49.7197 -49.6940 -49.6940
   -49.6816 -49.6816 -49.6795 -49.6795 -49.6747 -49.6747 -49.6506 -49.6506
   -49.6474 -49.6474 -49.6469 -49.6469 -49.6353 -49.6353 -49.6350 -49.6350
   -49.6117 -49.6117 -49.6009 -49.6009 -49.5946 -49.5946 -49.5907 -49.5907
   -49.5836 -49.5836 -49.5810 -49.5810 -49.5796 -49.5796 -49.5720 -49.5720
   -49.5679 -49.5679 -49.5658 -49.5658 -49.5489 -49.5489 -49.5453 -49.5453
   -29.3086 -29.3086 -29.3082 -29.3082 -29.3039 -29.3039 -29.3035 -29.3035
   -29.2535 -29.2535 -29.2534 -29.2534 -29.2484 -29.2484 -29.2484 -29.2484
   -29.0259 -29.0259 -29.0238 -29.0238 -29.0216 -29.0216 -29.0215 -29.0215
   -29.0186 -29.0186 -29.0185 -29.0185 -29.0144 -29.0144 -29.0119 -29.0119
   -28.9682 -28.9682 -28.9681 -28.9681 -28.9642 -28.9642 -28.9641 -28.9641
   -28.9615 -28.9615 -28.9612 -28.9612 -28.9557 -28.9557 -28.9556 -28.9556
     6.9948   6.9948   6.9955   6.9955   7.4215   7.4215   7.5377   7.5377
     7.5432   7.5432   7.7262   7.7262   7.8471   7.8471   7.8519   7.8519
     8.0462   8.0462   8.8783   8.8783   8.8787   8.8787   8.8991   8.8991
     8.9058   8.9058   8.9375   8.9375   8.9939   8.9939   9.6389   9.6389
     9.6423   9.6423   9.6443   9.6443   9.7731   9.7731   9.7873   9.7873
     9.9280   9.9280   9.9588   9.9588  10.0787  10.0787  10.0944  10.0944
    10.1577  10.1577  10.1608  10.1608  10.2094  10.2094  10.2170  10.2170
    10.2268  10.2268  10.2343  10.2343  10.3083  10.3083  10.3657  10.3657
    10.3910  10.3910  10.3920  10.3920  10.4072  10.4072  10.4099  10.4099
    10.4350  10.4350  10.4762  10.4762  10.4889  10.4889  10.5106  10.5106
    10.5278  10.5278  10.5280  10.5280  10.5749  10.5749  10.5772  10.5772
    10.6439  10.6439  10.6494  10.6494  10.6756  10.6756  10.6913  10.6913
    10.7271  10.7271  10.8792  10.8792  10.8923  10.8923  10.9060  10.9060
    11.0256  11.0256  11.1456  11.1456  11.1654  11.1654  11.1673  11.1673
    11.2053  11.2053  11.2274  11.2274  11.3857  11.3857  11.3904  11.3904
    11.4720  11.4720  11.5009  11.5009  11.5192  11.5192  11.5336  11.5336
    11.5847  11.5847  11.5951  11.5951  11.6102  11.6102  11.6996  11.6996
    11.7484  11.7484  11.7743  11.7743  11.7889  11.7889  11.7932  11.7932
    11.8229  11.8229  11.8381  11.8381  11.8405  11.8405  11.8841  11.8841
    11.9022  11.9022  11.9070  11.9070  11.9689  11.9689  12.0259  12.0259
    12.1816  12.1816  12.2023  12.2023  12.2833  12.2833  12.2839  12.2839
    12.3064  12.3064  12.3806  12.3806  12.3913  12.3913  12.4875  12.4875
    12.5448  12.5448  12.6059  12.6059  12.6072  12.6072  12.8209  12.8209
    12.9594  12.9594  12.9698  12.9698  13.0321  13.0321  14.3793  14.3793
    14.4003  14.4003  14.4457  14.4457  14.6424  14.6424  14.6498  14.6498
    15.2214  15.2214  17.0353  17.0353  17.0375  17.0375  17.1950  17.1950
    17.4494  17.4494  17.4499  17.4499  18.0291  18.0291  18.1091  18.1091
    18.1099  18.1099  18.1658  18.1658  18.1742  18.1742  18.4217  18.4217
    18.6550  18.6550  19.0263  19.0263  19.1195  19.1195  19.1342  19.1342
    19.9088  19.9088  19.9117  19.9117  20.2073  20.2073  20.2219  20.2219
    20.3247  20.3247  20.9661  20.9661  22.3135  22.3135  22.3224  22.3224
    22.5283  22.5283

     the Fermi energy is    12.6778 ev

!    total energy              =   -7950.09197168 Ry
     total all-electron energy =    -51823.944055 Ry
     estimated scf accuracy    <          2.8E-10 Ry
     smearing contrib. (-TS)   =       0.10950132 Ry
     internal energy E=F+TS    =   -7950.20147300 Ry

     The total energy is F=E-TS. E is the sum of the following terms:
     one-electron contribution =   -4524.22081090 Ry
     hartree contribution      =    2413.31684965 Ry
     xc contribution           =    -681.59830025 Ry
     ewald contribution        =   -3619.54255885 Ry
     one-center paw contrib.   =   -1538.15665266 Ry

     convergence has been achieved in  21 iterations

     Forces acting on atoms (cartesian axes, Ry/au):

     atom    1 type  1   force =     0.00000000    0.00000000    0.00320559
     atom    2 type  1   force =     0.00000000    0.00000000    0.00320559
     atom    3 type  1   force =    -0.00000000   -0.00000000   -0.00320559
     atom    4 type  1   force =     0.00000000   -0.00000000   -0.00320559
     atom    5 type  1   force =     0.00000000    0.00000000    0.00070031
     atom    6 type  1   force =     0.00000000    0.00000000    0.00070031
     atom    7 type  1   force =     0.00000000    0.00000000   -0.00070031
     atom    8 type  1   force =     0.00000000    0.00000000   -0.00070031
     atom    9 type  2   force =    -0.00000000   -0.00000000    0.00113334
     atom   10 type  2   force =     0.00000000    0.00000000    0.00113334
     atom   11 type  2   force =     0.00000000    0.00000000   -0.00113334
     atom   12 type  2   force =     0.00000000   -0.00000000   -0.00113334
     atom   13 type  2   force =     0.00000000   -0.00122463    0.00000000
     atom   14 type  2   force =     0.00106056   -0.00061231   -0.00000000
     atom   15 type  2   force =     0.00000000    0.00122463    0.00000000
     atom   16 type  2   force =    -0.00106056    0.00061231   -0.00000000
     atom   17 type  2   force =     0.00106056    0.00061231    0.00000000
     atom   18 type  2   force =    -0.00106056   -0.00061231   -0.00000000
     atom   19 type  2   force =     0.00000000    0.00000000    0.00000000
     atom   20 type  2   force =     0.00000000    0.00000000    0.00000000
     atom   21 type  2   force =    -0.00000000   -0.00000000    0.00000000
     atom   22 type  2   force =    -0.00000000   -0.00000000    0.00000000
     atom   23 type  2   force =    -0.00000000   -0.00000000   -0.00000000
     atom   24 type  2   force =     0.00000000    0.00000000   -0.00000000
     The non-local contrib.  to forces
     atom    1 type  1   force =     0.00000000    0.00000000    0.02300158
     atom    2 type  1   force =     0.00000000    0.00000000    0.02300158
     atom    3 type  1   force =    -0.00000000   -0.00000000   -0.02300158
     atom    4 type  1   force =    -0.00000000   -0.00000000   -0.02300158
     atom    5 type  1   force =    -0.00000000   -0.00000000   -0.00136193
     atom    6 type  1   force =     0.00000000    0.00000000   -0.00136193
     atom    7 type  1   force =    -0.00000000   -0.00000000    0.00136193
     atom    8 type  1   force =     0.00000000    0.00000000    0.00136193
     atom    9 type  2   force =    -0.00000000   -0.00000000   -0.00495052
     atom   10 type  2   force =    -0.00000000   -0.00000000   -0.00495052
     atom   11 type  2   force =     0.00000000    0.00000000    0.00495052
     atom   12 type  2   force =     0.00000000    0.00000000    0.00495052
     atom   13 type  2   force =     0.00000000   -0.08546887    0.00000000
     atom   14 type  2   force =     0.07401822   -0.04273443    0.00000000
     atom   15 type  2   force =     0.00000000    0.08546887    0.00000000
     atom   16 type  2   force =    -0.07401822    0.04273443    0.00000000
     atom   17 type  2   force =     0.07401822    0.04273443    0.00000000
     atom   18 type  2   force =    -0.07401822   -0.04273443    0.00000000
     atom   19 type  2   force =    -0.00000000    0.00000000    0.00000000
     atom   20 type  2   force =    -0.00000000   -0.00000000    0.00000000
     atom   21 type  2   force =    -0.00000000   -0.00000000    0.00000000
     atom   22 type  2   force =     0.00000000    0.00000000    0.00000000
     atom   23 type  2   force =     0.00000000    0.00000000   -0.00000000
     atom   24 type  2   force =     0.00000000    0.00000000   -0.00000000
     The ionic contribution  to forces
     atom    1 type  1   force =    -0.00001528    0.00001068   -0.47842159
     atom    2 type  1   force =     0.00001528   -0.00001068   -0.47842159
     atom    3 type  1   force =     0.00001528   -0.00001068    0.47842159
     atom    4 type  1   force =    -0.00001528    0.00001068    0.47842159
     atom    5 type  1   force =     0.00005454   -0.00002944    0.17178438
     atom    6 type  1   force =    -0.00005454    0.00002944    0.17178438
     atom    7 type  1   force =    -0.00005454    0.00002944   -0.17178438
     atom    8 type  1   force =     0.00005454   -0.00002944   -0.17178438
     atom    9 type  2   force =     0.00005759   -0.00003312    0.14253932
     atom   10 type  2   force =    -0.00005759    0.00003312    0.14253932
     atom   11 type  2   force =    -0.00005759    0.00003312   -0.14253932
     atom   12 type  2   force =     0.00005759   -0.00003312   -0.14253932
     atom   13 type  2   force =     0.00007094  -14.12257067    0.00000000
     atom   14 type  2   force =    12.23058762   -7.06133497   -0.00000000
     atom   15 type  2   force =    -0.00007094   14.12257067    0.00000000
     atom   16 type  2   force =   -12.23058762    7.06133497    0.00000000
     atom   17 type  2   force =    12.23053988    7.06122550    0.00000000
     atom   18 type  2   force =   -12.23053988   -7.06122550    0.00000000
     atom   19 type  2   force =    -0.00000000    0.00000000    0.00000000
     atom   20 type  2   force =    -0.00000000    0.00000000    0.00000000
     atom   21 type  2   force =     0.00000000   -0.00000000    0.00000000
     atom   22 type  2   force =     0.00000000   -0.00000000    0.00000000
     atom   23 type  2   force =     0.00000000   -0.00000000    0.00000000
     atom   24 type  2   force =     0.00000000   -0.00000000    0.00000000
     The local contribution  to forces
     atom    1 type  1   force =     0.00000000   -0.00000173    0.45872247
     atom    2 type  1   force =     0.00000000    0.00000173    0.45872247
     atom    3 type  1   force =     0.00000000    0.00000173   -0.45872247
     atom    4 type  1   force =     0.00000000   -0.00000173   -0.45872247
     atom    5 type  1   force =     0.00146959   -0.00085036   -0.16971391
     atom    6 type  1   force =    -0.00146959    0.00085036   -0.16971391
     atom    7 type  1   force =    -0.00146959    0.00085036    0.16971391
     atom    8 type  1   force =     0.00146959   -0.00085036    0.16971391
     atom    9 type  2   force =     0.00195080   -0.00112640   -0.13443805
     atom   10 type  2   force =    -0.00195080    0.00112640   -0.13443805
     atom   11 type  2   force =    -0.00195080    0.00112640    0.13443805
     atom   12 type  2   force =     0.00195080   -0.00112640    0.13443805
     atom   13 type  2   force =    -0.00194921   14.20705703    0.00000000
     atom   14 type  2   force =   -12.30097779    7.10197382   -0.00000000
     atom   15 type  2   force =     0.00194921  -14.20705703   -0.00000000
     atom   16 type  2   force =    12.30097779   -7.10197382    0.00000000
     atom   17 type  2   force =   -12.30464764   -7.10184185    0.00000000
     atom   18 type  2   force =    12.30464764    7.10184185   -0.00000000
     atom   19 type  2   force =     0.00000000    0.00000000    0.00000000
     atom   20 type  2   force =     0.00000000    0.00000000    0.00000000
     atom   21 type  2   force =    -0.00000000    0.00000000    0.00000000
     atom   22 type  2   force =     0.00000000    0.00000000    0.00000000
     atom   23 type  2   force =    -0.00000000   -0.00000000    0.00000000
     atom   24 type  2   force =    -0.00000000    0.00000000    0.00000000
     The core correction contribution to forces
     atom    1 type  1   force =    -0.00000000    0.00000000   -0.00010668
     atom    2 type  1   force =     0.00000000   -0.00000000   -0.00010668
     atom    3 type  1   force =     0.00000000   -0.00000000    0.00010668
     atom    4 type  1   force =    -0.00000000    0.00000000    0.00010668
     atom    5 type  1   force =     0.00000319   -0.00000184   -0.00000136
     atom    6 type  1   force =    -0.00000319    0.00000184   -0.00000136
     atom    7 type  1   force =    -0.00000319    0.00000184    0.00000136
     atom    8 type  1   force =     0.00000319   -0.00000184    0.00000136
     atom    9 type  2   force =     0.00000120   -0.00000069   -0.00202700
     atom   10 type  2   force =    -0.00000120    0.00000069   -0.00202700
     atom   11 type  2   force =    -0.00000120    0.00000069    0.00202700
     atom   12 type  2   force =     0.00000120   -0.00000069    0.00202700
     atom   13 type  2   force =    -0.00000119    0.00079975    0.00000000
     atom   14 type  2   force =    -0.00069075    0.00039881   -0.00000000
     atom   15 type  2   force =     0.00000119   -0.00079975   -0.00000000
     atom   16 type  2   force =     0.00069075   -0.00039881    0.00000000
     atom   17 type  2   force =    -0.00069320   -0.00039885    0.00000000
     atom   18 type  2   force =     0.00069320    0.00039885   -0.00000000
     atom   19 type  2   force =     0.00000000    0.00000000    0.00000000
     atom   20 type  2   force =     0.00000000    0.00000000    0.00000000
     atom   21 type  2   force =    -0.00000000    0.00000000    0.00000000
     atom   22 type  2   force =     0.00000000    0.00000000    0.00000000
     atom   23 type  2   force =     0.00000000    0.00000000    0.00000000
     atom   24 type  2   force =    -0.00000000    0.00000000    0.00000000
     The Hubbard contrib.    to forces
     atom    1 type  1   force =     0.00000000    0.00000000    0.00000000
     atom    2 type  1   force =     0.00000000    0.00000000    0.00000000
     atom    3 type  1   force =     0.00000000    0.00000000    0.00000000
     atom    4 type  1   force =     0.00000000    0.00000000    0.00000000
     atom    5 type  1   force =     0.00000000    0.00000000    0.00000000
     atom    6 type  1   force =     0.00000000    0.00000000    0.00000000
     atom    7 type  1   force =     0.00000000    0.00000000    0.00000000
     atom    8 type  1   force =     0.00000000    0.00000000    0.00000000
     atom    9 type  2   force =     0.00000000    0.00000000    0.00000000
     atom   10 type  2   force =     0.00000000    0.00000000    0.00000000
     atom   11 type  2   force =     0.00000000    0.00000000    0.00000000
     atom   12 type  2   force =     0.00000000    0.00000000    0.00000000
     atom   13 type  2   force =     0.00000000    0.00000000    0.00000000
     atom   14 type  2   force =     0.00000000    0.00000000    0.00000000
     atom   15 type  2   force =     0.00000000    0.00000000    0.00000000
     atom   16 type  2   force =     0.00000000    0.00000000    0.00000000
     atom   17 type  2   force =     0.00000000    0.00000000    0.00000000
     atom   18 type  2   force =     0.00000000    0.00000000    0.00000000
     atom   19 type  2   force =     0.00000000    0.00000000    0.00000000
     atom   20 type  2   force =     0.00000000    0.00000000    0.00000000
     atom   21 type  2   force =     0.00000000    0.00000000    0.00000000
     atom   22 type  2   force =     0.00000000    0.00000000    0.00000000
     atom   23 type  2   force =     0.00000000    0.00000000    0.00000000
     atom   24 type  2   force =     0.00000000    0.00000000    0.00000000
     The SCF correction term to forces
     atom    1 type  1   force =     0.00000002   -0.00000001    0.00000980
     atom    2 type  1   force =    -0.00000002    0.00000001    0.00000980
     atom    3 type  1   force =    -0.00000002    0.00000001   -0.00000980
     atom    4 type  1   force =     0.00000002   -0.00000001   -0.00000980
     atom    5 type  1   force =    -0.00000000   -0.00000000   -0.00000687
     atom    6 type  1   force =     0.00000000    0.00000000   -0.00000687
     atom    7 type  1   force =     0.00000000    0.00000000    0.00000687
     atom    8 type  1   force =    -0.00000000   -0.00000000    0.00000687
     atom    9 type  2   force =    -0.00000009    0.00000005    0.00000958
     atom   10 type  2   force =     0.00000009   -0.00000005    0.00000958
     atom   11 type  2   force =     0.00000009   -0.00000005   -0.00000958
     atom   12 type  2   force =    -0.00000009    0.00000005   -0.00000958
     atom   13 type  2   force =     0.00000001    0.00002759    0.00000000
     atom   14 type  2   force =    -0.00002389    0.00001380    0.00000000
     atom   15 type  2   force =    -0.00000001   -0.00002759   -0.00000000
     atom   16 type  2   force =     0.00002389   -0.00001380   -0.00000000
     atom   17 type  2   force =    -0.00002389   -0.00001381   -0.00000000
     atom   18 type  2   force =     0.00002389    0.00001381    0.00000000
     atom   19 type  2   force =     0.00000000   -0.00000000   -0.00000000
     atom   20 type  2   force =     0.00000000   -0.00000000   -0.00000000
     atom   21 type  2   force =    -0.00000000    0.00000000   -0.00000000
     atom   22 type  2   force =    -0.00000000   -0.00000000   -0.00000000
     atom   23 type  2   force =    -0.00000000    0.00000000   -0.00000000
     atom   24 type  2   force =     0.00000000   -0.00000000   -0.00000000

     Total force =     0.007563     Total SCF correction =     0.000074
     Energy error            =      2.9E-04 Ry
     Gradient error          =      3.2E-03 Ry/Bohr

     number of scf cycles    =   3
     number of bfgs steps    =   2

     energy             old  =   -7950.0916810968 Ry
     energy             new  =   -7950.0919716841 Ry

     CASE: energy            _new < energy            _old

     new trust radius        =       0.0097173808 bohr
     new conv_thr            =       0.0000000005 Ry


ATOMIC_POSITIONS (crystal)
Mg            0.0000000000        0.0000000000        0.4067285904
Mg           -0.0000000000        0.0000000000        0.9067285904
Mg            0.0000000000       -0.0000000000        0.5932714096
Mg           -0.0000000000       -0.0000000000        0.0932714096
Mg            0.3333330000        0.6666670000        0.6559660566
Mg            0.6666670000        0.3333330000        0.1559660566
Mg            0.6666670000        0.3333330000        0.3440339434
Mg            0.3333330000        0.6666670000        0.8440339434
Ni            0.3333330000        0.6666670000        0.3753977983
Ni            0.6666670000        0.3333330000        0.8753977983
Ni            0.6666670000        0.3333330000        0.6246022017
Ni            0.3333330000        0.6666670000        0.1246022017
Ni            0.1653448240        0.3306886479        0.2500000000
Ni            0.8346551765        0.1653448240        0.7500000000
Ni            0.8346551760        0.6693113521        0.7500000000
Ni            0.1653448235        0.8346551760        0.2500000000
Ni            0.6693113525        0.8346551760        0.2500000000
Ni            0.3306886475        0.1653448240        0.7500000000
Ni            0.5000000000       -0.0000000000        0.5000000000
Ni            0.5000000000        0.5000000000        0.0000000000
Ni            0.5000000000       -0.0000000000        0.0000000000
Ni            0.5000000000        0.5000000000        0.5000000000
Ni            0.0000000000        0.5000000000       -0.0000000000
Ni            0.0000000000        0.5000000000        0.5000000000



     Writing config-only to output data dir ./ACOptimization/out/iso.save/
     NEW-OLD atomic charge density approx. for the potential

     Check: negative core charge=   -0.000016

     total cpu time spent up to now is     1571.6 secs

     Self-consistent Calculation

     iteration #  1     ecut=    50.00 Ry     beta= 0.10
     Davidson diagonalization with overlap
     ethr =  1.00E-06,  avg # of iterations =  6.0

     total cpu time spent up to now is     1611.8 secs

     total energy              =   -7950.09430747 Ry
     estimated scf accuracy    <       0.00062022 Ry

     iteration #  2     ecut=    50.00 Ry     beta= 0.10
     Davidson diagonalization with overlap
     ethr =  1.69E-07,  avg # of iterations =  2.0

     total cpu time spent up to now is     1632.2 secs

     total energy              =   -7950.09257849 Ry
     estimated scf accuracy    <       0.00047053 Ry

     iteration #  3     ecut=    50.00 Ry     beta= 0.10
     Davidson diagonalization with overlap
     ethr =  1.28E-07,  avg # of iterations =  4.0

     total cpu time spent up to now is     1654.9 secs

     total energy              =   -7950.09228958 Ry
     estimated scf accuracy    <       0.00006026 Ry

     iteration #  4     ecut=    50.00 Ry     beta= 0.10
     Davidson diagonalization with overlap
     ethr =  1.64E-08,  avg # of iterations =  4.3

     total cpu time spent up to now is     1680.2 secs

     total energy              =   -7950.09231103 Ry
     estimated scf accuracy    <       0.00002356 Ry

     iteration #  5     ecut=    50.00 Ry     beta= 0.10
     Davidson diagonalization with overlap
     ethr =  6.40E-09,  avg # of iterations =  2.0

     total cpu time spent up to now is     1700.6 secs

     total energy              =   -7950.09226206 Ry
     estimated scf accuracy    <       0.00002369 Ry

     iteration #  6     ecut=    50.00 Ry     beta= 0.10
     Davidson diagonalization with overlap
     ethr =  6.40E-09,  avg # of iterations =  1.0

     total cpu time spent up to now is     1718.7 secs

     total energy              =   -7950.09210434 Ry
     estimated scf accuracy    <       0.00002616 Ry

     iteration #  7     ecut=    50.00 Ry     beta= 0.10
     Davidson diagonalization with overlap
     ethr =  6.40E-09,  avg # of iterations =  4.0

     total cpu time spent up to now is     1745.2 secs

     total energy              =   -7950.09216828 Ry
     estimated scf accuracy    <       0.00011021 Ry

     iteration #  8     ecut=    50.00 Ry     beta= 0.10
     Davidson diagonalization with overlap
     ethr =  6.40E-09,  avg # of iterations =  2.0

     total cpu time spent up to now is     1767.3 secs

     total energy              =   -7950.09209829 Ry
     estimated scf accuracy    <       0.00008811 Ry

     iteration #  9     ecut=    50.00 Ry     beta= 0.10
     Davidson diagonalization with overlap
     ethr =  6.40E-09,  avg # of iterations =  2.0

     total cpu time spent up to now is     1789.8 secs

     total energy              =   -7950.09209719 Ry
     estimated scf accuracy    <       0.00007800 Ry

     iteration # 10     ecut=    50.00 Ry     beta= 0.10
     Davidson diagonalization with overlap
     ethr =  6.40E-09,  avg # of iterations =  2.0

     total cpu time spent up to now is     1811.6 secs

     total energy              =   -7950.09209293 Ry
     estimated scf accuracy    <       0.00002635 Ry

     iteration # 11     ecut=    50.00 Ry     beta= 0.10
     Davidson diagonalization with overlap
     ethr =  6.40E-09,  avg # of iterations =  2.0

     total cpu time spent up to now is     1832.1 secs

     total energy              =   -7950.09208536 Ry
     estimated scf accuracy    <       0.00000206 Ry

     iteration # 12     ecut=    50.00 Ry     beta= 0.10
     Davidson diagonalization with overlap
     ethr =  5.60E-10,  avg # of iterations =  2.0

     total cpu time spent up to now is     1856.6 secs

     total energy              =   -7950.09208430 Ry
     estimated scf accuracy    <       0.00000059 Ry

     iteration # 13     ecut=    50.00 Ry     beta= 0.10
     Davidson diagonalization with overlap
     ethr =  1.60E-10,  avg # of iterations =  4.7

     total cpu time spent up to now is     1884.4 secs

     total energy              =   -7950.09208413 Ry
     estimated scf accuracy    <       0.00000792 Ry

     iteration # 14     ecut=    50.00 Ry     beta= 0.10
     Davidson diagonalization with overlap
     ethr =  1.60E-10,  avg # of iterations =  2.0

     total cpu time spent up to now is     1906.6 secs

     total energy              =   -7950.09208359 Ry
     estimated scf accuracy    <       0.00000282 Ry

     iteration # 15     ecut=    50.00 Ry     beta= 0.10
     Davidson diagonalization with overlap
     ethr =  1.60E-10,  avg # of iterations =  2.0

     total cpu time spent up to now is     1929.3 secs

     total energy              =   -7950.09208337 Ry
     estimated scf accuracy    <       0.00000260 Ry

     iteration # 16     ecut=    50.00 Ry     beta= 0.10
     Davidson diagonalization with overlap
     ethr =  1.60E-10,  avg # of iterations =  2.0

     total cpu time spent up to now is     1952.0 secs

     total energy              =   -7950.09208336 Ry
     estimated scf accuracy    <       0.00000216 Ry

     iteration # 17     ecut=    50.00 Ry     beta= 0.10
     Davidson diagonalization with overlap
     ethr =  1.60E-10,  avg # of iterations =  1.0

     total cpu time spent up to now is     1970.2 secs

     total energy              =   -7950.09208335 Ry
     estimated scf accuracy    <       0.00000082 Ry

     iteration # 18     ecut=    50.00 Ry     beta= 0.10
     Davidson diagonalization with overlap
     ethr =  1.60E-10,  avg # of iterations =  1.0

     total cpu time spent up to now is     1988.4 secs

     total energy              =   -7950.09208334 Ry
     estimated scf accuracy    <       0.00000061 Ry

     iteration # 19     ecut=    50.00 Ry     beta= 0.10
     Davidson diagonalization with overlap
     ethr =  1.60E-10,  avg # of iterations =  1.0

     total cpu time spent up to now is     2006.7 secs

     total energy              =   -7950.09208333 Ry
     estimated scf accuracy    <       0.00000051 Ry

     iteration # 20     ecut=    50.00 Ry     beta= 0.10
     Davidson diagonalization with overlap
     ethr =  1.39E-10,  avg # of iterations =  1.0

     total cpu time spent up to now is     2024.9 secs

     total energy              =   -7950.09208334 Ry
     estimated scf accuracy    <       0.00000039 Ry

     iteration # 21     ecut=    50.00 Ry     beta= 0.10
     Davidson diagonalization with overlap
     ethr =  1.05E-10,  avg # of iterations =  1.0

     total cpu time spent up to now is     2043.2 secs

     total energy              =   -7950.09208333 Ry
     estimated scf accuracy    <       0.00000039 Ry

     iteration # 22     ecut=    50.00 Ry     beta= 0.10
     Davidson diagonalization with overlap
     ethr =  1.05E-10,  avg # of iterations =  1.0

     total cpu time spent up to now is     2061.4 secs

     total energy              =   -7950.09208330 Ry
     estimated scf accuracy    <       0.00000029 Ry

     iteration # 23     ecut=    50.00 Ry     beta= 0.10
     Davidson diagonalization with overlap
     ethr =  7.94E-11,  avg # of iterations =  1.0

     total cpu time spent up to now is     2079.7 secs

     total energy              =   -7950.09208331 Ry
     estimated scf accuracy    <       0.00000006 Ry

     iteration # 24     ecut=    50.00 Ry     beta= 0.10
     Davidson diagonalization with overlap
     ethr =  1.63E-11,  avg # of iterations =  1.0

     total cpu time spent up to now is     2098.0 secs

     total energy              =   -7950.09208331 Ry
     estimated scf accuracy    <       0.00000005 Ry

     iteration # 25     ecut=    50.00 Ry     beta= 0.10
     Davidson diagonalization with overlap
     ethr =  1.41E-11,  avg # of iterations =  1.0

     total cpu time spent up to now is     2116.2 secs

     total energy              =   -7950.09208331 Ry
     estimated scf accuracy    <       0.00000005 Ry

     iteration # 26     ecut=    50.00 Ry     beta= 0.10
     Davidson diagonalization with overlap
     ethr =  1.41E-11,  avg # of iterations =  1.0

     total cpu time spent up to now is     2134.5 secs

     total energy              =   -7950.09208331 Ry
     estimated scf accuracy    <          3.3E-09 Ry

     iteration # 27     ecut=    50.00 Ry     beta= 0.10
     Davidson diagonalization with overlap
     ethr =  8.98E-13,  avg # of iterations =  2.0

     total cpu time spent up to now is     2155.5 secs

     total energy              =   -7950.09208331 Ry
     estimated scf accuracy    <          3.0E-09 Ry

     iteration # 28     ecut=    50.00 Ry     beta= 0.10
     Davidson diagonalization with overlap
     ethr =  8.14E-13,  avg # of iterations =  1.0

     total cpu time spent up to now is     2173.8 secs

     total energy              =   -7950.09208331 Ry
     estimated scf accuracy    <          3.7E-09 Ry

     iteration # 29     ecut=    50.00 Ry     beta= 0.10
     Davidson diagonalization with overlap
     ethr =  8.14E-13,  avg # of iterations =  1.0

     total cpu time spent up to now is     2192.0 secs

     total energy              =   -7950.09208331 Ry
     estimated scf accuracy    <          3.8E-09 Ry

     iteration # 30     ecut=    50.00 Ry     beta= 0.10
     Davidson diagonalization with overlap
     ethr =  8.14E-13,  avg # of iterations =  1.0

     total cpu time spent up to now is     2210.3 secs

     total energy              =   -7950.09208332 Ry
     estimated scf accuracy    <          3.4E-09 Ry

     iteration # 31     ecut=    50.00 Ry     beta= 0.10
     Davidson diagonalization with overlap
     ethr =  8.14E-13,  avg # of iterations =  1.0

     total cpu time spent up to now is     2228.5 secs

     total energy              =   -7950.09208332 Ry
     estimated scf accuracy    <          3.7E-09 Ry

     iteration # 32     ecut=    50.00 Ry     beta= 0.10
     Davidson diagonalization with overlap
     ethr =  8.14E-13,  avg # of iterations =  1.0

     total cpu time spent up to now is     2246.7 secs

     total energy              =   -7950.09208332 Ry
     estimated scf accuracy    <          4.2E-09 Ry

     iteration # 33     ecut=    50.00 Ry     beta= 0.10
     Davidson diagonalization with overlap
     ethr =  8.14E-13,  avg # of iterations =  1.0

     total cpu time spent up to now is     2264.9 secs

     total energy              =   -7950.09208332 Ry
     estimated scf accuracy    <          4.5E-09 Ry

     iteration # 34     ecut=    50.00 Ry     beta= 0.10
     Davidson diagonalization with overlap
     ethr =  8.14E-13,  avg # of iterations =  1.0

     total cpu time spent up to now is     2283.2 secs

     total energy              =   -7950.09208332 Ry
     estimated scf accuracy    <          4.6E-09 Ry

     iteration # 35     ecut=    50.00 Ry     beta= 0.10
     Davidson diagonalization with overlap
     ethr =  8.14E-13,  avg # of iterations =  1.0

     total cpu time spent up to now is     2301.4 secs

     total energy              =   -7950.09208332 Ry
     estimated scf accuracy    <          4.5E-09 Ry

     iteration # 36     ecut=    50.00 Ry     beta= 0.10
     Davidson diagonalization with overlap
     ethr =  8.14E-13,  avg # of iterations =  1.0

     total cpu time spent up to now is     2319.6 secs

     total energy              =   -7950.09208332 Ry
     estimated scf accuracy    <          4.6E-09 Ry

     iteration # 37     ecut=    50.00 Ry     beta= 0.10
     Davidson diagonalization with overlap
     ethr =  8.14E-13,  avg # of iterations =  1.0

     total cpu time spent up to now is     2337.9 secs

     total energy              =   -7950.09208332 Ry
     estimated scf accuracy    <          4.6E-09 Ry

     iteration # 38     ecut=    50.00 Ry     beta= 0.10
     Davidson diagonalization with overlap
     ethr =  8.14E-13,  avg # of iterations =  1.0

     total cpu time spent up to now is     2356.1 secs

     total energy              =   -7950.09208332 Ry
     estimated scf accuracy    <          4.2E-09 Ry

     iteration # 39     ecut=    50.00 Ry     beta= 0.10
     Davidson diagonalization with overlap
     ethr =  8.14E-13,  avg # of iterations =  1.0

     total cpu time spent up to now is     2374.4 secs

     total energy              =   -7950.09208332 Ry
     estimated scf accuracy    <          3.7E-09 Ry

     iteration # 40     ecut=    50.00 Ry     beta= 0.10
     Davidson diagonalization with overlap
     ethr =  8.14E-13,  avg # of iterations =  1.0

     total cpu time spent up to now is     2392.6 secs

     total energy              =   -7950.09208332 Ry
     estimated scf accuracy    <          3.7E-09 Ry

     iteration # 41     ecut=    50.00 Ry     beta= 0.10
     Davidson diagonalization with overlap
     ethr =  8.14E-13,  avg # of iterations =  1.0

     total cpu time spent up to now is     2410.9 secs

     total energy              =   -7950.09208332 Ry
     estimated scf accuracy    <          4.6E-09 Ry

     iteration # 42     ecut=    50.00 Ry     beta= 0.10
     Davidson diagonalization with overlap
     ethr =  8.14E-13,  avg # of iterations =  2.0

     total cpu time spent up to now is     2434.0 secs

     End of self-consistent calculation

          k = 0.0000 0.0000 0.0000 ( 12841 PWs)   bands (ev):

   -89.9463 -89.9463 -89.9447 -89.9447 -89.9444 -89.9444 -89.9427 -89.9427
   -89.8903 -89.8903 -89.8894 -89.8894 -89.8869 -89.8869 -89.8860 -89.8860
   -89.8648 -89.8648 -89.8648 -89.8648 -89.8647 -89.8647 -89.8647 -89.8647
   -89.8627 -89.8627 -89.8627 -89.8627 -89.8626 -89.8626 -89.8626 -89.8626
   -62.1765 -62.1765 -62.1764 -62.1764 -62.1751 -62.1751 -62.1751 -62.1751
   -62.1211 -62.1211 -62.1210 -62.1210 -62.1195 -62.1195 -62.1195 -62.1195
   -51.9297 -51.9297 -51.9295 -51.9295 -51.9265 -51.9265 -51.9175 -51.9175
   -51.8821 -51.8821 -51.8818 -51.8818 -51.8788 -51.8788 -51.8720 -51.8720
   -51.8718 -51.8718 -51.8706 -51.8706 -51.8676 -51.8676 -51.8614 -51.8614
   -51.8017 -51.8017 -51.7991 -51.7991 -51.7969 -51.7969 -51.7947 -51.7947
   -49.8176 -49.8176 -49.8165 -49.8165 -49.7994 -49.7994 -49.7972 -49.7972
   -49.7852 -49.7852 -49.7745 -49.7745 -49.7576 -49.7576 -49.7574 -49.7574
   -49.7070 -49.7070 -49.7031 -49.7031 -49.6991 -49.6991 -49.6928 -49.6928
   -49.6915 -49.6915 -49.6862 -49.6862 -49.6825 -49.6825 -49.6574 -49.6574
   -49.6528 -49.6528 -49.6228 -49.6228 -49.6171 -49.6171 -49.6091 -49.6091
   -49.6075 -49.6075 -49.6004 -49.6004 -49.5966 -49.5966 -49.5935 -49.5935
   -49.5764 -49.5764 -49.5749 -49.5749 -49.5610 -49.5610 -49.5528 -49.5528
   -49.5465 -49.5465 -49.5462 -49.5462 -49.5355 -49.5355 -49.5350 -49.5350
   -29.3087 -29.3087 -29.3087 -29.3087 -29.3041 -29.3041 -29.3038 -29.3038
   -29.2518 -29.2518 -29.2516 -29.2516 -29.2463 -29.2463 -29.2463 -29.2463
   -29.0240 -29.0240 -29.0239 -29.0239 -29.0220 -29.0220 -29.0219 -29.0219
   -29.0203 -29.0203 -29.0200 -29.0200 -29.0122 -29.0122 -29.0117 -29.0117
   -28.9691 -28.9691 -28.9689 -28.9689 -28.9618 -28.9618 -28.9617 -28.9617
   -28.9599 -28.9599 -28.9597 -28.9597 -28.9560 -28.9560 -28.9558 -28.9558
     4.4181   4.4181   5.0354   5.0354   5.0355   5.0355   6.4730   6.4730
     7.1223   7.1223   8.4593   8.4593   8.5018   8.5018   8.5518   8.5518
     9.1001   9.1001   9.1147   9.1147   9.2621   9.2621   9.3071   9.3071
     9.4438   9.4438   9.4571   9.4571   9.4757   9.4757   9.4916   9.4916
     9.5152   9.5152   9.5173   9.5173   9.6351   9.6351   9.6555   9.6555
     9.6943   9.6943   9.7538   9.7538   9.7570   9.7570   9.7644   9.7644
     9.7861   9.7861   9.8465   9.8465   9.9025   9.9025   9.9274   9.9274
     9.9479   9.9479   9.9888   9.9888  10.2788  10.2788  10.2793  10.2793
    10.2883  10.2883  10.3036  10.3036  10.3082  10.3082  10.3575  10.3575
    10.5227  10.5227  10.5808  10.5808  10.6693  10.6693  10.6766  10.6766
    10.7192  10.7192  10.7702  10.7702  10.8083  10.8083  10.8095  10.8095
    10.9617  10.9617  10.9808  10.9808  11.2094  11.2094  11.3840  11.3840
    11.4345  11.4345  11.4437  11.4437  11.4501  11.4501  11.4879  11.4879
    11.6108  11.6108  11.6644  11.6644  11.7541  11.7541  11.7616  11.7616
    11.8824  11.8824  11.8930  11.8930  11.9786  11.9786  11.9834  11.9834
    11.9928  11.9928  11.9951  11.9951  12.0008  12.0008  12.0014  12.0014
    12.0066  12.0066  12.0245  12.0245  12.0401  12.0401  12.0436  12.0436
    12.0607  12.0607  12.0703  12.0703  12.0841  12.0841  12.1130  12.1130
    12.1320  12.1320  12.1579  12.1579  12.1585  12.1585  12.1747  12.1747
    12.1981  12.1981  12.2411  12.2411  12.3154  12.3154  12.5511  12.5511
    12.6037  12.6037  12.8233  12.8233  12.8244  12.8244  13.0519  13.0519
    13.0537  13.0537  13.0599  13.0599  13.0622  13.0622  13.3810  13.3810
    13.5111  13.5111  13.6854  13.6854  13.7404  13.7404  13.7510  13.7510
    13.7658  13.7658  13.7845  13.7845  13.7853  13.7853  13.8814  13.8814
    14.1117  14.1117  14.1408  14.1408  14.1521  14.1521  14.2041  14.2041
    15.5040  15.5040  15.5339  15.5339  15.5453  15.5453  15.5579  15.5579
    15.9844  15.9844  16.0317  16.0317  16.4159  16.4159  16.4373  16.4373
    17.0246  17.0246  17.0855  17.0855  17.1025  17.1025  17.2358  17.2358
    17.3166  17.3166  17.5256  17.5256  17.9655  17.9655  17.9761  17.9761
    18.4223  18.4223  18.4425  18.4425  18.6089  18.6089  19.0280  19.0280
    19.0351  19.0351  19.1448  19.1448  19.3515  19.3515  20.7478  20.7478
    20.8457  20.8457

          k = 0.0000 0.3849 0.0000 ( 12856 PWs)   bands (ev):

   -89.9456 -89.9456 -89.9445 -89.9445 -89.9441 -89.9441 -89.9430 -89.9430
   -89.8850 -89.8850 -89.8845 -89.8845 -89.8819 -89.8819 -89.8814 -89.8814
   -89.8699 -89.8699 -89.8698 -89.8698 -89.8679 -89.8679 -89.8678 -89.8678
   -89.8648 -89.8648 -89.8647 -89.8647 -89.8626 -89.8626 -89.8626 -89.8626
   -62.1764 -62.1764 -62.1764 -62.1764 -62.1751 -62.1751 -62.1750 -62.1750
   -62.1211 -62.1211 -62.1211 -62.1211 -62.1196 -62.1196 -62.1195 -62.1195
   -51.9333 -51.9333 -51.9303 -51.9303 -51.9263 -51.9263 -51.9235 -51.9235
   -51.8785 -51.8785 -51.8775 -51.8775 -51.8767 -51.8767 -51.8733 -51.8733
   -51.8596 -51.8596 -51.8577 -51.8577 -51.8560 -51.8560 -51.8552 -51.8552
   -51.8189 -51.8189 -51.8114 -51.8114 -51.8110 -51.8110 -51.8042 -51.8042
   -49.8178 -49.8178 -49.8100 -49.8100 -49.8063 -49.8063 -49.7975 -49.7975
   -49.7601 -49.7601 -49.7568 -49.7568 -49.7476 -49.7476 -49.7442 -49.7442
   -49.7076 -49.7076 -49.7044 -49.7044 -49.7017 -49.7017 -49.6978 -49.6978
   -49.6856 -49.6856 -49.6815 -49.6815 -49.6757 -49.6757 -49.6603 -49.6603
   -49.6532 -49.6532 -49.6336 -49.6336 -49.6308 -49.6308 -49.6237 -49.6237
   -49.6057 -49.6057 -49.6022 -49.6022 -49.5932 -49.5932 -49.5900 -49.5900
   -49.5870 -49.5870 -49.5858 -49.5858 -49.5688 -49.5688 -49.5671 -49.5671
   -49.5634 -49.5634 -49.5616 -49.5616 -49.5463 -49.5463 -49.5439 -49.5439
   -29.3083 -29.3083 -29.3082 -29.3082 -29.3035 -29.3035 -29.3034 -29.3034
   -29.2529 -29.2529 -29.2528 -29.2528 -29.2475 -29.2475 -29.2474 -29.2474
   -29.0246 -29.0246 -29.0244 -29.0244 -29.0210 -29.0210 -29.0208 -29.0208
   -29.0191 -29.0191 -29.0190 -29.0190 -29.0124 -29.0124 -29.0123 -29.0123
   -28.9687 -28.9687 -28.9686 -28.9686 -28.9628 -28.9628 -28.9627 -28.9627
   -28.9609 -28.9609 -28.9607 -28.9607 -28.9555 -28.9555 -28.9555 -28.9555
     5.3907   5.3907   5.9749   5.9749   5.9789   5.9789   7.3725   7.3725
     7.8403   7.8403   8.0261   8.0261   8.3368   8.3368   8.3538   8.3538
     8.9226   8.9226   8.9573   8.9573   9.1106   9.1106   9.1986   9.1986
     9.2745   9.2745   9.3929   9.3929   9.4564   9.4564   9.5251   9.5251
     9.5940   9.5940   9.6597   9.6597   9.6896   9.6896   9.7269   9.7269
     9.7378   9.7378   9.7710   9.7710   9.8759   9.8759   9.9603   9.9603
    10.0115  10.0115  10.0659  10.0659  10.1092  10.1092  10.1655  10.1655
    10.1843  10.1843  10.2145  10.2145  10.2209  10.2209  10.3091  10.3091
    10.3167  10.3167  10.3507  10.3507  10.3549  10.3549  10.4227  10.4227
    10.4469  10.4469  10.4547  10.4547  10.5246  10.5246  10.5766  10.5766
    10.6445  10.6445  10.6971  10.6971  10.7156  10.7156  10.7301  10.7301
    10.7914  10.7914  10.8815  10.8815  10.9139  10.9139  10.9530  10.9530
    10.9688  10.9688  11.0754  11.0754  11.0833  11.0833  11.1390  11.1390
    11.1567  11.1567  11.2201  11.2201  11.2830  11.2830  11.2962  11.2962
    11.3218  11.3218  11.3736  11.3736  11.4537  11.4537  11.4619  11.4619
    11.5392  11.5392  11.5776  11.5776  11.6041  11.6041  11.6324  11.6324
    11.6976  11.6976  11.7115  11.7115  11.7286  11.7286  11.7856  11.7856
    11.7891  11.7891  11.8500  11.8500  11.8918  11.8918  11.9459  11.9459
    11.9524  11.9524  12.0260  12.0260  12.0384  12.0384  12.0478  12.0478
    12.0989  12.0989  12.1102  12.1102  12.1136  12.1136  12.1443  12.1443
    12.2028  12.2028  12.2322  12.2322  12.2488  12.2488  12.3445  12.3445
    12.3707  12.3707  12.4357  12.4357  12.5122  12.5122  12.6379  12.6379
    12.8949  12.8949  12.9526  12.9526  13.3112  13.3112  13.3209  13.3209
    13.5216  13.5216  13.6207  13.6207  13.7082  13.7082  13.8801  13.8801
    13.9486  13.9486  13.9796  13.9796  14.0522  14.0522  14.2597  14.2597
    14.8636  14.8636  15.2981  15.2981  15.6010  15.6010  15.6451  15.6451
    16.9221  16.9221  17.3512  17.3512  17.4111  17.4111  17.5608  17.5608
    18.3274  18.3274  18.4134  18.4134  18.4926  18.4926  18.6158  18.6158
    18.6598  18.6598  18.8196  18.8196  19.2645  19.2645  19.6908  19.6908
    19.7684  19.7684  19.7990  19.7990  20.3203  20.3203  20.3636  20.3636
    20.6587  20.6587  21.0937  21.0937  21.4469  21.4469  21.7414  21.7414
    21.7708  21.7709

          k = 0.3333 0.5774 0.0000 ( 12828 PWs)   bands (ev):

   -89.9448 -89.9448 -89.9448 -89.9448 -89.9435 -89.9435 -89.9435 -89.9435
   -89.8793 -89.8793 -89.8793 -89.8793 -89.8762 -89.8762 -89.8761 -89.8761
   -89.8750 -89.8750 -89.8749 -89.8749 -89.8740 -89.8740 -89.8740 -89.8740
   -89.8647 -89.8647 -89.8647 -89.8647 -89.8626 -89.8626 -89.8626 -89.8626
   -62.1764 -62.1764 -62.1764 -62.1764 -62.1750 -62.1750 -62.1750 -62.1750
   -62.1211 -62.1211 -62.1211 -62.1211 -62.1196 -62.1196 -62.1196 -62.1196
   -51.9355 -51.9355 -51.9352 -51.9352 -51.9257 -51.9257 -51.9254 -51.9254
   -51.8757 -51.8757 -51.8726 -51.8726 -51.8722 -51.8722 -51.8680 -51.8680
   -51.8446 -51.8446 -51.8441 -51.8441 -51.8385 -51.8385 -51.8345 -51.8345
   -51.8337 -51.8337 -51.8298 -51.8298 -51.8238 -51.8238 -51.8238 -51.8238
   -49.8142 -49.8142 -49.8138 -49.8138 -49.8053 -49.8053 -49.8010 -49.8010
   -49.7347 -49.7347 -49.7315 -49.7315 -49.7300 -49.7300 -49.7265 -49.7265
   -49.7233 -49.7233 -49.7214 -49.7214 -49.7196 -49.7196 -49.6910 -49.6910
   -49.6807 -49.6807 -49.6789 -49.6789 -49.6757 -49.6757 -49.6488 -49.6488
   -49.6475 -49.6475 -49.6448 -49.6448 -49.6350 -49.6350 -49.6347 -49.6347
   -49.6101 -49.6101 -49.5994 -49.5994 -49.5936 -49.5936 -49.5917 -49.5917
   -49.5859 -49.5859 -49.5800 -49.5800 -49.5790 -49.5790 -49.5705 -49.5705
   -49.5705 -49.5705 -49.5683 -49.5683 -49.5515 -49.5515 -49.5479 -49.5479
   -29.3081 -29.3081 -29.3078 -29.3078 -29.3034 -29.3034 -29.3030 -29.3030
   -29.2533 -29.2533 -29.2532 -29.2532 -29.2481 -29.2481 -29.2480 -29.2480
   -29.0255 -29.0255 -29.0234 -29.0234 -29.0210 -29.0210 -29.0210 -29.0210
   -29.0180 -29.0180 -29.0179 -29.0179 -29.0139 -29.0139 -29.0115 -29.0115
   -28.9684 -28.9684 -28.9683 -28.9683 -28.9637 -28.9637 -28.9637 -28.9637
   -28.9610 -28.9610 -28.9607 -28.9607 -28.9554 -28.9554 -28.9554 -28.9554
     6.9992   6.9992   7.0000   7.0000   7.4196   7.4196   7.5351   7.5351
     7.5406   7.5406   7.7279   7.7279   7.8511   7.8511   7.8559   7.8559
     8.0387   8.0387   8.8827   8.8827   8.8830   8.8830   8.9002   8.9002
     8.9066   8.9066   8.9322   8.9322   8.9926   8.9926   9.6421   9.6421
     9.6475   9.6475   9.6503   9.6503   9.7767   9.7767   9.7919   9.7919
     9.9282   9.9282   9.9604   9.9604  10.0818  10.0818  10.0971  10.0971
    10.1557  10.1557  10.1611  10.1611  10.2081  10.2081  10.2176  10.2176
    10.2213  10.2213  10.2328  10.2328  10.3038  10.3038  10.3672  10.3672
    10.3906  10.3906  10.3924  10.3924  10.4072  10.4072  10.4099  10.4099
    10.4377  10.4377  10.4741  10.4741  10.4867  10.4867  10.5137  10.5137
    10.5268  10.5268  10.5272  10.5272  10.5778  10.5778  10.5778  10.5778
    10.6417  10.6417  10.6503  10.6503  10.6725  10.6725  10.6920  10.6920
    10.7277  10.7277  10.8763  10.8763  10.8920  10.8920  10.9053  10.9053
    11.0305  11.0305  11.1455  11.1455  11.1656  11.1656  11.1658  11.1658
    11.2036  11.2036  11.2243  11.2243  11.3833  11.3833  11.3881  11.3881
    11.4722  11.4722  11.4991  11.4991  11.5180  11.5180  11.5322  11.5322
    11.5844  11.5844  11.5939  11.5939  11.6105  11.6105  11.6978  11.6978
    11.7483  11.7483  11.7736  11.7736  11.7863  11.7863  11.7926  11.7926
    11.8239  11.8239  11.8381  11.8381  11.8416  11.8416  11.8849  11.8849
    11.9037  11.9037  11.9084  11.9084  11.9697  11.9697  12.0283  12.0283
    12.1825  12.1825  12.2038  12.2038  12.2831  12.2831  12.2831  12.2831
    12.3052  12.3052  12.3816  12.3816  12.3920  12.3920  12.4863  12.4863
    12.5430  12.5430  12.6072  12.6072  12.6085  12.6085  12.8174  12.8174
    12.9624  12.9624  12.9724  12.9724  13.0301  13.0301  14.3781  14.3781
    14.3988  14.3988  14.4417  14.4417  14.6469  14.6469  14.6544  14.6544
    15.2195  15.2195  17.0353  17.0353  17.0375  17.0375  17.1924  17.1924
    17.4511  17.4511  17.4514  17.4514  18.0321  18.0321  18.1092  18.1092
    18.1099  18.1099  18.1666  18.1666  18.1751  18.1751  18.4202  18.4202
    18.6512  18.6512  19.0211  19.0211  19.1159  19.1159  19.1308  19.1308
    19.9124  19.9124  19.9153  19.9153  20.2068  20.2068  20.2215  20.2215
    20.3282  20.3282  20.9660  20.9660  22.3150  22.3150  22.3237  22.3237
    22.5297  22.5297

     the Fermi energy is    12.6782 ev

!    total energy              =   -7950.09208331 Ry
     total all-electron energy =    -51823.944167 Ry
     estimated scf accuracy    <          9.4E-12 Ry
     smearing contrib. (-TS)   =       0.10933473 Ry
     internal energy E=F+TS    =   -7950.20141804 Ry

     The total energy is F=E-TS. E is the sum of the following terms:
     one-electron contribution =   -4523.22774717 Ry
     hartree contribution      =    2412.82205799 Ry
     xc contribution           =    -681.59705358 Ry
     ewald contribution        =   -3620.04226066 Ry
     one-center paw contrib.   =   -1538.15641462 Ry

     convergence has been achieved in  42 iterations

     Forces acting on atoms (cartesian axes, Ry/au):

     atom    1 type  1   force =     0.00000000    0.00000000    0.00198061
     atom    2 type  1   force =     0.00000000    0.00000000    0.00198061
     atom    3 type  1   force =     0.00000000    0.00000000   -0.00198061
     atom    4 type  1   force =    -0.00000000    0.00000000   -0.00198061
     atom    5 type  1   force =     0.00000000    0.00000000    0.00042052
     atom    6 type  1   force =     0.00000000    0.00000000    0.00042052
     atom    7 type  1   force =     0.00000000    0.00000000   -0.00042052
     atom    8 type  1   force =    -0.00000000   -0.00000000   -0.00042052
     atom    9 type  2   force =     0.00000000    0.00000000   -0.00067777
     atom   10 type  2   force =     0.00000000    0.00000000   -0.00067777
     atom   11 type  2   force =     0.00000000    0.00000000    0.00067777
     atom   12 type  2   force =     0.00000000    0.00000000    0.00067777
     atom   13 type  2   force =     0.00000000    0.00116635    0.00000000
     atom   14 type  2   force =    -0.00101009    0.00058317    0.00000000
     atom   15 type  2   force =    -0.00000000   -0.00116635    0.00000000
     atom   16 type  2   force =     0.00101009   -0.00058317    0.00000000
     atom   17 type  2   force =    -0.00101009   -0.00058317    0.00000000
     atom   18 type  2   force =     0.00101009    0.00058317    0.00000000
     atom   19 type  2   force =    -0.00000000   -0.00000000   -0.00000000
     atom   20 type  2   force =     0.00000000    0.00000000   -0.00000000
     atom   21 type  2   force =    -0.00000000    0.00000000    0.00000000
     atom   22 type  2   force =    -0.00000000   -0.00000000   -0.00000000
     atom   23 type  2   force =    -0.00000000   -0.00000000   -0.00000000
     atom   24 type  2   force =    -0.00000000    0.00000000    0.00000000
     The non-local contrib.  to forces
     atom    1 type  1   force =     0.00000000    0.00000000    0.02012031
     atom    2 type  1   force =     0.00000000    0.00000000    0.02012031
     atom    3 type  1   force =    -0.00000000   -0.00000000   -0.02012031
     atom    4 type  1   force =    -0.00000000   -0.00000000   -0.02012031
     atom    5 type  1   force =     0.00000000    0.00000000   -0.00271114
     atom    6 type  1   force =    -0.00000000   -0.00000000   -0.00271114
     atom    7 type  1   force =     0.00000000    0.00000000    0.00271114
     atom    8 type  1   force =    -0.00000000   -0.00000000    0.00271114
     atom    9 type  2   force =    -0.00000000   -0.00000000   -0.00485166
     atom   10 type  2   force =    -0.00000000   -0.00000000   -0.00485166
     atom   11 type  2   force =     0.00000000    0.00000000    0.00485166
     atom   12 type  2   force =     0.00000000    0.00000000    0.00485166
     atom   13 type  2   force =     0.00000000   -0.08401534    0.00000000
     atom   14 type  2   force =     0.07275942   -0.04200767    0.00000000
     atom   15 type  2   force =     0.00000000    0.08401534   -0.00000000
     atom   16 type  2   force =    -0.07275942    0.04200767    0.00000000
     atom   17 type  2   force =     0.07275942    0.04200767    0.00000000
     atom   18 type  2   force =    -0.07275942   -0.04200767    0.00000000
     atom   19 type  2   force =     0.00000000   -0.00000000   -0.00000000
     atom   20 type  2   force =     0.00000000    0.00000000    0.00000000
     atom   21 type  2   force =     0.00000000    0.00000000    0.00000000
     atom   22 type  2   force =    -0.00000000   -0.00000000    0.00000000
     atom   23 type  2   force =     0.00000000    0.00000000    0.00000000
     atom   24 type  2   force =     0.00000000    0.00000000   -0.00000000
     The ionic contribution  to forces
     atom    1 type  1   force =    -0.00001535    0.00001072   -0.65620190
     atom    2 type  1   force =     0.00001535   -0.00001072   -0.65620190
     atom    3 type  1   force =     0.00001535   -0.00001072    0.65620190
     atom    4 type  1   force =    -0.00001535    0.00001072    0.65620190
     atom    5 type  1   force =     0.00005442   -0.00002938    0.22129903
     atom    6 type  1   force =    -0.00005442    0.00002938    0.22129903
     atom    7 type  1   force =    -0.00005442    0.00002938   -0.22129903
     atom    8 type  1   force =     0.00005442   -0.00002938   -0.22129903
     atom    9 type  2   force =     0.00005799   -0.00003334   -0.39280137
     atom   10 type  2   force =    -0.00005799    0.00003334   -0.39280137
     atom   11 type  2   force =    -0.00005799    0.00003334    0.39280137
     atom   12 type  2   force =     0.00005799   -0.00003334    0.39280137
     atom   13 type  2   force =     0.00007033  -13.52888375    0.00000000
     atom   14 type  2   force =    11.71643953   -6.76449146   -0.00000000
     atom   15 type  2   force =    -0.00007033   13.52888375   -0.00000000
     atom   16 type  2   force =   -11.71643953    6.76449146    0.00000000
     atom   17 type  2   force =    11.71639155    6.76438256    0.00000000
     atom   18 type  2   force =   -11.71639155   -6.76438256   -0.00000000
     atom   19 type  2   force =    -0.00000000    0.00000000    0.00000000
     atom   20 type  2   force =    -0.00000000    0.00000000    0.00000000
     atom   21 type  2   force =     0.00000000   -0.00000000    0.00000000
     atom   22 type  2   force =     0.00000000   -0.00000000    0.00000000
     atom   23 type  2   force =     0.00000000    0.00000000    0.00000000
     atom   24 type  2   force =    -0.00000000   -0.00000000    0.00000000
     The local contribution  to forces
     atom    1 type  1   force =     0.00000000   -0.00000172    0.63815482
     atom    2 type  1   force =     0.00000000    0.00000172    0.63815482
     atom    3 type  1   force =     0.00000000    0.00000172   -0.63815482
     atom    4 type  1   force =     0.00000000   -0.00000172   -0.63815482
     atom    5 type  1   force =     0.00146963   -0.00085037   -0.21817653
     atom    6 type  1   force =    -0.00146963    0.00085037   -0.21817653
     atom    7 type  1   force =    -0.00146963    0.00085037    0.21817653
     atom    8 type  1   force =     0.00146963   -0.00085037    0.21817653
     atom    9 type  2   force =     0.00195059   -0.00112629    0.39905774
     atom   10 type  2   force =    -0.00195059    0.00112629    0.39905774
     atom   11 type  2   force =    -0.00195059    0.00112629   -0.39905774
     atom   12 type  2   force =     0.00195059   -0.00112629   -0.39905774
     atom   13 type  2   force =    -0.00194885   13.61429992    0.00000000
     atom   14 type  2   force =   -11.78763542    6.80559518   -0.00000000
     atom   15 type  2   force =     0.00194885  -13.61429992   -0.00000000
     atom   16 type  2   force =    11.78763542   -6.80559518    0.00000000
     atom   17 type  2   force =   -11.79130519   -6.80546359    0.00000000
     atom   18 type  2   force =    11.79130519    6.80546359   -0.00000000
     atom   19 type  2   force =     0.00000000    0.00000000    0.00000000
     atom   20 type  2   force =     0.00000000    0.00000000    0.00000000
     atom   21 type  2   force =    -0.00000000    0.00000000    0.00000000
     atom   22 type  2   force =     0.00000000    0.00000000    0.00000000
     atom   23 type  2   force =    -0.00000000   -0.00000000    0.00000000
     atom   24 type  2   force =    -0.00000000    0.00000000    0.00000000
     The core correction contribution to forces
     atom    1 type  1   force =    -0.00000000    0.00000000   -0.00009218
     atom    2 type  1   force =     0.00000000   -0.00000000   -0.00009218
     atom    3 type  1   force =     0.00000000   -0.00000000    0.00009218
     atom    4 type  1   force =    -0.00000000    0.00000000    0.00009218
     atom    5 type  1   force =     0.00000319   -0.00000184    0.00000473
     atom    6 type  1   force =    -0.00000319    0.00000184    0.00000473
     atom    7 type  1   force =    -0.00000319    0.00000184   -0.00000473
     atom    8 type  1   force =     0.00000319   -0.00000184   -0.00000473
     atom    9 type  2   force =     0.00000120   -0.00000069   -0.00208023
     atom   10 type  2   force =    -0.00000120    0.00000069   -0.00208023
     atom   11 type  2   force =    -0.00000120    0.00000069    0.00208023
     atom   12 type  2   force =     0.00000120   -0.00000069    0.00208023
     atom   13 type  2   force =    -0.00000119    0.00082875    0.00000000
     atom   14 type  2   force =    -0.00071586    0.00041330   -0.00000000
     atom   15 type  2   force =     0.00000119   -0.00082875   -0.00000000
     atom   16 type  2   force =     0.00071586   -0.00041330    0.00000000
     atom   17 type  2   force =    -0.00071831   -0.00041334    0.00000000
     atom   18 type  2   force =     0.00071831    0.00041334   -0.00000000
     atom   19 type  2   force =     0.00000000    0.00000000   -0.00000000
     atom   20 type  2   force =     0.00000000    0.00000000    0.00000000
     atom   21 type  2   force =    -0.00000000    0.00000000    0.00000000
     atom   22 type  2   force =     0.00000000    0.00000000    0.00000000
     atom   23 type  2   force =     0.00000000    0.00000000    0.00000000
     atom   24 type  2   force =    -0.00000000    0.00000000    0.00000000
     The Hubbard contrib.    to forces
     atom    1 type  1   force =     0.00000000    0.00000000    0.00000000
     atom    2 type  1   force =     0.00000000    0.00000000    0.00000000
     atom    3 type  1   force =     0.00000000    0.00000000    0.00000000
     atom    4 type  1   force =     0.00000000    0.00000000    0.00000000
     atom    5 type  1   force =     0.00000000    0.00000000    0.00000000
     atom    6 type  1   force =     0.00000000    0.00000000    0.00000000
     atom    7 type  1   force =     0.00000000    0.00000000    0.00000000
     atom    8 type  1   force =     0.00000000    0.00000000    0.00000000
     atom    9 type  2   force =     0.00000000    0.00000000    0.00000000
     atom   10 type  2   force =     0.00000000    0.00000000    0.00000000
     atom   11 type  2   force =     0.00000000    0.00000000    0.00000000
     atom   12 type  2   force =     0.00000000    0.00000000    0.00000000
     atom   13 type  2   force =     0.00000000    0.00000000    0.00000000
     atom   14 type  2   force =     0.00000000    0.00000000    0.00000000
     atom   15 type  2   force =     0.00000000    0.00000000    0.00000000
     atom   16 type  2   force =     0.00000000    0.00000000    0.00000000
     atom   17 type  2   force =     0.00000000    0.00000000    0.00000000
     atom   18 type  2   force =     0.00000000    0.00000000    0.00000000
     atom   19 type  2   force =     0.00000000    0.00000000    0.00000000
     atom   20 type  2   force =     0.00000000    0.00000000    0.00000000
     atom   21 type  2   force =     0.00000000    0.00000000    0.00000000
     atom   22 type  2   force =     0.00000000    0.00000000    0.00000000
     atom   23 type  2   force =     0.00000000    0.00000000    0.00000000
     atom   24 type  2   force =     0.00000000    0.00000000    0.00000000
     The SCF correction term to forces
     atom    1 type  1   force =     0.00000002   -0.00000001   -0.00000044
     atom    2 type  1   force =    -0.00000002    0.00000001   -0.00000044
     atom    3 type  1   force =    -0.00000002    0.00000001    0.00000044
     atom    4 type  1   force =     0.00000002   -0.00000001    0.00000044
     atom    5 type  1   force =    -0.00000000    0.00000000    0.00000444
     atom    6 type  1   force =     0.00000000   -0.00000000    0.00000444
     atom    7 type  1   force =     0.00000000   -0.00000000   -0.00000444
     atom    8 type  1   force =    -0.00000000    0.00000000   -0.00000444
     atom    9 type  2   force =    -0.00000007    0.00000004   -0.00000225
     atom   10 type  2   force =     0.00000007   -0.00000004   -0.00000225
     atom   11 type  2   force =     0.00000007   -0.00000004    0.00000225
     atom   12 type  2   force =    -0.00000007    0.00000004    0.00000225
     atom   13 type  2   force =     0.00000000    0.00000595    0.00000000
     atom   14 type  2   force =    -0.00000516    0.00000298    0.00000000
     atom   15 type  2   force =    -0.00000000   -0.00000595   -0.00000000
     atom   16 type  2   force =     0.00000516   -0.00000298   -0.00000000
     atom   17 type  2   force =    -0.00000515   -0.00000298   -0.00000000
     atom   18 type  2   force =     0.00000515    0.00000298    0.00000000
     atom   19 type  2   force =    -0.00000000   -0.00000000   -0.00000000
     atom   20 type  2   force =     0.00000000    0.00000000   -0.00000000
     atom   21 type  2   force =     0.00000000    0.00000000   -0.00000000
     atom   22 type  2   force =    -0.00000000    0.00000000   -0.00000000
     atom   23 type  2   force =    -0.00000000   -0.00000000   -0.00000000
     atom   24 type  2   force =     0.00000000   -0.00000000   -0.00000000

     Total force =     0.005138     Total SCF correction =     0.000018
     Energy error            =      1.1E-04 Ry
     Gradient error          =      2.0E-03 Ry/Bohr

     number of scf cycles    =   4
     number of bfgs steps    =   3

     energy             old  =   -7950.0919716841 Ry
     energy             new  =   -7950.0920833141 Ry

     CASE: energy            _new < energy            _old

     new trust radius        =       0.0037974822 bohr
     new conv_thr            =       0.0000000003 Ry


ATOMIC_POSITIONS (crystal)
Mg            0.0000000000        0.0000000000        0.4068555676
Mg           -0.0000000000        0.0000000000        0.9068555676
Mg            0.0000000000       -0.0000000000        0.5931444324
Mg           -0.0000000000       -0.0000000000        0.0931444324
Mg            0.3333330000        0.6666670000        0.6559937425
Mg            0.6666670000        0.3333330000        0.1559937425
Mg            0.6666670000        0.3333330000        0.3440062575
Mg            0.3333330000        0.6666670000        0.8440062575
Ni            0.3333330000        0.6666670000        0.3754078574
Ni            0.6666670000        0.3333330000        0.8754078574
Ni            0.6666670000        0.3333330000        0.6245921426
Ni            0.3333330000        0.6666670000        0.1245921426
Ni            0.1653413371        0.3306816742        0.2500000000
Ni            0.8346586633        0.1653413371        0.7500000000
Ni            0.8346586629        0.6693183258        0.7500000000
Ni            0.1653413367        0.8346586629        0.2500000000
Ni            0.6693183262        0.8346586629        0.2500000000
Ni            0.3306816738        0.1653413371        0.7500000000
Ni            0.5000000000       -0.0000000000        0.5000000000
Ni            0.5000000000        0.5000000000        0.0000000000
Ni            0.5000000000       -0.0000000000        0.0000000000
Ni            0.5000000000        0.5000000000        0.5000000000
Ni            0.0000000000        0.5000000000       -0.0000000000
Ni            0.0000000000        0.5000000000        0.5000000000



     Writing config-only to output data dir ./ACOptimization/out/iso.save/
     NEW-OLD atomic charge density approx. for the potential

     Check: negative core charge=   -0.000016

     total cpu time spent up to now is     2448.8 secs

     Self-consistent Calculation

     iteration #  1     ecut=    50.00 Ry     beta= 0.10
     Davidson diagonalization with overlap
     ethr =  1.00E-06,  avg # of iterations =  4.0

     Threshold (ethr) on eigenvalues was too large:
     Diagonalizing with lowered threshold

     Davidson diagonalization with overlap
     ethr =  1.51E-09,  avg # of iterations =  5.3

     total cpu time spent up to now is     2498.8 secs

     total energy              =   -7950.09213091 Ry
     estimated scf accuracy    <       0.00000545 Ry

     iteration #  2     ecut=    50.00 Ry     beta= 0.10
     Davidson diagonalization with overlap
     ethr =  1.48E-09,  avg # of iterations =  1.0

     total cpu time spent up to now is     2516.8 secs

     total energy              =   -7950.09211046 Ry
     estimated scf accuracy    <       0.00000192 Ry

     iteration #  3     ecut=    50.00 Ry     beta= 0.10
     Davidson diagonalization with overlap
     ethr =  5.21E-10,  avg # of iterations =  1.0

     total cpu time spent up to now is     2534.9 secs

     total energy              =   -7950.09210932 Ry
     estimated scf accuracy    <       0.00000072 Ry

     iteration #  4     ecut=    50.00 Ry     beta= 0.10
     Davidson diagonalization with overlap
     ethr =  1.95E-10,  avg # of iterations =  4.0

     total cpu time spent up to now is     2557.7 secs

     total energy              =   -7950.09210942 Ry
     estimated scf accuracy    <       0.00000017 Ry

     iteration #  5     ecut=    50.00 Ry     beta= 0.10
     Davidson diagonalization with overlap
     ethr =  4.68E-11,  avg # of iterations =  1.7

     total cpu time spent up to now is     2577.8 secs

     total energy              =   -7950.09210947 Ry
     estimated scf accuracy    <       0.00000015 Ry

     iteration #  6     ecut=    50.00 Ry     beta= 0.10
     Davidson diagonalization with overlap
     ethr =  3.95E-11,  avg # of iterations =  1.3

     total cpu time spent up to now is     2597.1 secs

     total energy              =   -7950.09210944 Ry
     estimated scf accuracy    <       0.00000013 Ry

     iteration #  7     ecut=    50.00 Ry     beta= 0.10
     Davidson diagonalization with overlap
     ethr =  3.42E-11,  avg # of iterations =  2.0

     total cpu time spent up to now is     2621.0 secs

     total energy              =   -7950.09210940 Ry
     estimated scf accuracy    <       0.00000005 Ry

     iteration #  8     ecut=    50.00 Ry     beta= 0.10
     Davidson diagonalization with overlap
     ethr =  1.35E-11,  avg # of iterations =  3.0

     total cpu time spent up to now is     2644.7 secs

     total energy              =   -7950.09210940 Ry
     estimated scf accuracy    <       0.00000002 Ry

     iteration #  9     ecut=    50.00 Ry     beta= 0.10
     Davidson diagonalization with overlap
     ethr =  5.99E-12,  avg # of iterations =  2.0

     total cpu time spent up to now is     2665.6 secs

     total energy              =   -7950.09210940 Ry
     estimated scf accuracy    <          4.0E-09 Ry

     iteration # 10     ecut=    50.00 Ry     beta= 0.10
     Davidson diagonalization with overlap
     ethr =  1.09E-12,  avg # of iterations =  4.3

     total cpu time spent up to now is     2692.4 secs

     total energy              =   -7950.09210940 Ry
     estimated scf accuracy    <          2.5E-09 Ry

     iteration # 11     ecut=    50.00 Ry     beta= 0.10
     Davidson diagonalization with overlap
     ethr =  6.71E-13,  avg # of iterations =  1.3

     total cpu time spent up to now is     2712.6 secs

     total energy              =   -7950.09210941 Ry
     estimated scf accuracy    <          2.0E-09 Ry

     iteration # 12     ecut=    50.00 Ry     beta= 0.10
     Davidson diagonalization with overlap
     ethr =  5.36E-13,  avg # of iterations =  3.0

     total cpu time spent up to now is     2737.3 secs

     total energy              =   -7950.09210941 Ry
     estimated scf accuracy    <          5.4E-10 Ry

     iteration # 13     ecut=    50.00 Ry     beta= 0.10
     Davidson diagonalization with overlap
     ethr =  1.45E-13,  avg # of iterations =  2.0

     total cpu time spent up to now is     2760.7 secs

     End of self-consistent calculation

          k = 0.0000 0.0000 0.0000 ( 12841 PWs)   bands (ev):

   -89.9460 -89.9460 -89.9444 -89.9444 -89.9441 -89.9441 -89.9423 -89.9423
   -89.8902 -89.8902 -89.8890 -89.8890 -89.8874 -89.8874 -89.8862 -89.8862
   -89.8644 -89.8644 -89.8643 -89.8643 -89.8643 -89.8643 -89.8643 -89.8643
   -89.8632 -89.8632 -89.8632 -89.8632 -89.8631 -89.8631 -89.8631 -89.8631
   -62.1763 -62.1763 -62.1761 -62.1761 -62.1749 -62.1749 -62.1748 -62.1748
   -62.1213 -62.1213 -62.1212 -62.1212 -62.1197 -62.1197 -62.1197 -62.1197
   -51.9294 -51.9294 -51.9292 -51.9292 -51.9263 -51.9263 -51.9172 -51.9172
   -51.8820 -51.8820 -51.8817 -51.8817 -51.8793 -51.8793 -51.8717 -51.8717
   -51.8716 -51.8716 -51.8708 -51.8708 -51.8682 -51.8682 -51.8613 -51.8613
   -51.8015 -51.8015 -51.7994 -51.7994 -51.7965 -51.7965 -51.7952 -51.7952
   -49.8175 -49.8175 -49.8165 -49.8165 -49.7991 -49.7991 -49.7968 -49.7968
   -49.7852 -49.7852 -49.7747 -49.7747 -49.7574 -49.7574 -49.7570 -49.7570
   -49.7069 -49.7069 -49.7028 -49.7028 -49.6991 -49.6991 -49.6932 -49.6932
   -49.6917 -49.6917 -49.6863 -49.6863 -49.6821 -49.6821 -49.6573 -49.6573
   -49.6524 -49.6524 -49.6227 -49.6227 -49.6167 -49.6167 -49.6088 -49.6088
   -49.6073 -49.6073 -49.5999 -49.5999 -49.5970 -49.5970 -49.5940 -49.5940
   -49.5760 -49.5760 -49.5746 -49.5746 -49.5605 -49.5605 -49.5524 -49.5524
   -49.5471 -49.5471 -49.5468 -49.5468 -49.5362 -49.5362 -49.5357 -49.5357
   -29.3085 -29.3085 -29.3085 -29.3085 -29.3039 -29.3039 -29.3036 -29.3036
   -29.2521 -29.2521 -29.2519 -29.2519 -29.2465 -29.2465 -29.2465 -29.2465
   -29.0238 -29.0238 -29.0237 -29.0237 -29.0217 -29.0217 -29.0216 -29.0216
   -29.0200 -29.0200 -29.0197 -29.0197 -29.0120 -29.0120 -29.0115 -29.0115
   -28.9695 -28.9695 -28.9694 -28.9694 -28.9620 -28.9620 -28.9618 -28.9618
   -28.9601 -28.9601 -28.9599 -28.9599 -28.9563 -28.9563 -28.9561 -28.9561
     4.4181   4.4181   5.0342   5.0342   5.0367   5.0367   6.4720   6.4720
     7.1234   7.1234   8.4596   8.4596   8.5018   8.5018   8.5526   8.5526
     9.0994   9.0994   9.1138   9.1138   9.2631   9.2631   9.3069   9.3069
     9.4424   9.4424   9.4567   9.4567   9.4753   9.4753   9.4912   9.4912
     9.5145   9.5145   9.5168   9.5168   9.6358   9.6358   9.6562   9.6562
     9.6947   9.6947   9.7529   9.7529   9.7571   9.7571   9.7645   9.7645
     9.7862   9.7862   9.8464   9.8464   9.9033   9.9033   9.9274   9.9274
     9.9487   9.9487   9.9888   9.9888  10.2784  10.2784  10.2789  10.2789
    10.2893  10.2893  10.3033  10.3033  10.3079  10.3079  10.3584  10.3584
    10.5226  10.5226  10.5806  10.5806  10.6696  10.6696  10.6770  10.6770
    10.7193  10.7193  10.7706  10.7706  10.8087  10.8087  10.8100  10.8100
    10.9623  10.9623  10.9814  10.9814  11.2097  11.2097  11.3845  11.3845
    11.4351  11.4351  11.4436  11.4436  11.4507  11.4507  11.4881  11.4881
    11.6110  11.6110  11.6646  11.6646  11.7543  11.7543  11.7618  11.7618
    11.8829  11.8829  11.8935  11.8935  11.9784  11.9784  11.9833  11.9833
    11.9920  11.9920  11.9943  11.9943  12.0009  12.0009  12.0012  12.0012
    12.0069  12.0069  12.0241  12.0241  12.0403  12.0403  12.0434  12.0434
    12.0606  12.0606  12.0703  12.0703  12.0840  12.0840  12.1133  12.1133
    12.1323  12.1323  12.1571  12.1571  12.1577  12.1577  12.1741  12.1741
    12.1980  12.1980  12.2417  12.2417  12.3159  12.3159  12.5515  12.5515
    12.6041  12.6041  12.8236  12.8236  12.8247  12.8247  13.0523  13.0523
    13.0539  13.0539  13.0592  13.0592  13.0617  13.0617  13.3821  13.3821
    13.5119  13.5119  13.6871  13.6871  13.7404  13.7404  13.7497  13.7497
    13.7650  13.7650  13.7836  13.7836  13.7841  13.7841  13.8820  13.8820
    14.1120  14.1120  14.1412  14.1412  14.1500  14.1500  14.2022  14.2022
    15.5050  15.5050  15.5342  15.5342  15.5457  15.5457  15.5589  15.5589
    15.9853  15.9853  16.0327  16.0327  16.4159  16.4159  16.4374  16.4374
    17.0228  17.0228  17.0869  17.0869  17.1038  17.1038  17.2342  17.2342
    17.3140  17.3140  17.5252  17.5252  17.9651  17.9651  17.9757  17.9757
    18.4226  18.4226  18.4428  18.4428  18.6095  18.6095  19.0275  19.0275
    19.0346  19.0346  19.1437  19.1437  19.3518  19.3518  20.7429  20.7429
    20.8454  20.8454

          k = 0.0000 0.3849 0.0000 ( 12856 PWs)   bands (ev):

   -89.9453 -89.9453 -89.9442 -89.9442 -89.9438 -89.9438 -89.9427 -89.9427
   -89.8848 -89.8848 -89.8841 -89.8841 -89.8824 -89.8824 -89.8818 -89.8818
   -89.8695 -89.8695 -89.8694 -89.8694 -89.8684 -89.8684 -89.8683 -89.8683
   -89.8643 -89.8643 -89.8643 -89.8643 -89.8631 -89.8631 -89.8631 -89.8631
   -62.1762 -62.1762 -62.1762 -62.1762 -62.1748 -62.1748 -62.1748 -62.1748
   -62.1214 -62.1214 -62.1214 -62.1214 -62.1199 -62.1199 -62.1198 -62.1198
   -51.9330 -51.9330 -51.9300 -51.9300 -51.9260 -51.9260 -51.9232 -51.9232
   -51.8783 -51.8783 -51.8780 -51.8780 -51.8764 -51.8764 -51.8735 -51.8735
   -51.8592 -51.8592 -51.8582 -51.8582 -51.8556 -51.8556 -51.8555 -51.8555
   -51.8189 -51.8189 -51.8118 -51.8118 -51.8107 -51.8107 -51.8044 -51.8044
   -49.8176 -49.8176 -49.8099 -49.8099 -49.8060 -49.8060 -49.7973 -49.7973
   -49.7601 -49.7601 -49.7570 -49.7570 -49.7474 -49.7474 -49.7440 -49.7440
   -49.7078 -49.7078 -49.7041 -49.7041 -49.7018 -49.7018 -49.6976 -49.6976
   -49.6858 -49.6858 -49.6815 -49.6815 -49.6753 -49.6753 -49.6602 -49.6602
   -49.6529 -49.6529 -49.6335 -49.6335 -49.6306 -49.6306 -49.6234 -49.6234
   -49.6055 -49.6055 -49.6018 -49.6018 -49.5935 -49.5935 -49.5900 -49.5900
   -49.5868 -49.5868 -49.5857 -49.5857 -49.5685 -49.5685 -49.5667 -49.5667
   -49.5640 -49.5640 -49.5622 -49.5622 -49.5470 -49.5470 -49.5445 -49.5445
   -29.3081 -29.3081 -29.3080 -29.3080 -29.3032 -29.3032 -29.3031 -29.3031
   -29.2532 -29.2532 -29.2531 -29.2531 -29.2477 -29.2477 -29.2476 -29.2476
   -29.0245 -29.0245 -29.0243 -29.0243 -29.0207 -29.0207 -29.0206 -29.0206
   -29.0189 -29.0189 -29.0187 -29.0187 -29.0122 -29.0122 -29.0121 -29.0121
   -28.9691 -28.9691 -28.9691 -28.9691 -28.9630 -28.9630 -28.9629 -28.9629
   -28.9610 -28.9610 -28.9608 -28.9608 -28.9558 -28.9558 -28.9558 -28.9558
     5.3908   5.3908   5.9762   5.9762   5.9777   5.9777   7.3720   7.3720
     7.8413   7.8413   8.0257   8.0257   8.3377   8.3377   8.3528   8.3528
     8.9226   8.9226   8.9576   8.9576   9.1111   9.1111   9.1989   9.1989
     9.2745   9.2745   9.3933   9.3933   9.4566   9.4566   9.5251   9.5251
     9.5939   9.5939   9.6594   9.6594   9.6888   9.6888   9.7266   9.7266
     9.7379   9.7379   9.7719   9.7719   9.8760   9.8760   9.9601   9.9601
    10.0115  10.0115  10.0660  10.0660  10.1094  10.1094  10.1652  10.1652
    10.1841  10.1841  10.2144  10.2144  10.2212  10.2212  10.3090  10.3090
    10.3166  10.3166  10.3508  10.3508  10.3549  10.3549  10.4229  10.4229
    10.4469  10.4469  10.4545  10.4545  10.5248  10.5248  10.5771  10.5771
    10.6443  10.6443  10.6972  10.6972  10.7155  10.7155  10.7303  10.7303
    10.7916  10.7916  10.8819  10.8819  10.9140  10.9140  10.9531  10.9531
    10.9690  10.9690  11.0754  11.0754  11.0835  11.0835  11.1388  11.1388
    11.1567  11.1567  11.2202  11.2202  11.2831  11.2831  11.2964  11.2964
    11.3222  11.3222  11.3734  11.3734  11.4535  11.4535  11.4622  11.4622
    11.5395  11.5395  11.5769  11.5769  11.6037  11.6037  11.6320  11.6320
    11.6973  11.6973  11.7109  11.7109  11.7289  11.7289  11.7858  11.7858
    11.7889  11.7889  11.8503  11.8503  11.8919  11.8919  11.9458  11.9458
    11.9526  11.9526  12.0255  12.0255  12.0386  12.0386  12.0479  12.0479
    12.0988  12.0988  12.1106  12.1106  12.1136  12.1136  12.1446  12.1446
    12.2024  12.2024  12.2321  12.2321  12.2489  12.2489  12.3446  12.3446
    12.3708  12.3708  12.4359  12.4359  12.5124  12.5124  12.6382  12.6382
    12.8951  12.8951  12.9529  12.9529  13.3117  13.3117  13.3215  13.3215
    13.5211  13.5211  13.6208  13.6208  13.7066  13.7066  13.8802  13.8802
    13.9485  13.9485  13.9802  13.9802  14.0513  14.0513  14.2608  14.2608
    14.8643  14.8643  15.2981  15.2981  15.6001  15.6001  15.6451  15.6451
    16.9226  16.9226  17.3512  17.3512  17.4097  17.4097  17.5592  17.5592
    18.3277  18.3277  18.4137  18.4137  18.4932  18.4932  18.6163  18.6163
    18.6610  18.6610  18.8200  18.8200  19.2652  19.2652  19.6909  19.6909
    19.7704  19.7704  19.7979  19.7979  20.3185  20.3185  20.3611  20.3611
    20.6600  20.6600  21.0935  21.0935  21.4469  21.4469  21.7416  21.7416
    21.7720  21.7720

          k = 0.3333 0.5774 0.0000 ( 12828 PWs)   bands (ev):

   -89.9445 -89.9445 -89.9445 -89.9445 -89.9432 -89.9432 -89.9432 -89.9432
   -89.8789 -89.8789 -89.8788 -89.8788 -89.8763 -89.8763 -89.8762 -89.8762
   -89.8755 -89.8755 -89.8754 -89.8754 -89.8740 -89.8740 -89.8740 -89.8740
   -89.8643 -89.8643 -89.8643 -89.8643 -89.8631 -89.8631 -89.8631 -89.8631
   -62.1762 -62.1762 -62.1762 -62.1762 -62.1748 -62.1748 -62.1748 -62.1748
   -62.1214 -62.1214 -62.1214 -62.1214 -62.1198 -62.1198 -62.1198 -62.1198
   -51.9352 -51.9352 -51.9349 -51.9349 -51.9255 -51.9255 -51.9251 -51.9251
   -51.8762 -51.8762 -51.8722 -51.8722 -51.8718 -51.8718 -51.8685 -51.8685
   -51.8447 -51.8447 -51.8441 -51.8441 -51.8380 -51.8380 -51.8341 -51.8341
   -51.8341 -51.8341 -51.8302 -51.8302 -51.8239 -51.8239 -51.8237 -51.8237
   -49.8141 -49.8141 -49.8136 -49.8136 -49.8052 -49.8052 -49.8008 -49.8008
   -49.7347 -49.7347 -49.7317 -49.7317 -49.7299 -49.7299 -49.7267 -49.7267
   -49.7233 -49.7233 -49.7214 -49.7214 -49.7193 -49.7193 -49.6906 -49.6906
   -49.6806 -49.6806 -49.6786 -49.6786 -49.6758 -49.6758 -49.6485 -49.6485
   -49.6474 -49.6474 -49.6444 -49.6444 -49.6349 -49.6349 -49.6345 -49.6345
   -49.6097 -49.6097 -49.5990 -49.5990 -49.5931 -49.5931 -49.5920 -49.5920
   -49.5864 -49.5864 -49.5797 -49.5797 -49.5788 -49.5788 -49.5711 -49.5711
   -49.5701 -49.5701 -49.5688 -49.5688 -49.5521 -49.5521 -49.5486 -49.5486
   -29.3079 -29.3079 -29.3076 -29.3076 -29.3031 -29.3031 -29.3028 -29.3028
   -29.2536 -29.2536 -29.2535 -29.2535 -29.2483 -29.2483 -29.2482 -29.2482
   -29.0254 -29.0254 -29.0233 -29.0233 -29.0208 -29.0208 -29.0207 -29.0207
   -29.0178 -29.0178 -29.0177 -29.0177 -29.0137 -29.0137 -29.0113 -29.0113
   -28.9688 -28.9688 -28.9687 -28.9687 -28.9639 -28.9639 -28.9638 -28.9638
   -28.9611 -28.9611 -28.9608 -28.9608 -28.9557 -28.9557 -28.9556 -28.9556
     6.9995   6.9995   7.0003   7.0003   7.4201   7.4201   7.5344   7.5344
     7.5400   7.5400   7.7300   7.7300   7.8517   7.8517   7.8564   7.8564
     8.0364   8.0364   8.8833   8.8833   8.8837   8.8837   8.8998   8.8998
     8.9062   8.9062   8.9308   8.9308   8.9932   8.9932   9.6416   9.6416
     9.6481   9.6481   9.6509   9.6509   9.7769   9.7769   9.7921   9.7921
     9.9282   9.9282   9.9604   9.9604  10.0819  10.0819  10.0972  10.0972
    10.1561  10.1561  10.1610  10.1610  10.2080  10.2080  10.2176  10.2176
    10.2217  10.2217  10.2327  10.2327  10.3045  10.3045  10.3676  10.3676
    10.3909  10.3909  10.3924  10.3924  10.4070  10.4070  10.4103  10.4103
    10.4377  10.4377  10.4740  10.4740  10.4870  10.4870  10.5138  10.5138
    10.5267  10.5267  10.5268  10.5268  10.5780  10.5780  10.5781  10.5781
    10.6411  10.6411  10.6504  10.6504  10.6717  10.6717  10.6920  10.6920
    10.7278  10.7278  10.8754  10.8754  10.8916  10.8916  10.9047  10.9047
    11.0310  11.0310  11.1453  11.1453  11.1653  11.1653  11.1653  11.1653
    11.2033  11.2033  11.2243  11.2243  11.3838  11.3838  11.3886  11.3886
    11.4724  11.4724  11.4991  11.4991  11.5183  11.5183  11.5317  11.5317
    11.5843  11.5843  11.5933  11.5933  11.6106  11.6106  11.6975  11.6975
    11.7480  11.7480  11.7739  11.7739  11.7854  11.7854  11.7926  11.7926
    11.8240  11.8240  11.8379  11.8379  11.8418  11.8418  11.8848  11.8848
    11.9038  11.9038  11.9085  11.9085  11.9696  11.9696  12.0284  12.0284
    12.1827  12.1827  12.2039  12.2039  12.2832  12.2832  12.2833  12.2833
    12.3055  12.3055  12.3818  12.3818  12.3921  12.3921  12.4860  12.4860
    12.5427  12.5427  12.6075  12.6075  12.6087  12.6087  12.8176  12.8176
    12.9629  12.9629  12.9728  12.9728  13.0299  13.0299  14.3781  14.3781
    14.3987  14.3987  14.4408  14.4408  14.6478  14.6478  14.6553  14.6553
    15.2204  15.2204  17.0359  17.0359  17.0381  17.0381  17.1919  17.1919
    17.4510  17.4510  17.4513  17.4513  18.0318  18.0318  18.1099  18.1099
    18.1106  18.1106  18.1664  18.1664  18.1749  18.1749  18.4221  18.4221
    18.6483  18.6483  19.0201  19.0201  19.1137  19.1137  19.1286  19.1286
    19.9138  19.9138  19.9166  19.9166  20.2073  20.2073  20.2219  20.2219
    20.3290  20.3290  20.9656  20.9656  22.3158  22.3158  22.3244  22.3244
    22.5302  22.5302

     the Fermi energy is    12.6784 ev

!    total energy              =   -7950.09210941 Ry
     total all-electron energy =    -51823.944193 Ry
     estimated scf accuracy    <          5.8E-11 Ry
     smearing contrib. (-TS)   =       0.10930694 Ry
     internal energy E=F+TS    =   -7950.20141635 Ry

     The total energy is F=E-TS. E is the sum of the following terms:
     one-electron contribution =   -4523.23991515 Ry
     hartree contribution      =    2412.82850154 Ry
     xc contribution           =    -681.59711669 Ry
     ewald contribution        =   -3620.03648227 Ry
     one-center paw contrib.   =   -1538.15640377 Ry

     convergence has been achieved in  13 iterations

     Forces acting on atoms (cartesian axes, Ry/au):

     atom    1 type  1   force =     0.00000000    0.00000000    0.00145790
     atom    2 type  1   force =    -0.00000000   -0.00000000    0.00145790
     atom    3 type  1   force =     0.00000000    0.00000000   -0.00145790
     atom    4 type  1   force =    -0.00000000   -0.00000000   -0.00145790
     atom    5 type  1   force =     0.00000000    0.00000000    0.00031149
     atom    6 type  1   force =     0.00000000    0.00000000    0.00031149
     atom    7 type  1   force =     0.00000000   -0.00000000   -0.00031149
     atom    8 type  1   force =    -0.00000000   -0.00000000   -0.00031149
     atom    9 type  2   force =    -0.00000000   -0.00000000   -0.00082147
     atom   10 type  2   force =    -0.00000000   -0.00000000   -0.00082147
     atom   11 type  2   force =    -0.00000000   -0.00000000    0.00082147
     atom   12 type  2   force =    -0.00000000    0.00000000    0.00082147
     atom   13 type  2   force =     0.00000000    0.00116533    0.00000000
     atom   14 type  2   force =    -0.00100920    0.00058266   -0.00000000
     atom   15 type  2   force =    -0.00000000   -0.00116533    0.00000000
     atom   16 type  2   force =     0.00100920   -0.00058266    0.00000000
     atom   17 type  2   force =    -0.00100920   -0.00058266    0.00000000
     atom   18 type  2   force =     0.00100920    0.00058266   -0.00000000
     atom   19 type  2   force =    -0.00000000   -0.00000000    0.00000000
     atom   20 type  2   force =    -0.00000000   -0.00000000    0.00000000
     atom   21 type  2   force =    -0.00000000   -0.00000000   -0.00000000
     atom   22 type  2   force =    -0.00000000   -0.00000000    0.00000000
     atom   23 type  2   force =    -0.00000000   -0.00000000    0.00000000
     atom   24 type  2   force =     0.00000000   -0.00000000    0.00000000
     The non-local contrib.  to forces
     atom    1 type  1   force =     0.00000000    0.00000000    0.01860147
     atom    2 type  1   force =     0.00000000   -0.00000000    0.01860147
     atom    3 type  1   force =     0.00000000    0.00000000   -0.01860147
     atom    4 type  1   force =    -0.00000000   -0.00000000   -0.01860147
     atom    5 type  1   force =     0.00000000   -0.00000000   -0.00316494
     atom    6 type  1   force =     0.00000000    0.00000000   -0.00316494
     atom    7 type  1   force =     0.00000000    0.00000000    0.00316494
     atom    8 type  1   force =     0.00000000   -0.00000000    0.00316494
     atom    9 type  2   force =     0.00000000    0.00000000   -0.00473014
     atom   10 type  2   force =    -0.00000000   -0.00000000   -0.00473014
     atom   11 type  2   force =     0.00000000    0.00000000    0.00473014
     atom   12 type  2   force =     0.00000000   -0.00000000    0.00473014
     atom   13 type  2   force =     0.00000000   -0.08384312   -0.00000000
     atom   14 type  2   force =     0.07261028   -0.04192156    0.00000000
     atom   15 type  2   force =     0.00000000    0.08384312    0.00000000
     atom   16 type  2   force =    -0.07261028    0.04192156    0.00000000
     atom   17 type  2   force =     0.07261028    0.04192156    0.00000000
     atom   18 type  2   force =    -0.07261028   -0.04192156    0.00000000
     atom   19 type  2   force =     0.00000000    0.00000000    0.00000000
     atom   20 type  2   force =    -0.00000000   -0.00000000   -0.00000000
     atom   21 type  2   force =    -0.00000000   -0.00000000    0.00000000
     atom   22 type  2   force =     0.00000000    0.00000000   -0.00000000
     atom   23 type  2   force =     0.00000000    0.00000000    0.00000000
     atom   24 type  2   force =     0.00000000    0.00000000    0.00000000
     The ionic contribution  to forces
     atom    1 type  1   force =    -0.00001534    0.00001071   -0.72425591
     atom    2 type  1   force =     0.00001534   -0.00001071   -0.72425591
     atom    3 type  1   force =     0.00001534   -0.00001071    0.72425591
     atom    4 type  1   force =    -0.00001534    0.00001071    0.72425591
     atom    5 type  1   force =     0.00005439   -0.00002937    0.22403988
     atom    6 type  1   force =    -0.00005439    0.00002937    0.22403988
     atom    7 type  1   force =    -0.00005439    0.00002937   -0.22403988
     atom    8 type  1   force =     0.00005439   -0.00002937   -0.22403988
     atom    9 type  2   force =     0.00005797   -0.00003333   -0.44053342
     atom   10 type  2   force =    -0.00005797    0.00003333   -0.44053342
     atom   11 type  2   force =    -0.00005797    0.00003333    0.44053342
     atom   12 type  2   force =     0.00005797   -0.00003333    0.44053342
     atom   13 type  2   force =     0.00007028  -13.53501434    0.00000000
     atom   14 type  2   force =    11.72174872   -6.76755673   -0.00000000
     atom   15 type  2   force =    -0.00007028   13.53501434   -0.00000000
     atom   16 type  2   force =   -11.72174872    6.76755673    0.00000000
     atom   17 type  2   force =    11.72170077    6.76744789    0.00000000
     atom   18 type  2   force =   -11.72170077   -6.76744789   -0.00000000
     atom   19 type  2   force =    -0.00000000    0.00000000    0.00000000
     atom   20 type  2   force =    -0.00000000    0.00000000    0.00000000
     atom   21 type  2   force =     0.00000000   -0.00000000    0.00000000
     atom   22 type  2   force =     0.00000000   -0.00000000    0.00000000
     atom   23 type  2   force =     0.00000000    0.00000000    0.00000000
     atom   24 type  2   force =    -0.00000000   -0.00000000    0.00000000
     The local contribution  to forces
     atom    1 type  1   force =     0.00000000   -0.00000172    0.70720644
     atom    2 type  1   force =     0.00000000    0.00000172    0.70720644
     atom    3 type  1   force =    -0.00000000    0.00000172   -0.70720644
     atom    4 type  1   force =     0.00000000   -0.00000172   -0.70720644
     atom    5 type  1   force =     0.00146964   -0.00085038   -0.22056825
     atom    6 type  1   force =    -0.00146964    0.00085038   -0.22056825
     atom    7 type  1   force =    -0.00146964    0.00085038    0.22056825
     atom    8 type  1   force =     0.00146964   -0.00085038    0.22056825
     atom    9 type  2   force =     0.00195061   -0.00112630    0.44651854
     atom   10 type  2   force =    -0.00195061    0.00112630    0.44651854
     atom   11 type  2   force =    -0.00195061    0.00112630   -0.44651854
     atom   12 type  2   force =     0.00195061   -0.00112630   -0.44651854
     atom   13 type  2   force =    -0.00194879   13.62027082    0.00000000
     atom   14 type  2   force =   -11.79280633    6.80858060   -0.00000000
     atom   15 type  2   force =     0.00194879  -13.62027082   -0.00000000
     atom   16 type  2   force =    11.79280633   -6.80858060    0.00000000
     atom   17 type  2   force =   -11.79647612   -6.80844909    0.00000000
     atom   18 type  2   force =    11.79647612    6.80844909   -0.00000000
     atom   19 type  2   force =     0.00000000    0.00000000    0.00000000
     atom   20 type  2   force =     0.00000000    0.00000000    0.00000000
     atom   21 type  2   force =    -0.00000000    0.00000000    0.00000000
     atom   22 type  2   force =     0.00000000    0.00000000    0.00000000
     atom   23 type  2   force =    -0.00000000   -0.00000000    0.00000000
     atom   24 type  2   force =    -0.00000000    0.00000000    0.00000000
     The core correction contribution to forces
     atom    1 type  1   force =    -0.00000000    0.00000000   -0.00008503
     atom    2 type  1   force =     0.00000000   -0.00000000   -0.00008503
     atom    3 type  1   force =     0.00000000   -0.00000000    0.00008503
     atom    4 type  1   force =    -0.00000000    0.00000000    0.00008503
     atom    5 type  1   force =     0.00000319   -0.00000184    0.00000675
     atom    6 type  1   force =    -0.00000319    0.00000184    0.00000675
     atom    7 type  1   force =    -0.00000319    0.00000184   -0.00000675
     atom    8 type  1   force =     0.00000319   -0.00000184   -0.00000675
     atom    9 type  2   force =     0.00000120   -0.00000069   -0.00208594
     atom   10 type  2   force =    -0.00000120    0.00000069   -0.00208594
     atom   11 type  2   force =    -0.00000120    0.00000069    0.00208594
     atom   12 type  2   force =     0.00000120   -0.00000069    0.00208594
     atom   13 type  2   force =    -0.00000119    0.00082165    0.00000000
     atom   14 type  2   force =    -0.00070971    0.00040975   -0.00000000
     atom   15 type  2   force =     0.00000119   -0.00082165   -0.00000000
     atom   16 type  2   force =     0.00070971   -0.00040975    0.00000000
     atom   17 type  2   force =    -0.00071217   -0.00040979    0.00000000
     atom   18 type  2   force =     0.00071217    0.00040979   -0.00000000
     atom   19 type  2   force =     0.00000000    0.00000000    0.00000000
     atom   20 type  2   force =     0.00000000    0.00000000    0.00000000
     atom   21 type  2   force =     0.00000000    0.00000000    0.00000000
     atom   22 type  2   force =     0.00000000    0.00000000    0.00000000
     atom   23 type  2   force =    -0.00000000    0.00000000    0.00000000
     atom   24 type  2   force =    -0.00000000    0.00000000    0.00000000
     The Hubbard contrib.    to forces
     atom    1 type  1   force =     0.00000000    0.00000000    0.00000000
     atom    2 type  1   force =     0.00000000    0.00000000    0.00000000
     atom    3 type  1   force =     0.00000000    0.00000000    0.00000000
     atom    4 type  1   force =     0.00000000    0.00000000    0.00000000
     atom    5 type  1   force =     0.00000000    0.00000000    0.00000000
     atom    6 type  1   force =     0.00000000    0.00000000    0.00000000
     atom    7 type  1   force =     0.00000000    0.00000000    0.00000000
     atom    8 type  1   force =     0.00000000    0.00000000    0.00000000
     atom    9 type  2   force =     0.00000000    0.00000000    0.00000000
     atom   10 type  2   force =     0.00000000    0.00000000    0.00000000
     atom   11 type  2   force =     0.00000000    0.00000000    0.00000000
     atom   12 type  2   force =     0.00000000    0.00000000    0.00000000
     atom   13 type  2   force =     0.00000000    0.00000000    0.00000000
     atom   14 type  2   force =     0.00000000    0.00000000    0.00000000
     atom   15 type  2   force =     0.00000000    0.00000000    0.00000000
     atom   16 type  2   force =     0.00000000    0.00000000    0.00000000
     atom   17 type  2   force =     0.00000000    0.00000000    0.00000000
     atom   18 type  2   force =     0.00000000    0.00000000    0.00000000
     atom   19 type  2   force =     0.00000000    0.00000000    0.00000000
     atom   20 type  2   force =     0.00000000    0.00000000    0.00000000
     atom   21 type  2   force =     0.00000000    0.00000000    0.00000000
     atom   22 type  2   force =     0.00000000    0.00000000    0.00000000
     atom   23 type  2   force =     0.00000000    0.00000000    0.00000000
     atom   24 type  2   force =     0.00000000    0.00000000    0.00000000
     The SCF correction term to forces
     atom    1 type  1   force =     0.00000000   -0.00000000   -0.00000907
     atom    2 type  1   force =    -0.00000000    0.00000000   -0.00000907
     atom    3 type  1   force =    -0.00000000    0.00000000    0.00000907
     atom    4 type  1   force =     0.00000000   -0.00000000    0.00000907
     atom    5 type  1   force =    -0.00000000    0.00000000   -0.00000196
     atom    6 type  1   force =     0.00000000   -0.00000000   -0.00000196
     atom    7 type  1   force =     0.00000000   -0.00000000    0.00000196
     atom    8 type  1   force =    -0.00000000    0.00000000    0.00000196
     atom    9 type  2   force =    -0.00000000    0.00000000    0.00000949
     atom   10 type  2   force =     0.00000000   -0.00000000    0.00000949
     atom   11 type  2   force =     0.00000000   -0.00000000   -0.00000949
     atom   12 type  2   force =    -0.00000000    0.00000000   -0.00000949
     atom   13 type  2   force =    -0.00000000   -0.00000050   -0.00000000
     atom   14 type  2   force =     0.00000043   -0.00000025    0.00000000
     atom   15 type  2   force =     0.00000000    0.00000050    0.00000000
     atom   16 type  2   force =    -0.00000043    0.00000025   -0.00000000
     atom   17 type  2   force =     0.00000043    0.00000025   -0.00000000
     atom   18 type  2   force =    -0.00000043   -0.00000025    0.00000000
     atom   19 type  2   force =     0.00000000   -0.00000000   -0.00000000
     atom   20 type  2   force =     0.00000000   -0.00000000   -0.00000000
     atom   21 type  2   force =    -0.00000000    0.00000000   -0.00000000
     atom   22 type  2   force =    -0.00000000    0.00000000   -0.00000000
     atom   23 type  2   force =    -0.00000000   -0.00000000   -0.00000000
     atom   24 type  2   force =     0.00000000    0.00000000   -0.00000000

     Total force =     0.004443     Total SCF correction =     0.000027
     Energy error            =      2.6E-05 Ry
     Gradient error          =      1.5E-03 Ry/Bohr

     number of scf cycles    =   5
     number of bfgs steps    =   4

     energy             old  =   -7950.0920833141 Ry
     energy             new  =   -7950.0921094115 Ry

     CASE: energy            _new < energy            _old

     new trust radius        =       0.0041772305 bohr
     new conv_thr            =       0.0000000002 Ry


ATOMIC_POSITIONS (crystal)
Mg            0.0000000000        0.0000000000        0.4069952425
Mg           -0.0000000000        0.0000000000        0.9069952425
Mg            0.0000000000       -0.0000000000        0.5930047575
Mg           -0.0000000000       -0.0000000000        0.0930047575
Mg            0.3333330000        0.6666670000        0.6560241343
Mg            0.6666670000        0.3333330000        0.1560241343
Mg            0.6666670000        0.3333330000        0.3439758657
Mg            0.3333330000        0.6666670000        0.8439758657
Ni            0.3333330000        0.6666670000        0.3753914571
Ni            0.6666670000        0.3333330000        0.8753914571
Ni            0.6666670000        0.3333330000        0.6246085429
Ni            0.3333330000        0.6666670000        0.1246085429
Ni            0.1653970203        0.3307930406        0.2500000000
Ni            0.8346029801        0.1653970203        0.7500000000
Ni            0.8346029797        0.6692069594        0.7500000000
Ni            0.1653970199        0.8346029797        0.2500000000
Ni            0.6692069598        0.8346029797        0.2500000000
Ni            0.3307930402        0.1653970203        0.7500000000
Ni            0.5000000000       -0.0000000000        0.5000000000
Ni            0.5000000000        0.5000000000        0.0000000000
Ni            0.5000000000       -0.0000000000       -0.0000000000
Ni            0.5000000000        0.5000000000        0.5000000000
Ni            0.0000000000        0.5000000000       -0.0000000000
Ni            0.0000000000        0.5000000000        0.5000000000



     Writing config-only to output data dir ./ACOptimization/out/iso.save/
     NEW-OLD atomic charge density approx. for the potential

     Check: negative core charge=   -0.000016

     total cpu time spent up to now is     2776.2 secs

     Self-consistent Calculation

     iteration #  1     ecut=    50.00 Ry     beta= 0.10
     Davidson diagonalization with overlap
     ethr =  1.00E-06,  avg # of iterations =  4.3

     Threshold (ethr) on eigenvalues was too large:
     Diagonalizing with lowered threshold

     Davidson diagonalization with overlap
     ethr =  4.66E-09,  avg # of iterations =  5.0

     total cpu time spent up to now is     2833.3 secs

     total energy              =   -7950.09219131 Ry
     estimated scf accuracy    <       0.00001317 Ry

     iteration #  2     ecut=    50.00 Ry     beta= 0.10
     Davidson diagonalization with overlap
     ethr =  3.58E-09,  avg # of iterations =  1.0

     total cpu time spent up to now is     2851.4 secs

     total energy              =   -7950.09215238 Ry
     estimated scf accuracy    <       0.00000827 Ry

     iteration #  3     ecut=    50.00 Ry     beta= 0.10
     Davidson diagonalization with overlap
     ethr =  2.25E-09,  avg # of iterations =  2.0

     total cpu time spent up to now is     2872.1 secs

     total energy              =   -7950.09213748 Ry
     estimated scf accuracy    <       0.00000287 Ry

     iteration #  4     ecut=    50.00 Ry     beta= 0.10
     Davidson diagonalization with overlap
     ethr =  7.79E-10,  avg # of iterations =  4.0

     total cpu time spent up to now is     2897.4 secs

     total energy              =   -7950.09213743 Ry
     estimated scf accuracy    <       0.00000079 Ry

     iteration #  5     ecut=    50.00 Ry     beta= 0.10
     Davidson diagonalization with overlap
     ethr =  2.14E-10,  avg # of iterations =  1.0

     total cpu time spent up to now is     2916.2 secs

     total energy              =   -7950.09213780 Ry
     estimated scf accuracy    <       0.00000096 Ry

     iteration #  6     ecut=    50.00 Ry     beta= 0.10
     Davidson diagonalization with overlap
     ethr =  2.14E-10,  avg # of iterations =  2.0

     total cpu time spent up to now is     2939.9 secs

     total energy              =   -7950.09213799 Ry
     estimated scf accuracy    <       0.00000075 Ry

     iteration #  7     ecut=    50.00 Ry     beta= 0.10
     Davidson diagonalization with overlap
     ethr =  2.05E-10,  avg # of iterations =  2.0

     total cpu time spent up to now is     2964.9 secs

     total energy              =   -7950.09213630 Ry
     estimated scf accuracy    <       0.00000029 Ry

     iteration #  8     ecut=    50.00 Ry     beta= 0.10
     Davidson diagonalization with overlap
     ethr =  7.80E-11,  avg # of iterations =  4.0

     total cpu time spent up to now is     2990.7 secs

     total energy              =   -7950.09213619 Ry
     estimated scf accuracy    <       0.00000001 Ry

     iteration #  9     ecut=    50.00 Ry     beta= 0.10
     Davidson diagonalization with overlap
     ethr =  4.02E-12,  avg # of iterations =  4.3

     total cpu time spent up to now is     3019.1 secs

     total energy              =   -7950.09213618 Ry
     estimated scf accuracy    <       0.00000001 Ry

     iteration # 10     ecut=    50.00 Ry     beta= 0.10
     Davidson diagonalization with overlap
     ethr =  3.77E-12,  avg # of iterations =  2.0

     total cpu time spent up to now is     3042.5 secs

     total energy              =   -7950.09213617 Ry
     estimated scf accuracy    <       0.00000001 Ry

     iteration # 11     ecut=    50.00 Ry     beta= 0.10
     Davidson diagonalization with overlap
     ethr =  3.15E-12,  avg # of iterations =  2.0

     total cpu time spent up to now is     3064.3 secs

     total energy              =   -7950.09213614 Ry
     estimated scf accuracy    <          8.1E-09 Ry

     iteration # 12     ecut=    50.00 Ry     beta= 0.10
     Davidson diagonalization with overlap
     ethr =  2.21E-12,  avg # of iterations =  4.0

     total cpu time spent up to now is     3095.6 secs

     total energy              =   -7950.09213619 Ry
     estimated scf accuracy    <          6.1E-10 Ry

     iteration # 13     ecut=    50.00 Ry     beta= 0.10
     Davidson diagonalization with overlap
     ethr =  1.67E-13,  avg # of iterations =  3.7

     total cpu time spent up to now is     3122.9 secs

     End of self-consistent calculation

          k = 0.0000 0.0000 0.0000 ( 12841 PWs)   bands (ev):

   -89.9459 -89.9459 -89.9442 -89.9442 -89.9440 -89.9440 -89.9422 -89.9422
   -89.8901 -89.8901 -89.8886 -89.8886 -89.8877 -89.8877 -89.8863 -89.8863
   -89.8640 -89.8640 -89.8640 -89.8640 -89.8639 -89.8639 -89.8639 -89.8639
   -89.8635 -89.8635 -89.8635 -89.8635 -89.8635 -89.8635 -89.8634 -89.8634
   -62.1761 -62.1761 -62.1759 -62.1759 -62.1746 -62.1746 -62.1746 -62.1746
   -62.1217 -62.1217 -62.1216 -62.1216 -62.1201 -62.1201 -62.1201 -62.1201
   -51.9293 -51.9293 -51.9290 -51.9290 -51.9262 -51.9262 -51.9171 -51.9171
   -51.8821 -51.8821 -51.8813 -51.8813 -51.8795 -51.8795 -51.8715 -51.8715
   -51.8713 -51.8713 -51.8710 -51.8710 -51.8685 -51.8685 -51.8611 -51.8611
   -51.8014 -51.8014 -51.7995 -51.7995 -51.7961 -51.7961 -51.7955 -51.7955
   -49.8175 -49.8175 -49.8165 -49.8165 -49.7990 -49.7990 -49.7966 -49.7966
   -49.7852 -49.7852 -49.7748 -49.7748 -49.7572 -49.7572 -49.7567 -49.7567
   -49.7068 -49.7068 -49.7024 -49.7024 -49.6990 -49.6990 -49.6935 -49.6935
   -49.6917 -49.6917 -49.6863 -49.6863 -49.6819 -49.6819 -49.6572 -49.6572
   -49.6522 -49.6522 -49.6227 -49.6227 -49.6164 -49.6164 -49.6086 -49.6086
   -49.6070 -49.6070 -49.5996 -49.5996 -49.5973 -49.5973 -49.5944 -49.5944
   -49.5756 -49.5756 -49.5742 -49.5742 -49.5602 -49.5602 -49.5521 -49.5521
   -49.5476 -49.5476 -49.5473 -49.5473 -49.5368 -49.5368 -49.5362 -49.5362
   -29.3083 -29.3083 -29.3083 -29.3083 -29.3036 -29.3036 -29.3033 -29.3033
   -29.2525 -29.2525 -29.2523 -29.2523 -29.2469 -29.2469 -29.2469 -29.2469
   -29.0237 -29.0237 -29.0235 -29.0235 -29.0215 -29.0215 -29.0214 -29.0214
   -29.0197 -29.0197 -29.0195 -29.0195 -29.0118 -29.0118 -29.0113 -29.0113
   -28.9701 -28.9701 -28.9699 -28.9699 -28.9623 -28.9623 -28.9621 -28.9621
   -28.9603 -28.9603 -28.9601 -28.9601 -28.9567 -28.9567 -28.9565 -28.9565
     4.4181   4.4181   5.0330   5.0330   5.0377   5.0377   6.4710   6.4710
     7.1247   7.1247   8.4605   8.4605   8.5018   8.5018   8.5528   8.5528
     9.0979   9.0979   9.1129   9.1129   9.2632   9.2632   9.3067   9.3067
     9.4408   9.4408   9.4563   9.4563   9.4750   9.4750   9.4911   9.4911
     9.5140   9.5140   9.5166   9.5166   9.6360   9.6360   9.6565   9.6565
     9.6953   9.6953   9.7520   9.7520   9.7572   9.7572   9.7646   9.7646
     9.7862   9.7862   9.8462   9.8462   9.9034   9.9034   9.9273   9.9273
     9.9487   9.9487   9.9888   9.9888  10.2782  10.2782  10.2787  10.2787
    10.2897  10.2897  10.3033  10.3033  10.3078  10.3078  10.3588  10.3588
    10.5224  10.5224  10.5804  10.5804  10.6702  10.6702  10.6771  10.6771
    10.7194  10.7194  10.7711  10.7711  10.8089  10.8089  10.8104  10.8104
    10.9627  10.9627  10.9818  10.9818  11.2108  11.2108  11.3848  11.3848
    11.4352  11.4352  11.4441  11.4441  11.4515  11.4515  11.4887  11.4887
    11.6107  11.6107  11.6643  11.6643  11.7545  11.7545  11.7622  11.7622
    11.8837  11.8837  11.8942  11.8942  11.9784  11.9784  11.9833  11.9833
    11.9913  11.9913  11.9936  11.9936  12.0006  12.0006  12.0015  12.0015
    12.0077  12.0077  12.0237  12.0237  12.0407  12.0407  12.0436  12.0436
    12.0605  12.0605  12.0703  12.0703  12.0840  12.0840  12.1136  12.1136
    12.1327  12.1327  12.1563  12.1563  12.1570  12.1570  12.1738  12.1738
    12.1979  12.1979  12.2421  12.2421  12.3163  12.3163  12.5517  12.5517
    12.6042  12.6042  12.8240  12.8240  12.8252  12.8252  13.0526  13.0526
    13.0541  13.0541  13.0587  13.0587  13.0613  13.0613  13.3833  13.3833
    13.5129  13.5129  13.6892  13.6892  13.7404  13.7404  13.7483  13.7483
    13.7645  13.7645  13.7817  13.7817  13.7840  13.7840  13.8828  13.8828
    14.1125  14.1125  14.1417  14.1417  14.1476  14.1476  14.2001  14.2001
    15.5061  15.5061  15.5343  15.5343  15.5460  15.5460  15.5600  15.5600
    15.9865  15.9865  16.0338  16.0338  16.4160  16.4160  16.4376  16.4376
    17.0208  17.0208  17.0883  17.0883  17.1053  17.1053  17.2324  17.2324
    17.3113  17.3113  17.5248  17.5248  17.9645  17.9645  17.9751  17.9751
    18.4231  18.4231  18.4433  18.4433  18.6100  18.6100  19.0271  19.0271
    19.0342  19.0342  19.1424  19.1424  19.3521  19.3521  20.7370  20.7370
    20.8449  20.8449

          k = 0.0000 0.3849 0.0000 ( 12856 PWs)   bands (ev):

   -89.9451 -89.9451 -89.9440 -89.9440 -89.9437 -89.9437 -89.9425 -89.9425
   -89.8846 -89.8846 -89.8837 -89.8837 -89.8827 -89.8827 -89.8819 -89.8819
   -89.8693 -89.8693 -89.8690 -89.8690 -89.8688 -89.8688 -89.8685 -89.8685
   -89.8640 -89.8640 -89.8640 -89.8640 -89.8635 -89.8635 -89.8635 -89.8635
   -62.1760 -62.1760 -62.1759 -62.1759 -62.1746 -62.1746 -62.1746 -62.1746
   -62.1217 -62.1217 -62.1217 -62.1217 -62.1202 -62.1202 -62.1201 -62.1201
   -51.9329 -51.9329 -51.9299 -51.9299 -51.9259 -51.9259 -51.9230 -51.9230
   -51.8783 -51.8783 -51.8782 -51.8782 -51.8761 -51.8761 -51.8734 -51.8734
   -51.8589 -51.8589 -51.8585 -51.8585 -51.8559 -51.8559 -51.8552 -51.8552
   -51.8188 -51.8188 -51.8121 -51.8121 -51.8103 -51.8103 -51.8044 -51.8044
   -49.8176 -49.8176 -49.8098 -49.8098 -49.8059 -49.8059 -49.7972 -49.7972
   -49.7601 -49.7601 -49.7571 -49.7571 -49.7471 -49.7471 -49.7437 -49.7437
   -49.7078 -49.7078 -49.7039 -49.7039 -49.7018 -49.7018 -49.6973 -49.6973
   -49.6858 -49.6858 -49.6815 -49.6815 -49.6751 -49.6751 -49.6601 -49.6601
   -49.6528 -49.6528 -49.6334 -49.6334 -49.6303 -49.6303 -49.6232 -49.6232
   -49.6053 -49.6053 -49.6015 -49.6015 -49.5938 -49.5938 -49.5900 -49.5900
   -49.5867 -49.5867 -49.5856 -49.5856 -49.5682 -49.5682 -49.5664 -49.5664
   -49.5645 -49.5645 -49.5627 -49.5627 -49.5475 -49.5475 -49.5451 -49.5451
   -29.3079 -29.3079 -29.3078 -29.3078 -29.3030 -29.3030 -29.3029 -29.3029
   -29.2536 -29.2536 -29.2535 -29.2535 -29.2480 -29.2480 -29.2479 -29.2479
   -29.0243 -29.0243 -29.0241 -29.0241 -29.0205 -29.0205 -29.0203 -29.0203
   -29.0186 -29.0186 -29.0184 -29.0184 -29.0120 -29.0120 -29.0119 -29.0119
   -28.9697 -28.9697 -28.9696 -28.9696 -28.9633 -28.9633 -28.9631 -28.9631
   -28.9612 -28.9612 -28.9610 -28.9610 -28.9562 -28.9562 -28.9562 -28.9562
     5.3908   5.3908   5.9767   5.9767   5.9772   5.9772   7.3714   7.3714
     7.8422   7.8422   8.0251   8.0251   8.3382   8.3382   8.3521   8.3521
     8.9223   8.9223   8.9579   8.9579   9.1111   9.1111   9.1991   9.1991
     9.2744   9.2744   9.3932   9.3932   9.4563   9.4563   9.5251   9.5251
     9.5939   9.5939   9.6590   9.6590   9.6882   9.6882   9.7261   9.7261
     9.7379   9.7379   9.7720   9.7720   9.8759   9.8759   9.9601   9.9601
    10.0115  10.0115  10.0660  10.0660  10.1097  10.1097  10.1647  10.1647
    10.1838  10.1838  10.2142  10.2142  10.2210  10.2210  10.3090  10.3090
    10.3164  10.3164  10.3509  10.3509  10.3549  10.3549  10.4229  10.4229
    10.4473  10.4473  10.4546  10.4546  10.5252  10.5252  10.5774  10.5774
    10.6440  10.6440  10.6971  10.6971  10.7153  10.7153  10.7307  10.7307
    10.7920  10.7920  10.8823  10.8823  10.9139  10.9139  10.9536  10.9536
    10.9694  10.9694  11.0756  11.0756  11.0840  11.0840  11.1388  11.1388
    11.1569  11.1569  11.2205  11.2205  11.2834  11.2834  11.2966  11.2966
    11.3224  11.3224  11.3730  11.3730  11.4535  11.4535  11.4629  11.4629
    11.5399  11.5399  11.5762  11.5762  11.6031  11.6031  11.6317  11.6317
    11.6971  11.6971  11.7104  11.7104  11.7291  11.7291  11.7860  11.7860
    11.7885  11.7885  11.8506  11.8506  11.8920  11.8920  11.9456  11.9456
    11.9527  11.9527  12.0252  12.0252  12.0389  12.0389  12.0481  12.0481
    12.0989  12.0989  12.1109  12.1109  12.1137  12.1137  12.1448  12.1448
    12.2021  12.2021  12.2319  12.2319  12.2489  12.2489  12.3447  12.3447
    12.3709  12.3709  12.4361  12.4361  12.5126  12.5126  12.6383  12.6383
    12.8954  12.8954  12.9536  12.9536  13.3123  13.3123  13.3222  13.3222
    13.5205  13.5205  13.6212  13.6212  13.7048  13.7048  13.8804  13.8804
    13.9484  13.9484  13.9809  13.9809  14.0505  14.0505  14.2620  14.2620
    14.8650  14.8650  15.2985  15.2985  15.5990  15.5990  15.6450  15.6450
    16.9232  16.9232  17.3519  17.3519  17.4077  17.4077  17.5574  17.5574
    18.3282  18.3282  18.4140  18.4140  18.4940  18.4940  18.6165  18.6165
    18.6621  18.6621  18.8205  18.8205  19.2659  19.2659  19.6909  19.6909
    19.7727  19.7727  19.7969  19.7969  20.3164  20.3164  20.3583  20.3583
    20.6616  20.6616  21.0935  21.0935  21.4468  21.4468  21.7418  21.7418
    21.7733  21.7733

          k = 0.3333 0.5774 0.0000 ( 12828 PWs)   bands (ev):

   -89.9444 -89.9444 -89.9444 -89.9444 -89.9430 -89.9430 -89.9430 -89.9430
   -89.8784 -89.8784 -89.8784 -89.8784 -89.8764 -89.8764 -89.8764 -89.8764
   -89.8758 -89.8758 -89.8757 -89.8757 -89.8739 -89.8739 -89.8739 -89.8739
   -89.8639 -89.8639 -89.8639 -89.8639 -89.8635 -89.8635 -89.8634 -89.8634
   -62.1759 -62.1759 -62.1759 -62.1759 -62.1745 -62.1745 -62.1745 -62.1745
   -62.1218 -62.1218 -62.1218 -62.1218 -62.1202 -62.1202 -62.1201 -62.1201
   -51.9350 -51.9350 -51.9348 -51.9348 -51.9254 -51.9254 -51.9250 -51.9250
   -51.8765 -51.8765 -51.8718 -51.8718 -51.8714 -51.8714 -51.8688 -51.8688
   -51.8448 -51.8448 -51.8440 -51.8440 -51.8378 -51.8378 -51.8344 -51.8344
   -51.8338 -51.8338 -51.8305 -51.8305 -51.8238 -51.8238 -51.8235 -51.8235
   -49.8140 -49.8140 -49.8134 -49.8134 -49.8052 -49.8052 -49.8007 -49.8007
   -49.7345 -49.7345 -49.7319 -49.7319 -49.7298 -49.7298 -49.7268 -49.7268
   -49.7231 -49.7231 -49.7213 -49.7213 -49.7188 -49.7188 -49.6905 -49.6905
   -49.6805 -49.6805 -49.6784 -49.6784 -49.6757 -49.6757 -49.6483 -49.6483
   -49.6472 -49.6472 -49.6442 -49.6442 -49.6349 -49.6349 -49.6344 -49.6344
   -49.6094 -49.6094 -49.5987 -49.5987 -49.5927 -49.5927 -49.5924 -49.5924
   -49.5869 -49.5869 -49.5795 -49.5795 -49.5786 -49.5786 -49.5715 -49.5715
   -49.5698 -49.5698 -49.5692 -49.5692 -49.5527 -49.5527 -49.5491 -49.5491
   -29.3077 -29.3077 -29.3073 -29.3073 -29.3029 -29.3029 -29.3025 -29.3025
   -29.2540 -29.2540 -29.2539 -29.2539 -29.2486 -29.2486 -29.2485 -29.2485
   -29.0252 -29.0252 -29.0231 -29.0231 -29.0206 -29.0206 -29.0205 -29.0205
   -29.0175 -29.0175 -29.0174 -29.0174 -29.0135 -29.0135 -29.0111 -29.0111
   -28.9694 -28.9694 -28.9693 -28.9693 -28.9642 -28.9642 -28.9641 -28.9641
   -28.9614 -28.9614 -28.9611 -28.9611 -28.9561 -28.9561 -28.9560 -28.9560
     6.9991   6.9991   6.9999   6.9999   7.4209   7.4209   7.5340   7.5340
     7.5396   7.5396   7.7327   7.7327   7.8518   7.8518   7.8566   7.8566
     8.0342   8.0342   8.8837   8.8837   8.8840   8.8840   8.8989   8.8989
     8.9053   8.9053   8.9294   8.9294   8.9944   8.9944   9.6414   9.6414
     9.6477   9.6477   9.6506   9.6506   9.7766   9.7766   9.7916   9.7916
     9.9282   9.9282   9.9602   9.9602  10.0815  10.0815  10.0969  10.0969
    10.1571  10.1571  10.1609  10.1609  10.2081  10.2081  10.2177  10.2177
    10.2231  10.2231  10.2327  10.2327  10.3063  10.3063  10.3680  10.3680
    10.3916  10.3916  10.3922  10.3922  10.4071  10.4071  10.4105  10.4105
    10.4372  10.4372  10.4743  10.4743  10.4876  10.4876  10.5133  10.5133
    10.5262  10.5262  10.5267  10.5267  10.5778  10.5778  10.5784  10.5784
    10.6405  10.6405  10.6506  10.6506  10.6711  10.6711  10.6919  10.6919
    10.7279  10.7279  10.8746  10.8746  10.8911  10.8911  10.9039  10.9039
    11.0310  11.0310  11.1451  11.1451  11.1648  11.1648  11.1650  11.1650
    11.2030  11.2030  11.2248  11.2248  11.3847  11.3847  11.3896  11.3896
    11.4728  11.4728  11.4993  11.4993  11.5189  11.5189  11.5310  11.5310
    11.5843  11.5843  11.5926  11.5926  11.6109  11.6109  11.6974  11.6974
    11.7475  11.7475  11.7745  11.7745  11.7845  11.7845  11.7927  11.7927
    11.8240  11.8240  11.8376  11.8376  11.8419  11.8419  11.8847  11.8847
    11.9038  11.9038  11.9085  11.9085  11.9692  11.9692  12.0283  12.0283
    12.1829  12.1829  12.2038  12.2038  12.2835  12.2835  12.2838  12.2838
    12.3060  12.3060  12.3819  12.3819  12.3922  12.3922  12.4857  12.4857
    12.5424  12.5424  12.6077  12.6077  12.6088  12.6088  12.8184  12.8184
    12.9632  12.9632  12.9732  12.9732  13.0299  13.0299  14.3782  14.3782
    14.3986  14.3986  14.4401  14.4401  14.6486  14.6486  14.6560  14.6560
    15.2222  15.2222  17.0367  17.0367  17.0389  17.0389  17.1915  17.1915
    17.4507  17.4507  17.4509  17.4509  18.0310  18.0310  18.1109  18.1109
    18.1117  18.1117  18.1660  18.1660  18.1745  18.1745  18.4252  18.4252
    18.6444  18.6444  19.0194  19.0194  19.1109  19.1109  19.1259  19.1259
    19.9152  19.9152  19.9181  19.9181  20.2081  20.2081  20.2228  20.2228
    20.3296  20.3296  20.9649  20.9649  22.3167  22.3167  22.3253  22.3253
    22.5307  22.5307

     the Fermi energy is    12.6786 ev

!    total energy              =   -7950.09213619 Ry
     total all-electron energy =    -51823.944220 Ry
     estimated scf accuracy    <          1.6E-10 Ry
     smearing contrib. (-TS)   =       0.10929121 Ry
     internal energy E=F+TS    =   -7950.20142740 Ry

     The total energy is F=E-TS. E is the sum of the following terms:
     one-electron contribution =   -4523.40543109 Ry
     hartree contribution      =    2412.91157456 Ry
     xc contribution           =    -681.59739304 Ry
     ewald contribution        =   -3619.95375329 Ry
     one-center paw contrib.   =   -1538.15642454 Ry

     convergence has been achieved in  13 iterations

     Forces acting on atoms (cartesian axes, Ry/au):

     atom    1 type  1   force =     0.00000000    0.00000000    0.00086728
     atom    2 type  1   force =    -0.00000000   -0.00000000    0.00086728
     atom    3 type  1   force =     0.00000000    0.00000000   -0.00086728
     atom    4 type  1   force =    -0.00000000   -0.00000000   -0.00086728
     atom    5 type  1   force =    -0.00000000   -0.00000000    0.00019376
     atom    6 type  1   force =    -0.00000000   -0.00000000    0.00019376
     atom    7 type  1   force =     0.00000000    0.00000000   -0.00019376
     atom    8 type  1   force =     0.00000000    0.00000000   -0.00019376
     atom    9 type  2   force =    -0.00000000   -0.00000000   -0.00054784
     atom   10 type  2   force =     0.00000000    0.00000000   -0.00054784
     atom   11 type  2   force =     0.00000000    0.00000000    0.00054784
     atom   12 type  2   force =    -0.00000000    0.00000000    0.00054784
     atom   13 type  2   force =     0.00000000    0.00067474   -0.00000000
     atom   14 type  2   force =    -0.00058434    0.00033737   -0.00000000
     atom   15 type  2   force =     0.00000000   -0.00067474   -0.00000000
     atom   16 type  2   force =     0.00058434   -0.00033737   -0.00000000
     atom   17 type  2   force =    -0.00058434   -0.00033737   -0.00000000
     atom   18 type  2   force =     0.00058434    0.00033737    0.00000000
     atom   19 type  2   force =     0.00000000   -0.00000000    0.00000000
     atom   20 type  2   force =     0.00000000    0.00000000   -0.00000000
     atom   21 type  2   force =     0.00000000    0.00000000   -0.00000000
     atom   22 type  2   force =    -0.00000000   -0.00000000    0.00000000
     atom   23 type  2   force =     0.00000000    0.00000000   -0.00000000
     atom   24 type  2   force =     0.00000000   -0.00000000   -0.00000000
     The non-local contrib.  to forces
     atom    1 type  1   force =    -0.00000000   -0.00000000    0.01677894
     atom    2 type  1   force =    -0.00000000    0.00000000    0.01677894
     atom    3 type  1   force =     0.00000000   -0.00000000   -0.01677894
     atom    4 type  1   force =     0.00000000    0.00000000   -0.01677894
     atom    5 type  1   force =     0.00000000   -0.00000000   -0.00363081
     atom    6 type  1   force =    -0.00000000   -0.00000000   -0.00363081
     atom    7 type  1   force =     0.00000000    0.00000000    0.00363081
     atom    8 type  1   force =    -0.00000000   -0.00000000    0.00363081
     atom    9 type  2   force =     0.00000000   -0.00000000   -0.00439470
     atom   10 type  2   force =     0.00000000    0.00000000   -0.00439470
     atom   11 type  2   force =     0.00000000    0.00000000    0.00439470
     atom   12 type  2   force =    -0.00000000   -0.00000000    0.00439470
     atom   13 type  2   force =     0.00000000   -0.08392079    0.00000000
     atom   14 type  2   force =     0.07267754   -0.04196039    0.00000000
     atom   15 type  2   force =     0.00000000    0.08392079    0.00000000
     atom   16 type  2   force =    -0.07267754    0.04196039    0.00000000
     atom   17 type  2   force =     0.07267754    0.04196039    0.00000000
     atom   18 type  2   force =    -0.07267754   -0.04196039    0.00000000
     atom   19 type  2   force =     0.00000000    0.00000000    0.00000000
     atom   20 type  2   force =     0.00000000    0.00000000   -0.00000000
     atom   21 type  2   force =    -0.00000000   -0.00000000   -0.00000000
     atom   22 type  2   force =    -0.00000000   -0.00000000   -0.00000000
     atom   23 type  2   force =     0.00000000    0.00000000    0.00000000
     atom   24 type  2   force =    -0.00000000    0.00000000    0.00000000
     The ionic contribution  to forces
     atom    1 type  1   force =    -0.00001532    0.00001070   -0.79706730
     atom    2 type  1   force =     0.00001532   -0.00001070   -0.79706730
     atom    3 type  1   force =     0.00001532   -0.00001070    0.79706730
     atom    4 type  1   force =    -0.00001532    0.00001070    0.79706730
     atom    5 type  1   force =     0.00005437   -0.00002935    0.21900444
     atom    6 type  1   force =    -0.00005437    0.00002935    0.21900444
     atom    7 type  1   force =    -0.00005437    0.00002935   -0.21900444
     atom    8 type  1   force =     0.00005437   -0.00002935   -0.21900444
     atom    9 type  2   force =     0.00005788   -0.00003327   -0.42081389
     atom   10 type  2   force =    -0.00005788    0.00003327   -0.42081389
     atom   11 type  2   force =    -0.00005788    0.00003327    0.42081389
     atom   12 type  2   force =     0.00005788   -0.00003327    0.42081389
     atom   13 type  2   force =     0.00007032  -13.63691190    0.00000000
     atom   14 type  2   force =    11.80999455   -6.81850548   -0.00000000
     atom   15 type  2   force =    -0.00007032   13.63691190   -0.00000000
     atom   16 type  2   force =   -11.80999455    6.81850548    0.00000000
     atom   17 type  2   force =    11.80994668    6.81839665    0.00000000
     atom   18 type  2   force =   -11.80994668   -6.81839665   -0.00000000
     atom   19 type  2   force =    -0.00000000    0.00000000    0.00000000
     atom   20 type  2   force =    -0.00000000    0.00000000    0.00000000
     atom   21 type  2   force =    -0.00000000   -0.00000000    0.00000000
     atom   22 type  2   force =     0.00000000   -0.00000000    0.00000000
     atom   23 type  2   force =     0.00000000    0.00000000    0.00000000
     atom   24 type  2   force =    -0.00000000   -0.00000000    0.00000000
     The local contribution  to forces
     atom    1 type  1   force =     0.00000000   -0.00000172    0.78124505
     atom    2 type  1   force =    -0.00000000    0.00000172    0.78124505
     atom    3 type  1   force =    -0.00000000    0.00000172   -0.78124505
     atom    4 type  1   force =    -0.00000000   -0.00000172   -0.78124505
     atom    5 type  1   force =     0.00146964   -0.00085038   -0.21518392
     atom    6 type  1   force =    -0.00146964    0.00085038   -0.21518392
     atom    7 type  1   force =    -0.00146964    0.00085038    0.21518392
     atom    8 type  1   force =     0.00146964   -0.00085038    0.21518392
     atom    9 type  2   force =     0.00195066   -0.00112633    0.42674478
     atom   10 type  2   force =    -0.00195066    0.00112633    0.42674478
     atom   11 type  2   force =    -0.00195066    0.00112633   -0.42674478
     atom   12 type  2   force =     0.00195066   -0.00112633   -0.42674478
     atom   13 type  2   force =    -0.00194876   13.72175575    0.00000000
     atom   14 type  2   force =   -11.88069474    6.85932304   -0.00000000
     atom   15 type  2   force =     0.00194876  -13.72175575   -0.00000000
     atom   16 type  2   force =    11.88069474   -6.85932304    0.00000000
     atom   17 type  2   force =   -11.88436457   -6.85919159    0.00000000
     atom   18 type  2   force =    11.88436457    6.85919159   -0.00000000
     atom   19 type  2   force =     0.00000000    0.00000000    0.00000000
     atom   20 type  2   force =     0.00000000    0.00000000    0.00000000
     atom   21 type  2   force =    -0.00000000    0.00000000    0.00000000
     atom   22 type  2   force =     0.00000000    0.00000000    0.00000000
     atom   23 type  2   force =    -0.00000000   -0.00000000    0.00000000
     atom   24 type  2   force =    -0.00000000    0.00000000    0.00000000
     The core correction contribution to forces
     atom    1 type  1   force =    -0.00000000    0.00000000   -0.00007681
     atom    2 type  1   force =     0.00000000   -0.00000000   -0.00007681
     atom    3 type  1   force =     0.00000000   -0.00000000    0.00007681
     atom    4 type  1   force =    -0.00000000    0.00000000    0.00007681
     atom    5 type  1   force =     0.00000319   -0.00000184    0.00000878
     atom    6 type  1   force =    -0.00000319    0.00000184    0.00000878
     atom    7 type  1   force =    -0.00000319    0.00000184   -0.00000878
     atom    8 type  1   force =     0.00000319   -0.00000184   -0.00000878
     atom    9 type  2   force =     0.00000120   -0.00000069   -0.00208861
     atom   10 type  2   force =    -0.00000120    0.00000069   -0.00208861
     atom   11 type  2   force =    -0.00000120    0.00000069    0.00208861
     atom   12 type  2   force =     0.00000120   -0.00000069    0.00208861
     atom   13 type  2   force =    -0.00000119    0.00080770    0.00000000
     atom   14 type  2   force =    -0.00069763    0.00040278   -0.00000000
     atom   15 type  2   force =     0.00000119   -0.00080770   -0.00000000
     atom   16 type  2   force =     0.00069763   -0.00040278    0.00000000
     atom   17 type  2   force =    -0.00070009   -0.00040282    0.00000000
     atom   18 type  2   force =     0.00070009    0.00040282   -0.00000000
     atom   19 type  2   force =     0.00000000    0.00000000    0.00000000
     atom   20 type  2   force =     0.00000000    0.00000000    0.00000000
     atom   21 type  2   force =     0.00000000    0.00000000    0.00000000
     atom   22 type  2   force =     0.00000000    0.00000000    0.00000000
     atom   23 type  2   force =     0.00000000    0.00000000    0.00000000
     atom   24 type  2   force =    -0.00000000    0.00000000    0.00000000
     The Hubbard contrib.    to forces
     atom    1 type  1   force =     0.00000000    0.00000000    0.00000000
     atom    2 type  1   force =     0.00000000    0.00000000    0.00000000
     atom    3 type  1   force =     0.00000000    0.00000000    0.00000000
     atom    4 type  1   force =     0.00000000    0.00000000    0.00000000
     atom    5 type  1   force =     0.00000000    0.00000000    0.00000000
     atom    6 type  1   force =     0.00000000    0.00000000    0.00000000
     atom    7 type  1   force =     0.00000000    0.00000000    0.00000000
     atom    8 type  1   force =     0.00000000    0.00000000    0.00000000
     atom    9 type  2   force =     0.00000000    0.00000000    0.00000000
     atom   10 type  2   force =     0.00000000    0.00000000    0.00000000
     atom   11 type  2   force =     0.00000000    0.00000000    0.00000000
     atom   12 type  2   force =     0.00000000    0.00000000    0.00000000
     atom   13 type  2   force =     0.00000000    0.00000000    0.00000000
     atom   14 type  2   force =     0.00000000    0.00000000    0.00000000
     atom   15 type  2   force =     0.00000000    0.00000000    0.00000000
     atom   16 type  2   force =     0.00000000    0.00000000    0.00000000
     atom   17 type  2   force =     0.00000000    0.00000000    0.00000000
     atom   18 type  2   force =     0.00000000    0.00000000    0.00000000
     atom   19 type  2   force =     0.00000000    0.00000000    0.00000000
     atom   20 type  2   force =     0.00000000    0.00000000    0.00000000
     atom   21 type  2   force =     0.00000000    0.00000000    0.00000000
     atom   22 type  2   force =     0.00000000    0.00000000    0.00000000
     atom   23 type  2   force =     0.00000000    0.00000000    0.00000000
     atom   24 type  2   force =     0.00000000    0.00000000    0.00000000
     The SCF correction term to forces
     atom    1 type  1   force =    -0.00000001    0.00000000   -0.00001260
     atom    2 type  1   force =     0.00000001   -0.00000000   -0.00001260
     atom    3 type  1   force =     0.00000001   -0.00000000    0.00001260
     atom    4 type  1   force =    -0.00000001    0.00000000    0.00001260
     atom    5 type  1   force =    -0.00000000    0.00000000   -0.00000473
     atom    6 type  1   force =     0.00000000   -0.00000000   -0.00000473
     atom    7 type  1   force =     0.00000000   -0.00000000    0.00000473
     atom    8 type  1   force =    -0.00000000    0.00000000    0.00000473
     atom    9 type  2   force =     0.00000002   -0.00000001    0.00000456
     atom   10 type  2   force =    -0.00000002    0.00000001    0.00000456
     atom   11 type  2   force =    -0.00000002    0.00000001   -0.00000456
     atom   12 type  2   force =     0.00000002   -0.00000001   -0.00000456
     atom   13 type  2   force =    -0.00000001    0.00001319    0.00000000
     atom   14 type  2   force =    -0.00001143    0.00000660    0.00000000
     atom   15 type  2   force =     0.00000001   -0.00001319   -0.00000000
     atom   16 type  2   force =     0.00001143   -0.00000660   -0.00000000
     atom   17 type  2   force =    -0.00001143   -0.00000659   -0.00000000
     atom   18 type  2   force =     0.00001143    0.00000659    0.00000000
     atom   19 type  2   force =     0.00000000    0.00000000   -0.00000000
     atom   20 type  2   force =     0.00000000   -0.00000000    0.00000000
     atom   21 type  2   force =    -0.00000000    0.00000000    0.00000000
     atom   22 type  2   force =     0.00000000   -0.00000000   -0.00000000
     atom   23 type  2   force =     0.00000000   -0.00000000    0.00000000
     atom   24 type  2   force =    -0.00000000   -0.00000000   -0.00000000

     Total force =     0.002663     Total SCF correction =     0.000043
     Energy error            =      2.7E-05 Ry
     Gradient error          =      8.7E-04 Ry/Bohr

     number of scf cycles    =   6
     number of bfgs steps    =   5

     energy             old  =   -7950.0921094115 Ry
     energy             new  =   -7950.0921361890 Ry

     CASE: energy            _new < energy            _old

     new trust radius        =       0.0061417732 bohr
     new conv_thr            =       0.0000000002 Ry


ATOMIC_POSITIONS (crystal)
Mg            0.0000000000        0.0000000000        0.4072006063
Mg           -0.0000000000        0.0000000000        0.9072006063
Mg            0.0000000000        0.0000000000        0.5927993937
Mg           -0.0000000000       -0.0000000000        0.0927993937
Mg            0.3333330000        0.6666670000        0.6560695134
Mg            0.6666670000        0.3333330000        0.1560695134
Mg            0.6666670000        0.3333330000        0.3439304866
Mg            0.3333330000        0.6666670000        0.8439304866
Ni            0.3333330000        0.6666670000        0.3753620806
Ni            0.6666670000        0.3333330000        0.8753620806
Ni            0.6666670000        0.3333330000        0.6246379194
Ni            0.3333330000        0.6666670000        0.1246379194
Ni            0.1654770438        0.3309530876        0.2500000000
Ni            0.8345229566        0.1654770438        0.7500000000
Ni            0.8345229562        0.6690469124        0.7500000000
Ni            0.1654770434        0.8345229562        0.2500000000
Ni            0.6690469128        0.8345229562        0.2500000000
Ni            0.3309530872        0.1654770438        0.7500000000
Ni            0.5000000000       -0.0000000000        0.5000000000
Ni            0.5000000000        0.5000000000       -0.0000000000
Ni            0.5000000000       -0.0000000000       -0.0000000000
Ni            0.5000000000        0.5000000000        0.5000000000
Ni            0.0000000000        0.5000000000       -0.0000000000
Ni            0.0000000000        0.5000000000        0.5000000000



     Writing config-only to output data dir ./ACOptimization/out/iso.save/
     NEW-OLD atomic charge density approx. for the potential

     Check: negative core charge=   -0.000016

     total cpu time spent up to now is     3138.2 secs

     Self-consistent Calculation

     iteration #  1     ecut=    50.00 Ry     beta= 0.10
     Davidson diagonalization with overlap
     ethr =  1.00E-06,  avg # of iterations =  6.0

     Threshold (ethr) on eigenvalues was too large:
     Diagonalizing with lowered threshold

     Davidson diagonalization with overlap
     ethr =  9.70E-09,  avg # of iterations =  5.0

     total cpu time spent up to now is     3194.8 secs

     total energy              =   -7950.09225256 Ry
     estimated scf accuracy    <       0.00002815 Ry

     iteration #  2     ecut=    50.00 Ry     beta= 0.10
     Davidson diagonalization with overlap
     ethr =  7.65E-09,  avg # of iterations =  1.0

     total cpu time spent up to now is     3213.2 secs

     total energy              =   -7950.09218792 Ry
     estimated scf accuracy    <       0.00001807 Ry

     iteration #  3     ecut=    50.00 Ry     beta= 0.10
     Davidson diagonalization with overlap
     ethr =  4.91E-09,  avg # of iterations =  2.0

     total cpu time spent up to now is     3234.6 secs

     total energy              =   -7950.09215629 Ry
     estimated scf accuracy    <       0.00000596 Ry

     iteration #  4     ecut=    50.00 Ry     beta= 0.10
     Davidson diagonalization with overlap
     ethr =  1.62E-09,  avg # of iterations =  4.0

     total cpu time spent up to now is     3260.3 secs

     total energy              =   -7950.09215721 Ry
     estimated scf accuracy    <       0.00000169 Ry

     iteration #  5     ecut=    50.00 Ry     beta= 0.10
     Davidson diagonalization with overlap
     ethr =  4.58E-10,  avg # of iterations =  1.0

     total cpu time spent up to now is     3279.0 secs

     total energy              =   -7950.09215714 Ry
     estimated scf accuracy    <       0.00000184 Ry

     iteration #  6     ecut=    50.00 Ry     beta= 0.10
     Davidson diagonalization with overlap
     ethr =  4.58E-10,  avg # of iterations =  2.0

     total cpu time spent up to now is     3302.6 secs

     total energy              =   -7950.09215931 Ry
     estimated scf accuracy    <       0.00000152 Ry

     iteration #  7     ecut=    50.00 Ry     beta= 0.10
     Davidson diagonalization with overlap
     ethr =  4.12E-10,  avg # of iterations =  2.0

     total cpu time spent up to now is     3323.1 secs

     total energy              =   -7950.09215278 Ry
     estimated scf accuracy    <       0.00000039 Ry

     iteration #  8     ecut=    50.00 Ry     beta= 0.10
     Davidson diagonalization with overlap
     ethr =  1.07E-10,  avg # of iterations =  4.0

     total cpu time spent up to now is     3350.3 secs

     total energy              =   -7950.09215270 Ry
     estimated scf accuracy    <       0.00000004 Ry

     iteration #  9     ecut=    50.00 Ry     beta= 0.10
     Davidson diagonalization with overlap
     ethr =  1.13E-11,  avg # of iterations =  4.0

     total cpu time spent up to now is     3376.8 secs

     total energy              =   -7950.09215270 Ry
     estimated scf accuracy    <       0.00000001 Ry

     iteration # 10     ecut=    50.00 Ry     beta= 0.10
     Davidson diagonalization with overlap
     ethr =  2.78E-12,  avg # of iterations =  3.3

     total cpu time spent up to now is     3401.2 secs

     total energy              =   -7950.09215261 Ry
     estimated scf accuracy    <       0.00000002 Ry

     iteration # 11     ecut=    50.00 Ry     beta= 0.10
     Davidson diagonalization with overlap
     ethr =  2.78E-12,  avg # of iterations =  5.0

     total cpu time spent up to now is     3429.8 secs

     total energy              =   -7950.09215262 Ry
     estimated scf accuracy    <       0.00000002 Ry

     iteration # 12     ecut=    50.00 Ry     beta= 0.10
     Davidson diagonalization with overlap
     ethr =  2.78E-12,  avg # of iterations =  3.0

     total cpu time spent up to now is     3456.8 secs

     total energy              =   -7950.09215269 Ry
     estimated scf accuracy    <          3.2E-10 Ry

     iteration # 13     ecut=    50.00 Ry     beta= 0.10
     Davidson diagonalization with overlap
     ethr =  1.00E-13,  avg # of iterations =  3.3

     total cpu time spent up to now is     3483.1 secs

     total energy              =   -7950.09215269 Ry
     estimated scf accuracy    <          1.1E-09 Ry

     iteration # 14     ecut=    50.00 Ry     beta= 0.10
     Davidson diagonalization with overlap
     ethr =  1.00E-13,  avg # of iterations =  2.0

     total cpu time spent up to now is     3504.4 secs

     total energy              =   -7950.09215269 Ry
     estimated scf accuracy    <          2.5E-10 Ry

     iteration # 15     ecut=    50.00 Ry     beta= 0.10
     Davidson diagonalization with overlap
     ethr =  1.00E-13,  avg # of iterations =  2.0

     total cpu time spent up to now is     3525.3 secs

     total energy              =   -7950.09215269 Ry
     estimated scf accuracy    <          2.5E-10 Ry

     iteration # 16     ecut=    50.00 Ry     beta= 0.10
     Davidson diagonalization with overlap
     ethr =  1.00E-13,  avg # of iterations =  2.0

     total cpu time spent up to now is     3545.8 secs

     End of self-consistent calculation

          k = 0.0000 0.0000 0.0000 ( 12841 PWs)   bands (ev):

   -89.9457 -89.9457 -89.9440 -89.9440 -89.9437 -89.9437 -89.9419 -89.9419
   -89.8900 -89.8900 -89.8881 -89.8881 -89.8881 -89.8881 -89.8863 -89.8863
   -89.8640 -89.8640 -89.8640 -89.8640 -89.8639 -89.8639 -89.8639 -89.8639
   -89.8636 -89.8636 -89.8635 -89.8635 -89.8635 -89.8635 -89.8634 -89.8634
   -62.1757 -62.1757 -62.1756 -62.1756 -62.1743 -62.1743 -62.1743 -62.1743
   -62.1223 -62.1223 -62.1222 -62.1222 -62.1206 -62.1206 -62.1206 -62.1206
   -51.9291 -51.9291 -51.9288 -51.9288 -51.9260 -51.9260 -51.9168 -51.9168
   -51.8822 -51.8822 -51.8809 -51.8809 -51.8799 -51.8799 -51.8713 -51.8713
   -51.8712 -51.8712 -51.8708 -51.8708 -51.8690 -51.8690 -51.8609 -51.8609
   -51.8014 -51.8014 -51.7994 -51.7994 -51.7959 -51.7959 -51.7956 -51.7956
   -49.8174 -49.8174 -49.8165 -49.8165 -49.7989 -49.7989 -49.7963 -49.7963
   -49.7852 -49.7852 -49.7749 -49.7749 -49.7569 -49.7569 -49.7564 -49.7564
   -49.7066 -49.7066 -49.7018 -49.7018 -49.6989 -49.6989 -49.6939 -49.6939
   -49.6916 -49.6916 -49.6863 -49.6863 -49.6816 -49.6816 -49.6571 -49.6571
   -49.6519 -49.6519 -49.6226 -49.6226 -49.6159 -49.6159 -49.6084 -49.6084
   -49.6067 -49.6067 -49.5991 -49.5991 -49.5976 -49.5976 -49.5950 -49.5950
   -49.5751 -49.5751 -49.5738 -49.5738 -49.5597 -49.5597 -49.5517 -49.5517
   -49.5484 -49.5484 -49.5481 -49.5481 -49.5377 -49.5377 -49.5370 -49.5370
   -29.3079 -29.3079 -29.3079 -29.3079 -29.3033 -29.3033 -29.3030 -29.3030
   -29.2531 -29.2531 -29.2530 -29.2530 -29.2474 -29.2474 -29.2474 -29.2474
   -29.0234 -29.0234 -29.0233 -29.0233 -29.0211 -29.0211 -29.0210 -29.0210
   -29.0193 -29.0193 -29.0191 -29.0191 -29.0114 -29.0114 -29.0110 -29.0110
   -28.9710 -28.9710 -28.9708 -28.9708 -28.9627 -28.9627 -28.9625 -28.9625
   -28.9607 -28.9607 -28.9605 -28.9605 -28.9572 -28.9572 -28.9571 -28.9571
     4.4181   4.4181   5.0314   5.0314   5.0392   5.0392   6.4696   6.4696
     7.1265   7.1265   8.4619   8.4619   8.5017   8.5017   8.5531   8.5531
     9.0958   9.0958   9.1116   9.1116   9.2632   9.2632   9.3063   9.3063
     9.4385   9.4385   9.4558   9.4558   9.4746   9.4746   9.4911   9.4911
     9.5134   9.5134   9.5164   9.5164   9.6362   9.6362   9.6567   9.6567
     9.6961   9.6961   9.7506   9.7506   9.7574   9.7574   9.7648   9.7648
     9.7862   9.7862   9.8458   9.8458   9.9034   9.9034   9.9273   9.9273
     9.9486   9.9486   9.9888   9.9888  10.2778  10.2778  10.2783  10.2783
    10.2903  10.2903  10.3032  10.3032  10.3078  10.3078  10.3594  10.3594
    10.5220  10.5220  10.5799  10.5799  10.6710  10.6710  10.6774  10.6774
    10.7197  10.7197  10.7718  10.7718  10.8092  10.8092  10.8111  10.8111
    10.9634  10.9634  10.9824  10.9824  11.2127  11.2127  11.3853  11.3853
    11.4353  11.4353  11.4448  11.4448  11.4526  11.4526  11.4896  11.4896
    11.6102  11.6102  11.6639  11.6639  11.7547  11.7547  11.7626  11.7626
    11.8848  11.8848  11.8952  11.8952  11.9782  11.9782  11.9832  11.9832
    11.9903  11.9903  11.9927  11.9927  12.0000  12.0000  12.0019  12.0019
    12.0090  12.0090  12.0232  12.0232  12.0412  12.0412  12.0439  12.0439
    12.0604  12.0604  12.0704  12.0704  12.0840  12.0840  12.1139  12.1139
    12.1333  12.1333  12.1552  12.1552  12.1559  12.1559  12.1734  12.1734
    12.1978  12.1978  12.2428  12.2428  12.3169  12.3169  12.5519  12.5519
    12.6044  12.6044  12.8246  12.8246  12.8259  12.8259  13.0530  13.0530
    13.0542  13.0542  13.0579  13.0579  13.0607  13.0607  13.3851  13.3851
    13.5142  13.5142  13.6922  13.6922  13.7405  13.7405  13.7460  13.7460
    13.7639  13.7639  13.7790  13.7790  13.7838  13.7838  13.8838  13.8838
    14.1133  14.1133  14.1425  14.1425  14.1441  14.1441  14.1970  14.1970
    15.5076  15.5076  15.5344  15.5344  15.5464  15.5464  15.5617  15.5617
    15.9882  15.9882  16.0355  16.0355  16.4162  16.4162  16.4379  16.4379
    17.0179  17.0179  17.0905  17.0905  17.1074  17.1074  17.2297  17.2297
    17.3073  17.3073  17.5242  17.5242  17.9635  17.9635  17.9742  17.9742
    18.4238  18.4238  18.4439  18.4439  18.6109  18.6109  19.0265  19.0265
    19.0336  19.0336  19.1404  19.1404  19.3527  19.3527  20.7283  20.7283
    20.8441  20.8441

          k = 0.0000 0.3849 0.0000 ( 12856 PWs)   bands (ev):

   -89.9449 -89.9449 -89.9438 -89.9438 -89.9434 -89.9434 -89.9423 -89.9423
   -89.8845 -89.8845 -89.8832 -89.8832 -89.8831 -89.8831 -89.8820 -89.8820
   -89.8694 -89.8694 -89.8692 -89.8692 -89.8686 -89.8686 -89.8684 -89.8684
   -89.8639 -89.8639 -89.8639 -89.8639 -89.8635 -89.8635 -89.8635 -89.8635
   -62.1756 -62.1756 -62.1756 -62.1756 -62.1743 -62.1743 -62.1742 -62.1742
   -62.1223 -62.1223 -62.1223 -62.1223 -62.1208 -62.1208 -62.1207 -62.1207
   -51.9327 -51.9327 -51.9297 -51.9297 -51.9257 -51.9257 -51.9228 -51.9228
   -51.8787 -51.8787 -51.8781 -51.8781 -51.8757 -51.8757 -51.8733 -51.8733
   -51.8589 -51.8589 -51.8585 -51.8585 -51.8562 -51.8562 -51.8548 -51.8548
   -51.8187 -51.8187 -51.8125 -51.8125 -51.8098 -51.8098 -51.8044 -51.8044
   -49.8175 -49.8175 -49.8097 -49.8097 -49.8057 -49.8057 -49.7971 -49.7971
   -49.7601 -49.7601 -49.7572 -49.7572 -49.7467 -49.7467 -49.7433 -49.7433
   -49.7079 -49.7079 -49.7036 -49.7036 -49.7017 -49.7017 -49.6969 -49.6969
   -49.6859 -49.6859 -49.6814 -49.6814 -49.6749 -49.6749 -49.6599 -49.6599
   -49.6525 -49.6525 -49.6333 -49.6333 -49.6299 -49.6299 -49.6228 -49.6228
   -49.6051 -49.6051 -49.6010 -49.6010 -49.5943 -49.5943 -49.5900 -49.5900
   -49.5866 -49.5866 -49.5853 -49.5853 -49.5680 -49.5680 -49.5661 -49.5661
   -49.5652 -49.5652 -49.5633 -49.5633 -49.5484 -49.5484 -49.5459 -49.5459
   -29.3076 -29.3076 -29.3074 -29.3074 -29.3026 -29.3026 -29.3025 -29.3025
   -29.2542 -29.2542 -29.2541 -29.2541 -29.2485 -29.2485 -29.2484 -29.2484
   -29.0240 -29.0240 -29.0238 -29.0238 -29.0201 -29.0201 -29.0199 -29.0199
   -29.0182 -29.0182 -29.0180 -29.0180 -29.0117 -29.0117 -29.0115 -29.0115
   -28.9706 -28.9706 -28.9705 -28.9705 -28.9637 -28.9637 -28.9636 -28.9636
   -28.9616 -28.9616 -28.9614 -28.9614 -28.9567 -28.9567 -28.9567 -28.9567
     5.3908   5.3908   5.9752   5.9752   5.9785   5.9785   7.3706   7.3706
     7.8436   7.8436   8.0242   8.0242   8.3388   8.3388   8.3510   8.3510
     8.9220   8.9220   8.9585   8.9585   9.1111   9.1111   9.1995   9.1995
     9.2743   9.2743   9.3930   9.3930   9.4558   9.4558   9.5251   9.5251
     9.5939   9.5939   9.6585   9.6585   9.6875   9.6875   9.7255   9.7255
     9.7379   9.7379   9.7722   9.7722   9.8757   9.8757   9.9601   9.9601
    10.0115  10.0115  10.0658  10.0658  10.1101  10.1101  10.1640  10.1640
    10.1832  10.1832  10.2140  10.2140  10.2206  10.2206  10.3090  10.3090
    10.3159  10.3159  10.3510  10.3510  10.3548  10.3548  10.4228  10.4228
    10.4478  10.4478  10.4548  10.4548  10.5257  10.5257  10.5779  10.5779
    10.6437  10.6437  10.6970  10.6970  10.7150  10.7150  10.7315  10.7315
    10.7927  10.7927  10.8827  10.8827  10.9138  10.9138  10.9543  10.9543
    10.9700  10.9700  11.0759  11.0759  11.0846  11.0846  11.1388  11.1388
    11.1572  11.1572  11.2209  11.2209  11.2837  11.2837  11.2969  11.2969
    11.3228  11.3228  11.3723  11.3723  11.4533  11.4533  11.4638  11.4638
    11.5404  11.5404  11.5750  11.5750  11.6023  11.6023  11.6311  11.6311
    11.6967  11.6967  11.7096  11.7096  11.7296  11.7296  11.7863  11.7863
    11.7880  11.7880  11.8510  11.8510  11.8922  11.8922  11.9453  11.9453
    11.9528  11.9528  12.0249  12.0249  12.0394  12.0394  12.0486  12.0486
    12.0990  12.0990  12.1113  12.1113  12.1137  12.1137  12.1451  12.1451
    12.2016  12.2016  12.2316  12.2316  12.2490  12.2490  12.3448  12.3448
    12.3709  12.3709  12.4365  12.4365  12.5129  12.5129  12.6385  12.6385
    12.8957  12.8957  12.9547  12.9547  13.3133  13.3133  13.3233  13.3233
    13.5197  13.5197  13.6217  13.6217  13.7020  13.7020  13.8806  13.8806
    13.9484  13.9484  13.9818  13.9818  14.0492  14.0492  14.2638  14.2638
    14.8660  14.8660  15.2991  15.2991  15.5974  15.5974  15.6450  15.6450
    16.9240  16.9240  17.3531  17.3531  17.4046  17.4046  17.5547  17.5547
    18.3289  18.3289  18.4143  18.4143  18.4952  18.4952  18.6169  18.6169
    18.6638  18.6638  18.8212  18.8212  19.2669  19.2669  19.6910  19.6910
    19.7760  19.7760  19.7956  19.7956  20.3132  20.3132  20.3540  20.3540
    20.6638  20.6638  21.0935  21.0935  21.4468  21.4468  21.7420  21.7420
    21.7752  21.7752

          k = 0.3333 0.5774 0.0000 ( 12828 PWs)   bands (ev):

   -89.9441 -89.9441 -89.9441 -89.9441 -89.9428 -89.9428 -89.9428 -89.9428
   -89.8779 -89.8779 -89.8779 -89.8779 -89.8767 -89.8767 -89.8767 -89.8767
   -89.8763 -89.8763 -89.8762 -89.8762 -89.8736 -89.8736 -89.8736 -89.8736
   -89.8639 -89.8639 -89.8639 -89.8639 -89.8635 -89.8635 -89.8635 -89.8635
   -62.1756 -62.1756 -62.1756 -62.1756 -62.1742 -62.1742 -62.1742 -62.1742
   -62.1224 -62.1224 -62.1224 -62.1224 -62.1207 -62.1207 -62.1207 -62.1207
   -51.9348 -51.9348 -51.9346 -51.9346 -51.9252 -51.9252 -51.9248 -51.9248
   -51.8769 -51.8769 -51.8713 -51.8713 -51.8710 -51.8710 -51.8692 -51.8692
   -51.8448 -51.8448 -51.8439 -51.8439 -51.8376 -51.8376 -51.8348 -51.8348
   -51.8335 -51.8335 -51.8310 -51.8310 -51.8237 -51.8237 -51.8232 -51.8232
   -49.8139 -49.8139 -49.8133 -49.8133 -49.8051 -49.8051 -49.8006 -49.8006
   -49.7343 -49.7343 -49.7321 -49.7321 -49.7296 -49.7296 -49.7270 -49.7270
   -49.7228 -49.7228 -49.7212 -49.7212 -49.7182 -49.7182 -49.6904 -49.6904
   -49.6804 -49.6804 -49.6781 -49.6781 -49.6756 -49.6756 -49.6481 -49.6481
   -49.6469 -49.6469 -49.6440 -49.6440 -49.6348 -49.6348 -49.6341 -49.6341
   -49.6090 -49.6090 -49.5983 -49.5983 -49.5930 -49.5930 -49.5921 -49.5921
   -49.5875 -49.5875 -49.5793 -49.5793 -49.5784 -49.5784 -49.5722 -49.5722
   -49.5697 -49.5697 -49.5695 -49.5695 -49.5536 -49.5536 -49.5499 -49.5499
   -29.3073 -29.3073 -29.3070 -29.3070 -29.3025 -29.3025 -29.3022 -29.3022
   -29.2547 -29.2547 -29.2546 -29.2546 -29.2491 -29.2491 -29.2490 -29.2490
   -29.0249 -29.0249 -29.0228 -29.0228 -29.0202 -29.0202 -29.0201 -29.0201
   -29.0171 -29.0171 -29.0170 -29.0170 -29.0132 -29.0132 -29.0107 -29.0107
   -28.9702 -28.9702 -28.9701 -28.9701 -28.9646 -28.9646 -28.9645 -28.9645
   -28.9618 -28.9618 -28.9615 -28.9615 -28.9566 -28.9566 -28.9566 -28.9566
     6.9986   6.9986   6.9994   6.9994   7.4222   7.4222   7.5334   7.5334
     7.5390   7.5390   7.7366   7.7366   7.8520   7.8520   7.8567   7.8567
     8.0310   8.0310   8.8842   8.8842   8.8845   8.8845   8.8977   8.8977
     8.9041   8.9041   8.9273   8.9273   8.9962   8.9962   9.6411   9.6411
     9.6471   9.6471   9.6501   9.6501   9.7762   9.7762   9.7909   9.7909
     9.9283   9.9283   9.9601   9.9601  10.0810  10.0810  10.0965  10.0965
    10.1584  10.1584  10.1607  10.1607  10.2083  10.2083  10.2177  10.2177
    10.2250  10.2250  10.2327  10.2327  10.3089  10.3089  10.3686  10.3686
    10.3919  10.3919  10.3926  10.3926  10.4073  10.4073  10.4107  10.4107
    10.4364  10.4364  10.4747  10.4747  10.4885  10.4885  10.5126  10.5126
    10.5253  10.5253  10.5268  10.5268  10.5776  10.5776  10.5787  10.5787
    10.6397  10.6397  10.6508  10.6508  10.6702  10.6702  10.6919  10.6919
    10.7280  10.7280  10.8734  10.8734  10.8903  10.8903  10.9027  10.9027
    11.0310  11.0310  11.1448  11.1448  11.1640  11.1640  11.1646  11.1646
    11.2026  11.2026  11.2256  11.2256  11.3861  11.3861  11.3911  11.3911
    11.4731  11.4731  11.4996  11.4996  11.5197  11.5197  11.5301  11.5301
    11.5842  11.5842  11.5917  11.5917  11.6113  11.6113  11.6972  11.6972
    11.7469  11.7469  11.7752  11.7752  11.7832  11.7832  11.7929  11.7929
    11.8240  11.8240  11.8373  11.8373  11.8420  11.8420  11.8844  11.8844
    11.9037  11.9037  11.9085  11.9085  11.9687  11.9687  12.0282  12.0282
    12.1832  12.1832  12.2038  12.2038  12.2838  12.2838  12.2845  12.2845
    12.3068  12.3068  12.3821  12.3821  12.3925  12.3925  12.4854  12.4854
    12.5420  12.5420  12.6079  12.6079  12.6090  12.6090  12.8196  12.8196
    12.9637  12.9637  12.9737  12.9737  13.0299  13.0299  14.3783  14.3783
    14.3986  14.3986  14.4389  14.4389  14.6497  14.6497  14.6571  14.6571
    15.2249  15.2249  17.0379  17.0379  17.0401  17.0401  17.1908  17.1908
    17.4501  17.4501  17.4503  17.4503  18.0297  18.0297  18.1123  18.1123
    18.1131  18.1131  18.1654  18.1654  18.1738  18.1738  18.4299  18.4299
    18.6389  18.6389  19.0185  19.0185  19.1067  19.1067  19.1217  19.1217
    19.9174  19.9174  19.9203  19.9203  20.2093  20.2093  20.2240  20.2240
    20.3305  20.3305  20.9639  20.9639  22.3181  22.3181  22.3266  22.3266
    22.5313  22.5314

     the Fermi energy is    12.6789 ev

!    total energy              =   -7950.09215269 Ry
     total all-electron energy =    -51823.944236 Ry
     estimated scf accuracy    <          5.8E-11 Ry
     smearing contrib. (-TS)   =       0.10926706 Ry
     internal energy E=F+TS    =   -7950.20141975 Ry

     The total energy is F=E-TS. E is the sum of the following terms:
     one-electron contribution =   -4523.64960057 Ry
     hartree contribution      =    2413.03392439 Ry
     xc contribution           =    -681.59778648 Ry
     ewald contribution        =   -3619.83150312 Ry
     one-center paw contrib.   =   -1538.15645397 Ry

     convergence has been achieved in  16 iterations

     Forces acting on atoms (cartesian axes, Ry/au):

     atom    1 type  1   force =    -0.00000000   -0.00000000    0.00000035
     atom    2 type  1   force =    -0.00000000   -0.00000000    0.00000035
     atom    3 type  1   force =     0.00000000    0.00000000   -0.00000035
     atom    4 type  1   force =     0.00000000    0.00000000   -0.00000035
     atom    5 type  1   force =     0.00000000    0.00000000    0.00002022
     atom    6 type  1   force =     0.00000000   -0.00000000    0.00002022
     atom    7 type  1   force =    -0.00000000   -0.00000000   -0.00002022
     atom    8 type  1   force =    -0.00000000   -0.00000000   -0.00002022
     atom    9 type  2   force =     0.00000000    0.00000000   -0.00027964
     atom   10 type  2   force =     0.00000000    0.00000000   -0.00027964
     atom   11 type  2   force =     0.00000000   -0.00000000    0.00027964
     atom   12 type  2   force =     0.00000000    0.00000000    0.00027964
     atom   13 type  2   force =    -0.00000000    0.00015861    0.00000000
     atom   14 type  2   force =    -0.00013736    0.00007930    0.00000000
     atom   15 type  2   force =     0.00000000   -0.00015861   -0.00000000
     atom   16 type  2   force =     0.00013736   -0.00007930   -0.00000000
     atom   17 type  2   force =    -0.00013736   -0.00007930    0.00000000
     atom   18 type  2   force =     0.00013736    0.00007930   -0.00000000
     atom   19 type  2   force =     0.00000000    0.00000000    0.00000000
     atom   20 type  2   force =     0.00000000   -0.00000000    0.00000000
     atom   21 type  2   force =     0.00000000    0.00000000    0.00000000
     atom   22 type  2   force =     0.00000000    0.00000000    0.00000000
     atom   23 type  2   force =     0.00000000    0.00000000    0.00000000
     atom   24 type  2   force =     0.00000000    0.00000000    0.00000000
     The non-local contrib.  to forces
     atom    1 type  1   force =     0.00000000    0.00000000    0.01409899
     atom    2 type  1   force =     0.00000000   -0.00000000    0.01409899
     atom    3 type  1   force =     0.00000000    0.00000000   -0.01409899
     atom    4 type  1   force =    -0.00000000   -0.00000000   -0.01409899
     atom    5 type  1   force =    -0.00000000   -0.00000000   -0.00431391
     atom    6 type  1   force =     0.00000000    0.00000000   -0.00431391
     atom    7 type  1   force =    -0.00000000   -0.00000000    0.00431391
     atom    8 type  1   force =     0.00000000    0.00000000    0.00431391
     atom    9 type  2   force =    -0.00000000   -0.00000000   -0.00408556
     atom   10 type  2   force =    -0.00000000   -0.00000000   -0.00408556
     atom   11 type  2   force =     0.00000000    0.00000000    0.00408556
     atom   12 type  2   force =     0.00000000    0.00000000    0.00408556
     atom   13 type  2   force =     0.00000000   -0.08386432    0.00000000
     atom   14 type  2   force =     0.07262864   -0.04193216    0.00000000
     atom   15 type  2   force =     0.00000000    0.08386432    0.00000000
     atom   16 type  2   force =    -0.07262864    0.04193216    0.00000000
     atom   17 type  2   force =     0.07262864    0.04193216    0.00000000
     atom   18 type  2   force =    -0.07262864   -0.04193216    0.00000000
     atom   19 type  2   force =     0.00000000    0.00000000   -0.00000000
     atom   20 type  2   force =    -0.00000000    0.00000000    0.00000000
     atom   21 type  2   force =    -0.00000000   -0.00000000   -0.00000000
     atom   22 type  2   force =    -0.00000000    0.00000000    0.00000000
     atom   23 type  2   force =     0.00000000    0.00000000    0.00000000
     atom   24 type  2   force =    -0.00000000   -0.00000000   -0.00000000
     The ionic contribution  to forces
     atom    1 type  1   force =    -0.00001529    0.00001068   -0.90228977
     atom    2 type  1   force =     0.00001529   -0.00001068   -0.90228977
     atom    3 type  1   force =     0.00001529   -0.00001068    0.90228977
     atom    4 type  1   force =    -0.00001529    0.00001068    0.90228977
     atom    5 type  1   force =     0.00005435   -0.00002933    0.20962091
     atom    6 type  1   force =    -0.00005435    0.00002933    0.20962091
     atom    7 type  1   force =    -0.00005435    0.00002933   -0.20962091
     atom    8 type  1   force =     0.00005435   -0.00002933   -0.20962091
     atom    9 type  2   force =     0.00005775   -0.00003320   -0.38241356
     atom   10 type  2   force =    -0.00005775    0.00003320   -0.38241356
     atom   11 type  2   force =    -0.00005775    0.00003320    0.38241356
     atom   12 type  2   force =     0.00005775   -0.00003320    0.38241356
     atom   13 type  2   force =     0.00007038  -13.78644108    0.00000000
     atom   14 type  2   force =    11.93949058   -6.89327005   -0.00000000
     atom   15 type  2   force =    -0.00007038   13.78644108   -0.00000000
     atom   16 type  2   force =   -11.93949058    6.89327005    0.00000000
     atom   17 type  2   force =    11.93944279    6.89316119    0.00000000
     atom   18 type  2   force =   -11.93944279   -6.89316119   -0.00000000
     atom   19 type  2   force =    -0.00000000    0.00000000    0.00000000
     atom   20 type  2   force =    -0.00000000    0.00000000    0.00000000
     atom   21 type  2   force =     0.00000000   -0.00000000    0.00000000
     atom   22 type  2   force =     0.00000000   -0.00000000    0.00000000
     atom   23 type  2   force =     0.00000000    0.00000000    0.00000000
     atom   24 type  2   force =    -0.00000000   -0.00000000    0.00000000
     The local contribution  to forces
     atom    1 type  1   force =     0.00000000   -0.00000172    0.88825990
     atom    2 type  1   force =     0.00000000    0.00000172    0.88825990
     atom    3 type  1   force =     0.00000000    0.00000172   -0.88825990
     atom    4 type  1   force =     0.00000000   -0.00000172   -0.88825990
     atom    5 type  1   force =     0.00146965   -0.00085039   -0.20530023
     atom    6 type  1   force =    -0.00146965    0.00085039   -0.20530023
     atom    7 type  1   force =    -0.00146965    0.00085039    0.20530023
     atom    8 type  1   force =     0.00146965   -0.00085039    0.20530023
     atom    9 type  2   force =     0.00195075   -0.00112638    0.38831401
     atom   10 type  2   force =    -0.00195075    0.00112638    0.38831401
     atom   11 type  2   force =    -0.00195075    0.00112638   -0.38831401
     atom   12 type  2   force =     0.00195075   -0.00112638   -0.38831401
     atom   13 type  2   force =    -0.00194872   13.87076044    0.00000000
     atom   14 type  2   force =   -12.00973642    6.93382535   -0.00000000
     atom   15 type  2   force =     0.00194872  -13.87076044   -0.00000000
     atom   16 type  2   force =    12.00973642   -6.93382535    0.00000000
     atom   17 type  2   force =   -12.01340630   -6.93369397    0.00000000
     atom   18 type  2   force =    12.01340630    6.93369397   -0.00000000
     atom   19 type  2   force =     0.00000000    0.00000000    0.00000000
     atom   20 type  2   force =     0.00000000    0.00000000    0.00000000
     atom   21 type  2   force =    -0.00000000    0.00000000    0.00000000
     atom   22 type  2   force =     0.00000000    0.00000000    0.00000000
     atom   23 type  2   force =    -0.00000000   -0.00000000    0.00000000
     atom   24 type  2   force =    -0.00000000    0.00000000    0.00000000
     The core correction contribution to forces
     atom    1 type  1   force =    -0.00000000    0.00000000   -0.00006475
     atom    2 type  1   force =     0.00000000   -0.00000000   -0.00006475
     atom    3 type  1   force =     0.00000000   -0.00000000    0.00006475
     atom    4 type  1   force =    -0.00000000    0.00000000    0.00006475
     atom    5 type  1   force =     0.00000319   -0.00000184    0.00001176
     atom    6 type  1   force =    -0.00000319    0.00000184    0.00001176
     atom    7 type  1   force =    -0.00000319    0.00000184   -0.00001176
     atom    8 type  1   force =     0.00000319   -0.00000184   -0.00001176
     atom    9 type  2   force =     0.00000120   -0.00000069   -0.00208672
     atom   10 type  2   force =    -0.00000120    0.00000069   -0.00208672
     atom   11 type  2   force =    -0.00000120    0.00000069    0.00208672
     atom   12 type  2   force =     0.00000120   -0.00000069    0.00208672
     atom   13 type  2   force =    -0.00000119    0.00078473    0.00000000
     atom   14 type  2   force =    -0.00067774    0.00039130   -0.00000000
     atom   15 type  2   force =     0.00000119   -0.00078473   -0.00000000
     atom   16 type  2   force =     0.00067774   -0.00039130    0.00000000
     atom   17 type  2   force =    -0.00068020   -0.00039134    0.00000000
     atom   18 type  2   force =     0.00068020    0.00039134   -0.00000000
     atom   19 type  2   force =     0.00000000    0.00000000   -0.00000000
     atom   20 type  2   force =     0.00000000    0.00000000    0.00000000
     atom   21 type  2   force =    -0.00000000    0.00000000    0.00000000
     atom   22 type  2   force =     0.00000000    0.00000000    0.00000000
     atom   23 type  2   force =     0.00000000    0.00000000    0.00000000
     atom   24 type  2   force =    -0.00000000    0.00000000    0.00000000
     The Hubbard contrib.    to forces
     atom    1 type  1   force =     0.00000000    0.00000000    0.00000000
     atom    2 type  1   force =     0.00000000    0.00000000    0.00000000
     atom    3 type  1   force =     0.00000000    0.00000000    0.00000000
     atom    4 type  1   force =     0.00000000    0.00000000    0.00000000
     atom    5 type  1   force =     0.00000000    0.00000000    0.00000000
     atom    6 type  1   force =     0.00000000    0.00000000    0.00000000
     atom    7 type  1   force =     0.00000000    0.00000000    0.00000000
     atom    8 type  1   force =     0.00000000    0.00000000    0.00000000
     atom    9 type  2   force =     0.00000000    0.00000000    0.00000000
     atom   10 type  2   force =     0.00000000    0.00000000    0.00000000
     atom   11 type  2   force =     0.00000000    0.00000000    0.00000000
     atom   12 type  2   force =     0.00000000    0.00000000    0.00000000
     atom   13 type  2   force =     0.00000000    0.00000000    0.00000000
     atom   14 type  2   force =     0.00000000    0.00000000    0.00000000
     atom   15 type  2   force =     0.00000000    0.00000000    0.00000000
     atom   16 type  2   force =     0.00000000    0.00000000    0.00000000
     atom   17 type  2   force =     0.00000000    0.00000000    0.00000000
     atom   18 type  2   force =     0.00000000    0.00000000    0.00000000
     atom   19 type  2   force =     0.00000000    0.00000000    0.00000000
     atom   20 type  2   force =     0.00000000    0.00000000    0.00000000
     atom   21 type  2   force =     0.00000000    0.00000000    0.00000000
     atom   22 type  2   force =     0.00000000    0.00000000    0.00000000
     atom   23 type  2   force =     0.00000000    0.00000000    0.00000000
     atom   24 type  2   force =     0.00000000    0.00000000    0.00000000
     The SCF correction term to forces
     atom    1 type  1   force =    -0.00000001    0.00000000   -0.00000402
     atom    2 type  1   force =     0.00000001   -0.00000000   -0.00000402
     atom    3 type  1   force =     0.00000001   -0.00000000    0.00000402
     atom    4 type  1   force =    -0.00000001    0.00000000    0.00000402
     atom    5 type  1   force =    -0.00000000    0.00000000    0.00000170
     atom    6 type  1   force =     0.00000000   -0.00000000    0.00000170
     atom    7 type  1   force =     0.00000000   -0.00000000   -0.00000170
     atom    8 type  1   force =    -0.00000000    0.00000000   -0.00000170
     atom    9 type  2   force =     0.00000002   -0.00000001   -0.00000780
     atom   10 type  2   force =    -0.00000002    0.00000001   -0.00000780
     atom   11 type  2   force =    -0.00000002    0.00000001    0.00000780
     atom   12 type  2   force =     0.00000002   -0.00000001    0.00000780
     atom   13 type  2   force =    -0.00000001   -0.00001188   -0.00000000
     atom   14 type  2   force =     0.00001028   -0.00000594    0.00000000
     atom   15 type  2   force =     0.00000001    0.00001188    0.00000000
     atom   16 type  2   force =    -0.00001028    0.00000594   -0.00000000
     atom   17 type  2   force =     0.00001028    0.00000595   -0.00000000
     atom   18 type  2   force =    -0.00001028   -0.00000595    0.00000000
     atom   19 type  2   force =    -0.00000000   -0.00000000   -0.00000000
     atom   20 type  2   force =     0.00000000   -0.00000000   -0.00000000
     atom   21 type  2   force =    -0.00000000    0.00000000   -0.00000000
     atom   22 type  2   force =    -0.00000000    0.00000000   -0.00000000
     atom   23 type  2   force =    -0.00000000   -0.00000000   -0.00000000
     atom   24 type  2   force =     0.00000000    0.00000000   -0.00000000

     Total force =     0.000682     Total SCF correction =     0.000034
     Energy error            =      1.7E-05 Ry
     Gradient error          =      2.8E-04 Ry/Bohr

     number of scf cycles    =   7
     number of bfgs steps    =   6

     energy             old  =   -7950.0921361890 Ry
     energy             new  =   -7950.0921526924 Ry

     CASE: energy            _new < energy            _old

     small trust_radius: resetting bfgs history

     new trust radius        =       0.0002796381 bohr
     new conv_thr            =       0.0000000002 Ry


ATOMIC_POSITIONS (crystal)
Mg            0.0000000000        0.0000000000        0.4072006181
Mg           -0.0000000000        0.0000000000        0.9072006181
Mg            0.0000000000        0.0000000000        0.5927993819
Mg           -0.0000000000       -0.0000000000        0.0927993819
Mg            0.3333330000        0.6666670000        0.6560701895
Mg            0.6666670000        0.3333330000        0.1560701895
Mg            0.6666670000        0.3333330000        0.3439298105
Mg            0.3333330000        0.6666670000        0.8439298105
Ni            0.3333330000        0.6666670000        0.3753527303
Ni            0.6666670000        0.3333330000        0.8753527303
Ni            0.6666670000        0.3333330000        0.6246472697
Ni            0.3333330000        0.6666670000        0.1246472697
Ni            0.1654870889        0.3309731778        0.2500000000
Ni            0.8345129115        0.1654870889        0.7500000000
Ni            0.8345129111        0.6690268222        0.7500000000
Ni            0.1654870885        0.8345129111        0.2500000000
Ni            0.6690268226        0.8345129111        0.2500000000
Ni            0.3309731774        0.1654870889        0.7500000000
Ni            0.5000000000       -0.0000000000        0.5000000000
Ni            0.5000000000        0.5000000000       -0.0000000000
Ni            0.5000000000       -0.0000000000       -0.0000000000
Ni            0.5000000000        0.5000000000        0.5000000000
Ni            0.0000000000        0.5000000000       -0.0000000000
Ni            0.0000000000        0.5000000000        0.5000000000



     Writing config-only to output data dir ./ACOptimization/out/iso.save/
     NEW-OLD atomic charge density approx. for the potential

     Check: negative core charge=   -0.000016

     total cpu time spent up to now is     3560.6 secs

     Self-consistent Calculation

     iteration #  1     ecut=    50.00 Ry     beta= 0.10
     Davidson diagonalization with overlap
     ethr =  1.00E-06,  avg # of iterations =  2.0

     Threshold (ethr) on eigenvalues was too large:
     Diagonalizing with lowered threshold

     Davidson diagonalization with overlap
     ethr =  3.16E-10,  avg # of iterations =  5.0

     total cpu time spent up to now is     3610.5 secs

     total energy              =   -7950.09217590 Ry
     estimated scf accuracy    <       0.00000082 Ry

     iteration #  2     ecut=    50.00 Ry     beta= 0.10
     Davidson diagonalization with overlap
     ethr =  2.23E-10,  avg # of iterations =  1.0

     total cpu time spent up to now is     3628.6 secs

     total energy              =   -7950.09215419 Ry
     estimated scf accuracy    <       0.00000054 Ry

     iteration #  3     ecut=    50.00 Ry     beta= 0.10
     Davidson diagonalization with overlap
     ethr =  1.46E-10,  avg # of iterations =  2.0

     total cpu time spent up to now is     3649.8 secs

     total energy              =   -7950.09215334 Ry
     estimated scf accuracy    <       0.00000011 Ry

     iteration #  4     ecut=    50.00 Ry     beta= 0.10
     Davidson diagonalization with overlap
     ethr =  3.07E-11,  avg # of iterations =  4.0

     total cpu time spent up to now is     3675.5 secs

     total energy              =   -7950.09215343 Ry
     estimated scf accuracy    <       0.00000003 Ry

     iteration #  5     ecut=    50.00 Ry     beta= 0.10
     Davidson diagonalization with overlap
     ethr =  9.11E-12,  avg # of iterations =  1.0

     total cpu time spent up to now is     3693.6 secs

     total energy              =   -7950.09215344 Ry
     estimated scf accuracy    <       0.00000003 Ry

     iteration #  6     ecut=    50.00 Ry     beta= 0.10
     Davidson diagonalization with overlap
     ethr =  8.30E-12,  avg # of iterations =  2.0

     total cpu time spent up to now is     3716.1 secs

     total energy              =   -7950.09215339 Ry
     estimated scf accuracy    <       0.00000002 Ry

     iteration #  7     ecut=    50.00 Ry     beta= 0.10
     Davidson diagonalization with overlap
     ethr =  6.36E-12,  avg # of iterations =  2.0

     total cpu time spent up to now is     3739.0 secs

     total energy              =   -7950.09215320 Ry
     estimated scf accuracy    <       0.00000001 Ry

     iteration #  8     ecut=    50.00 Ry     beta= 0.10
     Davidson diagonalization with overlap
     ethr =  3.49E-12,  avg # of iterations =  4.0

     total cpu time spent up to now is     3765.2 secs

     total energy              =   -7950.09215314 Ry
     estimated scf accuracy    <       0.00000002 Ry

     iteration #  9     ecut=    50.00 Ry     beta= 0.10
     Davidson diagonalization with overlap
     ethr =  3.49E-12,  avg # of iterations =  3.3

     total cpu time spent up to now is     3789.1 secs

     total energy              =   -7950.09215314 Ry
     estimated scf accuracy    <          6.1E-10 Ry

     iteration # 10     ecut=    50.00 Ry     beta= 0.10
     Davidson diagonalization with overlap
     ethr =  1.66E-13,  avg # of iterations =  4.0

     total cpu time spent up to now is     3817.2 secs

     total energy              =   -7950.09215314 Ry
     estimated scf accuracy    <          4.0E-10 Ry

     iteration # 11     ecut=    50.00 Ry     beta= 0.10
     Davidson diagonalization with overlap
     ethr =  1.08E-13,  avg # of iterations =  5.0

     total cpu time spent up to now is     3845.2 secs

     End of self-consistent calculation

          k = 0.0000 0.0000 0.0000 ( 12841 PWs)   bands (ev):

   -89.9457 -89.9457 -89.9441 -89.9441 -89.9438 -89.9438 -89.9420 -89.9420
   -89.8900 -89.8900 -89.8882 -89.8882 -89.8881 -89.8881 -89.8863 -89.8863
   -89.8639 -89.8639 -89.8639 -89.8639 -89.8638 -89.8638 -89.8638 -89.8638
   -89.8636 -89.8636 -89.8636 -89.8636 -89.8635 -89.8635 -89.8635 -89.8635
   -62.1757 -62.1757 -62.1756 -62.1756 -62.1743 -62.1743 -62.1743 -62.1743
   -62.1223 -62.1223 -62.1222 -62.1222 -62.1206 -62.1206 -62.1206 -62.1206
   -51.9291 -51.9291 -51.9289 -51.9289 -51.9260 -51.9260 -51.9169 -51.9169
   -51.8822 -51.8822 -51.8809 -51.8809 -51.8798 -51.8798 -51.8713 -51.8713
   -51.8711 -51.8711 -51.8709 -51.8709 -51.8689 -51.8689 -51.8609 -51.8609
   -51.8013 -51.8013 -51.7994 -51.7994 -51.7959 -51.7959 -51.7956 -51.7956
   -49.8174 -49.8174 -49.8165 -49.8165 -49.7989 -49.7989 -49.7964 -49.7964
   -49.7851 -49.7851 -49.7748 -49.7748 -49.7569 -49.7569 -49.7564 -49.7564
   -49.7066 -49.7066 -49.7019 -49.7019 -49.6989 -49.6989 -49.6939 -49.6939
   -49.6916 -49.6916 -49.6863 -49.6863 -49.6817 -49.6817 -49.6571 -49.6571
   -49.6520 -49.6520 -49.6226 -49.6226 -49.6160 -49.6160 -49.6084 -49.6084
   -49.6067 -49.6067 -49.5992 -49.5992 -49.5975 -49.5975 -49.5949 -49.5949
   -49.5751 -49.5751 -49.5738 -49.5738 -49.5598 -49.5598 -49.5518 -49.5518
   -49.5484 -49.5484 -49.5481 -49.5481 -49.5376 -49.5376 -49.5370 -49.5370
   -29.3079 -29.3079 -29.3079 -29.3079 -29.3033 -29.3033 -29.3030 -29.3030
   -29.2532 -29.2532 -29.2530 -29.2530 -29.2474 -29.2474 -29.2474 -29.2474
   -29.0234 -29.0234 -29.0233 -29.0233 -29.0211 -29.0211 -29.0210 -29.0210
   -29.0193 -29.0193 -29.0191 -29.0191 -29.0115 -29.0115 -29.0110 -29.0110
   -28.9710 -28.9710 -28.9708 -28.9708 -28.9627 -28.9627 -28.9625 -28.9625
   -28.9607 -28.9607 -28.9605 -28.9605 -28.9573 -28.9573 -28.9571 -28.9571
     4.4181   4.4181   5.0315   5.0315   5.0391   5.0391   6.4696   6.4696
     7.1265   7.1265   8.4621   8.4621   8.5017   8.5017   8.5529   8.5529
     9.0956   9.0956   9.1116   9.1116   9.2630   9.2630   9.3063   9.3063
     9.4385   9.4385   9.4559   9.4559   9.4747   9.4747   9.4912   9.4912
     9.5136   9.5136   9.5165   9.5165   9.6360   9.6360   9.6565   9.6565
     9.6961   9.6961   9.7506   9.7506   9.7574   9.7574   9.7649   9.7649
     9.7862   9.7862   9.8458   9.8458   9.9031   9.9031   9.9274   9.9274
     9.9483   9.9483   9.9889   9.9889  10.2779  10.2779  10.2784  10.2784
    10.2901  10.2901  10.3033  10.3033  10.3080  10.3080  10.3592  10.3592
    10.5220  10.5220  10.5799  10.5799  10.6711  10.6711  10.6774  10.6774
    10.7197  10.7197  10.7718  10.7718  10.8091  10.8091  10.8110  10.8110
    10.9634  10.9634  10.9824  10.9824  11.2129  11.2129  11.3853  11.3853
    11.4351  11.4351  11.4450  11.4450  11.4526  11.4526  11.4897  11.4897
    11.6100  11.6100  11.6638  11.6638  11.7547  11.7547  11.7626  11.7626
    11.8848  11.8848  11.8953  11.8953  11.9783  11.9783  11.9832  11.9832
    11.9904  11.9904  11.9928  11.9928  12.0000  12.0000  12.0018  12.0018
    12.0091  12.0091  12.0232  12.0232  12.0412  12.0412  12.0440  12.0440
    12.0604  12.0604  12.0704  12.0704  12.0840  12.0840  12.1138  12.1138
    12.1333  12.1333  12.1553  12.1553  12.1559  12.1559  12.1735  12.1735
    12.1979  12.1979  12.2427  12.2427  12.3169  12.3169  12.5519  12.5519
    12.6044  12.6044  12.8246  12.8246  12.8259  12.8259  13.0530  13.0530
    13.0542  13.0542  13.0579  13.0579  13.0608  13.0608  13.3851  13.3851
    13.5142  13.5142  13.6922  13.6922  13.7405  13.7405  13.7461  13.7461
    13.7639  13.7639  13.7790  13.7790  13.7839  13.7839  13.8838  13.8838
    14.1133  14.1133  14.1425  14.1425  14.1441  14.1441  14.1969  14.1969
    15.5076  15.5076  15.5344  15.5344  15.5463  15.5463  15.5617  15.5617
    15.9882  15.9882  16.0355  16.0355  16.4163  16.4163  16.4379  16.4379
    17.0179  17.0179  17.0905  17.0905  17.1074  17.1074  17.2297  17.2297
    17.3073  17.3073  17.5242  17.5242  17.9635  17.9635  17.9742  17.9742
    18.4238  18.4238  18.4440  18.4440  18.6109  18.6109  19.0265  19.0265
    19.0336  19.0336  19.1404  19.1404  19.3527  19.3527  20.7281  20.7281
    20.8440  20.8440

          k = 0.0000 0.3849 0.0000 ( 12856 PWs)   bands (ev):

   -89.9449 -89.9449 -89.9438 -89.9438 -89.9435 -89.9435 -89.9423 -89.9423
   -89.8845 -89.8845 -89.8833 -89.8833 -89.8831 -89.8831 -89.8819 -89.8819
   -89.8693 -89.8693 -89.8691 -89.8691 -89.8686 -89.8686 -89.8685 -89.8685
   -89.8639 -89.8639 -89.8638 -89.8638 -89.8636 -89.8636 -89.8636 -89.8636
   -62.1756 -62.1756 -62.1756 -62.1756 -62.1743 -62.1743 -62.1742 -62.1742
   -62.1223 -62.1223 -62.1223 -62.1223 -62.1208 -62.1208 -62.1207 -62.1207
   -51.9327 -51.9327 -51.9297 -51.9297 -51.9258 -51.9258 -51.9228 -51.9228
   -51.8786 -51.8786 -51.8781 -51.8781 -51.8758 -51.8758 -51.8733 -51.8733
   -51.8589 -51.8589 -51.8585 -51.8585 -51.8561 -51.8561 -51.8548 -51.8548
   -51.8187 -51.8187 -51.8125 -51.8125 -51.8098 -51.8098 -51.8044 -51.8044
   -49.8175 -49.8175 -49.8097 -49.8097 -49.8058 -49.8058 -49.7971 -49.7971
   -49.7600 -49.7600 -49.7571 -49.7571 -49.7467 -49.7467 -49.7434 -49.7434
   -49.7079 -49.7079 -49.7036 -49.7036 -49.7017 -49.7017 -49.6970 -49.6970
   -49.6858 -49.6858 -49.6814 -49.6814 -49.6749 -49.6749 -49.6600 -49.6600
   -49.6526 -49.6526 -49.6333 -49.6333 -49.6299 -49.6299 -49.6228 -49.6228
   -49.6051 -49.6051 -49.6010 -49.6010 -49.5943 -49.5943 -49.5900 -49.5900
   -49.5866 -49.5866 -49.5853 -49.5853 -49.5680 -49.5680 -49.5661 -49.5661
   -49.5652 -49.5652 -49.5632 -49.5632 -49.5483 -49.5483 -49.5459 -49.5459
   -29.3076 -29.3076 -29.3074 -29.3074 -29.3026 -29.3026 -29.3025 -29.3025
   -29.2542 -29.2542 -29.2541 -29.2541 -29.2485 -29.2485 -29.2484 -29.2484
   -29.0240 -29.0240 -29.0238 -29.0238 -29.0201 -29.0201 -29.0199 -29.0199
   -29.0182 -29.0182 -29.0180 -29.0180 -29.0117 -29.0117 -29.0115 -29.0115
   -28.9706 -28.9706 -28.9705 -28.9705 -28.9637 -28.9637 -28.9636 -28.9636
   -28.9616 -28.9616 -28.9614 -28.9614 -28.9568 -28.9568 -28.9567 -28.9567
     5.3907   5.3907   5.9754   5.9754   5.9784   5.9784   7.3706   7.3706
     7.8436   7.8436   8.0242   8.0242   8.3387   8.3387   8.3511   8.3511
     8.9219   8.9219   8.9585   8.9585   9.1109   9.1109   9.1994   9.1994
     9.2742   9.2742   9.3929   9.3929   9.4557   9.4557   9.5251   9.5251
     9.5939   9.5939   9.6585   9.6585   9.6876   9.6876   9.7255   9.7255
     9.7379   9.7379   9.7720   9.7720   9.8757   9.8757   9.9601   9.9601
    10.0115  10.0115  10.0658  10.0658  10.1102  10.1102  10.1639  10.1639
    10.1832  10.1832  10.2140  10.2140  10.2204  10.2204  10.3091  10.3091
    10.3159  10.3159  10.3510  10.3510  10.3548  10.3548  10.4228  10.4228
    10.4478  10.4478  10.4549  10.4549  10.5258  10.5258  10.5778  10.5778
    10.6437  10.6437  10.6969  10.6969  10.7150  10.7150  10.7316  10.7316
    10.7928  10.7928  10.8826  10.8826  10.9137  10.9137  10.9544  10.9544
    10.9700  10.9700  11.0759  11.0759  11.0846  11.0846  11.1389  11.1389
    11.1572  11.1572  11.2209  11.2209  11.2837  11.2837  11.2969  11.2969
    11.3228  11.3228  11.3723  11.3723  11.4533  11.4533  11.4638  11.4638
    11.5404  11.5404  11.5750  11.5750  11.6023  11.6023  11.6310  11.6310
    11.6967  11.6967  11.7096  11.7096  11.7296  11.7296  11.7863  11.7863
    11.7880  11.7880  11.8510  11.8510  11.8922  11.8922  11.9453  11.9453
    11.9528  11.9528  12.0250  12.0250  12.0394  12.0394  12.0486  12.0486
    12.0990  12.0990  12.1113  12.1113  12.1137  12.1137  12.1451  12.1451
    12.2016  12.2016  12.2316  12.2316  12.2489  12.2489  12.3448  12.3448
    12.3709  12.3709  12.4364  12.4364  12.5129  12.5129  12.6385  12.6385
    12.8957  12.8957  12.9548  12.9548  13.3133  13.3133  13.3233  13.3233
    13.5197  13.5197  13.6218  13.6218  13.7020  13.7020  13.8806  13.8806
    13.9484  13.9484  13.9818  13.9818  14.0492  14.0492  14.2638  14.2638
    14.8660  14.8660  15.2992  15.2992  15.5974  15.5974  15.6449  15.6449
    16.9240  16.9240  17.3533  17.3533  17.4045  17.4045  17.5547  17.5547
    18.3289  18.3289  18.4143  18.4143  18.4953  18.4953  18.6168  18.6168
    18.6637  18.6637  18.8212  18.8212  19.2669  19.2669  19.6909  19.6909
    19.7761  19.7761  19.7956  19.7956  20.3132  20.3132  20.3540  20.3540
    20.6639  20.6639  21.0935  21.0935  21.4468  21.4468  21.7420  21.7420
    21.7752  21.7752

          k = 0.3333 0.5774 0.0000 ( 12828 PWs)   bands (ev):

   -89.9442 -89.9442 -89.9442 -89.9442 -89.9428 -89.9428 -89.9428 -89.9428
   -89.8779 -89.8779 -89.8779 -89.8779 -89.8767 -89.8767 -89.8766 -89.8766
   -89.8762 -89.8762 -89.8761 -89.8761 -89.8737 -89.8737 -89.8737 -89.8737
   -89.8639 -89.8639 -89.8638 -89.8638 -89.8635 -89.8635 -89.8635 -89.8635
   -62.1756 -62.1756 -62.1756 -62.1756 -62.1742 -62.1742 -62.1742 -62.1742
   -62.1224 -62.1224 -62.1224 -62.1224 -62.1207 -62.1207 -62.1207 -62.1207
   -51.9349 -51.9349 -51.9346 -51.9346 -51.9252 -51.9252 -51.9248 -51.9248
   -51.8769 -51.8769 -51.8714 -51.8714 -51.8711 -51.8711 -51.8692 -51.8692
   -51.8448 -51.8448 -51.8438 -51.8438 -51.8377 -51.8377 -51.8347 -51.8347
   -51.8336 -51.8336 -51.8309 -51.8309 -51.8236 -51.8236 -51.8232 -51.8232
   -49.8139 -49.8139 -49.8133 -49.8133 -49.8051 -49.8051 -49.8006 -49.8006
   -49.7342 -49.7342 -49.7321 -49.7321 -49.7296 -49.7296 -49.7270 -49.7270
   -49.7227 -49.7227 -49.7212 -49.7212 -49.7183 -49.7183 -49.6905 -49.6905
   -49.6804 -49.6804 -49.6781 -49.6781 -49.6755 -49.6755 -49.6482 -49.6482
   -49.6469 -49.6469 -49.6440 -49.6440 -49.6348 -49.6348 -49.6341 -49.6341
   -49.6090 -49.6090 -49.5984 -49.5984 -49.5929 -49.5929 -49.5922 -49.5922
   -49.5875 -49.5875 -49.5793 -49.5793 -49.5784 -49.5784 -49.5721 -49.5721
   -49.5696 -49.5696 -49.5695 -49.5695 -49.5535 -49.5535 -49.5499 -49.5499
   -29.3073 -29.3073 -29.3070 -29.3070 -29.3025 -29.3025 -29.3022 -29.3022
   -29.2547 -29.2547 -29.2546 -29.2546 -29.2491 -29.2491 -29.2491 -29.2491
   -29.0249 -29.0249 -29.0228 -29.0228 -29.0202 -29.0202 -29.0201 -29.0201
   -29.0171 -29.0171 -29.0170 -29.0170 -29.0132 -29.0132 -29.0107 -29.0107
   -28.9702 -28.9702 -28.9702 -28.9702 -28.9646 -28.9646 -28.9645 -28.9645
   -28.9618 -28.9618 -28.9615 -28.9615 -28.9567 -28.9567 -28.9566 -28.9566
     6.9985   6.9985   6.9993   6.9993   7.4223   7.4223   7.5335   7.5335
     7.5391   7.5391   7.7366   7.7366   7.8518   7.8518   7.8566   7.8566
     8.0311   8.0311   8.8841   8.8841   8.8845   8.8845   8.8976   8.8976
     8.9040   8.9040   8.9273   8.9273   8.9963   8.9963   9.6411   9.6411
     9.6469   9.6469   9.6499   9.6499   9.7762   9.7762   9.7908   9.7908
     9.9284   9.9284   9.9601   9.9601  10.0809  10.0809  10.0964  10.0964
    10.1585  10.1585  10.1607  10.1607  10.2084  10.2084  10.2178  10.2178
    10.2252  10.2252  10.2328  10.2328  10.3091  10.3091  10.3685  10.3685
    10.3919  10.3919  10.3927  10.3927  10.4074  10.4074  10.4106  10.4106
    10.4363  10.4363  10.4748  10.4748  10.4885  10.4885  10.5125  10.5125
    10.5253  10.5253  10.5268  10.5268  10.5775  10.5775  10.5787  10.5787
    10.6397  10.6397  10.6507  10.6507  10.6702  10.6702  10.6918  10.6918
    10.7279  10.7279  10.8735  10.8735  10.8902  10.8902  10.9027  10.9027
    11.0308  11.0308  11.1448  11.1448  11.1640  11.1640  11.1646  11.1646
    11.2027  11.2027  11.2256  11.2256  11.3861  11.3861  11.3912  11.3912
    11.4731  11.4731  11.4997  11.4997  11.5197  11.5197  11.5301  11.5301
    11.5842  11.5842  11.5916  11.5916  11.6113  11.6113  11.6972  11.6972
    11.7468  11.7468  11.7752  11.7752  11.7832  11.7832  11.7930  11.7930
    11.8240  11.8240  11.8373  11.8373  11.8420  11.8420  11.8844  11.8844
    11.9037  11.9037  11.9084  11.9084  11.9687  11.9687  12.0282  12.0282
    12.1832  12.1832  12.2037  12.2037  12.2838  12.2838  12.2845  12.2845
    12.3068  12.3068  12.3821  12.3821  12.3925  12.3925  12.4854  12.4854
    12.5421  12.5421  12.6079  12.6079  12.6090  12.6090  12.8197  12.8197
    12.9636  12.9636  12.9736  12.9736  13.0299  13.0299  14.3784  14.3784
    14.3986  14.3986  14.4389  14.4389  14.6497  14.6497  14.6571  14.6571
    15.2251  15.2251  17.0379  17.0379  17.0402  17.0402  17.1908  17.1908
    17.4500  17.4500  17.4502  17.4502  18.0296  18.0296  18.1123  18.1123
    18.1132  18.1132  18.1653  18.1653  18.1738  18.1738  18.4302  18.4302
    18.6388  18.6388  19.0187  19.0187  19.1066  19.1066  19.1216  19.1216
    19.9174  19.9174  19.9203  19.9203  20.2094  20.2094  20.2240  20.2240
    20.3304  20.3304  20.9638  20.9638  22.3182  22.3182  22.3266  22.3266
    22.5314  22.5314

     the Fermi energy is    12.6789 ev

!    total energy              =   -7950.09215314 Ry
     total all-electron energy =    -51823.944236 Ry
     estimated scf accuracy    <          9.1E-11 Ry
     smearing contrib. (-TS)   =       0.10926921 Ry
     internal energy E=F+TS    =   -7950.20142235 Ry

     The total energy is F=E-TS. E is the sum of the following terms:
     one-electron contribution =   -4523.67485058 Ry
     hartree contribution      =    2413.04650290 Ry
     xc contribution           =    -681.59781038 Ry
     ewald contribution        =   -3619.81880620 Ry
     one-center paw contrib.   =   -1538.15645809 Ry

     convergence has been achieved in  11 iterations

     Forces acting on atoms (cartesian axes, Ry/au):

     atom    1 type  1   force =    -0.00000000   -0.00000000   -0.00000014
     atom    2 type  1   force =     0.00000000    0.00000000   -0.00000014
     atom    3 type  1   force =     0.00000000    0.00000000    0.00000014
     atom    4 type  1   force =     0.00000000    0.00000000    0.00000014
     atom    5 type  1   force =    -0.00000000   -0.00000000    0.00001575
     atom    6 type  1   force =     0.00000000    0.00000000    0.00001575
     atom    7 type  1   force =    -0.00000000   -0.00000000   -0.00001575
     atom    8 type  1   force =    -0.00000000   -0.00000000   -0.00001575
     atom    9 type  2   force =    -0.00000000   -0.00000000   -0.00023065
     atom   10 type  2   force =    -0.00000000   -0.00000000   -0.00023065
     atom   11 type  2   force =     0.00000000    0.00000000    0.00023065
     atom   12 type  2   force =     0.00000000    0.00000000    0.00023065
     atom   13 type  2   force =     0.00000000    0.00014012    0.00000000
     atom   14 type  2   force =    -0.00012135    0.00007006   -0.00000000
     atom   15 type  2   force =     0.00000000   -0.00014012    0.00000000
     atom   16 type  2   force =     0.00012135   -0.00007006   -0.00000000
     atom   17 type  2   force =    -0.00012135   -0.00007006    0.00000000
     atom   18 type  2   force =     0.00012135    0.00007006    0.00000000
     atom   19 type  2   force =     0.00000000    0.00000000    0.00000000
     atom   20 type  2   force =     0.00000000   -0.00000000    0.00000000
     atom   21 type  2   force =     0.00000000    0.00000000    0.00000000
     atom   22 type  2   force =     0.00000000    0.00000000    0.00000000
     atom   23 type  2   force =     0.00000000    0.00000000    0.00000000
     atom   24 type  2   force =     0.00000000    0.00000000   -0.00000000
     The non-local contrib.  to forces
     atom    1 type  1   force =     0.00000000    0.00000000    0.01406754
     atom    2 type  1   force =     0.00000000   -0.00000000    0.01406754
     atom    3 type  1   force =     0.00000000   -0.00000000   -0.01406754
     atom    4 type  1   force =     0.00000000   -0.00000000   -0.01406754
     atom    5 type  1   force =    -0.00000000   -0.00000000   -0.00431052
     atom    6 type  1   force =     0.00000000    0.00000000   -0.00431052
     atom    7 type  1   force =     0.00000000    0.00000000    0.00431052
     atom    8 type  1   force =     0.00000000   -0.00000000    0.00431052
     atom    9 type  2   force =     0.00000000   -0.00000000   -0.00414939
     atom   10 type  2   force =    -0.00000000   -0.00000000   -0.00414939
     atom   11 type  2   force =     0.00000000    0.00000000    0.00414939
     atom   12 type  2   force =     0.00000000    0.00000000    0.00414939
     atom   13 type  2   force =     0.00000000   -0.08381896   -0.00000000
     atom   14 type  2   force =     0.07258936   -0.04190948    0.00000000
     atom   15 type  2   force =     0.00000000    0.08381896    0.00000000
     atom   16 type  2   force =    -0.07258936    0.04190948    0.00000000
     atom   17 type  2   force =     0.07258936    0.04190948    0.00000000
     atom   18 type  2   force =    -0.07258936   -0.04190948    0.00000000
     atom   19 type  2   force =    -0.00000000   -0.00000000    0.00000000
     atom   20 type  2   force =     0.00000000   -0.00000000   -0.00000000
     atom   21 type  2   force =    -0.00000000   -0.00000000   -0.00000000
     atom   22 type  2   force =     0.00000000   -0.00000000    0.00000000
     atom   23 type  2   force =     0.00000000    0.00000000   -0.00000000
     atom   24 type  2   force =     0.00000000    0.00000000   -0.00000000
     The ionic contribution  to forces
     atom    1 type  1   force =    -0.00001529    0.00001067   -0.90054029
     atom    2 type  1   force =     0.00001529   -0.00001067   -0.90054029
     atom    3 type  1   force =     0.00001529   -0.00001067    0.90054029
     atom    4 type  1   force =    -0.00001529    0.00001067    0.90054029
     atom    5 type  1   force =     0.00005435   -0.00002933    0.20651901
     atom    6 type  1   force =    -0.00005435    0.00002933    0.20651901
     atom    7 type  1   force =    -0.00005435    0.00002933   -0.20651901
     atom    8 type  1   force =     0.00005435   -0.00002933   -0.20651901
     atom    9 type  2   force =     0.00005774   -0.00003319   -0.36129201
     atom   10 type  2   force =    -0.00005774    0.00003319   -0.36129201
     atom   11 type  2   force =    -0.00005774    0.00003319    0.36129201
     atom   12 type  2   force =     0.00005774   -0.00003319    0.36129201
     atom   13 type  2   force =     0.00007040  -13.80465905    0.00000000
     atom   14 type  2   force =    11.95526781   -6.90237904   -0.00000000
     atom   15 type  2   force =    -0.00007040   13.80465905   -0.00000000
     atom   16 type  2   force =   -11.95526781    6.90237904    0.00000000
     atom   17 type  2   force =    11.95522003    6.90227016    0.00000000
     atom   18 type  2   force =   -11.95522003   -6.90227016   -0.00000000
     atom   19 type  2   force =    -0.00000000    0.00000000    0.00000000
     atom   20 type  2   force =    -0.00000000    0.00000000    0.00000000
     atom   21 type  2   force =     0.00000000   -0.00000000    0.00000000
     atom   22 type  2   force =     0.00000000   -0.00000000    0.00000000
     atom   23 type  2   force =     0.00000000    0.00000000    0.00000000
     atom   24 type  2   force =    -0.00000000   -0.00000000    0.00000000
     The local contribution  to forces
     atom    1 type  1   force =     0.00000000   -0.00000172    0.88653378
     atom    2 type  1   force =    -0.00000000    0.00000172    0.88653378
     atom    3 type  1   force =     0.00000000    0.00000172   -0.88653378
     atom    4 type  1   force =     0.00000000   -0.00000172   -0.88653378
     atom    5 type  1   force =     0.00146964   -0.00085039   -0.20220086
     atom    6 type  1   force =    -0.00146964    0.00085039   -0.20220086
     atom    7 type  1   force =    -0.00146964    0.00085039    0.20220086
     atom    8 type  1   force =     0.00146964   -0.00085039    0.20220086
     atom    9 type  2   force =     0.00195075   -0.00112638    0.36731638
     atom   10 type  2   force =    -0.00195075    0.00112638    0.36731638
     atom   11 type  2   force =    -0.00195075    0.00112638   -0.36731638
     atom   12 type  2   force =     0.00195075   -0.00112638   -0.36731638
     atom   13 type  2   force =    -0.00194873   13.88888820    0.00000000
     atom   14 type  2   force =   -12.02543552    6.94288924   -0.00000000
     atom   15 type  2   force =     0.00194873  -13.88888820   -0.00000000
     atom   16 type  2   force =    12.02543552   -6.94288924    0.00000000
     atom   17 type  2   force =   -12.02910540   -6.94275785    0.00000000
     atom   18 type  2   force =    12.02910540    6.94275785   -0.00000000
     atom   19 type  2   force =     0.00000000    0.00000000    0.00000000
     atom   20 type  2   force =     0.00000000    0.00000000    0.00000000
     atom   21 type  2   force =     0.00000000    0.00000000    0.00000000
     atom   22 type  2   force =     0.00000000    0.00000000    0.00000000
     atom   23 type  2   force =    -0.00000000   -0.00000000    0.00000000
     atom   24 type  2   force =    -0.00000000    0.00000000    0.00000000
     The core correction contribution to forces
     atom    1 type  1   force =    -0.00000000    0.00000000   -0.00006464
     atom    2 type  1   force =     0.00000000   -0.00000000   -0.00006464
     atom    3 type  1   force =     0.00000000   -0.00000000    0.00006464
     atom    4 type  1   force =    -0.00000000    0.00000000    0.00006464
     atom    5 type  1   force =     0.00000319   -0.00000184    0.00001174
     atom    6 type  1   force =    -0.00000319    0.00000184    0.00001174
     atom    7 type  1   force =    -0.00000319    0.00000184   -0.00001174
     atom    8 type  1   force =     0.00000319   -0.00000184   -0.00001174
     atom    9 type  2   force =     0.00000120   -0.00000069   -0.00208071
     atom   10 type  2   force =    -0.00000120    0.00000069   -0.00208071
     atom   11 type  2   force =    -0.00000120    0.00000069    0.00208071
     atom   12 type  2   force =     0.00000120   -0.00000069    0.00208071
     atom   13 type  2   force =    -0.00000119    0.00077912    0.00000000
     atom   14 type  2   force =    -0.00067288    0.00038849   -0.00000000
     atom   15 type  2   force =     0.00000119   -0.00077912   -0.00000000
     atom   16 type  2   force =     0.00067288   -0.00038849    0.00000000
     atom   17 type  2   force =    -0.00067534   -0.00038853    0.00000000
     atom   18 type  2   force =     0.00067534    0.00038853   -0.00000000
     atom   19 type  2   force =     0.00000000    0.00000000    0.00000000
     atom   20 type  2   force =     0.00000000    0.00000000    0.00000000
     atom   21 type  2   force =    -0.00000000    0.00000000    0.00000000
     atom   22 type  2   force =     0.00000000    0.00000000    0.00000000
     atom   23 type  2   force =     0.00000000    0.00000000    0.00000000
     atom   24 type  2   force =    -0.00000000    0.00000000    0.00000000
     The Hubbard contrib.    to forces
     atom    1 type  1   force =     0.00000000    0.00000000    0.00000000
     atom    2 type  1   force =     0.00000000    0.00000000    0.00000000
     atom    3 type  1   force =     0.00000000    0.00000000    0.00000000
     atom    4 type  1   force =     0.00000000    0.00000000    0.00000000
     atom    5 type  1   force =     0.00000000    0.00000000    0.00000000
     atom    6 type  1   force =     0.00000000    0.00000000    0.00000000
     atom    7 type  1   force =     0.00000000    0.00000000    0.00000000
     atom    8 type  1   force =     0.00000000    0.00000000    0.00000000
     atom    9 type  2   force =     0.00000000    0.00000000    0.00000000
     atom   10 type  2   force =     0.00000000    0.00000000    0.00000000
     atom   11 type  2   force =     0.00000000    0.00000000    0.00000000
     atom   12 type  2   force =     0.00000000    0.00000000    0.00000000
     atom   13 type  2   force =     0.00000000    0.00000000    0.00000000
     atom   14 type  2   force =     0.00000000    0.00000000    0.00000000
     atom   15 type  2   force =     0.00000000    0.00000000    0.00000000
     atom   16 type  2   force =     0.00000000    0.00000000    0.00000000
     atom   17 type  2   force =     0.00000000    0.00000000    0.00000000
     atom   18 type  2   force =     0.00000000    0.00000000    0.00000000
     atom   19 type  2   force =     0.00000000    0.00000000    0.00000000
     atom   20 type  2   force =     0.00000000    0.00000000    0.00000000
     atom   21 type  2   force =     0.00000000    0.00000000    0.00000000
     atom   22 type  2   force =     0.00000000    0.00000000    0.00000000
     atom   23 type  2   force =     0.00000000    0.00000000    0.00000000
     atom   24 type  2   force =     0.00000000    0.00000000    0.00000000
     The SCF correction term to forces
     atom    1 type  1   force =    -0.00000000    0.00000000    0.00000348
     atom    2 type  1   force =     0.00000000   -0.00000000    0.00000348
     atom    3 type  1   force =     0.00000000   -0.00000000   -0.00000348
     atom    4 type  1   force =    -0.00000000    0.00000000   -0.00000348
     atom    5 type  1   force =    -0.00000000    0.00000000   -0.00000362
     atom    6 type  1   force =     0.00000000   -0.00000000   -0.00000362
     atom    7 type  1   force =     0.00000000   -0.00000000    0.00000362
     atom    8 type  1   force =    -0.00000000    0.00000000    0.00000362
     atom    9 type  2   force =     0.00000000   -0.00000000   -0.00002492
     atom   10 type  2   force =    -0.00000000    0.00000000   -0.00002492
     atom   11 type  2   force =    -0.00000000    0.00000000    0.00002492
     atom   12 type  2   force =     0.00000000   -0.00000000    0.00002492
     atom   13 type  2   force =    -0.00000000    0.00002010   -0.00000000
     atom   14 type  2   force =    -0.00001741    0.00001005    0.00000000
     atom   15 type  2   force =     0.00000000   -0.00002010    0.00000000
     atom   16 type  2   force =     0.00001741   -0.00001005   -0.00000000
     atom   17 type  2   force =    -0.00001741   -0.00001005    0.00000000
     atom   18 type  2   force =     0.00001741    0.00001005   -0.00000000
     atom   19 type  2   force =    -0.00000000   -0.00000000   -0.00000000
     atom   20 type  2   force =     0.00000000   -0.00000000   -0.00000000
     atom   21 type  2   force =     0.00000000    0.00000000   -0.00000000
     atom   22 type  2   force =    -0.00000000    0.00000000   -0.00000000
     atom   23 type  2   force =    -0.00000000   -0.00000000   -0.00000000
     atom   24 type  2   force =     0.00000000    0.00000000   -0.00000000

     Total force =     0.000576     Total SCF correction =     0.000071
     SCF correction compared to forces is large: reduce conv_thr to get better values
     Energy error            =      4.4E-07 Ry
     Gradient error          =      2.3E-04 Ry/Bohr

     bfgs converged in   8 scf cycles and   7 bfgs steps
     (criteria: energy <  1.0E-05 Ry, force <  1.0E-03 Ry/Bohr)

     End of BFGS Geometry Optimization

     Final energy             =   -7950.0921531367 Ry

     File ./ACOptimization/out/iso.bfgs deleted, as requested
Begin final coordinates

ATOMIC_POSITIONS (crystal)
Mg            0.0000000000        0.0000000000        0.4072006181
Mg           -0.0000000000        0.0000000000        0.9072006181
Mg            0.0000000000        0.0000000000        0.5927993819
Mg           -0.0000000000       -0.0000000000        0.0927993819
Mg            0.3333330000        0.6666670000        0.6560701895
Mg            0.6666670000        0.3333330000        0.1560701895
Mg            0.6666670000        0.3333330000        0.3439298105
Mg            0.3333330000        0.6666670000        0.8439298105
Ni            0.3333330000        0.6666670000        0.3753527303
Ni            0.6666670000        0.3333330000        0.8753527303
Ni            0.6666670000        0.3333330000        0.6246472697
Ni            0.3333330000        0.6666670000        0.1246472697
Ni            0.1654870889        0.3309731778        0.2500000000
Ni            0.8345129115        0.1654870889        0.7500000000
Ni            0.8345129111        0.6690268222        0.7500000000
Ni            0.1654870885        0.8345129111        0.2500000000
Ni            0.6690268226        0.8345129111        0.2500000000
Ni            0.3309731774        0.1654870889        0.7500000000
Ni            0.5000000000       -0.0000000000        0.5000000000
Ni            0.5000000000        0.5000000000       -0.0000000000
Ni            0.5000000000       -0.0000000000       -0.0000000000
Ni            0.5000000000        0.5000000000        0.5000000000
Ni            0.0000000000        0.5000000000       -0.0000000000
Ni            0.0000000000        0.5000000000        0.5000000000
End final coordinates



     Writing all to output data dir ./ACOptimization/out/iso.save/
 
     init_run     :      8.98s CPU      9.28s WALL (       1 calls)
     electrons    :   3728.60s CPU   3731.06s WALL (       8 calls)
     update_pot   :     19.68s CPU     19.68s WALL (       7 calls)
     forces       :     36.39s CPU     36.39s WALL (       8 calls)

     Called by init_run:
     wfcinit      :      5.76s CPU      5.90s WALL (       1 calls)
                                        5.90s GPU  (       1 calls)
     potinit      :      2.59s CPU      2.63s WALL (       1 calls)
     hinit0       :      0.37s CPU      0.38s WALL (       1 calls)

     Called by electrons:
     c_bands      :   2911.94s CPU   2913.45s WALL (     165 calls)
     sum_band     :    380.12s CPU    380.42s WALL (     165 calls)
     v_of_rho     :      4.90s CPU      4.93s WALL (     169 calls)
     newd         :     42.27s CPU     46.69s WALL (     169 calls)
                                       29.79s GPU  (     162 calls)
     PAW_pot      :    396.48s CPU    396.49s WALL (     176 calls)
     mix_rho      :     29.40s CPU     29.89s WALL (     165 calls)

     Called by c_bands:
     init_us_2    :      2.32s CPU      2.32s WALL (    1038 calls)
     init_us_2:cp :      0.28s CPU      0.28s WALL (      21 calls)
     init_us_2:gp :      2.03s CPU      2.03s WALL (    1017 calls)
     cegterg      :   2847.27s CPU   2848.77s WALL (     495 calls)

     Called by *egterg:
     cdiaghg      :    140.93s CPU    141.36s WALL (    1748 calls)
                                      141.34s GPU  (    1748 calls)
     h_psi        :   1293.48s CPU   1294.84s WALL (    1784 calls)
                                     1294.35s GPU  (    1784 calls)
     s_psi        :     12.83s CPU    243.40s WALL (    1784 calls)
                                      242.34s GPU  (    1784 calls)
     g_psi        :      0.01s CPU      2.25s WALL (    1286 calls)
                                        2.23s GPU  (    1286 calls)

     Called by h_psi:
     h_psi:calbec :      0.11s CPU    242.88s WALL (    1784 calls)
                                      242.87s GPU  (    1784 calls)
     vloc_psi     :    810.51s CPU    811.83s WALL (    1784 calls)
                                      811.80s GPU  (    1784 calls)
     add_vuspsi   :      6.95s CPU    237.96s WALL (    1784 calls)
                                      237.92s GPU  (    1784 calls)

     General routines
     calbec       :     36.67s CPU     18.42s WALL (    2396 calls)
     fft          :      4.44s CPU      6.18s WALL (    4224 calls)
                                        1.76s GPU  (    3548 calls)
     ffts         :      1.93s CPU      2.80s WALL (    4711 calls)
                                        0.91s GPU  (    4035 calls)
     fftw         :     14.43s CPU    549.38s WALL ( 2487700 calls)
                                      537.32s GPU  ( 2487700 calls)
     interpolate  :      7.26s CPU      7.26s WALL (     676 calls)
 
     Parallel routines
 
     PWSCF        :      1h 4m CPU      1h 4m WALL

 
   This run was terminated on:  19:44: 0  19Mar2026            

=------------------------------------------------------------------------------=
   JOB DONE.
=------------------------------------------------------------------------------=
