
     Program PWSCF v.7.2 starts on 19Mar2026 at 19:44: 0 

     This program is part of the open-source Quantum ESPRESSO suite
     for quantum simulation of materials; please cite
         "P. Giannozzi et al., J. Phys.:Condens. Matter 21 395502 (2009);
         "P. Giannozzi et al., J. Phys.:Condens. Matter 29 465901 (2017);
         "P. Giannozzi et al., J. Chem. Phys. 152 154105 (2020);
          URL http://www.quantum-espresso.org", 
     in publications or presentations arising from this work. More details at
     http://www.quantum-espresso.org/quote

     Parallel version (MPI), running on     1 processors

     MPI processes distributed on     1 nodes
     4484 MiB available memory on the printing compute node when the environment starts
 
     Reading input from ACOptimization/in/iso_005.in
Warning: card &CELL ignored
Warning: card   CELL_DOFREE = 'ALL', ignored
Warning: card   CELL_DYNAMICS = 'BFGS', ignored
Warning: card   PRESS = 0.0, ignored
Warning: card   PRESS_CONV_THR = 0.01, ignored
Warning: card / ignored

     Current dimensions of program PWSCF are:
     Max number of different atomic species (ntypx) = 10
     Max number of k-points (npk) =  40000
     Max angular momentum in pseudopotentials (lmaxx) =  4
     file Mg.rel-pbesol-spnl-kjpaw_psl.1.0.0.UPF: wavefunction(s)  2P 2P renormalized
     file Ni.rel-pbesol-spn-kjpaw_psl.1.0.0.UPF: wavefunction(s)  3P 3P 3D 3D renormalized
     Message from routine setup:
     using ibrav=0 with symmetry is DISCOURAGED, use correct ibrav instead
 
     Subspace diagonalization in iterative solution of the eigenvalue problem:
     a serial algorithm will be used

 
     G-vector sticks info
     --------------------
     sticks:   dense  smooth     PW     G-vecs:    dense   smooth      PW
     Sum        2335    1159    313               298157   105333   15757
 
     Using Slab Decomposition
 

     Title: 
     Optimisation A C for MgNi2                                                 


     bravais-lattice index     =            0
     lattice parameter (alat)  =       9.1914  a.u.
     unit-cell volume          =    2206.1596 (a.u.)^3
     number of atoms/cell      =           24
     number of atomic types    =            2
     number of electrons       =       368.00
     number of Kohn-Sham states=          442
     kinetic-energy cutoff     =      50.0000  Ry
     charge density cutoff     =     400.0000  Ry
     scf convergence threshold =      1.0E-08
     mixing beta               =       0.1000
     number of iterations used =           20  local-TF  mixing
     energy convergence thresh.=      1.0E-05
     force convergence thresh. =      1.0E-03
     Exchange-correlation= SLA  PW   PSX  PSC
                           (   1   4  10   8   0   0   0)
     nstep                     =           50

     Non magnetic calculation with spin-orbit


     GPU acceleration is ACTIVE.


     celldm(1)=   9.191382  celldm(2)=   0.000000  celldm(3)=   0.000000
     celldm(4)=   0.000000  celldm(5)=   0.000000  celldm(6)=   0.000000

     crystal axes: (cart. coord. in units of alat)
               a(1) = (   1.000000   0.000000   0.000000 )  
               a(2) = (  -0.500000   0.866025   0.000000 )  
               a(3) = (   0.000000   0.000000   3.280680 )  

     reciprocal axes: (cart. coord. in units 2 pi/alat)
               b(1) = (  1.000000  0.577350 -0.000000 )  
               b(2) = (  0.000000  1.154701  0.000000 )  
               b(3) = (  0.000000 -0.000000  0.304815 )  


     PseudoPot. # 1 for Mg read from file:
     ./pseudo/Mg.rel-pbesol-spnl-kjpaw_psl.1.0.0.UPF
     MD5 check sum: e6ee56211aa1e9c295d50625d03707fa
     Pseudo is Projector augmented-wave + core cor, Zval = 10.0
     Generated using &quot;atomic&quot; code by A. Dal Corso  v.6.3
     Shape of augmentation charge: PSQ
     Using radial grid of 1129 points,  6 beta functions with: 
                l(1) =   0
                l(2) =   0
                l(3) =   1
                l(4) =   1
                l(5) =   1
                l(6) =   1
     Q(r) pseudized with 0 coefficients 


     PseudoPot. # 2 for Ni read from file:
     ./pseudo/Ni.rel-pbesol-spn-kjpaw_psl.1.0.0.UPF
     MD5 check sum: 1fa4c2409eb3b84dc9841cc3f54c2f43
     Pseudo is Projector augmented-wave + core cor, Zval = 18.0
     Generated using &quot;atomic&quot; code by A. Dal Corso  v.6.3
     Shape of augmentation charge: PSQ
     Using radial grid of 1195 points, 10 beta functions with: 
                l(1) =   0
                l(2) =   0
                l(3) =   1
                l(4) =   1
                l(5) =   1
                l(6) =   1
                l(7) =   2
                l(8) =   2
                l(9) =   2
               l(10) =   2
     Q(r) pseudized with 0 coefficients 


     atomic species   valence    mass     pseudopotential
        Mg            10.00    24.30500     Mg( 1.00)
        Ni            18.00    58.69340     Ni( 1.00)

     24 Sym. Ops., with inversion, found (12 have fractional translation)



   Cartesian axes

     site n.     atom                  positions (alat units)
         1           Mg  tau(   1) = (   0.0000000   0.0000000   1.3319559  )
         2           Mg  tau(   2) = (   0.0000000   0.0000000   2.9722957  )
         3           Mg  tau(   3) = (   0.0000000   0.0000000   1.9487237  )
         4           Mg  tau(   4) = (   0.0000000   0.0000000   0.3083839  )
         5           Mg  tau(   5) = (  -0.0000005   0.5773506   2.1514697  )
         6           Mg  tau(   6) = (   0.5000005   0.2886748   0.5111299  )
         7           Mg  tau(   7) = (   0.5000005   0.2886748   1.1292099  )
         8           Mg  tau(   8) = (  -0.0000005   0.5773506   2.7695497  )
         9           Ni  tau(   9) = (  -0.0000005   0.5773506   1.2297955  )
        10           Ni  tau(  10) = (   0.5000005   0.2886748   2.8701353  )
        11           Ni  tau(  11) = (   0.5000005   0.2886748   2.0508840  )
        12           Ni  tau(  12) = (  -0.0000005   0.5773506   0.4105442  )
        13           Ni  tau(  13) = (   0.0000005   0.2886748   0.8201699  )
        14           Ni  tau(  14) = (   0.7499995   0.1443379   2.4605097  )
        15           Ni  tau(  15) = (   0.4999995   0.5773506   2.4605097  )
        16           Ni  tau(  16) = (  -0.2499995   0.7216876   0.8201699  )
        17           Ni  tau(  17) = (   0.2500005   0.7216876   0.8201699  )
        18           Ni  tau(  18) = (   0.2499995   0.1443379   2.4605097  )
        19           Ni  tau(  19) = (   0.5000000   0.0000000   1.6403398  )
        20           Ni  tau(  20) = (   0.2500000   0.4330127   0.0000000  )
        21           Ni  tau(  21) = (   0.5000000   0.0000000   0.0000000  )
        22           Ni  tau(  22) = (   0.2500000   0.4330127   1.6403398  )
        23           Ni  tau(  23) = (  -0.2500000   0.4330127   0.0000000  )
        24           Ni  tau(  24) = (  -0.2500000   0.4330127   1.6403398  )

     number of k points=     3  Marzari-Vanderbilt smearing, width (Ry)=  0.0300
                       cart. coord. in units 2pi/alat
        k(    1) = (   0.0000000   0.0000000   0.0000000), wk =   0.1111111
        k(    2) = (   0.0000000   0.3849002   0.0000000), wk =   0.6666667
        k(    3) = (   0.3333333   0.5773503   0.0000000), wk =   0.2222222

     Dense  grid:   298157 G-vectors     FFT dimensions: (  60,  60, 192)

     Smooth grid:   105333 G-vectors     FFT dimensions: (  45,  45, 144)

     Estimated max dynamical RAM per process >       4.69 GB

     Check: negative core charge=   -0.000016

     Initial potential from superposition of free atoms

     starting charge     367.9890, renormalised to     368.0000
     Starting wfcs are  400 randomized atomic wfcs +   42 random wfcs
     Checking if some PAW data can be deallocated... 

     total cpu time spent up to now is       10.0 secs

     Self-consistent Calculation

     iteration #  1     ecut=    50.00 Ry     beta= 0.10
     Davidson diagonalization with overlap
     ethr =  1.00E-02,  avg # of iterations =  5.0

     total cpu time spent up to now is       37.3 secs

     total energy              =   -7950.73795060 Ry
     estimated scf accuracy    <       7.70240461 Ry

     iteration #  2     ecut=    50.00 Ry     beta= 0.10
     Davidson diagonalization with overlap
     ethr =  2.09E-03,  avg # of iterations =  1.0

     total cpu time spent up to now is       55.7 secs

     total energy              =   -7949.98526622 Ry
     estimated scf accuracy    <       4.56890554 Ry

     iteration #  3     ecut=    50.00 Ry     beta= 0.10
     Davidson diagonalization with overlap
     ethr =  1.24E-03,  avg # of iterations =  2.0

     total cpu time spent up to now is       76.4 secs

     total energy              =   -7950.12396762 Ry
     estimated scf accuracy    <       0.74868858 Ry

     iteration #  4     ecut=    50.00 Ry     beta= 0.10
     Davidson diagonalization with overlap
     ethr =  2.03E-04,  avg # of iterations =  2.0

     total cpu time spent up to now is       97.1 secs

     total energy              =   -7950.09874862 Ry
     estimated scf accuracy    <       0.40839974 Ry

     iteration #  5     ecut=    50.00 Ry     beta= 0.10
     Davidson diagonalization with overlap
     ethr =  1.11E-04,  avg # of iterations =  1.7

     total cpu time spent up to now is      117.0 secs

     total energy              =   -7950.08366358 Ry
     estimated scf accuracy    <       0.31437970 Ry

     iteration #  6     ecut=    50.00 Ry     beta= 0.10
     Davidson diagonalization with overlap
     ethr =  8.54E-05,  avg # of iterations =  1.3

     total cpu time spent up to now is      136.1 secs

     total energy              =   -7950.08874316 Ry
     estimated scf accuracy    <       0.26268324 Ry

     iteration #  7     ecut=    50.00 Ry     beta= 0.10
     Davidson diagonalization with overlap
     ethr =  7.14E-05,  avg # of iterations =  1.0

     total cpu time spent up to now is      154.5 secs

     total energy              =   -7949.99642175 Ry
     estimated scf accuracy    <       0.24963946 Ry

     iteration #  8     ecut=    50.00 Ry     beta= 0.10
     Davidson diagonalization with overlap
     ethr =  6.78E-05,  avg # of iterations =  5.3

     total cpu time spent up to now is      179.2 secs

     total energy              =   -7950.01924240 Ry
     estimated scf accuracy    <       0.02251483 Ry

     iteration #  9     ecut=    50.00 Ry     beta= 0.10
     Davidson diagonalization with overlap
     c_bands:  2 eigenvalues not converged
     ethr =  6.12E-06,  avg # of iterations = 17.0

     total cpu time spent up to now is      210.0 secs

     total energy              =   -7950.03571845 Ry
     estimated scf accuracy    <       0.02239100 Ry

     iteration # 10     ecut=    50.00 Ry     beta= 0.10
     Davidson diagonalization with overlap
     ethr =  6.08E-06,  avg # of iterations =  4.7

     total cpu time spent up to now is      233.8 secs

     total energy              =   -7950.04608427 Ry
     estimated scf accuracy    <       0.00624775 Ry

     iteration # 11     ecut=    50.00 Ry     beta= 0.10
     Davidson diagonalization with overlap
     ethr =  1.70E-06,  avg # of iterations =  2.0

     total cpu time spent up to now is      256.9 secs

     total energy              =   -7950.04474614 Ry
     estimated scf accuracy    <       0.00464036 Ry

     iteration # 12     ecut=    50.00 Ry     beta= 0.10
     Davidson diagonalization with overlap
     ethr =  1.26E-06,  avg # of iterations =  1.0

     total cpu time spent up to now is      275.3 secs

     total energy              =   -7950.05185399 Ry
     estimated scf accuracy    <       0.00855063 Ry

     iteration # 13     ecut=    50.00 Ry     beta= 0.10
     Davidson diagonalization with overlap
     ethr =  1.26E-06,  avg # of iterations =  2.7

     total cpu time spent up to now is      299.7 secs

     total energy              =   -7950.05339597 Ry
     estimated scf accuracy    <       0.01515387 Ry

     iteration # 14     ecut=    50.00 Ry     beta= 0.10
     Davidson diagonalization with overlap
     ethr =  1.26E-06,  avg # of iterations =  2.0

     total cpu time spent up to now is      321.5 secs

     total energy              =   -7950.05463678 Ry
     estimated scf accuracy    <       0.00409080 Ry

     iteration # 15     ecut=    50.00 Ry     beta= 0.10
     Davidson diagonalization with overlap
     ethr =  1.11E-06,  avg # of iterations =  2.0

     total cpu time spent up to now is      344.5 secs

     total energy              =   -7950.05572442 Ry
     estimated scf accuracy    <       0.01267407 Ry

     iteration # 16     ecut=    50.00 Ry     beta= 0.10
     Davidson diagonalization with overlap
     ethr =  1.11E-06,  avg # of iterations =  1.0

     total cpu time spent up to now is      363.0 secs

     total energy              =   -7950.05619067 Ry
     estimated scf accuracy    <       0.00852189 Ry

     iteration # 17     ecut=    50.00 Ry     beta= 0.10
     Davidson diagonalization with overlap
     ethr =  1.11E-06,  avg # of iterations =  1.7

     total cpu time spent up to now is      383.1 secs

     total energy              =   -7950.05619352 Ry
     estimated scf accuracy    <       0.00916320 Ry

     iteration # 18     ecut=    50.00 Ry     beta= 0.10
     Davidson diagonalization with overlap
     ethr =  1.11E-06,  avg # of iterations =  1.0

     total cpu time spent up to now is      401.5 secs

     total energy              =   -7950.05564626 Ry
     estimated scf accuracy    <       0.00670963 Ry

     iteration # 19     ecut=    50.00 Ry     beta= 0.10
     Davidson diagonalization with overlap
     ethr =  1.11E-06,  avg # of iterations =  1.0

     total cpu time spent up to now is      420.0 secs

     total energy              =   -7950.05590805 Ry
     estimated scf accuracy    <       0.00114976 Ry

     iteration # 20     ecut=    50.00 Ry     beta= 0.10
     Davidson diagonalization with overlap
     ethr =  3.12E-07,  avg # of iterations =  1.0

     total cpu time spent up to now is      438.5 secs

     total energy              =   -7950.05593325 Ry
     estimated scf accuracy    <       0.00009225 Ry

     iteration # 21     ecut=    50.00 Ry     beta= 0.10
     Davidson diagonalization with overlap
     ethr =  2.51E-08,  avg # of iterations =  2.0

     total cpu time spent up to now is      461.7 secs

     total energy              =   -7950.05597260 Ry
     estimated scf accuracy    <       0.00004968 Ry

     iteration # 22     ecut=    50.00 Ry     beta= 0.10
     Davidson diagonalization with overlap
     ethr =  1.35E-08,  avg # of iterations =  1.0

     total cpu time spent up to now is      480.2 secs

     total energy              =   -7950.05597277 Ry
     estimated scf accuracy    <       0.00014495 Ry

     iteration # 23     ecut=    50.00 Ry     beta= 0.10
     Davidson diagonalization with overlap
     ethr =  1.35E-08,  avg # of iterations =  1.3

     total cpu time spent up to now is      499.5 secs

     total energy              =   -7950.05597667 Ry
     estimated scf accuracy    <       0.00001810 Ry

     iteration # 24     ecut=    50.00 Ry     beta= 0.10
     Davidson diagonalization with overlap
     ethr =  4.92E-09,  avg # of iterations =  1.0

     total cpu time spent up to now is      518.1 secs

     total energy              =   -7950.05597801 Ry
     estimated scf accuracy    <       0.00000584 Ry

     iteration # 25     ecut=    50.00 Ry     beta= 0.10
     Davidson diagonalization with overlap
     ethr =  1.59E-09,  avg # of iterations =  1.0

     total cpu time spent up to now is      536.6 secs

     total energy              =   -7950.05597852 Ry
     estimated scf accuracy    <       0.00000119 Ry

     iteration # 26     ecut=    50.00 Ry     beta= 0.10
     Davidson diagonalization with overlap
     ethr =  3.22E-10,  avg # of iterations =  2.0

     total cpu time spent up to now is      558.1 secs

     total energy              =   -7950.05597916 Ry
     estimated scf accuracy    <       0.00000002 Ry

     iteration # 27     ecut=    50.00 Ry     beta= 0.10
     Davidson diagonalization with overlap
     ethr =  4.22E-12,  avg # of iterations =  5.0

     total cpu time spent up to now is      584.5 secs

     End of self-consistent calculation

          k = 0.0000 0.0000 0.0000 ( 13249 PWs)   bands (ev):

   -90.3100 -90.3100 -90.3088 -90.3088 -90.3084 -90.3084 -90.3071 -90.3071
   -90.2557 -90.2557 -90.2555 -90.2555 -90.2423 -90.2423 -90.2421 -90.2421
   -90.2337 -90.2337 -90.2337 -90.2337 -90.2336 -90.2336 -90.2336 -90.2336
   -90.2200 -90.2200 -90.2200 -90.2200 -90.2200 -90.2200 -90.2200 -90.2200
   -62.6256 -62.6256 -62.6255 -62.6255 -62.6244 -62.6244 -62.6244 -62.6244
   -62.5712 -62.5712 -62.5711 -62.5711 -62.5700 -62.5700 -62.5699 -62.5699
   -52.2973 -52.2973 -52.2936 -52.2936 -52.2920 -52.2920 -52.2846 -52.2846
   -52.2475 -52.2475 -52.2469 -52.2469 -52.2392 -52.2392 -52.2383 -52.2383
   -52.2349 -52.2349 -52.2333 -52.2333 -52.2255 -52.2255 -52.2244 -52.2244
   -52.1747 -52.1747 -52.1709 -52.1709 -52.1641 -52.1641 -52.1562 -52.1562
   -50.1797 -50.1797 -50.1754 -50.1754 -50.1642 -50.1642 -50.1596 -50.1596
   -50.1402 -50.1402 -50.1317 -50.1317 -50.1215 -50.1215 -50.1182 -50.1182
   -50.0761 -50.0761 -50.0695 -50.0695 -50.0593 -50.0593 -50.0573 -50.0573
   -50.0539 -50.0539 -50.0505 -50.0505 -50.0496 -50.0496 -50.0261 -50.0261
   -50.0167 -50.0167 -49.9939 -49.9939 -49.9902 -49.9902 -49.9793 -49.9793
   -49.9779 -49.9779 -49.9746 -49.9746 -49.9580 -49.9580 -49.9486 -49.9486
   -49.9448 -49.9448 -49.9437 -49.9437 -49.9366 -49.9366 -49.9342 -49.9342
   -49.9098 -49.9098 -49.9045 -49.9045 -49.9026 -49.9026 -49.9012 -49.9012
   -29.7571 -29.7571 -29.7568 -29.7568 -29.7527 -29.7527 -29.7523 -29.7523
   -29.7009 -29.7009 -29.7009 -29.7009 -29.6964 -29.6964 -29.6962 -29.6962
   -29.4718 -29.4718 -29.4716 -29.4716 -29.4702 -29.4702 -29.4700 -29.4700
   -29.4688 -29.4688 -29.4686 -29.4686 -29.4611 -29.4611 -29.4605 -29.4605
   -29.4172 -29.4172 -29.4170 -29.4170 -29.4116 -29.4116 -29.4115 -29.4115
   -29.4102 -29.4102 -29.4101 -29.4101 -29.4060 -29.4060 -29.4058 -29.4058
     4.1636   4.1636   4.7504   4.7504   4.7787   4.7787   6.1889   6.1889
     6.8150   6.8150   8.1841   8.1841   8.2193   8.2193   8.2460   8.2460
     8.7853   8.7853   8.8297   8.8297   8.9429   8.9429   9.0047   9.0047
     9.1534   9.1534   9.1576   9.1576   9.1764   9.1764   9.1968   9.1968
     9.2236   9.2236   9.2248   9.2248   9.3110   9.3110   9.3321   9.3321
     9.3882   9.3882   9.4449   9.4449   9.4539   9.4539   9.4540   9.4540
     9.4747   9.4747   9.5388   9.5388   9.5773   9.5773   9.6157   9.6157
     9.6222   9.6222   9.6795   9.6795   9.9514   9.9514   9.9577   9.9577
     9.9578   9.9578   9.9855   9.9855   9.9907   9.9907  10.0181  10.0181
    10.1933  10.1933  10.2528  10.2528  10.3259  10.3259  10.3329  10.3329
    10.3816  10.3816  10.4350  10.4350  10.4652  10.4652  10.4656  10.4656
    10.6103  10.6103  10.6281  10.6281  10.8721  10.8721  11.0117  11.0117
    11.0610  11.0610  11.0859  11.0859  11.0969  11.0969  11.1379  11.1379
    11.2406  11.2406  11.2948  11.2948  11.3819  11.3819  11.3932  11.3932
    11.5103  11.5103  11.5203  11.5203  11.6013  11.6013  11.6042  11.6042
    11.6157  11.6157  11.6188  11.6188  11.6228  11.6228  11.6238  11.6238
    11.6322  11.6322  11.6500  11.6500  11.6600  11.6600  11.6694  11.6694
    11.6854  11.6854  11.6887  11.6887  11.7078  11.7078  11.7271  11.7271
    11.7516  11.7516  11.7805  11.7805  11.7822  11.7822  11.7973  11.7973
    11.8124  11.8124  11.8427  11.8427  11.9168  11.9168  12.1410  12.1410
    12.1936  12.1936  12.4176  12.4176  12.4190  12.4190  12.6291  12.6291
    12.6317  12.6317  12.6468  12.6468  12.6484  12.6484  12.9902  12.9902
    13.1033  13.1033  13.2619  13.2619  13.3206  13.3206  13.3623  13.3623
    13.3759  13.3759  13.3938  13.3938  13.3942  13.3942  13.4495  13.4495
    13.6985  13.6985  13.7273  13.7273  13.7449  13.7449  13.7948  13.7948
    15.0551  15.0551  15.1080  15.1080  15.1094  15.1094  15.1206  15.1206
    15.5139  15.5139  15.5592  15.5592  15.9730  15.9730  15.9924  15.9924
    16.5439  16.5439  16.5959  16.5959  16.6127  16.6127  16.7204  16.7204
    16.8084  16.8084  17.0102  17.0102  17.4659  17.4659  17.4774  17.4774
    17.9518  17.9518  17.9721  17.9721  18.0253  18.0253  18.5341  18.5341
    18.5447  18.5447  18.5658  18.5658  18.7606  18.7606  20.1952  20.1955
    20.2409  20.5063

          k = 0.0000 0.3849 0.0000 ( 13152 PWs)   bands (ev):

   -90.3095 -90.3095 -90.3088 -90.3088 -90.3081 -90.3081 -90.3073 -90.3073
   -90.2511 -90.2511 -90.2511 -90.2511 -90.2386 -90.2386 -90.2383 -90.2383
   -90.2376 -90.2376 -90.2373 -90.2373 -90.2337 -90.2337 -90.2337 -90.2337
   -90.2248 -90.2248 -90.2248 -90.2248 -90.2199 -90.2199 -90.2199 -90.2199
   -62.6255 -62.6255 -62.6255 -62.6255 -62.6243 -62.6243 -62.6242 -62.6242
   -62.5712 -62.5712 -62.5712 -62.5712 -62.5699 -62.5699 -62.5699 -62.5699
   -52.2972 -52.2972 -52.2931 -52.2931 -52.2899 -52.2899 -52.2811 -52.2811
   -52.2419 -52.2419 -52.2403 -52.2403 -52.2293 -52.2293 -52.2280 -52.2280
   -52.2263 -52.2263 -52.2242 -52.2242 -52.2115 -52.2115 -52.2103 -52.2103
   -52.1813 -52.1813 -52.1795 -52.1795 -52.1681 -52.1681 -52.1658 -52.1658
   -50.1777 -50.1777 -50.1704 -50.1704 -50.1674 -50.1674 -50.1555 -50.1555
   -50.1151 -50.1151 -50.1121 -50.1121 -50.1096 -50.1096 -50.1055 -50.1055
   -50.0665 -50.0665 -50.0654 -50.0654 -50.0636 -50.0636 -50.0567 -50.0567
   -50.0466 -50.0466 -50.0449 -50.0449 -50.0409 -50.0409 -50.0216 -50.0216
   -50.0142 -50.0142 -49.9966 -49.9966 -49.9942 -49.9942 -49.9889 -49.9889
   -49.9713 -49.9713 -49.9684 -49.9684 -49.9553 -49.9553 -49.9528 -49.9528
   -49.9451 -49.9451 -49.9436 -49.9436 -49.9364 -49.9364 -49.9346 -49.9346
   -49.9188 -49.9188 -49.9181 -49.9181 -49.9029 -49.9029 -49.9011 -49.9011
   -29.7563 -29.7563 -29.7562 -29.7562 -29.7521 -29.7521 -29.7519 -29.7519
   -29.7016 -29.7016 -29.7016 -29.7016 -29.6973 -29.6973 -29.6972 -29.6972
   -29.4720 -29.4720 -29.4719 -29.4719 -29.4691 -29.4691 -29.4690 -29.4690
   -29.4675 -29.4675 -29.4673 -29.4673 -29.4613 -29.4613 -29.4610 -29.4610
   -29.4165 -29.4165 -29.4165 -29.4165 -29.4126 -29.4126 -29.4125 -29.4125
   -29.4108 -29.4108 -29.4107 -29.4107 -29.4056 -29.4056 -29.4056 -29.4056
     5.1154   5.1154   5.6776   5.6776   5.7080   5.7080   7.0776   7.0776
     7.5273   7.5273   7.7174   7.7174   8.0198   8.0198   8.0607   8.0607
     8.6250   8.6250   8.6607   8.6607   8.7990   8.7990   8.8938   8.8938
     8.9643   8.9643   9.0776   9.0776   9.1415   9.1415   9.2147   9.2147
     9.2932   9.2932   9.3475   9.3475   9.3876   9.3876   9.4192   9.4192
     9.4293   9.4293   9.4374   9.4374   9.5539   9.5539   9.6565   9.6565
     9.6974   9.6974   9.7467   9.7467   9.7931   9.7931   9.8454   9.8454
     9.8649   9.8649   9.8928   9.8928   9.8993   9.8993   9.9873   9.9873
     9.9910   9.9910  10.0279  10.0279  10.0338  10.0338  10.0933  10.0933
    10.1278  10.1278  10.1346  10.1346  10.2017  10.2017  10.2419  10.2419
    10.3155  10.3155  10.3587  10.3587  10.3822  10.3822  10.4006  10.4006
    10.4551  10.4551  10.5408  10.5408  10.5708  10.5708  10.6207  10.6207
    10.6303  10.6303  10.7279  10.7279  10.7409  10.7409  10.7968  10.7968
    10.8128  10.8128  10.8729  10.8729  10.9336  10.9336  10.9428  10.9428
    10.9620  10.9620  11.0128  11.0128  11.0980  11.0980  11.1126  11.1126
    11.1815  11.1815  11.2170  11.2170  11.2409  11.2409  11.2718  11.2718
    11.3369  11.3369  11.3525  11.3525  11.3612  11.3612  11.4143  11.4143
    11.4216  11.4216  11.4774  11.4774  11.5141  11.5141  11.5666  11.5666
    11.5742  11.5742  11.6540  11.6540  11.6628  11.6628  11.6750  11.6750
    11.7203  11.7203  11.7256  11.7256  11.7333  11.7333  11.7591  11.7591
    11.8193  11.8193  11.8456  11.8456  11.8616  11.8616  11.9506  11.9506
    11.9783  11.9783  12.0427  12.0427  12.1153  12.1153  12.2270  12.2270
    12.4848  12.4848  12.5553  12.5553  12.8879  12.8879  12.9018  12.9018
    13.1031  13.1031  13.2031  13.2031  13.2916  13.2916  13.4466  13.4466
    13.5230  13.5230  13.5428  13.5428  13.6360  13.6360  13.8354  13.8354
    14.4193  14.4193  14.8561  14.8561  15.1523  15.1523  15.1927  15.1927
    16.4179  16.4179  16.9010  16.9010  16.9467  16.9467  17.0737  17.0737
    17.8389  17.8389  17.9063  17.9063  17.9725  17.9725  18.0885  18.0885
    18.1547  18.1547  18.3203  18.3203  18.7395  18.7395  19.1428  19.1428
    19.2590  19.2590  19.2667  19.2667  19.8009  19.8009  19.8211  19.8211
    20.1324  20.1324  20.5275  20.5275  20.8731  20.8731  21.1706  21.1708
    21.2179  21.2179

          k = 0.3333 0.5774 0.0000 ( 13128 PWs)   bands (ev):

   -90.3090 -90.3090 -90.3090 -90.3090 -90.3077 -90.3077 -90.3077 -90.3077
   -90.2454 -90.2454 -90.2454 -90.2454 -90.2441 -90.2441 -90.2441 -90.2441
   -90.2336 -90.2336 -90.2336 -90.2336 -90.2312 -90.2312 -90.2312 -90.2312
   -90.2311 -90.2311 -90.2311 -90.2311 -90.2200 -90.2200 -90.2199 -90.2199
   -62.6254 -62.6254 -62.6254 -62.6254 -62.6242 -62.6242 -62.6242 -62.6242
   -62.5712 -62.5712 -62.5711 -62.5711 -62.5700 -62.5700 -62.5699 -62.5699
   -52.2944 -52.2944 -52.2943 -52.2943 -52.2885 -52.2885 -52.2884 -52.2884
   -52.2376 -52.2376 -52.2372 -52.2372 -52.2269 -52.2269 -52.2235 -52.2235
   -52.2086 -52.2086 -52.2043 -52.2043 -52.2023 -52.2023 -52.2015 -52.2015
   -52.1908 -52.1908 -52.1870 -52.1870 -52.1868 -52.1868 -52.1851 -52.1851
   -50.1732 -50.1732 -50.1713 -50.1713 -50.1653 -50.1653 -50.1629 -50.1629
   -50.0948 -50.0948 -50.0916 -50.0916 -50.0896 -50.0896 -50.0874 -50.0874
   -50.0810 -50.0810 -50.0804 -50.0804 -50.0744 -50.0744 -50.0626 -50.0626
   -50.0440 -50.0440 -50.0381 -50.0381 -50.0318 -50.0318 -50.0149 -50.0149
   -50.0096 -50.0096 -50.0071 -50.0071 -49.9958 -49.9958 -49.9942 -49.9942
   -49.9774 -49.9774 -49.9660 -49.9660 -49.9584 -49.9584 -49.9552 -49.9552
   -49.9443 -49.9443 -49.9433 -49.9433 -49.9402 -49.9402 -49.9370 -49.9370
   -49.9265 -49.9265 -49.9243 -49.9243 -49.9063 -49.9063 -49.9055 -49.9055
   -29.7562 -29.7562 -29.7559 -29.7559 -29.7519 -29.7519 -29.7516 -29.7516
   -29.7022 -29.7022 -29.7021 -29.7021 -29.6977 -29.6977 -29.6976 -29.6976
   -29.4730 -29.4730 -29.4711 -29.4711 -29.4690 -29.4690 -29.4690 -29.4690
   -29.4665 -29.4665 -29.4664 -29.4664 -29.4625 -29.4625 -29.4603 -29.4603
   -29.4164 -29.4164 -29.4164 -29.4164 -29.4133 -29.4133 -29.4131 -29.4131
   -29.4109 -29.4109 -29.4107 -29.4107 -29.4055 -29.4055 -29.4053 -29.4053
     6.6861   6.6861   6.6868   6.6868   7.1225   7.1225   7.2374   7.2374
     7.2426   7.2426   7.4221   7.4221   7.5314   7.5314   7.5364   7.5364
     7.7496   7.7496   8.5639   8.5639   8.5644   8.5644   8.5800   8.5800
     8.5869   8.5869   8.6332   8.6332   8.6929   8.6929   9.3206   9.3206
     9.3249   9.3249   9.3447   9.3447   9.4524   9.4524   9.4651   9.4651
     9.6169   9.6169   9.6464   9.6464   9.7534   9.7534   9.7692   9.7692
     9.8424   9.8424   9.8446   9.8446   9.8892   9.8892   9.8961   9.8961
     9.9162   9.9162   9.9192   9.9192   9.9955   9.9955  10.0433  10.0433
    10.0588  10.0588  10.0671  10.0671  10.0788  10.0788  10.0888  10.0888
    10.1039  10.1039  10.1532  10.1532  10.1665  10.1665  10.1815  10.1815
    10.2012  10.2012  10.2017  10.2017  10.2416  10.2416  10.2526  10.2526
    10.3179  10.3179  10.3189  10.3189  10.3514  10.3514  10.3609  10.3609
    10.3951  10.3951  10.5445  10.5445  10.5564  10.5564  10.5698  10.5698
    10.6774  10.6774  10.7981  10.7981  10.8168  10.8168  10.8246  10.8246
    10.8623  10.8623  10.8861  10.8861  11.0367  11.0367  11.0413  11.0413
    11.1150  11.1150  11.1454  11.1454  11.1609  11.1609  11.1765  11.1765
    11.2223  11.2223  11.2369  11.2369  11.2497  11.2497  11.3379  11.3379
    11.3811  11.3811  11.4090  11.4090  11.4225  11.4225  11.4261  11.4261
    11.4488  11.4488  11.4644  11.4644  11.4660  11.4660  11.5091  11.5091
    11.5250  11.5250  11.5303  11.5303  11.5939  11.5939  11.6454  11.6454
    11.7977  11.7977  11.8127  11.8127  11.8966  11.8966  11.8967  11.8967
    11.9194  11.9194  11.9856  11.9856  11.9974  11.9974  12.0920  12.0920
    12.1486  12.1486  12.2030  12.2030  12.2044  12.2044  12.4249  12.4249
    12.5431  12.5431  12.5545  12.5545  12.6217  12.6217  13.9454  13.9454
    13.9666  13.9666  14.0147  14.0147  14.1885  14.1885  14.1955  14.1955
    14.7688  14.7688  16.5692  16.5692  16.5713  16.5713  16.7279  16.7279
    16.9746  16.9746  16.9755  16.9755  17.5190  17.5190  17.6200  17.6200
    17.6208  17.6208  17.6629  17.6629  17.6710  17.6710  17.9387  17.9387
    18.1465  18.1465  18.5109  18.5109  18.6082  18.6082  18.6223  18.6223
    19.3723  19.3723  19.3751  19.3751  19.6468  19.6468  19.6609  19.6609
    19.7602  19.7602  20.3659  20.3659  21.7520  21.7521  21.7608  21.7608
    21.9532  21.9533

     the Fermi energy is    12.2738 ev

!    total energy              =   -7950.05598170 Ry
     total all-electron energy =    -51823.908065 Ry
     estimated scf accuracy    <          5.5E-09 Ry
     smearing contrib. (-TS)   =       0.11476564 Ry
     internal energy E=F+TS    =   -7950.17074734 Ry

     The total energy is F=E-TS. E is the sum of the following terms:
     one-electron contribution =   -4576.39574524 Ry
     hartree contribution      =    2434.21190135 Ry
     xc contribution           =    -681.28625022 Ry
     ewald contribution        =   -3588.57337398 Ry
     one-center paw contrib.   =   -1538.12727926 Ry

     convergence has been achieved in  27 iterations

     Forces acting on atoms (cartesian axes, Ry/au):

     atom    1 type  1   force =     0.00000000   -0.00000000    0.00447972
     atom    2 type  1   force =     0.00000000    0.00000000    0.00447972
     atom    3 type  1   force =    -0.00000000   -0.00000000   -0.00447972
     atom    4 type  1   force =     0.00000000    0.00000000   -0.00447972
     atom    5 type  1   force =     0.00000000    0.00000000    0.00113947
     atom    6 type  1   force =     0.00000000    0.00000000    0.00113947
     atom    7 type  1   force =    -0.00000000   -0.00000000   -0.00113947
     atom    8 type  1   force =     0.00000000    0.00000000   -0.00113947
     atom    9 type  2   force =     0.00000000    0.00000000    0.00485482
     atom   10 type  2   force =     0.00000000    0.00000000    0.00485482
     atom   11 type  2   force =     0.00000000    0.00000000   -0.00485482
     atom   12 type  2   force =     0.00000000    0.00000000   -0.00485482
     atom   13 type  2   force =     0.00000000   -0.00484372   -0.00000000
     atom   14 type  2   force =     0.00419478   -0.00242186    0.00000000
     atom   15 type  2   force =     0.00000000    0.00484372   -0.00000000
     atom   16 type  2   force =    -0.00419478    0.00242186    0.00000000
     atom   17 type  2   force =     0.00419478    0.00242186    0.00000000
     atom   18 type  2   force =    -0.00419478   -0.00242186    0.00000000
     atom   19 type  2   force =     0.00000000    0.00000000   -0.00000000
     atom   20 type  2   force =     0.00000000    0.00000000   -0.00000000
     atom   21 type  2   force =    -0.00000000    0.00000000    0.00000000
     atom   22 type  2   force =     0.00000000   -0.00000000    0.00000000
     atom   23 type  2   force =     0.00000000   -0.00000000   -0.00000000
     atom   24 type  2   force =    -0.00000000   -0.00000000   -0.00000000
     The non-local contrib.  to forces
     atom    1 type  1   force =     0.00000000    0.00000000    0.02511651
     atom    2 type  1   force =    -0.00000000   -0.00000000    0.02511651
     atom    3 type  1   force =     0.00000000    0.00000000   -0.02511651
     atom    4 type  1   force =     0.00000000    0.00000000   -0.02511651
     atom    5 type  1   force =     0.00000000    0.00000000    0.00080108
     atom    6 type  1   force =     0.00000000    0.00000000    0.00080108
     atom    7 type  1   force =    -0.00000000   -0.00000000   -0.00080108
     atom    8 type  1   force =     0.00000000    0.00000000   -0.00080108
     atom    9 type  2   force =     0.00000000    0.00000000   -0.00785752
     atom   10 type  2   force =     0.00000000    0.00000000   -0.00785752
     atom   11 type  2   force =     0.00000000    0.00000000    0.00785752
     atom   12 type  2   force =     0.00000000   -0.00000000    0.00785752
     atom   13 type  2   force =     0.00000000   -0.09140924    0.00000000
     atom   14 type  2   force =     0.07916272   -0.04570462   -0.00000000
     atom   15 type  2   force =     0.00000000    0.09140924    0.00000000
     atom   16 type  2   force =    -0.07916272    0.04570462    0.00000000
     atom   17 type  2   force =     0.07916272    0.04570462   -0.00000000
     atom   18 type  2   force =    -0.07916272   -0.04570462   -0.00000000
     atom   19 type  2   force =     0.00000000   -0.00000000   -0.00000000
     atom   20 type  2   force =    -0.00000000    0.00000000   -0.00000000
     atom   21 type  2   force =    -0.00000000    0.00000000   -0.00000000
     atom   22 type  2   force =     0.00000000    0.00000000   -0.00000000
     atom   23 type  2   force =    -0.00000000   -0.00000000    0.00000000
     atom   24 type  2   force =     0.00000000    0.00000000   -0.00000000
     The ionic contribution  to forces
     atom    1 type  1   force =    -0.00001485    0.00000865   -0.25360210
     atom    2 type  1   force =     0.00001485   -0.00000865   -0.25360210
     atom    3 type  1   force =     0.00001485   -0.00000865    0.25360210
     atom    4 type  1   force =    -0.00001485    0.00000865    0.25360210
     atom    5 type  1   force =     0.00005384   -0.00003100    0.06701810
     atom    6 type  1   force =    -0.00005384    0.00003100    0.06701810
     atom    7 type  1   force =    -0.00005384    0.00003100   -0.06701810
     atom    8 type  1   force =     0.00005384   -0.00003100   -0.06701810
     atom    9 type  2   force =     0.00005564   -0.00003212    1.22289075
     atom   10 type  2   force =    -0.00005564    0.00003212    1.22289075
     atom   11 type  2   force =    -0.00005564    0.00003212   -1.22289075
     atom   12 type  2   force =     0.00005564   -0.00003212   -1.22289075
     atom   13 type  2   force =     0.00007106  -15.27058507    0.00000000
     atom   14 type  2   force =    13.22479640   -7.63533984   -0.00000000
     atom   15 type  2   force =    -0.00007106   15.27058507   -0.00000000
     atom   16 type  2   force =   -13.22479640    7.63533984    0.00000000
     atom   17 type  2   force =    13.22475011    7.63523106    0.00000000
     atom   18 type  2   force =   -13.22475011   -7.63523106   -0.00000000
     atom   19 type  2   force =    -0.00000000   -0.00000000    0.00000000
     atom   20 type  2   force =    -0.00000000    0.00000000   -0.00000000
     atom   21 type  2   force =     0.00000000   -0.00000000   -0.00000000
     atom   22 type  2   force =    -0.00000000    0.00000000    0.00000000
     atom   23 type  2   force =    -0.00000000    0.00000000   -0.00000000
     atom   24 type  2   force =    -0.00000000    0.00000000    0.00000000
     The local contribution  to forces
     atom    1 type  1   force =     0.00000000    0.00000002    0.23310459
     atom    2 type  1   force =     0.00000000   -0.00000002    0.23310459
     atom    3 type  1   force =    -0.00000000   -0.00000002   -0.23310459
     atom    4 type  1   force =    -0.00000000    0.00000002   -0.23310459
     atom    5 type  1   force =     0.00148308   -0.00085624   -0.06667747
     atom    6 type  1   force =    -0.00148308    0.00085624   -0.06667747
     atom    7 type  1   force =    -0.00148308    0.00085624    0.06667747
     atom    8 type  1   force =     0.00148308   -0.00085624    0.06667747
     atom    9 type  2   force =     0.00196888   -0.00113673   -1.20831774
     atom   10 type  2   force =    -0.00196888    0.00113673   -1.20831774
     atom   11 type  2   force =    -0.00196888    0.00113673    1.20831774
     atom   12 type  2   force =     0.00196888   -0.00113673    1.20831774
     atom   13 type  2   force =    -0.00196745   15.35741935    0.00000000
     atom   14 type  2   force =   -13.29718991    7.67713615   -0.00000000
     atom   15 type  2   force =     0.00196745  -15.35741935   -0.00000000
     atom   16 type  2   force =    13.29718991   -7.67713615    0.00000000
     atom   17 type  2   force =   -13.30089909   -7.67700583    0.00000000
     atom   18 type  2   force =    13.30089909    7.67700583   -0.00000000
     atom   19 type  2   force =     0.00000000   -0.00000000    0.00000000
     atom   20 type  2   force =     0.00000000    0.00000000    0.00000000
     atom   21 type  2   force =    -0.00000000   -0.00000000    0.00000000
     atom   22 type  2   force =     0.00000000    0.00000000    0.00000000
     atom   23 type  2   force =     0.00000000    0.00000000    0.00000000
     atom   24 type  2   force =     0.00000000    0.00000000    0.00000000
     The core correction contribution to forces
     atom    1 type  1   force =    -0.00000000    0.00000000   -0.00012255
     atom    2 type  1   force =     0.00000000   -0.00000000   -0.00012255
     atom    3 type  1   force =     0.00000000   -0.00000000    0.00012255
     atom    4 type  1   force =    -0.00000000    0.00000000    0.00012255
     atom    5 type  1   force =     0.00000321   -0.00000186   -0.00000678
     atom    6 type  1   force =    -0.00000321    0.00000186   -0.00000678
     atom    7 type  1   force =    -0.00000321    0.00000186    0.00000678
     atom    8 type  1   force =     0.00000321   -0.00000186    0.00000678
     atom    9 type  2   force =     0.00000121   -0.00000070   -0.00178942
     atom   10 type  2   force =    -0.00000121    0.00000070   -0.00178942
     atom   11 type  2   force =    -0.00000121    0.00000070    0.00178942
     atom   12 type  2   force =     0.00000121   -0.00000070    0.00178942
     atom   13 type  2   force =    -0.00000120    0.00079206    0.00000000
     atom   14 type  2   force =    -0.00068408    0.00039495    0.00000000
     atom   15 type  2   force =     0.00000120   -0.00079206    0.00000000
     atom   16 type  2   force =     0.00068408   -0.00039495    0.00000000
     atom   17 type  2   force =    -0.00068655   -0.00039499    0.00000000
     atom   18 type  2   force =     0.00068655    0.00039499    0.00000000
     atom   19 type  2   force =     0.00000000    0.00000000    0.00000000
     atom   20 type  2   force =     0.00000000    0.00000000    0.00000000
     atom   21 type  2   force =    -0.00000000    0.00000000    0.00000000
     atom   22 type  2   force =     0.00000000    0.00000000    0.00000000
     atom   23 type  2   force =     0.00000000    0.00000000    0.00000000
     atom   24 type  2   force =    -0.00000000    0.00000000    0.00000000
     The Hubbard contrib.    to forces
     atom    1 type  1   force =     0.00000000    0.00000000    0.00000000
     atom    2 type  1   force =     0.00000000    0.00000000    0.00000000
     atom    3 type  1   force =     0.00000000    0.00000000    0.00000000
     atom    4 type  1   force =     0.00000000    0.00000000    0.00000000
     atom    5 type  1   force =     0.00000000    0.00000000    0.00000000
     atom    6 type  1   force =     0.00000000    0.00000000    0.00000000
     atom    7 type  1   force =     0.00000000    0.00000000    0.00000000
     atom    8 type  1   force =     0.00000000    0.00000000    0.00000000
     atom    9 type  2   force =     0.00000000    0.00000000    0.00000000
     atom   10 type  2   force =     0.00000000    0.00000000    0.00000000
     atom   11 type  2   force =     0.00000000    0.00000000    0.00000000
     atom   12 type  2   force =     0.00000000    0.00000000    0.00000000
     atom   13 type  2   force =     0.00000000    0.00000000    0.00000000
     atom   14 type  2   force =     0.00000000    0.00000000    0.00000000
     atom   15 type  2   force =     0.00000000    0.00000000    0.00000000
     atom   16 type  2   force =     0.00000000    0.00000000    0.00000000
     atom   17 type  2   force =     0.00000000    0.00000000    0.00000000
     atom   18 type  2   force =     0.00000000    0.00000000    0.00000000
     atom   19 type  2   force =     0.00000000    0.00000000    0.00000000
     atom   20 type  2   force =     0.00000000    0.00000000    0.00000000
     atom   21 type  2   force =     0.00000000    0.00000000    0.00000000
     atom   22 type  2   force =     0.00000000    0.00000000    0.00000000
     atom   23 type  2   force =     0.00000000    0.00000000    0.00000000
     atom   24 type  2   force =     0.00000000    0.00000000    0.00000000
     The SCF correction term to forces
     atom    1 type  1   force =     0.00000066   -0.00000038   -0.00001673
     atom    2 type  1   force =    -0.00000066    0.00000038   -0.00001673
     atom    3 type  1   force =    -0.00000066    0.00000038    0.00001673
     atom    4 type  1   force =     0.00000066   -0.00000038    0.00001673
     atom    5 type  1   force =    -0.00000067    0.00000039    0.00000454
     atom    6 type  1   force =     0.00000067   -0.00000039    0.00000454
     atom    7 type  1   force =     0.00000067   -0.00000039   -0.00000454
     atom    8 type  1   force =    -0.00000067    0.00000039   -0.00000454
     atom    9 type  2   force =    -0.00000451    0.00000260   -0.00007124
     atom   10 type  2   force =     0.00000451   -0.00000260   -0.00007124
     atom   11 type  2   force =     0.00000451   -0.00000260    0.00007124
     atom   12 type  2   force =    -0.00000451    0.00000260    0.00007124
     atom   13 type  2   force =    -0.00000064    0.00002027   -0.00000000
     atom   14 type  2   force =    -0.00001785    0.00001030    0.00000000
     atom   15 type  2   force =     0.00000064   -0.00002027    0.00000000
     atom   16 type  2   force =     0.00001785   -0.00001030   -0.00000000
     atom   17 type  2   force =    -0.00001787   -0.00000958   -0.00000000
     atom   18 type  2   force =     0.00001787    0.00000958    0.00000000
     atom   19 type  2   force =    -0.00000000    0.00000000   -0.00000000
     atom   20 type  2   force =     0.00000000   -0.00000000   -0.00000000
     atom   21 type  2   force =    -0.00000000    0.00000000   -0.00000000
     atom   22 type  2   force =    -0.00000000   -0.00000000   -0.00000000
     atom   23 type  2   force =    -0.00000000    0.00000000   -0.00000000
     atom   24 type  2   force =     0.00000000    0.00000000   -0.00000000

     Total force =     0.017903     Total SCF correction =     0.000155

     BFGS Geometry Optimization
     Energy error            =      0.0E+00 Ry
     Gradient error          =      4.9E-03 Ry/Bohr

     number of scf cycles    =   1
     number of bfgs steps    =   0

     energy             new  =   -7950.0559817010 Ry

     new trust radius        =       0.0048548219 bohr
     new conv_thr            =       0.0000000100 Ry


ATOMIC_POSITIONS (crystal)
Mg           -0.0000000000       -0.0000000000        0.4061485615
Mg            0.0000000000        0.0000000000        0.9061485615
Mg           -0.0000000000       -0.0000000000        0.5938514385
Mg            0.0000000000        0.0000000000        0.0938514385
Mg            0.3333330000        0.6666670000        0.6558377883
Mg            0.6666670000        0.3333330000        0.1558377883
Mg            0.6666670000        0.3333330000        0.3441622117
Mg            0.3333330000        0.6666670000        0.8441622117
Ni            0.3333330000        0.6666670000        0.3750210010
Ni            0.6666670000        0.3333330000        0.8750210010
Ni            0.6666670000        0.3333330000        0.6249789990
Ni            0.3333330000        0.6666670000        0.1249789990
Ni            0.1663627453        0.3327244905        0.2500000000
Ni            0.8336372547        0.1663627453        0.7500000000
Ni            0.8336372547        0.6672755095        0.7500000000
Ni            0.1663627453        0.8336372547        0.2500000000
Ni            0.6672755095        0.8336372547        0.2500000000
Ni            0.3327244905        0.1663627453        0.7500000000
Ni            0.5000000000        0.0000000000        0.5000000000
Ni            0.5000000000        0.5000000000       -0.0000000000
Ni            0.5000000000        0.0000000000        0.0000000000
Ni            0.5000000000        0.5000000000        0.5000000000
Ni           -0.0000000000        0.5000000000       -0.0000000000
Ni           -0.0000000000        0.5000000000        0.5000000000



     Writing config-only to output data dir ./ACOptimization/out/iso.save/
     NEW-OLD atomic charge density approx. for the potential

     Check: negative core charge=   -0.000016

     total cpu time spent up to now is      599.7 secs

     Self-consistent Calculation

     iteration #  1     ecut=    50.00 Ry     beta= 0.10
     Davidson diagonalization with overlap
     ethr =  1.00E-06,  avg # of iterations =  6.0

     total cpu time spent up to now is      638.7 secs

     total energy              =   -7950.05776519 Ry
     estimated scf accuracy    <       0.00042849 Ry

     iteration #  2     ecut=    50.00 Ry     beta= 0.10
     Davidson diagonalization with overlap
     ethr =  1.16E-07,  avg # of iterations =  1.7

     total cpu time spent up to now is      658.7 secs

     total energy              =   -7950.05659840 Ry
     estimated scf accuracy    <       0.00033301 Ry

     iteration #  3     ecut=    50.00 Ry     beta= 0.10
     Davidson diagonalization with overlap
     ethr =  9.05E-08,  avg # of iterations =  2.7

     total cpu time spent up to now is      681.4 secs

     total energy              =   -7950.05640182 Ry
     estimated scf accuracy    <       0.00004112 Ry

     iteration #  4     ecut=    50.00 Ry     beta= 0.10
     Davidson diagonalization with overlap
     ethr =  1.12E-08,  avg # of iterations =  4.0

     total cpu time spent up to now is      706.5 secs

     total energy              =   -7950.05637212 Ry
     estimated scf accuracy    <       0.00001554 Ry

     iteration #  5     ecut=    50.00 Ry     beta= 0.10
     Davidson diagonalization with overlap
     ethr =  4.22E-09,  avg # of iterations =  1.7

     total cpu time spent up to now is      726.6 secs

     total energy              =   -7950.05635957 Ry
     estimated scf accuracy    <       0.00001693 Ry

     iteration #  6     ecut=    50.00 Ry     beta= 0.10
     Davidson diagonalization with overlap
     ethr =  4.22E-09,  avg # of iterations =  2.0

     total cpu time spent up to now is      750.0 secs

     total energy              =   -7950.05631372 Ry
     estimated scf accuracy    <       0.00002250 Ry

     iteration #  7     ecut=    50.00 Ry     beta= 0.10
     Davidson diagonalization with overlap
     ethr =  4.22E-09,  avg # of iterations =  2.3

     total cpu time spent up to now is      773.9 secs

     total energy              =   -7950.05625816 Ry
     estimated scf accuracy    <       0.00001869 Ry

     iteration #  8     ecut=    50.00 Ry     beta= 0.10
     Davidson diagonalization with overlap
     ethr =  4.22E-09,  avg # of iterations =  3.7

     total cpu time spent up to now is      799.7 secs

     total energy              =   -7950.05626345 Ry
     estimated scf accuracy    <       0.00000229 Ry

     iteration #  9     ecut=    50.00 Ry     beta= 0.10
     Davidson diagonalization with overlap
     ethr =  6.23E-10,  avg # of iterations =  2.7

     total cpu time spent up to now is      823.5 secs

     total energy              =   -7950.05625834 Ry
     estimated scf accuracy    <       0.00000015 Ry

     iteration # 10     ecut=    50.00 Ry     beta= 0.10
     Davidson diagonalization with overlap
     ethr =  4.17E-11,  avg # of iterations =  5.0

     total cpu time spent up to now is      854.9 secs

     total energy              =   -7950.05625949 Ry
     estimated scf accuracy    <       0.00000015 Ry

     iteration # 11     ecut=    50.00 Ry     beta= 0.10
     Davidson diagonalization with overlap
     ethr =  4.17E-11,  avg # of iterations =  1.3

     total cpu time spent up to now is      874.0 secs

     total energy              =   -7950.05625679 Ry
     estimated scf accuracy    <       0.00000014 Ry

     iteration # 12     ecut=    50.00 Ry     beta= 0.10
     Davidson diagonalization with overlap
     ethr =  3.81E-11,  avg # of iterations =  7.0

     total cpu time spent up to now is      906.4 secs

     total energy              =   -7950.05625779 Ry
     estimated scf accuracy    <       0.00000012 Ry

     iteration # 13     ecut=    50.00 Ry     beta= 0.10
     Davidson diagonalization with overlap
     ethr =  3.15E-11,  avg # of iterations =  4.0

     total cpu time spent up to now is      935.7 secs

     total energy              =   -7950.05625778 Ry
     estimated scf accuracy    <       0.00000001 Ry

     iteration # 14     ecut=    50.00 Ry     beta= 0.10
     Davidson diagonalization with overlap
     ethr =  3.03E-12,  avg # of iterations =  3.3

     total cpu time spent up to now is      964.1 secs

     total energy              =   -7950.05625784 Ry
     estimated scf accuracy    <       0.00000006 Ry

     iteration # 15     ecut=    50.00 Ry     beta= 0.10
     Davidson diagonalization with overlap
     ethr =  3.03E-12,  avg # of iterations =  3.0

     total cpu time spent up to now is      988.3 secs

     End of self-consistent calculation

          k = 0.0000 0.0000 0.0000 ( 13249 PWs)   bands (ev):

   -90.3086 -90.3086 -90.3073 -90.3073 -90.3071 -90.3071 -90.3057 -90.3057
   -90.2547 -90.2547 -90.2544 -90.2544 -90.2439 -90.2439 -90.2437 -90.2437
   -90.2326 -90.2326 -90.2326 -90.2326 -90.2325 -90.2325 -90.2325 -90.2325
   -90.2218 -90.2218 -90.2217 -90.2217 -90.2217 -90.2217 -90.2217 -90.2217
   -62.6255 -62.6255 -62.6254 -62.6254 -62.6243 -62.6243 -62.6243 -62.6243
   -62.5708 -62.5708 -62.5708 -62.5708 -62.5696 -62.5696 -62.5695 -62.5695
   -52.2959 -52.2959 -52.2921 -52.2921 -52.2908 -52.2908 -52.2831 -52.2831
   -52.2463 -52.2463 -52.2461 -52.2461 -52.2381 -52.2381 -52.2375 -52.2375
   -52.2366 -52.2366 -52.2347 -52.2347 -52.2273 -52.2273 -52.2259 -52.2259
   -52.1736 -52.1736 -52.1699 -52.1699 -52.1656 -52.1656 -52.1578 -52.1578
   -50.1789 -50.1789 -50.1748 -50.1748 -50.1625 -50.1625 -50.1579 -50.1579
   -50.1405 -50.1405 -50.1331 -50.1331 -50.1205 -50.1205 -50.1185 -50.1185
   -50.0760 -50.0760 -50.0689 -50.0689 -50.0590 -50.0590 -50.0582 -50.0582
   -50.0545 -50.0545 -50.0515 -50.0515 -50.0475 -50.0475 -50.0261 -50.0261
   -50.0153 -50.0153 -49.9935 -49.9935 -49.9891 -49.9891 -49.9780 -49.9780
   -49.9772 -49.9772 -49.9736 -49.9736 -49.9595 -49.9595 -49.9501 -49.9501
   -49.9440 -49.9440 -49.9430 -49.9430 -49.9354 -49.9354 -49.9332 -49.9332
   -49.9111 -49.9111 -49.9059 -49.9059 -49.9042 -49.9042 -49.9028 -49.9028
   -29.7570 -29.7570 -29.7567 -29.7567 -29.7526 -29.7526 -29.7522 -29.7522
   -29.7006 -29.7006 -29.7006 -29.7006 -29.6960 -29.6960 -29.6958 -29.6958
   -29.4718 -29.4718 -29.4715 -29.4715 -29.4700 -29.4700 -29.4698 -29.4698
   -29.4686 -29.4686 -29.4684 -29.4684 -29.4610 -29.4610 -29.4605 -29.4605
   -29.4170 -29.4170 -29.4169 -29.4169 -29.4112 -29.4112 -29.4111 -29.4111
   -29.4098 -29.4098 -29.4096 -29.4096 -29.4057 -29.4057 -29.4055 -29.4055
     4.1638   4.1638   4.7537   4.7537   4.7757   4.7757   6.1878   6.1878
     6.8166   6.8166   8.1818   8.1818   8.2204   8.2204   8.2508   8.2508
     8.7881   8.7881   8.8284   8.8284   8.9502   8.9502   9.0049   9.0049
     9.1524   9.1524   9.1571   9.1571   9.1760   9.1760   9.1949   9.1949
     9.2210   9.2210   9.2224   9.2224   9.3151   9.3151   9.3362   9.3362
     9.3883   9.3883   9.4443   9.4443   9.4532   9.4532   9.4535   9.4535
     9.4756   9.4756   9.5395   9.5395   9.5824   9.5824   9.6159   9.6159
     9.6275   9.6275   9.6795   9.6795   9.9555   9.9555   9.9568   9.9568
     9.9568   9.9568   9.9838   9.9838   9.9888   9.9888  10.0226  10.0226
    10.1939  10.1939  10.2533  10.2533  10.3256  10.3256  10.3346  10.3346
    10.3818  10.3818  10.4352  10.4352  10.4667  10.4667  10.4673  10.4673
    10.6120  10.6120  10.6302  10.6302  10.8680  10.8680  11.0133  11.0133
    11.0641  11.0641  11.0867  11.0867  11.0937  11.0937  11.1354  11.1354
    11.2431  11.2431  11.2971  11.2971  11.3826  11.3826  11.3929  11.3929
    11.5101  11.5101  11.5201  11.5201  11.6015  11.6015  11.6035  11.6035
    11.6169  11.6169  11.6173  11.6173  11.6207  11.6207  11.6223  11.6223
    11.6300  11.6300  11.6488  11.6488  11.6597  11.6597  11.6669  11.6669
    11.6852  11.6852  11.6880  11.6880  11.7071  11.7071  11.7279  11.7279
    11.7517  11.7517  11.7790  11.7790  11.7806  11.7806  11.7953  11.7953
    11.8121  11.8121  11.8442  11.8442  11.9183  11.9183  12.1430  12.1430
    12.1956  12.1956  12.4170  12.4170  12.4185  12.4185  12.6298  12.6298
    12.6322  12.6322  12.6453  12.6453  12.6469  12.6469  12.9914  12.9914
    13.1039  13.1039  13.2625  13.2625  13.3202  13.3202  13.3601  13.3601
    13.3739  13.3739  13.3918  13.3918  13.3923  13.3923  13.4502  13.4502
    13.6979  13.6979  13.7267  13.7267  13.7430  13.7430  13.7931  13.7931
    15.0563  15.0563  15.1093  15.1093  15.1109  15.1109  15.1220  15.1220
    15.5143  15.5143  15.5598  15.5598  15.9723  15.9723  15.9920  15.9920
    16.5415  16.5415  16.5976  16.5976  16.6145  16.6145  16.7187  16.7187
    16.8054  16.8054  17.0094  17.0094  17.4661  17.4661  17.4774  17.4774
    17.9516  17.9516  17.9718  17.9718  18.0257  18.0257  18.5333  18.5333
    18.5435  18.5435  18.5654  18.5654  18.7607  18.7607  20.1924  20.1924
    20.2415  20.2417

          k = 0.0000 0.3849 0.0000 ( 13152 PWs)   bands (ev):

   -90.3081 -90.3081 -90.3073 -90.3073 -90.3067 -90.3067 -90.3059 -90.3059
   -90.2501 -90.2501 -90.2500 -90.2500 -90.2393 -90.2393 -90.2392 -90.2392
   -90.2372 -90.2372 -90.2370 -90.2370 -90.2325 -90.2325 -90.2325 -90.2325
   -90.2265 -90.2265 -90.2265 -90.2265 -90.2217 -90.2217 -90.2216 -90.2216
   -62.6254 -62.6254 -62.6254 -62.6254 -62.6242 -62.6242 -62.6241 -62.6241
   -62.5708 -62.5708 -62.5708 -62.5708 -62.5695 -62.5695 -62.5695 -62.5695
   -52.2958 -52.2958 -52.2916 -52.2916 -52.2887 -52.2887 -52.2798 -52.2798
   -52.2408 -52.2408 -52.2391 -52.2391 -52.2310 -52.2310 -52.2293 -52.2293
   -52.2253 -52.2253 -52.2236 -52.2236 -52.2131 -52.2131 -52.2113 -52.2113
   -52.1806 -52.1806 -52.1786 -52.1786 -52.1696 -52.1696 -52.1670 -52.1670
   -50.1768 -50.1768 -50.1697 -50.1697 -50.1659 -50.1659 -50.1543 -50.1543
   -50.1154 -50.1154 -50.1132 -50.1132 -50.1090 -50.1090 -50.1054 -50.1054
   -50.0658 -50.0658 -50.0652 -50.0652 -50.0636 -50.0636 -50.0576 -50.0576
   -50.0467 -50.0467 -50.0455 -50.0455 -50.0392 -50.0392 -50.0215 -50.0215
   -50.0129 -50.0129 -49.9961 -49.9961 -49.9935 -49.9935 -49.9883 -49.9883
   -49.9703 -49.9703 -49.9672 -49.9672 -49.9545 -49.9545 -49.9519 -49.9519
   -49.9464 -49.9464 -49.9448 -49.9448 -49.9355 -49.9355 -49.9336 -49.9336
   -49.9203 -49.9203 -49.9195 -49.9195 -49.9044 -49.9044 -49.9026 -49.9026
   -29.7562 -29.7562 -29.7561 -29.7561 -29.7519 -29.7519 -29.7518 -29.7518
   -29.7013 -29.7013 -29.7013 -29.7013 -29.6969 -29.6969 -29.6968 -29.6968
   -29.4719 -29.4719 -29.4718 -29.4718 -29.4690 -29.4690 -29.4689 -29.4689
   -29.4673 -29.4673 -29.4671 -29.4671 -29.4612 -29.4612 -29.4609 -29.4609
   -29.4164 -29.4164 -29.4163 -29.4163 -29.4121 -29.4121 -29.4120 -29.4120
   -29.4103 -29.4103 -29.4102 -29.4102 -29.4052 -29.4052 -29.4052 -29.4052
     5.1159   5.1159   5.6812   5.6812   5.7051   5.7051   7.0766   7.0766
     7.5288   7.5288   7.7181   7.7181   8.0231   8.0231   8.0583   8.0583
     8.6262   8.6262   8.6611   8.6611   8.8031   8.8031   8.8948   8.8948
     8.9654   8.9654   9.0812   9.0812   9.1443   9.1443   9.2147   9.2147
     9.2929   9.2929   9.3481   9.3481   9.3860   9.3860   9.4193   9.4193
     9.4302   9.4302   9.4417   9.4417   9.5545   9.5545   9.6551   9.6551
     9.6977   9.6977   9.7484   9.7484   9.7933   9.7933   9.8469   9.8469
     9.8664   9.8664   9.8953   9.8953   9.8994   9.8994   9.9876   9.9876
     9.9916   9.9916  10.0284  10.0284  10.0335  10.0335  10.0949  10.0949
    10.1261  10.1261  10.1333  10.1333  10.2010  10.2010  10.2438  10.2438
    10.3153  10.3153  10.3601  10.3601  10.3828  10.3828  10.3991  10.3991
    10.4541  10.4541  10.5420  10.5420  10.5717  10.5717  10.6188  10.6188
    10.6296  10.6296  10.7277  10.7277  10.7395  10.7395  10.7958  10.7958
    10.8119  10.8119  10.8722  10.8722  10.9331  10.9331  10.9429  10.9429
    10.9628  10.9628  11.0137  11.0137  11.0980  11.0980  11.1107  11.1107
    11.1816  11.1816  11.2168  11.2168  11.2414  11.2414  11.2712  11.2712
    11.3361  11.3361  11.3514  11.3514  11.3613  11.3613  11.4145  11.4145
    11.4217  11.4217  11.4780  11.4780  11.5147  11.5147  11.5674  11.5674
    11.5745  11.5745  11.6523  11.6523  11.6622  11.6622  11.6739  11.6739
    11.7195  11.7195  11.7265  11.7265  11.7330  11.7330  11.7597  11.7597
    11.8185  11.8185  11.8455  11.8455  11.8617  11.8617  11.9507  11.9507
    11.9786  11.9786  12.0428  12.0428  12.1151  12.1151  12.2286  12.2286
    12.4845  12.4845  12.5534  12.5534  12.8885  12.8885  12.9019  12.9019
    13.1023  13.1023  13.2017  13.2017  13.2910  13.2910  13.4463  13.4463
    13.5221  13.5221  13.5437  13.5437  13.6346  13.6346  13.8369  13.8369
    14.4210  14.4210  14.8544  14.8544  15.1512  15.1512  15.1930  15.1930
    16.4187  16.4187  16.8970  16.8970  16.9475  16.9475  17.0722  17.0722
    17.8386  17.8386  17.9075  17.9075  17.9723  17.9723  18.0900  18.0900
    18.1573  18.1573  18.3207  18.3207  18.7405  18.7405  19.1434  19.1434
    19.2579  19.2579  19.2676  19.2676  19.7987  19.7987  19.8199  19.8199
    20.1332  20.1332  20.5261  20.5261  20.8732  20.8732  21.1706  21.1707
    21.2176  21.2177

          k = 0.3333 0.5774 0.0000 ( 13128 PWs)   bands (ev):

   -90.3076 -90.3076 -90.3075 -90.3075 -90.3063 -90.3063 -90.3063 -90.3063
   -90.2446 -90.2446 -90.2446 -90.2446 -90.2428 -90.2428 -90.2428 -90.2428
   -90.2329 -90.2329 -90.2328 -90.2328 -90.2328 -90.2328 -90.2327 -90.2327
   -90.2325 -90.2325 -90.2325 -90.2325 -90.2217 -90.2217 -90.2217 -90.2217
   -62.6253 -62.6253 -62.6253 -62.6253 -62.6241 -62.6241 -62.6241 -62.6241
   -62.5708 -62.5708 -62.5708 -62.5708 -62.5696 -62.5696 -62.5695 -62.5695
   -52.2930 -52.2930 -52.2929 -52.2929 -52.2873 -52.2873 -52.2872 -52.2872
   -52.2363 -52.2363 -52.2361 -52.2361 -52.2287 -52.2287 -52.2252 -52.2252
   -52.2066 -52.2066 -52.2025 -52.2025 -52.2024 -52.2024 -52.2020 -52.2020
   -52.1923 -52.1923 -52.1884 -52.1884 -52.1876 -52.1876 -52.1862 -52.1862
   -50.1718 -50.1718 -50.1703 -50.1703 -50.1646 -50.1646 -50.1617 -50.1617
   -50.0936 -50.0936 -50.0920 -50.0920 -50.0902 -50.0902 -50.0880 -50.0880
   -50.0815 -50.0815 -50.0806 -50.0806 -50.0756 -50.0756 -50.0605 -50.0605
   -50.0427 -50.0427 -50.0385 -50.0385 -50.0326 -50.0326 -50.0133 -50.0133
   -50.0085 -50.0085 -50.0072 -50.0072 -49.9953 -49.9953 -49.9938 -49.9938
   -49.9762 -49.9762 -49.9650 -49.9650 -49.9578 -49.9578 -49.9542 -49.9542
   -49.9444 -49.9444 -49.9426 -49.9426 -49.9415 -49.9415 -49.9365 -49.9365
   -49.9280 -49.9280 -49.9259 -49.9259 -49.9077 -49.9077 -49.9070 -49.9070
   -29.7561 -29.7561 -29.7558 -29.7558 -29.7517 -29.7517 -29.7514 -29.7514
   -29.7018 -29.7018 -29.7018 -29.7018 -29.6973 -29.6973 -29.6972 -29.6972
   -29.4729 -29.4729 -29.4711 -29.4711 -29.4689 -29.4689 -29.4688 -29.4688
   -29.4663 -29.4663 -29.4662 -29.4662 -29.4623 -29.4623 -29.4603 -29.4603
   -29.4162 -29.4162 -29.4162 -29.4162 -29.4129 -29.4129 -29.4127 -29.4127
   -29.4105 -29.4105 -29.4102 -29.4102 -29.4051 -29.4051 -29.4050 -29.4050
     6.6897   6.6897   6.6904   6.6904   7.1208   7.1208   7.2355   7.2355
     7.2407   7.2407   7.4220   7.4220   7.5343   7.5343   7.5392   7.5392
     7.7455   7.7455   8.5668   8.5668   8.5674   8.5674   8.5813   8.5813
     8.5881   8.5881   8.6303   8.6303   8.6914   8.6914   9.3273   9.3273
     9.3312   9.3312   9.3433   9.3433   9.4556   9.4556   9.4691   9.4691
     9.6167   9.6167   9.6472   9.6472   9.7557   9.7557   9.7715   9.7715
     9.8428   9.8428   9.8433   9.8433   9.8891   9.8891   9.8959   9.8959
     9.9151   9.9151   9.9156   9.9156   9.9925   9.9925  10.0439  10.0439
    10.0619  10.0619  10.0679  10.0679  10.0814  10.0814  10.0865  10.0865
    10.1042  10.1042  10.1530  10.1530  10.1655  10.1655  10.1817  10.1817
    10.2007  10.2007  10.2015  10.2015  10.2434  10.2434  10.2528  10.2528
    10.3167  10.3167  10.3191  10.3191  10.3494  10.3494  10.3609  10.3609
    10.3956  10.3956  10.5430  10.5430  10.5566  10.5566  10.5699  10.5699
    10.6810  10.6810  10.7980  10.7980  10.8169  10.8169  10.8240  10.8240
    10.8613  10.8613  10.8838  10.8838  11.0350  11.0350  11.0394  11.0394
    11.1153  11.1153  11.1443  11.1443  11.1601  11.1601  11.1760  11.1760
    11.2220  11.2220  11.2366  11.2366  11.2494  11.2494  11.3368  11.3368
    11.3814  11.3814  11.4083  11.4083  11.4218  11.4218  11.4247  11.4247
    11.4494  11.4494  11.4643  11.4643  11.4668  11.4668  11.5096  11.5096
    11.5259  11.5259  11.5312  11.5312  11.5946  11.5946  11.6468  11.6468
    11.7981  11.7981  11.8135  11.8135  11.8958  11.8958  11.8964  11.8964
    11.9184  11.9184  11.9860  11.9860  11.9976  11.9976  12.0913  12.0913
    12.1475  12.1475  12.2038  12.2038  12.2052  12.2052  12.4224  12.4224
    12.5449  12.5449  12.5559  12.5559  12.6204  12.6204  13.9444  13.9444
    13.9656  13.9656  14.0128  14.0128  14.1909  14.1909  14.1980  14.1980
    14.7660  14.7660  16.5688  16.5688  16.5710  16.5710  16.7264  16.7264
    16.9764  16.9764  16.9771  16.9771  17.5215  17.5215  17.6196  17.6196
    17.6205  17.6205  17.6637  17.6637  17.6719  17.6719  17.9357  17.9357
    18.1457  18.1457  18.5075  18.5075  18.6077  18.6077  18.6218  18.6218
    19.3739  19.3739  19.3767  19.3767  19.6460  19.6460  19.6601  19.6601
    19.7626  19.7626  20.3662  20.3662  21.7525  21.7525  21.7612  21.7612
    21.9538  21.9539

     the Fermi energy is    12.2740 ev

!    total energy              =   -7950.05625785 Ry
     total all-electron energy =    -51823.908341 Ry
     estimated scf accuracy    <          4.9E-09 Ry
     smearing contrib. (-TS)   =       0.11469170 Ry
     internal energy E=F+TS    =   -7950.17094955 Ry

     The total energy is F=E-TS. E is the sum of the following terms:
     one-electron contribution =   -4575.50292596 Ry
     hartree contribution      =    2433.76920771 Ry
     xc contribution           =    -681.28525894 Ry
     ewald contribution        =   -3589.02490262 Ry
     one-center paw contrib.   =   -1538.12706973 Ry

     convergence has been achieved in  15 iterations

     Forces acting on atoms (cartesian axes, Ry/au):

     atom    1 type  1   force =    -0.00000000   -0.00000000    0.00399697
     atom    2 type  1   force =     0.00000000    0.00000000    0.00399697
     atom    3 type  1   force =    -0.00000000   -0.00000000   -0.00399697
     atom    4 type  1   force =     0.00000000    0.00000000   -0.00399697
     atom    5 type  1   force =    -0.00000000   -0.00000000    0.00098744
     atom    6 type  1   force =     0.00000000    0.00000000    0.00098744
     atom    7 type  1   force =    -0.00000000   -0.00000000   -0.00098744
     atom    8 type  1   force =     0.00000000    0.00000000   -0.00098744
     atom    9 type  2   force =    -0.00000000    0.00000000    0.00363202
     atom   10 type  2   force =    -0.00000000   -0.00000000    0.00363202
     atom   11 type  2   force =     0.00000000    0.00000000   -0.00363202
     atom   12 type  2   force =    -0.00000000   -0.00000000   -0.00363202
     atom   13 type  2   force =     0.00000000   -0.00337564    0.00000000
     atom   14 type  2   force =     0.00292339   -0.00168782    0.00000000
     atom   15 type  2   force =     0.00000000    0.00337564    0.00000000
     atom   16 type  2   force =    -0.00292339    0.00168782   -0.00000000
     atom   17 type  2   force =     0.00292339    0.00168782    0.00000000
     atom   18 type  2   force =    -0.00292339   -0.00168782   -0.00000000
     atom   19 type  2   force =     0.00000000    0.00000000    0.00000000
     atom   20 type  2   force =     0.00000000   -0.00000000   -0.00000000
     atom   21 type  2   force =     0.00000000    0.00000000    0.00000000
     atom   22 type  2   force =     0.00000000   -0.00000000    0.00000000
     atom   23 type  2   force =     0.00000000    0.00000000    0.00000000
     atom   24 type  2   force =     0.00000000    0.00000000   -0.00000000
     The non-local contrib.  to forces
     atom    1 type  1   force =     0.00000000    0.00000000    0.02412095
     atom    2 type  1   force =    -0.00000000   -0.00000000    0.02412095
     atom    3 type  1   force =     0.00000000    0.00000000   -0.02412095
     atom    4 type  1   force =     0.00000000    0.00000000   -0.02412095
     atom    5 type  1   force =    -0.00000000   -0.00000000    0.00003412
     atom    6 type  1   force =     0.00000000    0.00000000    0.00003412
     atom    7 type  1   force =     0.00000000   -0.00000000   -0.00003412
     atom    8 type  1   force =     0.00000000    0.00000000   -0.00003412
     atom    9 type  2   force =     0.00000000    0.00000000   -0.00785742
     atom   10 type  2   force =     0.00000000    0.00000000   -0.00785742
     atom   11 type  2   force =    -0.00000000   -0.00000000    0.00785742
     atom   12 type  2   force =    -0.00000000   -0.00000000    0.00785742
     atom   13 type  2   force =     0.00000000   -0.09031502    0.00000000
     atom   14 type  2   force =     0.07821510   -0.04515751   -0.00000000
     atom   15 type  2   force =     0.00000000    0.09031502    0.00000000
     atom   16 type  2   force =    -0.07821510    0.04515751   -0.00000000
     atom   17 type  2   force =     0.07821510    0.04515751    0.00000000
     atom   18 type  2   force =    -0.07821510   -0.04515751    0.00000000
     atom   19 type  2   force =     0.00000000    0.00000000    0.00000000
     atom   20 type  2   force =    -0.00000000    0.00000000    0.00000000
     atom   21 type  2   force =    -0.00000000    0.00000000   -0.00000000
     atom   22 type  2   force =     0.00000000    0.00000000    0.00000000
     atom   23 type  2   force =     0.00000000    0.00000000    0.00000000
     atom   24 type  2   force =     0.00000000    0.00000000    0.00000000
     The ionic contribution  to forces
     atom    1 type  1   force =    -0.00001491    0.00000869   -0.34388212
     atom    2 type  1   force =     0.00001491   -0.00000869   -0.34388212
     atom    3 type  1   force =     0.00001491   -0.00000869    0.34388212
     atom    4 type  1   force =    -0.00001491    0.00000869    0.34388212
     atom    5 type  1   force =     0.00005376   -0.00003095    0.11048578
     atom    6 type  1   force =    -0.00005376    0.00003095    0.11048578
     atom    7 type  1   force =    -0.00005376    0.00003095   -0.11048578
     atom    8 type  1   force =     0.00005376   -0.00003095   -0.11048578
     atom    9 type  2   force =     0.00005596   -0.00003231    0.78833669
     atom   10 type  2   force =    -0.00005596    0.00003231    0.78833669
     atom   11 type  2   force =    -0.00005596    0.00003231   -0.78833669
     atom   12 type  2   force =     0.00005596   -0.00003231   -0.78833669
     atom   13 type  2   force =     0.00007057  -14.79933632    0.00000000
     atom   14 type  2   force =    12.81668292   -7.39971541   -0.00000000
     atom   15 type  2   force =    -0.00007057   14.79933632   -0.00000000
     atom   16 type  2   force =   -12.81668292    7.39971541    0.00000000
     atom   17 type  2   force =    12.81663648    7.39960711    0.00000000
     atom   18 type  2   force =   -12.81663648   -7.39960711   -0.00000000
     atom   19 type  2   force =    -0.00000000   -0.00000000    0.00000000
     atom   20 type  2   force =    -0.00000000    0.00000000    0.00000000
     atom   21 type  2   force =    -0.00000000   -0.00000000    0.00000000
     atom   22 type  2   force =    -0.00000000    0.00000000    0.00000000
     atom   23 type  2   force =    -0.00000000    0.00000000    0.00000000
     atom   24 type  2   force =    -0.00000000    0.00000000    0.00000000
     The local contribution  to forces
     atom    1 type  1   force =     0.00000000    0.00000002    0.32388965
     atom    2 type  1   force =    -0.00000000   -0.00000002    0.32388965
     atom    3 type  1   force =     0.00000000   -0.00000002   -0.32388965
     atom    4 type  1   force =     0.00000000    0.00000002   -0.32388965
     atom    5 type  1   force =     0.00148311   -0.00085625   -0.10951194
     atom    6 type  1   force =    -0.00148311    0.00085625   -0.10951194
     atom    7 type  1   force =    -0.00148311    0.00085625    0.10951194
     atom    8 type  1   force =     0.00148311   -0.00085625    0.10951194
     atom    9 type  2   force =     0.00196870   -0.00113663   -0.77513967
     atom   10 type  2   force =    -0.00196870    0.00113663   -0.77513967
     atom   11 type  2   force =    -0.00196870    0.00113663    0.77513967
     atom   12 type  2   force =     0.00196870   -0.00113663    0.77513967
     atom   13 type  2   force =    -0.00196719   14.88668326    0.00000000
     atom   14 type  2   force =   -12.88952040    7.44176804   -0.00000000
     atom   15 type  2   force =     0.00196719  -14.88668326   -0.00000000
     atom   16 type  2   force =    12.88952040   -7.44176804    0.00000000
     atom   17 type  2   force =   -12.89322956   -7.44163801    0.00000000
     atom   18 type  2   force =    12.89322956    7.44163801   -0.00000000
     atom   19 type  2   force =     0.00000000   -0.00000000    0.00000000
     atom   20 type  2   force =     0.00000000    0.00000000    0.00000000
     atom   21 type  2   force =    -0.00000000   -0.00000000    0.00000000
     atom   22 type  2   force =     0.00000000    0.00000000    0.00000000
     atom   23 type  2   force =     0.00000000    0.00000000    0.00000000
     atom   24 type  2   force =     0.00000000    0.00000000    0.00000000
     The core correction contribution to forces
     atom    1 type  1   force =    -0.00000000    0.00000000   -0.00011761
     atom    2 type  1   force =     0.00000000   -0.00000000   -0.00011761
     atom    3 type  1   force =     0.00000000   -0.00000000    0.00011761
     atom    4 type  1   force =    -0.00000000    0.00000000    0.00011761
     atom    5 type  1   force =     0.00000321   -0.00000186   -0.00000343
     atom    6 type  1   force =    -0.00000321    0.00000186   -0.00000343
     atom    7 type  1   force =    -0.00000321    0.00000186    0.00000343
     atom    8 type  1   force =     0.00000321   -0.00000186    0.00000343
     atom    9 type  2   force =     0.00000121   -0.00000070   -0.00183977
     atom   10 type  2   force =    -0.00000121    0.00000070   -0.00183977
     atom   11 type  2   force =    -0.00000121    0.00000070    0.00183977
     atom   12 type  2   force =     0.00000121   -0.00000070    0.00183977
     atom   13 type  2   force =    -0.00000120    0.00082299    0.00000000
     atom   14 type  2   force =    -0.00071086    0.00041041   -0.00000000
     atom   15 type  2   force =     0.00000120   -0.00082299   -0.00000000
     atom   16 type  2   force =     0.00071086   -0.00041041    0.00000000
     atom   17 type  2   force =    -0.00071333   -0.00041046    0.00000000
     atom   18 type  2   force =     0.00071333    0.00041046   -0.00000000
     atom   19 type  2   force =     0.00000000    0.00000000    0.00000000
     atom   20 type  2   force =     0.00000000    0.00000000    0.00000000
     atom   21 type  2   force =    -0.00000000   -0.00000000    0.00000000
     atom   22 type  2   force =     0.00000000    0.00000000    0.00000000
     atom   23 type  2   force =     0.00000000    0.00000000    0.00000000
     atom   24 type  2   force =    -0.00000000    0.00000000    0.00000000
     The Hubbard contrib.    to forces
     atom    1 type  1   force =     0.00000000    0.00000000    0.00000000
     atom    2 type  1   force =     0.00000000    0.00000000    0.00000000
     atom    3 type  1   force =     0.00000000    0.00000000    0.00000000
     atom    4 type  1   force =     0.00000000    0.00000000    0.00000000
     atom    5 type  1   force =     0.00000000    0.00000000    0.00000000
     atom    6 type  1   force =     0.00000000    0.00000000    0.00000000
     atom    7 type  1   force =     0.00000000    0.00000000    0.00000000
     atom    8 type  1   force =     0.00000000    0.00000000    0.00000000
     atom    9 type  2   force =     0.00000000    0.00000000    0.00000000
     atom   10 type  2   force =     0.00000000    0.00000000    0.00000000
     atom   11 type  2   force =     0.00000000    0.00000000    0.00000000
     atom   12 type  2   force =     0.00000000    0.00000000    0.00000000
     atom   13 type  2   force =     0.00000000    0.00000000    0.00000000
     atom   14 type  2   force =     0.00000000    0.00000000    0.00000000
     atom   15 type  2   force =     0.00000000    0.00000000    0.00000000
     atom   16 type  2   force =     0.00000000    0.00000000    0.00000000
     atom   17 type  2   force =     0.00000000    0.00000000    0.00000000
     atom   18 type  2   force =     0.00000000    0.00000000    0.00000000
     atom   19 type  2   force =     0.00000000    0.00000000    0.00000000
     atom   20 type  2   force =     0.00000000    0.00000000    0.00000000
     atom   21 type  2   force =     0.00000000    0.00000000    0.00000000
     atom   22 type  2   force =     0.00000000    0.00000000    0.00000000
     atom   23 type  2   force =     0.00000000    0.00000000    0.00000000
     atom   24 type  2   force =     0.00000000    0.00000000    0.00000000
     The SCF correction term to forces
     atom    1 type  1   force =     0.00000003   -0.00000002   -0.00001389
     atom    2 type  1   force =    -0.00000003    0.00000002   -0.00001389
     atom    3 type  1   force =    -0.00000003    0.00000002    0.00001389
     atom    4 type  1   force =     0.00000003   -0.00000002    0.00001389
     atom    5 type  1   force =     0.00000000   -0.00000000   -0.00001710
     atom    6 type  1   force =    -0.00000000    0.00000000   -0.00001710
     atom    7 type  1   force =    -0.00000000    0.00000000    0.00001710
     atom    8 type  1   force =     0.00000000   -0.00000000    0.00001710
     atom    9 type  2   force =    -0.00000010    0.00000006    0.00013218
     atom   10 type  2   force =     0.00000010   -0.00000006    0.00013218
     atom   11 type  2   force =     0.00000010   -0.00000006   -0.00013218
     atom   12 type  2   force =    -0.00000010    0.00000006   -0.00013218
     atom   13 type  2   force =     0.00000002   -0.00014934    0.00000000
     atom   14 type  2   force =     0.00012935   -0.00007468    0.00000000
     atom   15 type  2   force =    -0.00000002    0.00014934    0.00000000
     atom   16 type  2   force =    -0.00012935    0.00007468   -0.00000000
     atom   17 type  2   force =     0.00012934    0.00007465   -0.00000000
     atom   18 type  2   force =    -0.00012934   -0.00007465    0.00000000
     atom   19 type  2   force =     0.00000000   -0.00000000   -0.00000000
     atom   20 type  2   force =    -0.00000000   -0.00000000   -0.00000000
     atom   21 type  2   force =    -0.00000000    0.00000000   -0.00000000
     atom   22 type  2   force =    -0.00000000   -0.00000000   -0.00000000
     atom   23 type  2   force =    -0.00000000   -0.00000000   -0.00000000
     atom   24 type  2   force =     0.00000000   -0.00000000   -0.00000000

     Total force =     0.013746     Total SCF correction =     0.000453
     Energy error            =      2.8E-04 Ry
     Gradient error          =      4.0E-03 Ry/Bohr

     number of scf cycles    =   2
     number of bfgs steps    =   1

     energy             old  =   -7950.0559817010 Ry
     energy             new  =   -7950.0562578458 Ry

     CASE: energy            _new < energy            _old

     new trust radius        =       0.0053403041 bohr
     new conv_thr            =       0.0000000007 Ry


ATOMIC_POSITIONS (crystal)
Mg           -0.0000000000       -0.0000000000        0.4063256627
Mg            0.0000000000        0.0000000000        0.9063256627
Mg           -0.0000000000       -0.0000000000        0.5936743373
Mg            0.0000000000        0.0000000000        0.0936743373
Mg            0.3333330000        0.6666670000        0.6558815784
Mg            0.6666670000        0.3333330000        0.1558815784
Mg            0.6666670000        0.3333330000        0.3441184216
Mg            0.3333330000        0.6666670000        0.8441184216
Ni            0.3333330000        0.6666670000        0.3751828361
Ni            0.6666670000        0.3333330000        0.8751828361
Ni            0.6666670000        0.3333330000        0.6248171639
Ni            0.3333330000        0.6666670000        0.1248171639
Ni            0.1660771264        0.3321532527        0.2500000000
Ni            0.8339228736        0.1660771264        0.7500000000
Ni            0.8339228736        0.6678467473        0.7500000000
Ni            0.1660771264        0.8339228736        0.2500000000
Ni            0.6678467473        0.8339228736        0.2500000000
Ni            0.3321532527        0.1660771264        0.7500000000
Ni            0.5000000000        0.0000000000        0.5000000000
Ni            0.5000000000        0.5000000000       -0.0000000000
Ni            0.5000000000        0.0000000000        0.0000000000
Ni            0.5000000000        0.5000000000        0.5000000000
Ni           -0.0000000000        0.5000000000       -0.0000000000
Ni           -0.0000000000        0.5000000000        0.5000000000



     Writing config-only to output data dir ./ACOptimization/out/iso.save/
     NEW-OLD atomic charge density approx. for the potential

     Check: negative core charge=   -0.000016

     total cpu time spent up to now is     1004.0 secs

     Self-consistent Calculation

     iteration #  1     ecut=    50.00 Ry     beta= 0.10
     Davidson diagonalization with overlap
     ethr =  1.00E-06,  avg # of iterations =  6.0

     total cpu time spent up to now is     1043.7 secs

     total energy              =   -7950.05785172 Ry
     estimated scf accuracy    <       0.00043039 Ry

     iteration #  2     ecut=    50.00 Ry     beta= 0.10
     Davidson diagonalization with overlap
     ethr =  1.17E-07,  avg # of iterations =  2.0

     total cpu time spent up to now is     1064.9 secs

     total energy              =   -7950.05688798 Ry
     estimated scf accuracy    <       0.00032664 Ry

     iteration #  3     ecut=    50.00 Ry     beta= 0.10
     Davidson diagonalization with overlap
     ethr =  8.88E-08,  avg # of iterations =  3.3

     total cpu time spent up to now is     1087.8 secs

     total energy              =   -7950.05657985 Ry
     estimated scf accuracy    <       0.00006118 Ry

     iteration #  4     ecut=    50.00 Ry     beta= 0.10
     Davidson diagonalization with overlap
     ethr =  1.66E-08,  avg # of iterations =  4.0

     total cpu time spent up to now is     1113.7 secs

     total energy              =   -7950.05659010 Ry
     estimated scf accuracy    <       0.00001474 Ry

     iteration #  5     ecut=    50.00 Ry     beta= 0.10
     Davidson diagonalization with overlap
     ethr =  4.01E-09,  avg # of iterations =  2.0

     total cpu time spent up to now is     1134.9 secs

     total energy              =   -7950.05662072 Ry
     estimated scf accuracy    <       0.00001475 Ry

     iteration #  6     ecut=    50.00 Ry     beta= 0.10
     Davidson diagonalization with overlap
     ethr =  4.01E-09,  avg # of iterations =  2.0

     total cpu time spent up to now is     1158.0 secs

     total energy              =   -7950.05651384 Ry
     estimated scf accuracy    <       0.00001009 Ry

     iteration #  7     ecut=    50.00 Ry     beta= 0.10
     Davidson diagonalization with overlap
     ethr =  2.74E-09,  avg # of iterations =  4.0

     total cpu time spent up to now is     1185.4 secs

     total energy              =   -7950.05644864 Ry
     estimated scf accuracy    <       0.00002675 Ry

     iteration #  8     ecut=    50.00 Ry     beta= 0.10
     Davidson diagonalization with overlap
     ethr =  2.74E-09,  avg # of iterations =  4.0

     total cpu time spent up to now is     1213.3 secs

     total energy              =   -7950.05645593 Ry
     estimated scf accuracy    <       0.00000760 Ry

     iteration #  9     ecut=    50.00 Ry     beta= 0.10
     Davidson diagonalization with overlap
     ethr =  2.06E-09,  avg # of iterations =  2.0

     total cpu time spent up to now is     1235.8 secs

     total energy              =   -7950.05645724 Ry
     estimated scf accuracy    <       0.00000086 Ry

     iteration # 10     ecut=    50.00 Ry     beta= 0.10
     Davidson diagonalization with overlap
     ethr =  2.33E-10,  avg # of iterations =  2.0

     total cpu time spent up to now is     1259.7 secs

     total energy              =   -7950.05645618 Ry
     estimated scf accuracy    <       0.00000011 Ry

     iteration # 11     ecut=    50.00 Ry     beta= 0.10
     Davidson diagonalization with overlap
     ethr =  3.11E-11,  avg # of iterations =  2.0

     total cpu time spent up to now is     1285.3 secs

     total energy              =   -7950.05645516 Ry
     estimated scf accuracy    <       0.00000037 Ry

     iteration # 12     ecut=    50.00 Ry     beta= 0.10
     Davidson diagonalization with overlap
     ethr =  3.11E-11,  avg # of iterations =  3.0

     total cpu time spent up to now is     1312.2 secs

     total energy              =   -7950.05645543 Ry
     estimated scf accuracy    <       0.00000040 Ry

     iteration # 13     ecut=    50.00 Ry     beta= 0.10
     Davidson diagonalization with overlap
     ethr =  3.11E-11,  avg # of iterations =  4.0

     total cpu time spent up to now is     1340.5 secs

     total energy              =   -7950.05645564 Ry
     estimated scf accuracy    <       0.00000028 Ry

     iteration # 14     ecut=    50.00 Ry     beta= 0.10
     Davidson diagonalization with overlap
     ethr =  3.11E-11,  avg # of iterations =  2.0

     total cpu time spent up to now is     1362.9 secs

     total energy              =   -7950.05645564 Ry
     estimated scf accuracy    <       0.00000004 Ry

     iteration # 15     ecut=    50.00 Ry     beta= 0.10
     Davidson diagonalization with overlap
     ethr =  1.20E-11,  avg # of iterations =  2.0

     total cpu time spent up to now is     1386.3 secs

     total energy              =   -7950.05645564 Ry
     estimated scf accuracy    <       0.00000001 Ry

     iteration # 16     ecut=    50.00 Ry     beta= 0.10
     Davidson diagonalization with overlap
     ethr =  3.81E-12,  avg # of iterations =  1.7

     total cpu time spent up to now is     1406.8 secs

     total energy              =   -7950.05645565 Ry
     estimated scf accuracy    <       0.00000001 Ry

     iteration # 17     ecut=    50.00 Ry     beta= 0.10
     Davidson diagonalization with overlap
     ethr =  3.49E-12,  avg # of iterations =  2.0

     total cpu time spent up to now is     1429.6 secs

     total energy              =   -7950.05645566 Ry
     estimated scf accuracy    <          4.8E-09 Ry

     iteration # 18     ecut=    50.00 Ry     beta= 0.10
     Davidson diagonalization with overlap
     ethr =  1.30E-12,  avg # of iterations =  2.0

     total cpu time spent up to now is     1451.0 secs

     total energy              =   -7950.05645566 Ry
     estimated scf accuracy    <          4.1E-09 Ry

     iteration # 19     ecut=    50.00 Ry     beta= 0.10
     Davidson diagonalization with overlap
     ethr =  1.11E-12,  avg # of iterations =  2.0

     total cpu time spent up to now is     1474.5 secs

     total energy              =   -7950.05645566 Ry
     estimated scf accuracy    <          1.5E-09 Ry

     iteration # 20     ecut=    50.00 Ry     beta= 0.10
     Davidson diagonalization with overlap
     ethr =  3.96E-13,  avg # of iterations =  2.0

     total cpu time spent up to now is     1497.6 secs

     End of self-consistent calculation

          k = 0.0000 0.0000 0.0000 ( 13249 PWs)   bands (ev):

   -90.3072 -90.3072 -90.3059 -90.3059 -90.3057 -90.3057 -90.3043 -90.3043
   -90.2536 -90.2536 -90.2533 -90.2533 -90.2456 -90.2456 -90.2453 -90.2453
   -90.2314 -90.2314 -90.2314 -90.2314 -90.2313 -90.2313 -90.2313 -90.2313
   -90.2236 -90.2236 -90.2236 -90.2236 -90.2235 -90.2235 -90.2235 -90.2235
   -62.6254 -62.6254 -62.6252 -62.6252 -62.6242 -62.6242 -62.6241 -62.6241
   -62.5704 -62.5704 -62.5703 -62.5703 -62.5692 -62.5692 -62.5691 -62.5691
   -52.2946 -52.2946 -52.2906 -52.2906 -52.2896 -52.2896 -52.2816 -52.2816
   -52.2454 -52.2454 -52.2451 -52.2451 -52.2385 -52.2385 -52.2368 -52.2368
   -52.2368 -52.2368 -52.2359 -52.2359 -52.2291 -52.2291 -52.2273 -52.2273
   -52.1725 -52.1725 -52.1689 -52.1689 -52.1672 -52.1672 -52.1594 -52.1594
   -50.1784 -50.1784 -50.1743 -50.1743 -50.1609 -50.1609 -50.1563 -50.1563
   -50.1409 -50.1409 -50.1345 -50.1345 -50.1194 -50.1194 -50.1186 -50.1186
   -50.0759 -50.0759 -50.0682 -50.0682 -50.0592 -50.0592 -50.0588 -50.0588
   -50.0550 -50.0550 -50.0526 -50.0526 -50.0454 -50.0454 -50.0259 -50.0259
   -50.0139 -50.0139 -49.9931 -49.9931 -49.9880 -49.9880 -49.9766 -49.9766
   -49.9765 -49.9765 -49.9725 -49.9725 -49.9611 -49.9611 -49.9517 -49.9517
   -49.9432 -49.9432 -49.9423 -49.9423 -49.9341 -49.9341 -49.9321 -49.9321
   -49.9126 -49.9126 -49.9073 -49.9073 -49.9059 -49.9059 -49.9046 -49.9046
   -29.7568 -29.7568 -29.7566 -29.7566 -29.7524 -29.7524 -29.7520 -29.7520
   -29.7003 -29.7003 -29.7003 -29.7003 -29.6955 -29.6955 -29.6953 -29.6953
   -29.4717 -29.4717 -29.4714 -29.4714 -29.4698 -29.4698 -29.4696 -29.4696
   -29.4683 -29.4683 -29.4682 -29.4682 -29.4609 -29.4609 -29.4603 -29.4603
   -29.4168 -29.4168 -29.4167 -29.4167 -29.4107 -29.4107 -29.4106 -29.4106
   -29.4093 -29.4093 -29.4091 -29.4091 -29.4053 -29.4053 -29.4050 -29.4050
     4.1639   4.1639   4.7572   4.7572   4.7723   4.7723   6.1864   6.1864
     6.8183   6.8183   8.1796   8.1796   8.2211   8.2211   8.2554   8.2554
     8.7904   8.7904   8.8268   8.8268   8.9573   8.9573   9.0050   9.0050
     9.1509   9.1509   9.1563   9.1563   9.1753   9.1753   9.1928   9.1928
     9.2181   9.2181   9.2198   9.2198   9.3192   9.3192   9.3401   9.3401
     9.3884   9.3884   9.4437   9.4437   9.4521   9.4521   9.4531   9.4531
     9.4764   9.4764   9.5401   9.5401   9.5875   9.5875   9.6160   9.6160
     9.6327   9.6327   9.6794   9.6794   9.9557   9.9557   9.9557   9.9557
     9.9597   9.9597   9.9820   9.9820   9.9869   9.9869  10.0273  10.0273
    10.1945  10.1945  10.2538  10.2538  10.3252  10.3252  10.3362  10.3362
    10.3819  10.3819  10.4355  10.4355  10.4683  10.4683  10.4691  10.4691
    10.6139  10.6139  10.6324  10.6324  10.8641  10.8641  11.0150  11.0150
    11.0673  11.0673  11.0876  11.0876  11.0906  11.0906  11.1329  11.1329
    11.2456  11.2456  11.2993  11.2993  11.3832  11.3832  11.3927  11.3927
    11.5101  11.5101  11.5201  11.5201  11.6017  11.6017  11.6027  11.6027
    11.6148  11.6148  11.6184  11.6184  11.6190  11.6190  11.6210  11.6210
    11.6281  11.6281  11.6476  11.6476  11.6594  11.6594  11.6645  11.6645
    11.6846  11.6846  11.6878  11.6878  11.7064  11.7064  11.7288  11.7288
    11.7519  11.7519  11.7774  11.7774  11.7789  11.7789  11.7932  11.7932
    11.8118  11.8118  11.8457  11.8457  11.9199  11.9199  12.1449  12.1449
    12.1975  12.1975  12.4166  12.4166  12.4181  12.4181  12.6306  12.6306
    12.6328  12.6328  12.6437  12.6437  12.6451  12.6451  12.9928  12.9928
    13.1046  13.1046  13.2637  13.2637  13.3199  13.3199  13.3578  13.3578
    13.3717  13.3717  13.3898  13.3898  13.3900  13.3900  13.4512  13.4512
    13.6975  13.6975  13.7262  13.7262  13.7407  13.7407  13.7910  13.7910
    15.0578  15.0578  15.1108  15.1108  15.1124  15.1124  15.1235  15.1235
    15.5149  15.5149  15.5606  15.5606  15.9717  15.9717  15.9916  15.9916
    16.5388  16.5388  16.5997  16.5997  16.6165  16.6165  16.7166  16.7166
    16.8017  16.8017  17.0085  17.0085  17.4661  17.4661  17.4773  17.4773
    17.9516  17.9516  17.9717  17.9717  18.0261  18.0261  18.5322  18.5322
    18.5423  18.5423  18.5646  18.5646  18.7609  18.7609  20.1883  20.1883
    20.2422  20.2422

          k = 0.0000 0.3849 0.0000 ( 13152 PWs)   bands (ev):

   -90.3067 -90.3067 -90.3059 -90.3059 -90.3053 -90.3053 -90.3045 -90.3045
   -90.2490 -90.2490 -90.2489 -90.2489 -90.2410 -90.2410 -90.2409 -90.2409
   -90.2359 -90.2359 -90.2359 -90.2359 -90.2313 -90.2313 -90.2313 -90.2313
   -90.2283 -90.2283 -90.2282 -90.2282 -90.2235 -90.2235 -90.2235 -90.2235
   -62.6253 -62.6253 -62.6252 -62.6252 -62.6240 -62.6240 -62.6240 -62.6240
   -62.5704 -62.5704 -62.5704 -62.5704 -62.5691 -62.5691 -62.5691 -62.5691
   -52.2945 -52.2945 -52.2901 -52.2901 -52.2875 -52.2875 -52.2784 -52.2784
   -52.2398 -52.2398 -52.2379 -52.2379 -52.2328 -52.2328 -52.2307 -52.2307
   -52.2243 -52.2243 -52.2232 -52.2232 -52.2148 -52.2148 -52.2121 -52.2121
   -52.1800 -52.1800 -52.1776 -52.1776 -52.1712 -52.1712 -52.1682 -52.1682
   -50.1760 -50.1760 -50.1692 -50.1692 -50.1645 -50.1645 -50.1531 -50.1531
   -50.1159 -50.1159 -50.1142 -50.1142 -50.1083 -50.1083 -50.1052 -50.1052
   -50.0661 -50.0661 -50.0648 -50.0648 -50.0632 -50.0632 -50.0583 -50.0583
   -50.0469 -50.0469 -50.0462 -50.0462 -50.0374 -50.0374 -50.0212 -50.0212
   -50.0116 -50.0116 -49.9956 -49.9956 -49.9928 -49.9928 -49.9877 -49.9877
   -49.9693 -49.9693 -49.9660 -49.9660 -49.9538 -49.9538 -49.9510 -49.9510
   -49.9479 -49.9479 -49.9460 -49.9460 -49.9344 -49.9344 -49.9325 -49.9325
   -49.9218 -49.9218 -49.9210 -49.9210 -49.9060 -49.9060 -49.9042 -49.9042
   -29.7560 -29.7560 -29.7560 -29.7560 -29.7518 -29.7518 -29.7517 -29.7517
   -29.7009 -29.7009 -29.7009 -29.7009 -29.6964 -29.6964 -29.6963 -29.6963
   -29.4718 -29.4718 -29.4717 -29.4717 -29.4688 -29.4688 -29.4687 -29.4687
   -29.4671 -29.4671 -29.4669 -29.4669 -29.4610 -29.4610 -29.4608 -29.4608
   -29.4162 -29.4162 -29.4161 -29.4161 -29.4116 -29.4116 -29.4115 -29.4115
   -29.4098 -29.4098 -29.4097 -29.4097 -29.4048 -29.4048 -29.4048 -29.4048
     5.1163   5.1163   5.6850   5.6850   5.7019   5.7019   7.0756   7.0756
     7.5304   7.5304   7.7186   7.7186   8.0265   8.0265   8.0556   8.0556
     8.6272   8.6272   8.6614   8.6614   8.8070   8.8070   8.8957   8.8957
     8.9664   8.9664   9.0846   9.0846   9.1469   9.1469   9.2146   9.2146
     9.2926   9.2926   9.3483   9.3483   9.3839   9.3839   9.4193   9.4193
     9.4306   9.4306   9.4463   9.4463   9.5553   9.5553   9.6537   9.6537
     9.6979   9.6979   9.7500   9.7500   9.7934   9.7934   9.8481   9.8481
     9.8676   9.8676   9.8981   9.8981   9.8994   9.8994   9.9875   9.9875
     9.9923   9.9923  10.0289  10.0289  10.0332  10.0332  10.0963  10.0963
    10.1246  10.1246  10.1320  10.1320  10.2003  10.2003  10.2456  10.2456
    10.3151  10.3151  10.3614  10.3614  10.3833  10.3833  10.3976  10.3976
    10.4532  10.4532  10.5433  10.5433  10.5725  10.5725  10.6170  10.6170
    10.6291  10.6291  10.7275  10.7275  10.7382  10.7382  10.7947  10.7947
    10.8111  10.8111  10.8716  10.8716  10.9326  10.9326  10.9431  10.9431
    10.9636  10.9636  11.0144  11.0144  11.0980  11.0980  11.1091  11.1091
    11.1818  11.1818  11.2165  11.2165  11.2416  11.2416  11.2706  11.2706
    11.3352  11.3352  11.3502  11.3502  11.3614  11.3614  11.4148  11.4148
    11.4219  11.4219  11.4786  11.4786  11.5153  11.5153  11.5682  11.5682
    11.5747  11.5747  11.6505  11.6505  11.6617  11.6617  11.6729  11.6729
    11.7186  11.7186  11.7274  11.7274  11.7327  11.7327  11.7603  11.7603
    11.8177  11.8177  11.8454  11.8454  11.8618  11.8618  11.9508  11.9508
    11.9790  11.9790  12.0431  12.0431  12.1151  12.1151  12.2301  12.2301
    12.4843  12.4843  12.5516  12.5516  12.8892  12.8892  12.9022  12.9022
    13.1014  13.1014  13.2004  13.2004  13.2900  13.2900  13.4462  13.4462
    13.5212  13.5212  13.5448  13.5448  13.6332  13.6332  13.8387  13.8387
    14.4227  14.4227  14.8526  14.8526  15.1498  15.1498  15.1934  15.1934
    16.4196  16.4196  16.8931  16.8931  16.9481  16.9481  17.0703  17.0703
    17.8383  17.8383  17.9088  17.9088  17.9722  17.9722  18.0915  18.0915
    18.1602  18.1602  18.3211  18.3211  18.7417  18.7417  19.1441  19.1441
    19.2561  19.2561  19.2693  19.2693  19.7959  19.7959  19.8181  19.8181
    20.1343  20.1343  20.5247  20.5247  20.8733  20.8733  21.1706  21.1707
    21.2174  21.2174

          k = 0.3333 0.5774 0.0000 ( 13128 PWs)   bands (ev):

   -90.3061 -90.3061 -90.3061 -90.3061 -90.3049 -90.3049 -90.3049 -90.3049
   -90.2436 -90.2436 -90.2436 -90.2436 -90.2414 -90.2414 -90.2414 -90.2414
   -90.2347 -90.2347 -90.2346 -90.2346 -90.2346 -90.2346 -90.2345 -90.2345
   -90.2313 -90.2313 -90.2313 -90.2313 -90.2235 -90.2235 -90.2235 -90.2235
   -62.6252 -62.6252 -62.6252 -62.6252 -62.6240 -62.6240 -62.6240 -62.6240
   -62.5704 -62.5704 -62.5703 -62.5703 -62.5691 -62.5691 -62.5691 -62.5691
   -52.2916 -52.2916 -52.2915 -52.2915 -52.2862 -52.2862 -52.2860 -52.2860
   -52.2350 -52.2350 -52.2350 -52.2350 -52.2305 -52.2305 -52.2270 -52.2270
   -52.2046 -52.2046 -52.2028 -52.2028 -52.2026 -52.2026 -52.2005 -52.2005
   -52.1939 -52.1939 -52.1901 -52.1901 -52.1882 -52.1882 -52.1872 -52.1872
   -50.1704 -50.1704 -50.1694 -50.1694 -50.1640 -50.1640 -50.1607 -50.1607
   -50.0925 -50.0925 -50.0924 -50.0924 -50.0909 -50.0909 -50.0887 -50.0887
   -50.0825 -50.0825 -50.0803 -50.0803 -50.0767 -50.0767 -50.0584 -50.0584
   -50.0413 -50.0413 -50.0390 -50.0390 -50.0335 -50.0335 -50.0117 -50.0117
   -50.0073 -50.0073 -50.0072 -50.0072 -49.9947 -49.9947 -49.9934 -49.9934
   -49.9749 -49.9749 -49.9640 -49.9640 -49.9570 -49.9570 -49.9535 -49.9535
   -49.9444 -49.9444 -49.9430 -49.9430 -49.9418 -49.9418 -49.9358 -49.9358
   -49.9297 -49.9297 -49.9275 -49.9275 -49.9093 -49.9093 -49.9086 -49.9086
   -29.7560 -29.7560 -29.7557 -29.7557 -29.7516 -29.7516 -29.7513 -29.7513
   -29.7015 -29.7015 -29.7014 -29.7014 -29.6968 -29.6968 -29.6967 -29.6967
   -29.4728 -29.4728 -29.4710 -29.4710 -29.4687 -29.4687 -29.4686 -29.4686
   -29.4661 -29.4661 -29.4660 -29.4660 -29.4622 -29.4622 -29.4601 -29.4601
   -29.4161 -29.4161 -29.4160 -29.4160 -29.4123 -29.4123 -29.4121 -29.4121
   -29.4099 -29.4099 -29.4097 -29.4097 -29.4047 -29.4047 -29.4046 -29.4046
     6.6931   6.6931   6.6938   6.6938   7.1194   7.1194   7.2334   7.2334
     7.2386   7.2386   7.4225   7.4225   7.5372   7.5372   7.5420   7.5420
     7.7410   7.7410   8.5697   8.5697   8.5703   8.5703   8.5824   8.5824
     8.5889   8.5889   8.6272   8.6272   8.6902   8.6902   9.3338   9.3338
     9.3373   9.3373   9.3418   9.3418   9.4584   9.4584   9.4727   9.4727
     9.6164   9.6164   9.6478   9.6478   9.7578   9.7578   9.7736   9.7736
     9.8419   9.8419   9.8430   9.8430   9.8886   9.8886   9.8958   9.8958
     9.9121   9.9121   9.9140   9.9140   9.9897   9.9897  10.0447  10.0447
    10.0642  10.0642  10.0683  10.0683  10.0838  10.0838  10.0843  10.0843
    10.1049  10.1049  10.1526  10.1526  10.1645  10.1645  10.1825  10.1825
    10.2001  10.2001  10.2012  10.2012  10.2452  10.2452  10.2533  10.2533
    10.3154  10.3154  10.3195  10.3195  10.3473  10.3473  10.3611  10.3611
    10.3961  10.3961  10.5413  10.5413  10.5567  10.5567  10.5698  10.5698
    10.6846  10.6846  10.7979  10.7979  10.8169  10.8169  10.8233  10.8233
    10.8603  10.8603  10.8815  10.8815  11.0336  11.0336  11.0378  11.0378
    11.1157  11.1157  11.1433  11.1433  11.1595  11.1595  11.1755  11.1755
    11.2217  11.2217  11.2361  11.2361  11.2492  11.2492  11.3357  11.3357
    11.3816  11.3816  11.4078  11.4078  11.4211  11.4211  11.4232  11.4232
    11.4500  11.4500  11.4641  11.4641  11.4677  11.4677  11.5100  11.5100
    11.5268  11.5268  11.5321  11.5321  11.5954  11.5954  11.6481  11.6481
    11.7985  11.7985  11.8144  11.8144  11.8953  11.8953  11.8962  11.8962
    11.9176  11.9176  11.9864  11.9864  11.9979  11.9979  12.0906  12.0906
    12.1464  12.1464  12.2047  12.2047  12.2061  12.2061  12.4200  12.4200
    12.5467  12.5467  12.5574  12.5574  12.6193  12.6193  13.9435  13.9435
    13.9646  13.9646  14.0109  14.0109  14.1933  14.1933  14.2006  14.2006
    14.7635  14.7635  16.5686  16.5686  16.5707  16.5707  16.7248  16.7248
    16.9780  16.9780  16.9786  16.9786  17.5238  17.5238  17.6195  17.6195
    17.6203  17.6203  17.6645  17.6645  17.6727  17.6727  17.9333  17.9333
    18.1440  18.1440  18.5039  18.5039  18.6066  18.6066  18.6209  18.6209
    19.3758  19.3758  19.3786  19.3786  19.6453  19.6453  19.6594  19.6594
    19.7651  19.7651  20.3664  20.3664  21.7530  21.7530  21.7617  21.7617
    21.9545  21.9545

     the Fermi energy is    12.2742 ev

!    total energy              =   -7950.05645567 Ry
     total all-electron energy =    -51823.908539 Ry
     estimated scf accuracy    <          3.0E-10 Ry
     smearing contrib. (-TS)   =       0.11461162 Ry
     internal energy E=F+TS    =   -7950.17106729 Ry

     The total energy is F=E-TS. E is the sum of the following terms:
     one-electron contribution =   -4574.70832295 Ry
     hartree contribution      =    2433.37443164 Ry
     xc contribution           =    -681.28432537 Ry
     ewald contribution        =   -3589.42598513 Ry
     one-center paw contrib.   =   -1538.12686547 Ry

     convergence has been achieved in  20 iterations

     Forces acting on atoms (cartesian axes, Ry/au):

     atom    1 type  1   force =    -0.00000000   -0.00000000    0.00341944
     atom    2 type  1   force =     0.00000000    0.00000000    0.00341944
     atom    3 type  1   force =     0.00000000    0.00000000   -0.00341944
     atom    4 type  1   force =    -0.00000000   -0.00000000   -0.00341944
     atom    5 type  1   force =     0.00000000    0.00000000    0.00084466
     atom    6 type  1   force =    -0.00000000   -0.00000000    0.00084466
     atom    7 type  1   force =     0.00000000    0.00000000   -0.00084466
     atom    8 type  1   force =     0.00000000    0.00000000   -0.00084466
     atom    9 type  2   force =     0.00000000    0.00000000    0.00187271
     atom   10 type  2   force =     0.00000000   -0.00000000    0.00187271
     atom   11 type  2   force =    -0.00000000   -0.00000000   -0.00187271
     atom   12 type  2   force =     0.00000000    0.00000000   -0.00187271
     atom   13 type  2   force =     0.00000000   -0.00148742    0.00000000
     atom   14 type  2   force =     0.00128815   -0.00074371    0.00000000
     atom   15 type  2   force =     0.00000000    0.00148742   -0.00000000
     atom   16 type  2   force =    -0.00128815    0.00074371    0.00000000
     atom   17 type  2   force =     0.00128815    0.00074371    0.00000000
     atom   18 type  2   force =    -0.00128815   -0.00074371    0.00000000
     atom   19 type  2   force =     0.00000000    0.00000000   -0.00000000
     atom   20 type  2   force =    -0.00000000   -0.00000000   -0.00000000
     atom   21 type  2   force =     0.00000000    0.00000000   -0.00000000
     atom   22 type  2   force =    -0.00000000   -0.00000000    0.00000000
     atom   23 type  2   force =     0.00000000   -0.00000000    0.00000000
     atom   24 type  2   force =     0.00000000    0.00000000    0.00000000
     The non-local contrib.  to forces
     atom    1 type  1   force =     0.00000000    0.00000000    0.02273231
     atom    2 type  1   force =     0.00000000   -0.00000000    0.02273231
     atom    3 type  1   force =     0.00000000    0.00000000   -0.02273231
     atom    4 type  1   force =     0.00000000   -0.00000000   -0.02273231
     atom    5 type  1   force =    -0.00000000   -0.00000000   -0.00082908
     atom    6 type  1   force =     0.00000000    0.00000000   -0.00082908
     atom    7 type  1   force =    -0.00000000   -0.00000000    0.00082908
     atom    8 type  1   force =     0.00000000    0.00000000    0.00082908
     atom    9 type  2   force =     0.00000000    0.00000000   -0.00865075
     atom   10 type  2   force =     0.00000000   -0.00000000   -0.00865075
     atom   11 type  2   force =     0.00000000   -0.00000000    0.00865075
     atom   12 type  2   force =    -0.00000000   -0.00000000    0.00865075
     atom   13 type  2   force =     0.00000000   -0.08837031    0.00000000
     atom   14 type  2   force =     0.07653094   -0.04418516   -0.00000000
     atom   15 type  2   force =     0.00000000    0.08837031    0.00000000
     atom   16 type  2   force =    -0.07653094    0.04418516   -0.00000000
     atom   17 type  2   force =     0.07653094    0.04418516   -0.00000000
     atom   18 type  2   force =    -0.07653094   -0.04418516   -0.00000000
     atom   19 type  2   force =     0.00000000    0.00000000    0.00000000
     atom   20 type  2   force =    -0.00000000   -0.00000000    0.00000000
     atom   21 type  2   force =     0.00000000   -0.00000000    0.00000000
     atom   22 type  2   force =     0.00000000    0.00000000    0.00000000
     atom   23 type  2   force =     0.00000000    0.00000000    0.00000000
     atom   24 type  2   force =    -0.00000000   -0.00000000   -0.00000000
     The ionic contribution  to forces
     atom    1 type  1   force =    -0.00001497    0.00000872   -0.45077640
     atom    2 type  1   force =     0.00001497   -0.00000872   -0.45077640
     atom    3 type  1   force =     0.00001497   -0.00000872    0.45077640
     atom    4 type  1   force =    -0.00001497    0.00000872    0.45077640
     atom    5 type  1   force =     0.00005367   -0.00003090    0.15424152
     atom    6 type  1   force =    -0.00005367    0.00003090    0.15424152
     atom    7 type  1   force =    -0.00005367    0.00003090   -0.15424152
     atom    8 type  1   force =     0.00005367   -0.00003090   -0.15424152
     atom    9 type  2   force =     0.00005626   -0.00003247    0.35371113
     atom   10 type  2   force =    -0.00005626    0.00003247    0.35371113
     atom   11 type  2   force =    -0.00005626    0.00003247   -0.35371113
     atom   12 type  2   force =     0.00005626   -0.00003247   -0.35371113
     atom   13 type  2   force =     0.00007009  -14.35708927    0.00000000
     atom   14 type  2   force =    12.43368561   -7.17859181   -0.00000000
     atom   15 type  2   force =    -0.00007009   14.35708927   -0.00000000
     atom   16 type  2   force =   -12.43368561    7.17859181    0.00000000
     atom   17 type  2   force =    12.43363906    7.17848400    0.00000000
     atom   18 type  2   force =   -12.43363906   -7.17848400   -0.00000000
     atom   19 type  2   force =    -0.00000000   -0.00000000    0.00000000
     atom   20 type  2   force =    -0.00000000    0.00000000    0.00000000
     atom   21 type  2   force =     0.00000000   -0.00000000    0.00000000
     atom   22 type  2   force =    -0.00000000   -0.00000000    0.00000000
     atom   23 type  2   force =     0.00000000    0.00000000    0.00000000
     atom   24 type  2   force =     0.00000000   -0.00000000    0.00000000
     The local contribution  to forces
     atom    1 type  1   force =     0.00000000    0.00000002    0.43155858
     atom    2 type  1   force =     0.00000000   -0.00000002    0.43155858
     atom    3 type  1   force =    -0.00000000   -0.00000002   -0.43155858
     atom    4 type  1   force =     0.00000000    0.00000002   -0.43155858
     atom    5 type  1   force =     0.00148315   -0.00085627   -0.15258022
     atom    6 type  1   force =    -0.00148315    0.00085627   -0.15258022
     atom    7 type  1   force =    -0.00148315    0.00085627    0.15258022
     atom    8 type  1   force =     0.00148315   -0.00085627    0.15258022
     atom    9 type  2   force =     0.00196854   -0.00113654   -0.34135703
     atom   10 type  2   force =    -0.00196854    0.00113654   -0.34135703
     atom   11 type  2   force =    -0.00196854    0.00113654    0.34135703
     atom   12 type  2   force =     0.00196854   -0.00113654    0.34135703
     atom   13 type  2   force =    -0.00196692   14.44425117    0.00000000
     atom   14 type  2   force =   -12.50636286    7.22055192   -0.00000000
     atom   15 type  2   force =     0.00196692  -14.44425117   -0.00000000
     atom   16 type  2   force =    12.50636286   -7.22055192    0.00000000
     atom   17 type  2   force =   -12.51007200   -7.22042219    0.00000000
     atom   18 type  2   force =    12.51007200    7.22042219   -0.00000000
     atom   19 type  2   force =     0.00000000   -0.00000000    0.00000000
     atom   20 type  2   force =     0.00000000    0.00000000    0.00000000
     atom   21 type  2   force =    -0.00000000   -0.00000000    0.00000000
     atom   22 type  2   force =     0.00000000    0.00000000    0.00000000
     atom   23 type  2   force =     0.00000000    0.00000000    0.00000000
     atom   24 type  2   force =     0.00000000    0.00000000    0.00000000
     The core correction contribution to forces
     atom    1 type  1   force =    -0.00000000    0.00000000   -0.00011098
     atom    2 type  1   force =     0.00000000   -0.00000000   -0.00011098
     atom    3 type  1   force =     0.00000000   -0.00000000    0.00011098
     atom    4 type  1   force =    -0.00000000    0.00000000    0.00011098
     atom    5 type  1   force =     0.00000321   -0.00000186    0.00000019
     atom    6 type  1   force =    -0.00000321    0.00000186    0.00000019
     atom    7 type  1   force =    -0.00000321    0.00000186   -0.00000019
     atom    8 type  1   force =     0.00000321   -0.00000186   -0.00000019
     atom    9 type  2   force =     0.00000121   -0.00000070   -0.00185169
     atom   10 type  2   force =    -0.00000121    0.00000070   -0.00185169
     atom   11 type  2   force =    -0.00000121    0.00000070    0.00185169
     atom   12 type  2   force =     0.00000121   -0.00000070    0.00185169
     atom   13 type  2   force =    -0.00000120    0.00080950    0.00000000
     atom   14 type  2   force =    -0.00069917    0.00040367   -0.00000000
     atom   15 type  2   force =     0.00000120   -0.00080950   -0.00000000
     atom   16 type  2   force =     0.00069917   -0.00040367    0.00000000
     atom   17 type  2   force =    -0.00070165   -0.00040371    0.00000000
     atom   18 type  2   force =     0.00070165    0.00040371   -0.00000000
     atom   19 type  2   force =     0.00000000    0.00000000    0.00000000
     atom   20 type  2   force =     0.00000000    0.00000000    0.00000000
     atom   21 type  2   force =    -0.00000000    0.00000000    0.00000000
     atom   22 type  2   force =     0.00000000    0.00000000   -0.00000000
     atom   23 type  2   force =     0.00000000    0.00000000    0.00000000
     atom   24 type  2   force =     0.00000000    0.00000000    0.00000000
     The Hubbard contrib.    to forces
     atom    1 type  1   force =     0.00000000    0.00000000    0.00000000
     atom    2 type  1   force =     0.00000000    0.00000000    0.00000000
     atom    3 type  1   force =     0.00000000    0.00000000    0.00000000
     atom    4 type  1   force =     0.00000000    0.00000000    0.00000000
     atom    5 type  1   force =     0.00000000    0.00000000    0.00000000
     atom    6 type  1   force =     0.00000000    0.00000000    0.00000000
     atom    7 type  1   force =     0.00000000    0.00000000    0.00000000
     atom    8 type  1   force =     0.00000000    0.00000000    0.00000000
     atom    9 type  2   force =     0.00000000    0.00000000    0.00000000
     atom   10 type  2   force =     0.00000000    0.00000000    0.00000000
     atom   11 type  2   force =     0.00000000    0.00000000    0.00000000
     atom   12 type  2   force =     0.00000000    0.00000000    0.00000000
     atom   13 type  2   force =     0.00000000    0.00000000    0.00000000
     atom   14 type  2   force =     0.00000000    0.00000000    0.00000000
     atom   15 type  2   force =     0.00000000    0.00000000    0.00000000
     atom   16 type  2   force =     0.00000000    0.00000000    0.00000000
     atom   17 type  2   force =     0.00000000    0.00000000    0.00000000
     atom   18 type  2   force =     0.00000000    0.00000000    0.00000000
     atom   19 type  2   force =     0.00000000    0.00000000    0.00000000
     atom   20 type  2   force =     0.00000000    0.00000000    0.00000000
     atom   21 type  2   force =     0.00000000    0.00000000    0.00000000
     atom   22 type  2   force =     0.00000000    0.00000000    0.00000000
     atom   23 type  2   force =     0.00000000    0.00000000    0.00000000
     atom   24 type  2   force =     0.00000000    0.00000000    0.00000000
     The SCF correction term to forces
     atom    1 type  1   force =     0.00000002   -0.00000001    0.00001592
     atom    2 type  1   force =    -0.00000002    0.00000001    0.00001592
     atom    3 type  1   force =    -0.00000002    0.00000001   -0.00001592
     atom    4 type  1   force =     0.00000002   -0.00000001   -0.00001592
     atom    5 type  1   force =     0.00000000   -0.00000000    0.00001225
     atom    6 type  1   force =    -0.00000000    0.00000000    0.00001225
     atom    7 type  1   force =    -0.00000000    0.00000000   -0.00001225
     atom    8 type  1   force =     0.00000000   -0.00000000   -0.00001225
     atom    9 type  2   force =    -0.00000006    0.00000003    0.00002105
     atom   10 type  2   force =     0.00000006   -0.00000003    0.00002105
     atom   11 type  2   force =     0.00000006   -0.00000003   -0.00002105
     atom   12 type  2   force =    -0.00000006    0.00000003   -0.00002105
     atom   13 type  2   force =     0.00000001   -0.00000730    0.00000000
     atom   14 type  2   force =     0.00000633   -0.00000365    0.00000000
     atom   15 type  2   force =    -0.00000001    0.00000730   -0.00000000
     atom   16 type  2   force =    -0.00000633    0.00000365   -0.00000000
     atom   17 type  2   force =     0.00000633    0.00000364    0.00000000
     atom   18 type  2   force =    -0.00000633   -0.00000364   -0.00000000
     atom   19 type  2   force =     0.00000000    0.00000000   -0.00000000
     atom   20 type  2   force =     0.00000000    0.00000000    0.00000000
     atom   21 type  2   force =     0.00000000   -0.00000000    0.00000000
     atom   22 type  2   force =    -0.00000000    0.00000000   -0.00000000
     atom   23 type  2   force =    -0.00000000   -0.00000000    0.00000000
     atom   24 type  2   force =     0.00000000   -0.00000000   -0.00000000

     Total force =     0.008771     Total SCF correction =     0.000061
     Energy error            =      2.0E-04 Ry
     Gradient error          =      3.4E-03 Ry/Bohr

     number of scf cycles    =   3
     number of bfgs steps    =   2

     energy             old  =   -7950.0562578458 Ry
     energy             new  =   -7950.0564556680 Ry

     CASE: energy            _new < energy            _old

     new trust radius        =       0.0080104562 bohr
     new conv_thr            =       0.0000000006 Ry


ATOMIC_POSITIONS (crystal)
Mg           -0.0000000000       -0.0000000000        0.4065913144
Mg            0.0000000000        0.0000000000        0.9065913144
Mg           -0.0000000000       -0.0000000000        0.5934086856
Mg           -0.0000000000       -0.0000000000        0.0934086856
Mg            0.3333330000        0.6666670000        0.6559473336
Mg            0.6666670000        0.3333330000        0.1559473336
Mg            0.6666670000        0.3333330000        0.3440526664
Mg            0.3333330000        0.6666670000        0.8440526664
Ni            0.3333330000        0.6666670000        0.3753552357
Ni            0.6666670000        0.3333330000        0.8753552357
Ni            0.6666670000        0.3333330000        0.6246447643
Ni            0.3333330000        0.6666670000        0.1246447643
Ni            0.1657991186        0.3315972372        0.2500000000
Ni            0.8342008814        0.1657991186        0.7500000000
Ni            0.8342008814        0.6684027628        0.7500000000
Ni            0.1657991186        0.8342008814        0.2500000000
Ni            0.6684027628        0.8342008814        0.2500000000
Ni            0.3315972372        0.1657991186        0.7500000000
Ni            0.5000000000        0.0000000000        0.5000000000
Ni            0.5000000000        0.5000000000       -0.0000000000
Ni            0.5000000000        0.0000000000       -0.0000000000
Ni            0.5000000000        0.5000000000        0.5000000000
Ni           -0.0000000000        0.5000000000       -0.0000000000
Ni           -0.0000000000        0.5000000000        0.5000000000



     Writing config-only to output data dir ./ACOptimization/out/iso.save/
     NEW-OLD atomic charge density approx. for the potential

     Check: negative core charge=   -0.000016

     total cpu time spent up to now is     1513.1 secs

     Self-consistent Calculation

     iteration #  1     ecut=    50.00 Ry     beta= 0.10
     Davidson diagonalization with overlap
     ethr =  1.00E-06,  avg # of iterations =  6.0

     total cpu time spent up to now is     1554.0 secs

     total energy              =   -7950.05802825 Ry
     estimated scf accuracy    <       0.00043625 Ry

     iteration #  2     ecut=    50.00 Ry     beta= 0.10
     Davidson diagonalization with overlap
     ethr =  1.19E-07,  avg # of iterations =  2.0

     total cpu time spent up to now is     1575.3 secs

     total energy              =   -7950.05707293 Ry
     estimated scf accuracy    <       0.00032564 Ry

     iteration #  3     ecut=    50.00 Ry     beta= 0.10
     Davidson diagonalization with overlap
     ethr =  8.85E-08,  avg # of iterations =  3.3

     total cpu time spent up to now is     1598.2 secs

     total energy              =   -7950.05672170 Ry
     estimated scf accuracy    <       0.00006538 Ry

     iteration #  4     ecut=    50.00 Ry     beta= 0.10
     Davidson diagonalization with overlap
     ethr =  1.78E-08,  avg # of iterations =  4.0

     total cpu time spent up to now is     1624.5 secs

     total energy              =   -7950.05674139 Ry
     estimated scf accuracy    <       0.00001530 Ry

     iteration #  5     ecut=    50.00 Ry     beta= 0.10
     Davidson diagonalization with overlap
     ethr =  4.16E-09,  avg # of iterations =  2.0

     total cpu time spent up to now is     1646.4 secs

     total energy              =   -7950.05675553 Ry
     estimated scf accuracy    <       0.00001542 Ry

     iteration #  6     ecut=    50.00 Ry     beta= 0.10
     Davidson diagonalization with overlap
     ethr =  4.16E-09,  avg # of iterations =  1.0

     total cpu time spent up to now is     1664.9 secs

     total energy              =   -7950.05675377 Ry
     estimated scf accuracy    <       0.00001476 Ry

     iteration #  7     ecut=    50.00 Ry     beta= 0.10
     Davidson diagonalization with overlap
     ethr =  4.01E-09,  avg # of iterations =  2.7

     total cpu time spent up to now is     1688.6 secs

     total energy              =   -7950.05663079 Ry
     estimated scf accuracy    <       0.00000694 Ry

     iteration #  8     ecut=    50.00 Ry     beta= 0.10
     Davidson diagonalization with overlap
     ethr =  1.89E-09,  avg # of iterations =  4.7

     total cpu time spent up to now is     1717.0 secs

     total energy              =   -7950.05663038 Ry
     estimated scf accuracy    <       0.00001841 Ry

     iteration #  9     ecut=    50.00 Ry     beta= 0.10
     Davidson diagonalization with overlap
     ethr =  1.89E-09,  avg # of iterations =  2.0

     total cpu time spent up to now is     1739.7 secs

     total energy              =   -7950.05660283 Ry
     estimated scf accuracy    <       0.00000379 Ry

     iteration # 10     ecut=    50.00 Ry     beta= 0.10
     Davidson diagonalization with overlap
     ethr =  1.03E-09,  avg # of iterations =  2.0

     total cpu time spent up to now is     1764.8 secs

     total energy              =   -7950.05660104 Ry
     estimated scf accuracy    <       0.00000053 Ry

     iteration # 11     ecut=    50.00 Ry     beta= 0.10
     Davidson diagonalization with overlap
     ethr =  1.45E-10,  avg # of iterations =  4.0

     total cpu time spent up to now is     1791.1 secs

     total energy              =   -7950.05659694 Ry
     estimated scf accuracy    <       0.00000026 Ry

     iteration # 12     ecut=    50.00 Ry     beta= 0.10
     Davidson diagonalization with overlap
     ethr =  7.05E-11,  avg # of iterations =  3.0

     total cpu time spent up to now is     1816.7 secs

     total energy              =   -7950.05659656 Ry
     estimated scf accuracy    <       0.00000087 Ry

     iteration # 13     ecut=    50.00 Ry     beta= 0.10
     Davidson diagonalization with overlap
     ethr =  7.05E-11,  avg # of iterations =  4.0

     total cpu time spent up to now is     1845.7 secs

     total energy              =   -7950.05659767 Ry
     estimated scf accuracy    <       0.00000153 Ry

     iteration # 14     ecut=    50.00 Ry     beta= 0.10
     Davidson diagonalization with overlap
     ethr =  7.05E-11,  avg # of iterations =  2.0

     total cpu time spent up to now is     1869.2 secs

     total energy              =   -7950.05659749 Ry
     estimated scf accuracy    <       0.00000188 Ry

     iteration # 15     ecut=    50.00 Ry     beta= 0.10
     Davidson diagonalization with overlap
     ethr =  7.05E-11,  avg # of iterations =  2.0

     total cpu time spent up to now is     1890.9 secs

     total energy              =   -7950.05659749 Ry
     estimated scf accuracy    <       0.00000032 Ry

     iteration # 16     ecut=    50.00 Ry     beta= 0.10
     Davidson diagonalization with overlap
     ethr =  7.05E-11,  avg # of iterations =  1.0

     total cpu time spent up to now is     1909.5 secs

     total energy              =   -7950.05659749 Ry
     estimated scf accuracy    <       0.00000022 Ry

     iteration # 17     ecut=    50.00 Ry     beta= 0.10
     Davidson diagonalization with overlap
     ethr =  5.87E-11,  avg # of iterations =  1.0

     total cpu time spent up to now is     1928.1 secs

     total energy              =   -7950.05659746 Ry
     estimated scf accuracy    <       0.00000015 Ry

     iteration # 18     ecut=    50.00 Ry     beta= 0.10
     Davidson diagonalization with overlap
     ethr =  4.06E-11,  avg # of iterations =  2.0

     total cpu time spent up to now is     1949.3 secs

     total energy              =   -7950.05659748 Ry
     estimated scf accuracy    <          8.3E-09 Ry

     iteration # 19     ecut=    50.00 Ry     beta= 0.10
     Davidson diagonalization with overlap
     ethr =  2.26E-12,  avg # of iterations =  2.3

     total cpu time spent up to now is     1970.9 secs

     total energy              =   -7950.05659748 Ry
     estimated scf accuracy    <       0.00000001 Ry

     iteration # 20     ecut=    50.00 Ry     beta= 0.10
     Davidson diagonalization with overlap
     ethr =  2.26E-12,  avg # of iterations =  1.0

     total cpu time spent up to now is     1989.4 secs

     total energy              =   -7950.05659748 Ry
     estimated scf accuracy    <       0.00000001 Ry

     iteration # 21     ecut=    50.00 Ry     beta= 0.10
     Davidson diagonalization with overlap
     ethr =  2.26E-12,  avg # of iterations =  2.0

     total cpu time spent up to now is     2011.1 secs

     total energy              =   -7950.05659748 Ry
     estimated scf accuracy    <          6.1E-09 Ry

     iteration # 22     ecut=    50.00 Ry     beta= 0.10
     Davidson diagonalization with overlap
     ethr =  1.66E-12,  avg # of iterations =  1.0

     total cpu time spent up to now is     2029.7 secs

     total energy              =   -7950.05659748 Ry
     estimated scf accuracy    <          3.3E-09 Ry

     iteration # 23     ecut=    50.00 Ry     beta= 0.10
     Davidson diagonalization with overlap
     ethr =  8.94E-13,  avg # of iterations =  1.3

     total cpu time spent up to now is     2048.7 secs

     End of self-consistent calculation

          k = 0.0000 0.0000 0.0000 ( 13249 PWs)   bands (ev):

   -90.3057 -90.3057 -90.3043 -90.3043 -90.3042 -90.3042 -90.3026 -90.3026
   -90.2524 -90.2524 -90.2519 -90.2519 -90.2476 -90.2476 -90.2471 -90.2471
   -90.2299 -90.2299 -90.2299 -90.2299 -90.2298 -90.2298 -90.2298 -90.2298
   -90.2257 -90.2257 -90.2257 -90.2257 -90.2256 -90.2256 -90.2256 -90.2256
   -62.6251 -62.6251 -62.6250 -62.6250 -62.6239 -62.6239 -62.6238 -62.6238
   -62.5702 -62.5702 -62.5701 -62.5701 -62.5689 -62.5689 -62.5689 -62.5689
   -52.2932 -52.2932 -52.2889 -52.2889 -52.2884 -52.2884 -52.2798 -52.2798
   -52.2451 -52.2451 -52.2436 -52.2436 -52.2406 -52.2406 -52.2369 -52.2369
   -52.2363 -52.2363 -52.2353 -52.2353 -52.2313 -52.2313 -52.2284 -52.2284
   -52.1711 -52.1711 -52.1691 -52.1691 -52.1676 -52.1676 -52.1612 -52.1612
   -50.1778 -50.1778 -50.1740 -50.1740 -50.1590 -50.1590 -50.1544 -50.1544
   -50.1414 -50.1414 -50.1360 -50.1360 -50.1186 -50.1186 -50.1182 -50.1182
   -50.0758 -50.0758 -50.0673 -50.0673 -50.0604 -50.0604 -50.0590 -50.0590
   -50.0555 -50.0555 -50.0539 -50.0539 -50.0430 -50.0430 -50.0253 -50.0253
   -50.0122 -50.0122 -49.9926 -49.9926 -49.9867 -49.9867 -49.9757 -49.9757
   -49.9749 -49.9749 -49.9713 -49.9713 -49.9631 -49.9631 -49.9535 -49.9535
   -49.9422 -49.9422 -49.9414 -49.9414 -49.9326 -49.9326 -49.9308 -49.9308
   -49.9145 -49.9145 -49.9092 -49.9092 -49.9081 -49.9081 -49.9068 -49.9068
   -29.7565 -29.7565 -29.7563 -29.7563 -29.7521 -29.7521 -29.7517 -29.7517
   -29.7002 -29.7002 -29.7002 -29.7002 -29.6953 -29.6953 -29.6951 -29.6951
   -29.4715 -29.4715 -29.4713 -29.4713 -29.4694 -29.4694 -29.4692 -29.4692
   -29.4680 -29.4680 -29.4678 -29.4678 -29.4606 -29.4606 -29.4601 -29.4601
   -29.4169 -29.4169 -29.4168 -29.4168 -29.4104 -29.4104 -29.4103 -29.4103
   -29.4089 -29.4089 -29.4087 -29.4087 -29.4051 -29.4051 -29.4049 -29.4049
     4.1641   4.1641   4.7616   4.7616   4.7680   4.7680   6.1844   6.1844
     6.8209   6.8209   8.1775   8.1775   8.2217   8.2217   8.2603   8.2603
     8.7920   8.7920   8.8246   8.8246   8.9649   8.9649   9.0048   9.0048
     9.1484   9.1484   9.1551   9.1551   9.1741   9.1741   9.1904   9.1904
     9.2144   9.2144   9.2169   9.2169   9.3236   9.3236   9.3444   9.3444
     9.3888   9.3888   9.4432   9.4432   9.4504   9.4504   9.4528   9.4528
     9.4773   9.4773   9.5406   9.5406   9.5930   9.5930   9.6161   9.6161
     9.6383   9.6383   9.6792   9.6792   9.9542   9.9542   9.9543   9.9543
     9.9644   9.9644   9.9799   9.9799   9.9847   9.9847  10.0325  10.0325
    10.1951  10.1951  10.2542  10.2542  10.3251  10.3251  10.3381  10.3381
    10.3820  10.3820  10.4361  10.4361  10.4702  10.4702  10.4710  10.4710
    10.6161  10.6161  10.6349  10.6349  10.8603  10.8603  11.0171  11.0171
    11.0709  11.0709  11.0873  11.0873  11.0889  11.0889  11.1306  11.1306
    11.2483  11.2483  11.3018  11.3018  11.3840  11.3840  11.3926  11.3926
    11.5105  11.5105  11.5203  11.5203  11.6016  11.6016  11.6016  11.6016
    11.6120  11.6120  11.6156  11.6156  11.6197  11.6197  11.6211  11.6211
    11.6265  11.6265  11.6463  11.6463  11.6594  11.6594  11.6619  11.6619
    11.6835  11.6835  11.6881  11.6881  11.7056  11.7056  11.7298  11.7298
    11.7523  11.7523  11.7753  11.7753  11.7767  11.7767  11.7908  11.7908
    11.8115  11.8115  11.8476  11.8476  11.9218  11.9218  12.1472  12.1472
    12.1997  12.1997  12.4165  12.4165  12.4180  12.4180  12.6318  12.6318
    12.6336  12.6336  12.6419  12.6419  12.6430  12.6430  12.9950  12.9950
    13.1061  13.1061  13.2661  13.2661  13.3196  13.3196  13.3546  13.3546
    13.3690  13.3690  13.3865  13.3865  13.3876  13.3876  13.4526  13.4526
    13.6973  13.6973  13.7259  13.7259  13.7370  13.7370  13.7877  13.7877
    15.0601  15.0601  15.1131  15.1131  15.1142  15.1142  15.1254  15.1254
    15.5162  15.5162  15.5621  15.5621  15.9710  15.9710  15.9913  15.9913
    16.5347  16.5347  16.6027  16.6027  16.6195  16.6195  16.7132  16.7132
    16.7964  16.7964  17.0072  17.0072  17.4659  17.4659  17.4770  17.4770
    17.9518  17.9518  17.9718  17.9718  18.0268  18.0268  18.5307  18.5307
    18.5406  18.5406  18.5632  18.5632  18.7613  18.7613  20.1809  20.1809
    20.2427  20.2427

          k = 0.0000 0.3849 0.0000 ( 13152 PWs)   bands (ev):

   -90.3051 -90.3051 -90.3042 -90.3042 -90.3038 -90.3038 -90.3029 -90.3029
   -90.2477 -90.2477 -90.2475 -90.2475 -90.2430 -90.2430 -90.2428 -90.2428
   -90.2345 -90.2345 -90.2344 -90.2344 -90.2304 -90.2304 -90.2303 -90.2303
   -90.2298 -90.2298 -90.2298 -90.2298 -90.2256 -90.2256 -90.2256 -90.2256
   -62.6250 -62.6250 -62.6250 -62.6250 -62.6237 -62.6237 -62.6237 -62.6237
   -62.5702 -62.5702 -62.5702 -62.5702 -62.5688 -62.5688 -62.5688 -62.5688
   -52.2931 -52.2931 -52.2884 -52.2884 -52.2862 -52.2862 -52.2770 -52.2770
   -52.2388 -52.2388 -52.2365 -52.2365 -52.2349 -52.2349 -52.2322 -52.2322
   -52.2236 -52.2236 -52.2225 -52.2225 -52.2168 -52.2168 -52.2127 -52.2127
   -52.1794 -52.1794 -52.1763 -52.1763 -52.1730 -52.1730 -52.1692 -52.1692
   -50.1751 -50.1751 -50.1686 -50.1686 -50.1629 -50.1629 -50.1520 -50.1520
   -50.1167 -50.1167 -50.1154 -50.1154 -50.1075 -50.1075 -50.1046 -50.1046
   -50.0670 -50.0670 -50.0641 -50.0641 -50.0626 -50.0626 -50.0588 -50.0588
   -50.0475 -50.0475 -50.0466 -50.0466 -50.0353 -50.0353 -50.0207 -50.0207
   -50.0101 -50.0101 -49.9949 -49.9949 -49.9918 -49.9918 -49.9868 -49.9868
   -49.9682 -49.9682 -49.9644 -49.9644 -49.9532 -49.9532 -49.9499 -49.9499
   -49.9496 -49.9496 -49.9471 -49.9471 -49.9331 -49.9331 -49.9312 -49.9312
   -49.9238 -49.9238 -49.9229 -49.9229 -49.9081 -49.9081 -49.9063 -49.9063
   -29.7558 -29.7558 -29.7557 -29.7557 -29.7515 -29.7515 -29.7514 -29.7514
   -29.7008 -29.7008 -29.7008 -29.7008 -29.6961 -29.6961 -29.6961 -29.6961
   -29.4716 -29.4716 -29.4716 -29.4716 -29.4684 -29.4684 -29.4683 -29.4683
   -29.4667 -29.4667 -29.4665 -29.4665 -29.4608 -29.4608 -29.4606 -29.4606
   -29.4163 -29.4163 -29.4163 -29.4163 -29.4113 -29.4113 -29.4112 -29.4112
   -29.4094 -29.4094 -29.4093 -29.4093 -29.4046 -29.4046 -29.4046 -29.4046
     5.1168   5.1168   5.6896   5.6896   5.6979   5.6979   7.0741   7.0741
     7.5328   7.5328   7.7187   7.7187   8.0305   8.0305   8.0523   8.0523
     8.6279   8.6279   8.6616   8.6616   8.8112   8.8112   8.8968   8.8968
     8.9673   8.9673   9.0882   9.0882   9.1495   9.1495   9.2145   9.2145
     9.2921   9.2921   9.3480   9.3480   9.3810   9.3810   9.4191   9.4191
     9.4310   9.4310   9.4516   9.4516   9.5561   9.5561   9.6521   9.6521
     9.6978   9.6978   9.7516   9.7516   9.7935   9.7935   9.8490   9.8490
     9.8684   9.8684   9.8993   9.8993   9.9012   9.9012   9.9871   9.9871
     9.9930   9.9930  10.0293  10.0293  10.0329  10.0329  10.0976  10.0976
    10.1231  10.1231  10.1306  10.1306  10.1996  10.1996  10.2477  10.2477
    10.3149  10.3149  10.3627  10.3627  10.3838  10.3838  10.3963  10.3963
    10.4523  10.4523  10.5449  10.5449  10.5733  10.5733  10.6154  10.6154
    10.6288  10.6288  10.7272  10.7272  10.7373  10.7373  10.7935  10.7935
    10.8102  10.8102  10.8711  10.8711  10.9322  10.9322  10.9433  10.9433
    10.9649  10.9649  11.0151  11.0151  11.0979  11.0979  11.1078  11.1078
    11.1824  11.1824  11.2156  11.2156  11.2416  11.2416  11.2700  11.2700
    11.3341  11.3341  11.3486  11.3486  11.3617  11.3617  11.4152  11.4152
    11.4221  11.4221  11.4794  11.4794  11.5160  11.5160  11.5689  11.5689
    11.5749  11.5749  11.6483  11.6483  11.6614  11.6614  11.6719  11.6719
    11.7177  11.7177  11.7285  11.7285  11.7325  11.7325  11.7611  11.7611
    11.8166  11.8166  11.8452  11.8452  11.8620  11.8620  11.9510  11.9510
    11.9794  11.9794  12.0435  12.0435  12.1151  12.1151  12.2319  12.2319
    12.4843  12.4843  12.5502  12.5502  12.8901  12.8901  12.9030  12.9030
    13.1002  13.1002  13.1992  13.1992  13.2880  13.2880  13.4460  13.4460
    13.5203  13.5203  13.5463  13.5463  13.6312  13.6312  13.8413  13.8413
    14.4249  14.4249  14.8508  14.8508  15.1476  15.1476  15.1940  15.1940
    16.4208  16.4208  16.8892  16.8892  16.9477  16.9477  17.0673  17.0673
    17.8383  17.8383  17.9103  17.9103  17.9725  17.9725  18.0933  18.0933
    18.1639  18.1639  18.3218  18.3218  18.7433  18.7433  19.1448  19.1448
    19.2535  19.2535  19.2726  19.2726  19.7914  19.7914  19.8150  19.8150
    20.1364  20.1364  20.5230  20.5230  20.8734  20.8734  21.1708  21.1708
    21.2171  21.2171

          k = 0.3333 0.5774 0.0000 ( 13128 PWs)   bands (ev):

   -90.3045 -90.3045 -90.3045 -90.3045 -90.3033 -90.3033 -90.3033 -90.3033
   -90.2424 -90.2424 -90.2424 -90.2424 -90.2399 -90.2399 -90.2398 -90.2398
   -90.2368 -90.2368 -90.2367 -90.2367 -90.2365 -90.2365 -90.2364 -90.2364
   -90.2298 -90.2298 -90.2298 -90.2298 -90.2256 -90.2256 -90.2256 -90.2256
   -62.6249 -62.6249 -62.6249 -62.6249 -62.6237 -62.6237 -62.6237 -62.6237
   -62.5702 -62.5702 -62.5702 -62.5702 -62.5689 -62.5689 -62.5689 -62.5689
   -52.2900 -52.2900 -52.2900 -52.2900 -52.2849 -52.2849 -52.2848 -52.2848
   -52.2336 -52.2336 -52.2334 -52.2334 -52.2326 -52.2326 -52.2292 -52.2292
   -52.2034 -52.2034 -52.2031 -52.2031 -52.2023 -52.2023 -52.1984 -52.1984
   -52.1958 -52.1958 -52.1920 -52.1920 -52.1886 -52.1886 -52.1882 -52.1882
   -50.1689 -50.1689 -50.1685 -50.1685 -50.1634 -50.1634 -50.1595 -50.1595
   -50.0929 -50.0929 -50.0918 -50.0918 -50.0917 -50.0917 -50.0895 -50.0895
   -50.0834 -50.0834 -50.0801 -50.0801 -50.0774 -50.0774 -50.0559 -50.0559
   -50.0402 -50.0402 -50.0392 -50.0392 -50.0345 -50.0345 -50.0099 -50.0099
   -50.0070 -50.0070 -50.0059 -50.0059 -49.9940 -49.9940 -49.9928 -49.9928
   -49.9734 -49.9734 -49.9628 -49.9628 -49.9559 -49.9559 -49.9532 -49.9532
   -49.9447 -49.9447 -49.9441 -49.9441 -49.9409 -49.9409 -49.9347 -49.9347
   -49.9318 -49.9318 -49.9295 -49.9295 -49.9113 -49.9113 -49.9106 -49.9106
   -29.7557 -29.7557 -29.7554 -29.7554 -29.7513 -29.7513 -29.7510 -29.7510
   -29.7014 -29.7014 -29.7013 -29.7013 -29.6966 -29.6966 -29.6964 -29.6964
   -29.4726 -29.4726 -29.4709 -29.4709 -29.4683 -29.4683 -29.4683 -29.4683
   -29.4658 -29.4658 -29.4657 -29.4657 -29.4619 -29.4619 -29.4599 -29.4599
   -29.4162 -29.4162 -29.4162 -29.4162 -29.4120 -29.4120 -29.4118 -29.4118
   -29.4096 -29.4096 -29.4094 -29.4094 -29.4045 -29.4045 -29.4044 -29.4044
     6.6964   6.6964   6.6972   6.6972   7.1183   7.1183   7.2308   7.2308
     7.2361   7.2361   7.4246   7.4246   7.5405   7.5405   7.5452   7.5452
     7.7348   7.7348   8.5730   8.5730   8.5736   8.5736   8.5831   8.5831
     8.5893   8.5893   8.6230   8.6230   8.6895   8.6895   9.3399   9.3399
     9.3403   9.3403   9.3434   9.3434   9.4610   9.4610   9.4761   9.4761
     9.6161   9.6161   9.6485   9.6485   9.7600   9.7600   9.7757   9.7757
     9.8407   9.8407   9.8430   9.8430   9.8878   9.8878   9.8957   9.8957
     9.9088   9.9088   9.9128   9.9128   9.9873   9.9873  10.0459  10.0459
    10.0658  10.0658  10.0684  10.0684  10.0820  10.0820  10.0862  10.0862
    10.1062  10.1062  10.1519  10.1519  10.1637  10.1637  10.1840  10.1840
    10.1992  10.1992  10.2007  10.2007  10.2470  10.2470  10.2541  10.2541
    10.3136  10.3136  10.3200  10.3200  10.3447  10.3447  10.3614  10.3614
    10.3966  10.3966  10.5391  10.5391  10.5566  10.5566  10.5694  10.5694
    10.6885  10.6885  10.7975  10.7975  10.8167  10.8167  10.8223  10.8223
    10.8590  10.8590  10.8794  10.8794  11.0326  11.0326  11.0367  11.0367
    11.1164  11.1164  11.1423  11.1423  11.1592  11.1592  11.1745  11.1745
    11.2213  11.2213  11.2353  11.2353  11.2490  11.2490  11.3344  11.3344
    11.3817  11.3817  11.4074  11.4074  11.4205  11.4205  11.4211  11.4211
    11.4505  11.4505  11.4638  11.4638  11.4687  11.4687  11.5103  11.5103
    11.5279  11.5279  11.5332  11.5332  11.5960  11.5960  11.6496  11.6496
    11.7990  11.7990  11.8153  11.8153  11.8950  11.8950  11.8962  11.8962
    11.9171  11.9171  11.9868  11.9868  11.9982  11.9982  12.0897  12.0897
    12.1450  12.1450  12.2057  12.2057  12.2071  12.2071  12.4180  12.4180
    12.5488  12.5488  12.5592  12.5592  12.6181  12.6181  13.9426  13.9426
    13.9635  13.9635  14.0085  14.0085  14.1964  14.1964  14.2037  14.2037
    14.7617  14.7617  16.5689  16.5689  16.5710  16.5710  16.7229  16.7229
    16.9796  16.9796  16.9801  16.9801  17.5258  17.5258  17.6199  17.6199
    17.6207  17.6207  17.6652  17.6652  17.6735  17.6735  17.9323  17.9323
    18.1401  18.1401  18.4997  18.4997  18.6041  18.6041  18.6184  18.6184
    19.3787  19.3787  19.3814  19.3814  19.6449  19.6449  19.6590  19.6590
    19.7682  19.7682  20.3663  20.3663  21.7541  21.7541  21.7627  21.7627
    21.9554  21.9554

     the Fermi energy is    12.2745 ev

!    total energy              =   -7950.05659749 Ry
     total all-electron energy =    -51823.908681 Ry
     estimated scf accuracy    <          2.5E-10 Ry
     smearing contrib. (-TS)   =       0.11451445 Ry
     internal energy E=F+TS    =   -7950.17111195 Ry

     The total energy is F=E-TS. E is the sum of the following terms:
     one-electron contribution =   -4573.98897648 Ry
     hartree contribution      =    2433.01656286 Ry
     xc contribution           =    -681.28347930 Ry
     ewald contribution        =   -3589.78854427 Ry
     one-center paw contrib.   =   -1538.12667476 Ry

     convergence has been achieved in  23 iterations

     Forces acting on atoms (cartesian axes, Ry/au):

     atom    1 type  1   force =    -0.00000000   -0.00000000    0.00247652
     atom    2 type  1   force =     0.00000000    0.00000000    0.00247652
     atom    3 type  1   force =     0.00000000    0.00000000   -0.00247652
     atom    4 type  1   force =     0.00000000    0.00000000   -0.00247652
     atom    5 type  1   force =     0.00000000    0.00000000    0.00060485
     atom    6 type  1   force =     0.00000000    0.00000000    0.00060485
     atom    7 type  1   force =     0.00000000    0.00000000   -0.00060485
     atom    8 type  1   force =    -0.00000000   -0.00000000   -0.00060485
     atom    9 type  2   force =    -0.00000000   -0.00000000    0.00030366
     atom   10 type  2   force =    -0.00000000   -0.00000000    0.00030366
     atom   11 type  2   force =    -0.00000000   -0.00000000   -0.00030366
     atom   12 type  2   force =     0.00000000    0.00000000   -0.00030366
     atom   13 type  2   force =     0.00000000    0.00007001    0.00000000
     atom   14 type  2   force =    -0.00006063    0.00003501   -0.00000000
     atom   15 type  2   force =     0.00000000   -0.00007001    0.00000000
     atom   16 type  2   force =     0.00006063   -0.00003501    0.00000000
     atom   17 type  2   force =    -0.00006063   -0.00003501   -0.00000000
     atom   18 type  2   force =     0.00006063    0.00003501    0.00000000
     atom   19 type  2   force =     0.00000000    0.00000000    0.00000000
     atom   20 type  2   force =     0.00000000   -0.00000000    0.00000000
     atom   21 type  2   force =     0.00000000   -0.00000000    0.00000000
     atom   22 type  2   force =     0.00000000    0.00000000    0.00000000
     atom   23 type  2   force =    -0.00000000   -0.00000000   -0.00000000
     atom   24 type  2   force =    -0.00000000   -0.00000000   -0.00000000
     The non-local contrib.  to forces
     atom    1 type  1   force =     0.00000000    0.00000000    0.02026269
     atom    2 type  1   force =     0.00000000   -0.00000000    0.02026269
     atom    3 type  1   force =     0.00000000    0.00000000   -0.02026269
     atom    4 type  1   force =     0.00000000    0.00000000   -0.02026269
     atom    5 type  1   force =     0.00000000    0.00000000   -0.00204306
     atom    6 type  1   force =     0.00000000   -0.00000000   -0.00204306
     atom    7 type  1   force =     0.00000000    0.00000000    0.00204306
     atom    8 type  1   force =    -0.00000000   -0.00000000    0.00204306
     atom    9 type  2   force =     0.00000000    0.00000000   -0.00889319
     atom   10 type  2   force =     0.00000000    0.00000000   -0.00889319
     atom   11 type  2   force =     0.00000000    0.00000000    0.00889319
     atom   12 type  2   force =    -0.00000000   -0.00000000    0.00889319
     atom   13 type  2   force =     0.00000000   -0.08685319   -0.00000000
     atom   14 type  2   force =     0.07521707   -0.04342660   -0.00000000
     atom   15 type  2   force =     0.00000000    0.08685319   -0.00000000
     atom   16 type  2   force =    -0.07521707    0.04342660    0.00000000
     atom   17 type  2   force =     0.07521707    0.04342660   -0.00000000
     atom   18 type  2   force =    -0.07521707   -0.04342660    0.00000000
     atom   19 type  2   force =    -0.00000000    0.00000000   -0.00000000
     atom   20 type  2   force =     0.00000000   -0.00000000    0.00000000
     atom   21 type  2   force =     0.00000000   -0.00000000    0.00000000
     atom   22 type  2   force =     0.00000000    0.00000000   -0.00000000
     atom   23 type  2   force =    -0.00000000   -0.00000000    0.00000000
     atom   24 type  2   force =     0.00000000    0.00000000    0.00000000
     The ionic contribution  to forces
     atom    1 type  1   force =    -0.00001503    0.00000875   -0.60603571
     atom    2 type  1   force =     0.00001503   -0.00000875   -0.60603571
     atom    3 type  1   force =     0.00001503   -0.00000875    0.60603571
     atom    4 type  1   force =    -0.00001503    0.00000875    0.60603571
     atom    5 type  1   force =     0.00005357   -0.00003084    0.19942334
     atom    6 type  1   force =    -0.00005357    0.00003084    0.19942334
     atom    7 type  1   force =    -0.00005357    0.00003084   -0.19942334
     atom    8 type  1   force =     0.00005357   -0.00003084   -0.19942334
     atom    9 type  2   force =     0.00005652   -0.00003263   -0.11489733
     atom   10 type  2   force =    -0.00005652    0.00003263   -0.11489733
     atom   11 type  2   force =    -0.00005652    0.00003263    0.11489733
     atom   12 type  2   force =     0.00005652   -0.00003263    0.11489733
     atom   13 type  2   force =     0.00006958  -13.93160869    0.00000000
     atom   14 type  2   force =    12.06520843   -6.96585141   -0.00000000
     atom   15 type  2   force =    -0.00006958   13.93160869   -0.00000000
     atom   16 type  2   force =   -12.06520843    6.96585141    0.00000000
     atom   17 type  2   force =    12.06516181    6.96574415    0.00000000
     atom   18 type  2   force =   -12.06516181   -6.96574415    0.00000000
     atom   19 type  2   force =    -0.00000000   -0.00000000    0.00000000
     atom   20 type  2   force =    -0.00000000    0.00000000    0.00000000
     atom   21 type  2   force =    -0.00000000   -0.00000000    0.00000000
     atom   22 type  2   force =     0.00000000   -0.00000000    0.00000000
     atom   23 type  2   force =     0.00000000    0.00000000    0.00000000
     atom   24 type  2   force =     0.00000000   -0.00000000    0.00000000
     The local contribution  to forces
     atom    1 type  1   force =     0.00000000    0.00000002    0.58834114
     atom    2 type  1   force =     0.00000000   -0.00000002    0.58834114
     atom    3 type  1   force =    -0.00000000   -0.00000002   -0.58834114
     atom    4 type  1   force =     0.00000000    0.00000002   -0.58834114
     atom    5 type  1   force =     0.00148318   -0.00085629   -0.19679312
     atom    6 type  1   force =    -0.00148318    0.00085629   -0.19679312
     atom    7 type  1   force =    -0.00148318    0.00085629    0.19679312
     atom    8 type  1   force =     0.00148318   -0.00085629    0.19679312
     atom    9 type  2   force =     0.00196840   -0.00113645    0.12597524
     atom   10 type  2   force =    -0.00196840    0.00113645    0.12597524
     atom   11 type  2   force =    -0.00196840    0.00113645   -0.12597524
     atom   12 type  2   force =     0.00196840   -0.00113645   -0.12597524
     atom   13 type  2   force =    -0.00196661   14.01880939    0.00000000
     atom   14 type  2   force =   -12.13791932    7.00783094   -0.00000000
     atom   15 type  2   force =     0.00196661  -14.01880939   -0.00000000
     atom   16 type  2   force =    12.13791932   -7.00783094    0.00000000
     atom   17 type  2   force =   -12.14162847   -7.00770157    0.00000000
     atom   18 type  2   force =    12.14162847    7.00770157   -0.00000000
     atom   19 type  2   force =     0.00000000   -0.00000000    0.00000000
     atom   20 type  2   force =     0.00000000    0.00000000    0.00000000
     atom   21 type  2   force =    -0.00000000   -0.00000000    0.00000000
     atom   22 type  2   force =     0.00000000    0.00000000    0.00000000
     atom   23 type  2   force =     0.00000000    0.00000000    0.00000000
     atom   24 type  2   force =     0.00000000    0.00000000    0.00000000
     The core correction contribution to forces
     atom    1 type  1   force =    -0.00000000    0.00000000   -0.00009940
     atom    2 type  1   force =     0.00000000   -0.00000000   -0.00009940
     atom    3 type  1   force =     0.00000000   -0.00000000    0.00009940
     atom    4 type  1   force =    -0.00000000    0.00000000    0.00009940
     atom    5 type  1   force =     0.00000321   -0.00000186    0.00000528
     atom    6 type  1   force =    -0.00000321    0.00000186    0.00000528
     atom    7 type  1   force =    -0.00000321    0.00000186   -0.00000528
     atom    8 type  1   force =     0.00000321   -0.00000186   -0.00000528
     atom    9 type  2   force =     0.00000121   -0.00000070   -0.00189007
     atom   10 type  2   force =    -0.00000121    0.00000070   -0.00189007
     atom   11 type  2   force =    -0.00000121    0.00000070    0.00189007
     atom   12 type  2   force =     0.00000121   -0.00000070    0.00189007
     atom   13 type  2   force =    -0.00000120    0.00081773    0.00000000
     atom   14 type  2   force =    -0.00070630    0.00040779   -0.00000000
     atom   15 type  2   force =     0.00000120   -0.00081773   -0.00000000
     atom   16 type  2   force =     0.00070630   -0.00040779    0.00000000
     atom   17 type  2   force =    -0.00070878   -0.00040783    0.00000000
     atom   18 type  2   force =     0.00070878    0.00040783   -0.00000000
     atom   19 type  2   force =     0.00000000    0.00000000    0.00000000
     atom   20 type  2   force =     0.00000000    0.00000000    0.00000000
     atom   21 type  2   force =    -0.00000000    0.00000000    0.00000000
     atom   22 type  2   force =    -0.00000000    0.00000000    0.00000000
     atom   23 type  2   force =     0.00000000    0.00000000    0.00000000
     atom   24 type  2   force =     0.00000000    0.00000000    0.00000000
     The Hubbard contrib.    to forces
     atom    1 type  1   force =     0.00000000    0.00000000    0.00000000
     atom    2 type  1   force =     0.00000000    0.00000000    0.00000000
     atom    3 type  1   force =     0.00000000    0.00000000    0.00000000
     atom    4 type  1   force =     0.00000000    0.00000000    0.00000000
     atom    5 type  1   force =     0.00000000    0.00000000    0.00000000
     atom    6 type  1   force =     0.00000000    0.00000000    0.00000000
     atom    7 type  1   force =     0.00000000    0.00000000    0.00000000
     atom    8 type  1   force =     0.00000000    0.00000000    0.00000000
     atom    9 type  2   force =     0.00000000    0.00000000    0.00000000
     atom   10 type  2   force =     0.00000000    0.00000000    0.00000000
     atom   11 type  2   force =     0.00000000    0.00000000    0.00000000
     atom   12 type  2   force =     0.00000000    0.00000000    0.00000000
     atom   13 type  2   force =     0.00000000    0.00000000    0.00000000
     atom   14 type  2   force =     0.00000000    0.00000000    0.00000000
     atom   15 type  2   force =     0.00000000    0.00000000    0.00000000
     atom   16 type  2   force =     0.00000000    0.00000000    0.00000000
     atom   17 type  2   force =     0.00000000    0.00000000    0.00000000
     atom   18 type  2   force =     0.00000000    0.00000000    0.00000000
     atom   19 type  2   force =     0.00000000    0.00000000    0.00000000
     atom   20 type  2   force =     0.00000000    0.00000000    0.00000000
     atom   21 type  2   force =     0.00000000    0.00000000    0.00000000
     atom   22 type  2   force =     0.00000000    0.00000000    0.00000000
     atom   23 type  2   force =     0.00000000    0.00000000    0.00000000
     atom   24 type  2   force =     0.00000000    0.00000000    0.00000000
     The SCF correction term to forces
     atom    1 type  1   force =     0.00000001   -0.00000000    0.00000780
     atom    2 type  1   force =    -0.00000001    0.00000000    0.00000780
     atom    3 type  1   force =    -0.00000001    0.00000000   -0.00000780
     atom    4 type  1   force =     0.00000001   -0.00000000   -0.00000780
     atom    5 type  1   force =    -0.00000000    0.00000000    0.00001241
     atom    6 type  1   force =     0.00000000   -0.00000000    0.00001241
     atom    7 type  1   force =     0.00000000   -0.00000000   -0.00001241
     atom    8 type  1   force =    -0.00000000    0.00000000   -0.00001241
     atom    9 type  2   force =    -0.00000003    0.00000002    0.00000901
     atom   10 type  2   force =     0.00000003   -0.00000002    0.00000901
     atom   11 type  2   force =     0.00000003   -0.00000002   -0.00000901
     atom   12 type  2   force =    -0.00000003    0.00000002   -0.00000901
     atom   13 type  2   force =     0.00000000   -0.00001405   -0.00000000
     atom   14 type  2   force =     0.00001217   -0.00000703    0.00000000
     atom   15 type  2   force =    -0.00000000    0.00001405    0.00000000
     atom   16 type  2   force =    -0.00001217    0.00000703   -0.00000000
     atom   17 type  2   force =     0.00001217    0.00000702    0.00000000
     atom   18 type  2   force =    -0.00001217   -0.00000702   -0.00000000
     atom   19 type  2   force =    -0.00000000   -0.00000000   -0.00000000
     atom   20 type  2   force =     0.00000000   -0.00000000   -0.00000000
     atom   21 type  2   force =    -0.00000000    0.00000000   -0.00000000
     atom   22 type  2   force =    -0.00000000    0.00000000   -0.00000000
     atom   23 type  2   force =    -0.00000000   -0.00000000   -0.00000000
     atom   24 type  2   force =     0.00000000    0.00000000   -0.00000000

     Total force =     0.005138     Total SCF correction =     0.000049
     Energy error            =      1.4E-04 Ry
     Gradient error          =      2.5E-03 Ry/Bohr

     number of scf cycles    =   4
     number of bfgs steps    =   3

     energy             old  =   -7950.0564556680 Ry
     energy             new  =   -7950.0565974909 Ry

     CASE: energy            _new < energy            _old

     new trust radius        =       0.0090376956 bohr
     new conv_thr            =       0.0000000004 Ry


ATOMIC_POSITIONS (crystal)
Mg           -0.0000000000       -0.0000000000        0.4068910325
Mg            0.0000000000        0.0000000000        0.9068910325
Mg           -0.0000000000       -0.0000000000        0.5931089675
Mg            0.0000000000        0.0000000000        0.0931089675
Mg            0.3333330000        0.6666670000        0.6560211668
Mg            0.6666670000        0.3333330000        0.1560211668
Mg            0.6666670000        0.3333330000        0.3439788332
Mg            0.3333330000        0.6666670000        0.8439788332
Ni            0.3333330000        0.6666670000        0.3754868808
Ni            0.6666670000        0.3333330000        0.8754868808
Ni            0.6666670000        0.3333330000        0.6245131192
Ni            0.3333330000        0.6666670000        0.1245131192
Ni            0.1656144854        0.3312279709        0.2500000000
Ni            0.8343855146        0.1656144854        0.7500000000
Ni            0.8343855146        0.6687720291        0.7500000000
Ni            0.1656144854        0.8343855146        0.2500000000
Ni            0.6687720291        0.8343855146        0.2500000000
Ni            0.3312279709        0.1656144854        0.7500000000
Ni            0.5000000000        0.0000000000        0.5000000000
Ni            0.5000000000        0.5000000000       -0.0000000000
Ni            0.5000000000        0.0000000000       -0.0000000000
Ni            0.5000000000        0.5000000000        0.5000000000
Ni           -0.0000000000        0.5000000000       -0.0000000000
Ni           -0.0000000000        0.5000000000        0.5000000000



     Writing config-only to output data dir ./ACOptimization/out/iso.save/
     NEW-OLD atomic charge density approx. for the potential

     Check: negative core charge=   -0.000016

     total cpu time spent up to now is     2064.0 secs

     Self-consistent Calculation

     iteration #  1     ecut=    50.00 Ry     beta= 0.10
     Davidson diagonalization with overlap
     ethr =  1.00E-06,  avg # of iterations =  6.0

     Threshold (ethr) on eigenvalues was too large:
     Diagonalizing with lowered threshold

     Davidson diagonalization with overlap
     ethr =  6.51E-08,  avg # of iterations =  2.0

     total cpu time spent up to now is     2119.6 secs

     total energy              =   -7950.05739230 Ry
     estimated scf accuracy    <       0.00026234 Ry

     iteration #  2     ecut=    50.00 Ry     beta= 0.10
     Davidson diagonalization with overlap
     ethr =  7.13E-08,  avg # of iterations =  1.0

     total cpu time spent up to now is     2137.9 secs

     total energy              =   -7950.05697687 Ry
     estimated scf accuracy    <       0.00016424 Ry

     iteration #  3     ecut=    50.00 Ry     beta= 0.10
     Davidson diagonalization with overlap
     ethr =  4.46E-08,  avg # of iterations =  2.0

     total cpu time spent up to now is     2159.2 secs

     total energy              =   -7950.05668999 Ry
     estimated scf accuracy    <       0.00004749 Ry

     iteration #  4     ecut=    50.00 Ry     beta= 0.10
     Davidson diagonalization with overlap
     ethr =  1.29E-08,  avg # of iterations =  4.0

     total cpu time spent up to now is     2185.1 secs

     total energy              =   -7950.05670754 Ry
     estimated scf accuracy    <       0.00000914 Ry

     iteration #  5     ecut=    50.00 Ry     beta= 0.10
     Davidson diagonalization with overlap
     ethr =  2.48E-09,  avg # of iterations =  3.0

     total cpu time spent up to now is     2206.2 secs

     total energy              =   -7950.05672121 Ry
     estimated scf accuracy    <       0.00000926 Ry

     iteration #  6     ecut=    50.00 Ry     beta= 0.10
     Davidson diagonalization with overlap
     ethr =  2.48E-09,  avg # of iterations =  1.0

     total cpu time spent up to now is     2224.6 secs

     total energy              =   -7950.05669935 Ry
     estimated scf accuracy    <       0.00000783 Ry

     iteration #  7     ecut=    50.00 Ry     beta= 0.10
     Davidson diagonalization with overlap
     ethr =  2.13E-09,  avg # of iterations =  1.0

     total cpu time spent up to now is     2243.0 secs

     total energy              =   -7950.05674453 Ry
     estimated scf accuracy    <       0.00001293 Ry

     iteration #  8     ecut=    50.00 Ry     beta= 0.10
     Davidson diagonalization with overlap
     ethr =  2.13E-09,  avg # of iterations =  2.0

     total cpu time spent up to now is     2267.9 secs

     total energy              =   -7950.05665746 Ry
     estimated scf accuracy    <       0.00001134 Ry

     iteration #  9     ecut=    50.00 Ry     beta= 0.10
     Davidson diagonalization with overlap
     ethr =  2.13E-09,  avg # of iterations =  4.0

     total cpu time spent up to now is     2294.6 secs

     total energy              =   -7950.05666239 Ry
     estimated scf accuracy    <       0.00002826 Ry

     iteration # 10     ecut=    50.00 Ry     beta= 0.10
     Davidson diagonalization with overlap
     ethr =  2.13E-09,  avg # of iterations =  2.0

     total cpu time spent up to now is     2316.1 secs

     total energy              =   -7950.05665796 Ry
     estimated scf accuracy    <       0.00002084 Ry

     iteration # 11     ecut=    50.00 Ry     beta= 0.10
     Davidson diagonalization with overlap
     ethr =  2.13E-09,  avg # of iterations =  2.0

     total cpu time spent up to now is     2339.0 secs

     total energy              =   -7950.05665695 Ry
     estimated scf accuracy    <       0.00001151 Ry

     iteration # 12     ecut=    50.00 Ry     beta= 0.10
     Davidson diagonalization with overlap
     ethr =  2.13E-09,  avg # of iterations =  1.7

     total cpu time spent up to now is     2359.0 secs

     total energy              =   -7950.05665688 Ry
     estimated scf accuracy    <       0.00000393 Ry

     iteration # 13     ecut=    50.00 Ry     beta= 0.10
     Davidson diagonalization with overlap
     ethr =  1.07E-09,  avg # of iterations =  2.0

     total cpu time spent up to now is     2380.5 secs

     total energy              =   -7950.05665717 Ry
     estimated scf accuracy    <       0.00000008 Ry

     iteration # 14     ecut=    50.00 Ry     beta= 0.10
     Davidson diagonalization with overlap
     ethr =  2.11E-11,  avg # of iterations =  5.0

     total cpu time spent up to now is     2407.2 secs

     total energy              =   -7950.05665722 Ry
     estimated scf accuracy    <       0.00000009 Ry

     iteration # 15     ecut=    50.00 Ry     beta= 0.10
     Davidson diagonalization with overlap
     ethr =  2.11E-11,  avg # of iterations =  2.0

     total cpu time spent up to now is     2429.5 secs

     total energy              =   -7950.05665723 Ry
     estimated scf accuracy    <       0.00000012 Ry

     iteration # 16     ecut=    50.00 Ry     beta= 0.10
     Davidson diagonalization with overlap
     ethr =  2.11E-11,  avg # of iterations =  1.3

     total cpu time spent up to now is     2448.9 secs

     total energy              =   -7950.05665727 Ry
     estimated scf accuracy    <       0.00000010 Ry

     iteration # 17     ecut=    50.00 Ry     beta= 0.10
     Davidson diagonalization with overlap
     ethr =  2.11E-11,  avg # of iterations =  2.0

     total cpu time spent up to now is     2470.8 secs

     total energy              =   -7950.05665770 Ry
     estimated scf accuracy    <       0.00000014 Ry

     iteration # 18     ecut=    50.00 Ry     beta= 0.10
     Davidson diagonalization with overlap
     ethr =  2.11E-11,  avg # of iterations =  4.0

     total cpu time spent up to now is     2498.1 secs

     total energy              =   -7950.05665768 Ry
     estimated scf accuracy    <       0.00000135 Ry

     iteration # 19     ecut=    50.00 Ry     beta= 0.10
     Davidson diagonalization with overlap
     ethr =  2.11E-11,  avg # of iterations =  2.0

     total cpu time spent up to now is     2519.2 secs

     total energy              =   -7950.05665761 Ry
     estimated scf accuracy    <       0.00000150 Ry

     iteration # 20     ecut=    50.00 Ry     beta= 0.10
     Davidson diagonalization with overlap
     ethr =  2.11E-11,  avg # of iterations =  2.0

     total cpu time spent up to now is     2540.2 secs

     total energy              =   -7950.05665759 Ry
     estimated scf accuracy    <       0.00000097 Ry

     iteration # 21     ecut=    50.00 Ry     beta= 0.10
     Davidson diagonalization with overlap
     ethr =  2.11E-11,  avg # of iterations =  1.0

     total cpu time spent up to now is     2558.8 secs

     total energy              =   -7950.05665757 Ry
     estimated scf accuracy    <       0.00000087 Ry

     iteration # 22     ecut=    50.00 Ry     beta= 0.10
     Davidson diagonalization with overlap
     ethr =  2.11E-11,  avg # of iterations =  1.0

     total cpu time spent up to now is     2577.3 secs

     total energy              =   -7950.05665752 Ry
     estimated scf accuracy    <       0.00000083 Ry

     iteration # 23     ecut=    50.00 Ry     beta= 0.10
     Davidson diagonalization with overlap
     ethr =  2.11E-11,  avg # of iterations =  1.3

     total cpu time spent up to now is     2596.6 secs

     total energy              =   -7950.05665752 Ry
     estimated scf accuracy    <       0.00000064 Ry

     iteration # 24     ecut=    50.00 Ry     beta= 0.10
     Davidson diagonalization with overlap
     ethr =  2.11E-11,  avg # of iterations =  1.0

     total cpu time spent up to now is     2615.1 secs

     total energy              =   -7950.05665753 Ry
     estimated scf accuracy    <       0.00000064 Ry

     iteration # 25     ecut=    50.00 Ry     beta= 0.10
     Davidson diagonalization with overlap
     ethr =  2.11E-11,  avg # of iterations =  1.0

     total cpu time spent up to now is     2633.7 secs

     total energy              =   -7950.05665758 Ry
     estimated scf accuracy    <       0.00000066 Ry

     iteration # 26     ecut=    50.00 Ry     beta= 0.10
     Davidson diagonalization with overlap
     ethr =  2.11E-11,  avg # of iterations =  1.0

     total cpu time spent up to now is     2652.2 secs

     total energy              =   -7950.05665759 Ry
     estimated scf accuracy    <       0.00000082 Ry

     iteration # 27     ecut=    50.00 Ry     beta= 0.10
     Davidson diagonalization with overlap
     ethr =  2.11E-11,  avg # of iterations =  1.0

     total cpu time spent up to now is     2670.7 secs

     total energy              =   -7950.05665759 Ry
     estimated scf accuracy    <       0.00000085 Ry

     iteration # 28     ecut=    50.00 Ry     beta= 0.10
     Davidson diagonalization with overlap
     ethr =  2.11E-11,  avg # of iterations =  1.0

     total cpu time spent up to now is     2689.2 secs

     total energy              =   -7950.05665759 Ry
     estimated scf accuracy    <       0.00000084 Ry

     iteration # 29     ecut=    50.00 Ry     beta= 0.10
     Davidson diagonalization with overlap
     ethr =  2.11E-11,  avg # of iterations =  1.0

     total cpu time spent up to now is     2707.7 secs

     total energy              =   -7950.05665758 Ry
     estimated scf accuracy    <       0.00000084 Ry

     iteration # 30     ecut=    50.00 Ry     beta= 0.10
     Davidson diagonalization with overlap
     ethr =  2.11E-11,  avg # of iterations =  1.0

     total cpu time spent up to now is     2726.3 secs

     total energy              =   -7950.05665758 Ry
     estimated scf accuracy    <       0.00000083 Ry

     iteration # 31     ecut=    50.00 Ry     beta= 0.10
     Davidson diagonalization with overlap
     ethr =  2.11E-11,  avg # of iterations =  1.0

     total cpu time spent up to now is     2744.8 secs

     total energy              =   -7950.05665751 Ry
     estimated scf accuracy    <       0.00000080 Ry

     iteration # 32     ecut=    50.00 Ry     beta= 0.10
     Davidson diagonalization with overlap
     ethr =  2.11E-11,  avg # of iterations =  1.0

     total cpu time spent up to now is     2763.4 secs

     total energy              =   -7950.05665751 Ry
     estimated scf accuracy    <       0.00000062 Ry

     iteration # 33     ecut=    50.00 Ry     beta= 0.10
     Davidson diagonalization with overlap
     ethr =  2.11E-11,  avg # of iterations =  1.0

     total cpu time spent up to now is     2781.9 secs

     total energy              =   -7950.05665752 Ry
     estimated scf accuracy    <       0.00000062 Ry

     iteration # 34     ecut=    50.00 Ry     beta= 0.10
     Davidson diagonalization with overlap
     ethr =  2.11E-11,  avg # of iterations =  1.0

     total cpu time spent up to now is     2800.4 secs

     total energy              =   -7950.05665727 Ry
     estimated scf accuracy    <       0.00000063 Ry

     iteration # 35     ecut=    50.00 Ry     beta= 0.10
     Davidson diagonalization with overlap
     ethr =  2.11E-11,  avg # of iterations =  3.0

     total cpu time spent up to now is     2826.9 secs

     total energy              =   -7950.05665730 Ry
     estimated scf accuracy    <          1.7E-09 Ry

     iteration # 36     ecut=    50.00 Ry     beta= 0.10
     Davidson diagonalization with overlap
     ethr =  4.59E-13,  avg # of iterations =  5.0

     total cpu time spent up to now is     2856.3 secs

     total energy              =   -7950.05665730 Ry
     estimated scf accuracy    <          4.2E-10 Ry

     iteration # 37     ecut=    50.00 Ry     beta= 0.10
     Davidson diagonalization with overlap
     ethr =  1.13E-13,  avg # of iterations =  1.3

     total cpu time spent up to now is     2875.5 secs

     End of self-consistent calculation

          k = 0.0000 0.0000 0.0000 ( 13249 PWs)   bands (ev):

   -90.3044 -90.3044 -90.3030 -90.3030 -90.3028 -90.3028 -90.3013 -90.3013
   -90.2517 -90.2517 -90.2506 -90.2506 -90.2494 -90.2494 -90.2483 -90.2483
   -90.2285 -90.2285 -90.2285 -90.2285 -90.2284 -90.2284 -90.2284 -90.2284
   -90.2276 -90.2276 -90.2276 -90.2276 -90.2275 -90.2275 -90.2275 -90.2275
   -62.6248 -62.6248 -62.6246 -62.6246 -62.6236 -62.6236 -62.6235 -62.6235
   -62.5703 -62.5703 -62.5703 -62.5703 -62.5690 -62.5690 -62.5690 -62.5690
   -52.2920 -52.2920 -52.2875 -52.2875 -52.2873 -52.2873 -52.2784 -52.2784
   -52.2453 -52.2453 -52.2424 -52.2424 -52.2422 -52.2422 -52.2371 -52.2371
   -52.2366 -52.2366 -52.2339 -52.2339 -52.2333 -52.2333 -52.2288 -52.2288
   -52.1707 -52.1707 -52.1698 -52.1698 -52.1667 -52.1667 -52.1626 -52.1626
   -50.1775 -50.1775 -50.1738 -50.1738 -50.1575 -50.1575 -50.1528 -50.1528
   -50.1418 -50.1418 -50.1373 -50.1373 -50.1184 -50.1184 -50.1170 -50.1170
   -50.0758 -50.0758 -50.0664 -50.0664 -50.0614 -50.0614 -50.0593 -50.0593
   -50.0558 -50.0558 -50.0550 -50.0550 -50.0410 -50.0410 -50.0246 -50.0246
   -50.0108 -50.0108 -49.9920 -49.9920 -49.9854 -49.9854 -49.9749 -49.9749
   -49.9734 -49.9734 -49.9702 -49.9702 -49.9650 -49.9650 -49.9550 -49.9550
   -49.9411 -49.9411 -49.9404 -49.9404 -49.9312 -49.9312 -49.9295 -49.9295
   -49.9163 -49.9163 -49.9110 -49.9110 -49.9101 -49.9101 -49.9089 -49.9089
   -29.7562 -29.7562 -29.7559 -29.7559 -29.7517 -29.7517 -29.7513 -29.7513
   -29.7004 -29.7004 -29.7004 -29.7004 -29.6953 -29.6953 -29.6951 -29.6951
   -29.4713 -29.4713 -29.4710 -29.4710 -29.4689 -29.4689 -29.4688 -29.4688
   -29.4675 -29.4675 -29.4673 -29.4673 -29.4603 -29.4603 -29.4598 -29.4598
   -29.4175 -29.4175 -29.4174 -29.4174 -29.4103 -29.4103 -29.4103 -29.4103
   -29.4088 -29.4088 -29.4086 -29.4086 -29.4053 -29.4053 -29.4050 -29.4050
     4.1642   4.1642   4.7638   4.7638   4.7657   4.7657   6.1822   6.1822
     6.8238   6.8238   8.1762   8.1762   8.2220   8.2220   8.2644   8.2644
     8.7921   8.7921   8.8223   8.8223   8.9710   8.9710   9.0044   9.0044
     9.1455   9.1455   9.1537   9.1537   9.1727   9.1727   9.1883   9.1883
     9.2111   9.2111   9.2144   9.2144   9.3271   9.3271   9.3479   9.3479
     9.3895   9.3895   9.4429   9.4429   9.4484   9.4484   9.4527   9.4527
     9.4781   9.4781   9.5410   9.5410   9.5974   9.5974   9.6162   9.6162
     9.6427   9.6427   9.6791   9.6791   9.9528   9.9528   9.9530   9.9530
     9.9685   9.9685   9.9782   9.9782   9.9829   9.9829  10.0369  10.0369
    10.1954  10.1954  10.2543  10.2543  10.3252  10.3252  10.3397  10.3397
    10.3821  10.3821  10.4368  10.4368  10.4721  10.4721  10.4727  10.4727
    10.6182  10.6182  10.6372  10.6372  10.8580  10.8580  11.0190  11.0190
    11.0739  11.0739  11.0850  11.0850  11.0902  11.0902  11.1292  11.1292
    11.2503  11.2503  11.3037  11.3037  11.3848  11.3848  11.3928  11.3928
    11.5112  11.5112  11.5210  11.5210  11.6004  11.6004  11.6014  11.6014
    11.6092  11.6092  11.6130  11.6130  11.6188  11.6188  11.6229  11.6229
    11.6257  11.6257  11.6451  11.6451  11.6596  11.6596  11.6600  11.6600
    11.6823  11.6823  11.6886  11.6886  11.7050  11.7050  11.7308  11.7308
    11.7529  11.7529  11.7731  11.7731  11.7744  11.7744  11.7886  11.7886
    11.8112  11.8112  11.8493  11.8493  11.9235  11.9235  12.1490  12.1490
    12.2016  12.2016  12.4168  12.4168  12.4183  12.4183  12.6329  12.6329
    12.6341  12.6341  12.6404  12.6404  12.6409  12.6409  12.9976  12.9976
    13.1079  13.1079  13.2694  13.2694  13.3195  13.3195  13.3510  13.3510
    13.3666  13.3666  13.3827  13.3827  13.3857  13.3857  13.4542  13.4542
    13.6974  13.6974  13.7260  13.7260  13.7327  13.7327  13.7837  13.7837
    15.0626  15.0626  15.1157  15.1157  15.1158  15.1158  15.1271  15.1271
    15.5179  15.5179  15.5640  15.5640  15.9705  15.9705  15.9912  15.9912
    16.5303  16.5303  16.6061  16.6061  16.6229  16.6229  16.7093  16.7093
    16.7904  16.7904  17.0059  17.0059  17.4653  17.4653  17.4763  17.4763
    17.9523  17.9523  17.9721  17.9721  18.0277  18.0277  18.5291  18.5291
    18.5390  18.5390  18.5613  18.5613  18.7618  18.7618  20.1713  20.1713
    20.2429  20.2429

          k = 0.0000 0.3849 0.0000 ( 13152 PWs)   bands (ev):

   -90.3038 -90.3038 -90.3028 -90.3028 -90.3025 -90.3025 -90.3015 -90.3015
   -90.2468 -90.2468 -90.2462 -90.2462 -90.2449 -90.2449 -90.2443 -90.2443
   -90.2332 -90.2332 -90.2330 -90.2330 -90.2323 -90.2323 -90.2322 -90.2322
   -90.2284 -90.2284 -90.2284 -90.2284 -90.2275 -90.2275 -90.2275 -90.2275
   -62.6247 -62.6247 -62.6246 -62.6246 -62.6234 -62.6234 -62.6233 -62.6233
   -62.5704 -62.5704 -62.5704 -62.5704 -62.5689 -62.5689 -62.5689 -62.5689
   -52.2919 -52.2919 -52.2871 -52.2871 -52.2851 -52.2851 -52.2758 -52.2758
   -52.2385 -52.2385 -52.2368 -52.2368 -52.2353 -52.2353 -52.2328 -52.2328
   -52.2239 -52.2239 -52.2212 -52.2212 -52.2186 -52.2186 -52.2127 -52.2127
   -52.1792 -52.1792 -52.1752 -52.1752 -52.1747 -52.1747 -52.1698 -52.1698
   -50.1745 -50.1745 -50.1683 -50.1683 -50.1617 -50.1617 -50.1511 -50.1511
   -50.1175 -50.1175 -50.1164 -50.1164 -50.1066 -50.1066 -50.1039 -50.1039
   -50.0679 -50.0679 -50.0638 -50.0638 -50.0622 -50.0622 -50.0587 -50.0587
   -50.0483 -50.0483 -50.0468 -50.0468 -50.0335 -50.0335 -50.0201 -50.0201
   -50.0088 -50.0088 -49.9943 -49.9943 -49.9909 -49.9909 -49.9860 -49.9860
   -49.9672 -49.9672 -49.9630 -49.9630 -49.9532 -49.9532 -49.9513 -49.9513
   -49.9486 -49.9486 -49.9476 -49.9476 -49.9318 -49.9318 -49.9300 -49.9300
   -49.9257 -49.9257 -49.9247 -49.9247 -49.9101 -49.9101 -49.9083 -49.9083
   -29.7554 -29.7554 -29.7554 -29.7554 -29.7511 -29.7511 -29.7510 -29.7510
   -29.7011 -29.7011 -29.7010 -29.7010 -29.6962 -29.6962 -29.6961 -29.6961
   -29.4714 -29.4714 -29.4713 -29.4713 -29.4680 -29.4680 -29.4679 -29.4679
   -29.4663 -29.4663 -29.4661 -29.4661 -29.4604 -29.4604 -29.4602 -29.4602
   -29.4169 -29.4169 -29.4168 -29.4168 -29.4113 -29.4113 -29.4112 -29.4112
   -29.4093 -29.4093 -29.4092 -29.4092 -29.4048 -29.4048 -29.4048 -29.4048
     5.1171   5.1171   5.6939   5.6939   5.6941   5.6941   7.0725   7.0725
     7.5352   7.5352   7.7184   7.7184   8.0339   8.0339   8.0490   8.0490
     8.6281   8.6281   8.6619   8.6619   8.8145   8.8145   8.8978   8.8978
     8.9678   8.9678   9.0908   9.0908   9.1514   9.1514   9.2143   9.2143
     9.2917   9.2917   9.3472   9.3472   9.3780   9.3780   9.4187   9.4187
     9.4311   9.4311   9.4560   9.4560   9.5569   9.5569   9.6509   9.6509
     9.6977   9.6977   9.7527   9.7527   9.7936   9.7936   9.8492   9.8492
     9.8686   9.8686   9.8991   9.8991   9.9036   9.9036   9.9866   9.9866
     9.9934   9.9934  10.0295  10.0295  10.0327  10.0327  10.0986  10.0986
    10.1222  10.1222  10.1295  10.1295  10.1993  10.1993  10.2494  10.2494
    10.3146  10.3146  10.3636  10.3636  10.3841  10.3841  10.3956  10.3956
    10.4519  10.4519  10.5463  10.5463  10.5739  10.5739  10.6143  10.6143
    10.6288  10.6288  10.7270  10.7270  10.7370  10.7370  10.7924  10.7924
    10.8096  10.8096  10.8708  10.8708  10.9321  10.9321  10.9436  10.9436
    10.9661  10.9661  11.0153  11.0153  11.0976  11.0976  11.1073  11.1073
    11.1831  11.1831  11.2144  11.2144  11.2411  11.2411  11.2695  11.2695
    11.3331  11.3331  11.3470  11.3470  11.3621  11.3621  11.4157  11.4157
    11.4222  11.4222  11.4801  11.4801  11.5166  11.5166  11.5695  11.5695
    11.5750  11.5750  11.6464  11.6464  11.6614  11.6614  11.6712  11.6712
    11.7171  11.7171  11.7296  11.7296  11.7324  11.7324  11.7619  11.7619
    11.8154  11.8154  11.8449  11.8449  11.8623  11.8623  11.9512  11.9512
    11.9797  11.9797  12.0440  12.0440  12.1153  12.1153  12.2333  12.2333
    12.4846  12.4846  12.5496  12.5496  12.8912  12.8912  12.9042  12.9042
    13.0988  13.0988  13.1985  13.1985  13.2853  13.2853  13.4460  13.4460
    13.5194  13.5194  13.5480  13.5480  13.6290  13.6290  13.8441  13.8441
    14.4270  14.4270  14.8496  14.8496  15.1450  15.1450  15.1948  15.1948
    16.4221  16.4221  16.8865  16.8865  16.9463  16.9463  17.0638  17.0638
    17.8386  17.8386  17.9116  17.9116  17.9731  17.9731  18.0949  18.0949
    18.1676  18.1676  18.3228  18.3228  18.7451  18.7451  19.1453  19.1453
    19.2506  19.2506  19.2768  19.2768  19.7861  19.7861  19.8111  19.8111
    20.1389  20.1389  20.5216  20.5216  20.8735  20.8735  21.1709  21.1710
    21.2167  21.2168

          k = 0.3333 0.5774 0.0000 ( 13128 PWs)   bands (ev):

   -90.3031 -90.3031 -90.3031 -90.3031 -90.3020 -90.3020 -90.3020 -90.3020
   -90.2412 -90.2412 -90.2412 -90.2412 -90.2393 -90.2393 -90.2393 -90.2393
   -90.2386 -90.2386 -90.2386 -90.2386 -90.2374 -90.2374 -90.2374 -90.2374
   -90.2284 -90.2284 -90.2284 -90.2284 -90.2276 -90.2276 -90.2275 -90.2275
   -62.6246 -62.6246 -62.6246 -62.6246 -62.6234 -62.6234 -62.6234 -62.6234
   -62.5704 -62.5704 -62.5703 -62.5703 -62.5690 -62.5690 -62.5689 -62.5689
   -52.2888 -52.2888 -52.2887 -52.2887 -52.2838 -52.2838 -52.2837 -52.2837
   -52.2346 -52.2346 -52.2323 -52.2323 -52.2319 -52.2319 -52.2311 -52.2311
   -52.2042 -52.2042 -52.2034 -52.2034 -52.2004 -52.2004 -52.1975 -52.1975
   -52.1966 -52.1966 -52.1937 -52.1937 -52.1889 -52.1889 -52.1886 -52.1886
   -50.1678 -50.1678 -50.1677 -50.1677 -50.1630 -50.1630 -50.1587 -50.1587
   -50.0932 -50.0932 -50.0925 -50.0925 -50.0914 -50.0914 -50.0902 -50.0902
   -50.0837 -50.0837 -50.0803 -50.0803 -50.0771 -50.0771 -50.0539 -50.0539
   -50.0404 -50.0404 -50.0381 -50.0381 -50.0354 -50.0354 -50.0084 -50.0084
   -50.0066 -50.0066 -50.0047 -50.0047 -49.9933 -49.9933 -49.9922 -49.9922
   -49.9720 -49.9720 -49.9616 -49.9616 -49.9548 -49.9548 -49.9537 -49.9537
   -49.9464 -49.9464 -49.9435 -49.9435 -49.9401 -49.9401 -49.9338 -49.9338
   -49.9336 -49.9336 -49.9312 -49.9312 -49.9132 -49.9132 -49.9125 -49.9125
   -29.7554 -29.7554 -29.7551 -29.7551 -29.7509 -29.7509 -29.7506 -29.7506
   -29.7016 -29.7016 -29.7015 -29.7015 -29.6966 -29.6966 -29.6965 -29.6965
   -29.4724 -29.4724 -29.4706 -29.4706 -29.4679 -29.4679 -29.4679 -29.4679
   -29.4653 -29.4653 -29.4652 -29.4652 -29.4616 -29.4616 -29.4596 -29.4596
   -29.4168 -29.4168 -29.4167 -29.4167 -29.4119 -29.4119 -29.4117 -29.4117
   -29.4095 -29.4095 -29.4093 -29.4093 -29.4047 -29.4047 -29.4046 -29.4046
     6.6989   6.6989   6.6996   6.6996   7.1180   7.1180   7.2284   7.2284
     7.2337   7.2337   7.4280   7.4280   7.5432   7.5432   7.5478   7.5478
     7.7285   7.7285   8.5757   8.5757   8.5765   8.5765   8.5831   8.5831
     8.5890   8.5890   8.6187   8.6187   8.6898   8.6898   9.3381   9.3381
     9.3451   9.3451   9.3479   9.3479   9.4628   9.4628   9.4785   9.4785
     9.6157   9.6157   9.6488   9.6488   9.7616   9.7616   9.7770   9.7770
     9.8402   9.8402   9.8428   9.8428   9.8870   9.8870   9.8957   9.8957
     9.9070   9.9070   9.9118   9.9118   9.9864   9.9864  10.0472  10.0472
    10.0664  10.0664  10.0685  10.0685  10.0802  10.0802  10.0880  10.0880
    10.1074  10.1074  10.1512  10.1512  10.1633  10.1633  10.1855  10.1855
    10.1981  10.1981  10.2004  10.2004  10.2485  10.2485  10.2550  10.2550
    10.3118  10.3118  10.3205  10.3205  10.3422  10.3422  10.3617  10.3617
    10.3969  10.3969  10.5368  10.5368  10.5563  10.5563  10.5687  10.5687
    10.6916  10.6916  10.7971  10.7971  10.8164  10.8164  10.8211  10.8211
    10.8577  10.8577  10.8780  10.8780  11.0323  11.0323  11.0365  11.0365
    11.1172  11.1172  11.1417  11.1417  11.1593  11.1593  11.1733  11.1733
    11.2210  11.2210  11.2342  11.2342  11.2491  11.2491  11.3333  11.3333
    11.3816  11.3816  11.4074  11.4074  11.4189  11.4189  11.4201  11.4201
    11.4509  11.4509  11.4633  11.4633  11.4696  11.4696  11.5104  11.5104
    11.5287  11.5287  11.5341  11.5341  11.5964  11.5964  11.6507  11.6507
    11.7996  11.7996  11.8161  11.8161  11.8950  11.8950  11.8962  11.8962
    11.9171  11.9171  11.9872  11.9872  11.9985  11.9985  12.0889  12.0889
    12.1438  12.1438  12.2065  12.2065  12.2079  12.2079  12.4169  12.4169
    12.5506  12.5506  12.5608  12.5608  12.6172  12.6172  13.9419  13.9419
    13.9627  13.9627  14.0063  14.0063  14.1992  14.1992  14.2065  14.2065
    14.7613  14.7613  16.5696  16.5696  16.5717  16.5717  16.7211  16.7211
    16.9807  16.9807  16.9810  16.9810  17.5269  17.5269  17.6208  17.6208
    17.6216  17.6216  17.6656  17.6656  17.6739  17.6739  17.9335  17.9335
    18.1345  18.1345  18.4959  18.4959  18.6004  18.6004  18.6148  18.6148
    19.3818  19.3818  19.3846  19.3846  19.6450  19.6450  19.6592  19.6592
    19.7710  19.7710  20.3658  20.3658  21.7556  21.7556  21.7640  21.7640
    21.9564  21.9564

     the Fermi energy is    12.2750 ev

!    total energy              =   -7950.05665730 Ry
     total all-electron energy =    -51823.908741 Ry
     estimated scf accuracy    <          3.6E-10 Ry
     smearing contrib. (-TS)   =       0.11442596 Ry
     internal energy E=F+TS    =   -7950.17108327 Ry

     The total energy is F=E-TS. E is the sum of the following terms:
     one-electron contribution =   -4573.56272823 Ry
     hartree contribution      =    2432.80543951 Ry
     xc contribution           =    -681.28321802 Ry
     ewald contribution        =   -3590.00401310 Ry
     one-center paw contrib.   =   -1538.12656343 Ry

     convergence has been achieved in  37 iterations

     Forces acting on atoms (cartesian axes, Ry/au):

     atom    1 type  1   force =     0.00000000    0.00000000    0.00137677
     atom    2 type  1   force =     0.00000000    0.00000000    0.00137677
     atom    3 type  1   force =    -0.00000000   -0.00000000   -0.00137677
     atom    4 type  1   force =     0.00000000    0.00000000   -0.00137677
     atom    5 type  1   force =     0.00000000    0.00000000    0.00032819
     atom    6 type  1   force =     0.00000000    0.00000000    0.00032819
     atom    7 type  1   force =    -0.00000000   -0.00000000   -0.00032819
     atom    8 type  1   force =    -0.00000000   -0.00000000   -0.00032819
     atom    9 type  2   force =     0.00000000    0.00000000   -0.00086973
     atom   10 type  2   force =    -0.00000000   -0.00000000   -0.00086973
     atom   11 type  2   force =     0.00000000    0.00000000    0.00086973
     atom   12 type  2   force =    -0.00000000   -0.00000000    0.00086973
     atom   13 type  2   force =     0.00000000    0.00108174    0.00000000
     atom   14 type  2   force =    -0.00093682    0.00054087   -0.00000000
     atom   15 type  2   force =     0.00000000   -0.00108174    0.00000000
     atom   16 type  2   force =     0.00093682   -0.00054087    0.00000000
     atom   17 type  2   force =    -0.00093682   -0.00054087   -0.00000000
     atom   18 type  2   force =     0.00093682    0.00054087    0.00000000
     atom   19 type  2   force =    -0.00000000   -0.00000000   -0.00000000
     atom   20 type  2   force =     0.00000000    0.00000000   -0.00000000
     atom   21 type  2   force =     0.00000000    0.00000000   -0.00000000
     atom   22 type  2   force =     0.00000000   -0.00000000    0.00000000
     atom   23 type  2   force =     0.00000000    0.00000000    0.00000000
     atom   24 type  2   force =     0.00000000   -0.00000000    0.00000000
     The non-local contrib.  to forces
     atom    1 type  1   force =    -0.00000000   -0.00000000    0.01714755
     atom    2 type  1   force =    -0.00000000   -0.00000000    0.01714755
     atom    3 type  1   force =     0.00000000    0.00000000   -0.01714755
     atom    4 type  1   force =     0.00000000    0.00000000   -0.01714755
     atom    5 type  1   force =     0.00000000    0.00000000   -0.00333114
     atom    6 type  1   force =     0.00000000    0.00000000   -0.00333114
     atom    7 type  1   force =    -0.00000000   -0.00000000    0.00333114
     atom    8 type  1   force =     0.00000000    0.00000000    0.00333114
     atom    9 type  2   force =    -0.00000000   -0.00000000   -0.00885932
     atom   10 type  2   force =    -0.00000000   -0.00000000   -0.00885932
     atom   11 type  2   force =     0.00000000    0.00000000    0.00885932
     atom   12 type  2   force =     0.00000000    0.00000000    0.00885932
     atom   13 type  2   force =     0.00000000   -0.08570151    0.00000000
     atom   14 type  2   force =     0.07421969   -0.04285076    0.00000000
     atom   15 type  2   force =     0.00000000    0.08570151    0.00000000
     atom   16 type  2   force =    -0.07421969    0.04285076    0.00000000
     atom   17 type  2   force =     0.07421969    0.04285076    0.00000000
     atom   18 type  2   force =    -0.07421969   -0.04285076    0.00000000
     atom   19 type  2   force =     0.00000000   -0.00000000    0.00000000
     atom   20 type  2   force =    -0.00000000   -0.00000000   -0.00000000
     atom   21 type  2   force =    -0.00000000    0.00000000    0.00000000
     atom   22 type  2   force =     0.00000000    0.00000000   -0.00000000
     atom   23 type  2   force =    -0.00000000   -0.00000000   -0.00000000
     atom   24 type  2   force =     0.00000000   -0.00000000    0.00000000
     The ionic contribution  to forces
     atom    1 type  1   force =    -0.00001505    0.00000877   -0.77610593
     atom    2 type  1   force =     0.00001505   -0.00000877   -0.77610593
     atom    3 type  1   force =     0.00001505   -0.00000877    0.77610593
     atom    4 type  1   force =    -0.00001505    0.00000877    0.77610593
     atom    5 type  1   force =     0.00005347   -0.00003078    0.23227241
     atom    6 type  1   force =    -0.00005347    0.00003078    0.23227241
     atom    7 type  1   force =    -0.00005347    0.00003078   -0.23227241
     atom    8 type  1   force =     0.00005347   -0.00003078   -0.23227241
     atom    9 type  2   force =     0.00005667   -0.00003271   -0.48249234
     atom   10 type  2   force =    -0.00005667    0.00003271   -0.48249234
     atom   11 type  2   force =    -0.00005667    0.00003271    0.48249234
     atom   12 type  2   force =     0.00005667   -0.00003271    0.48249234
     atom   13 type  2   force =     0.00006920  -13.65638390    0.00000000
     atom   14 type  2   force =    11.82685658   -6.82823891   -0.00000000
     atom   15 type  2   force =    -0.00006920   13.65638390   -0.00000000
     atom   16 type  2   force =   -11.82685658    6.82823891    0.00000000
     atom   17 type  2   force =    11.82680996    6.82813209    0.00000000
     atom   18 type  2   force =   -11.82680996   -6.82813209   -0.00000000
     atom   19 type  2   force =    -0.00000000    0.00000000    0.00000000
     atom   20 type  2   force =    -0.00000000    0.00000000    0.00000000
     atom   21 type  2   force =    -0.00000000   -0.00000000    0.00000000
     atom   22 type  2   force =     0.00000000   -0.00000000    0.00000000
     atom   23 type  2   force =     0.00000000    0.00000000    0.00000000
     atom   24 type  2   force =     0.00000000   -0.00000000    0.00000000
     The local contribution  to forces
     atom    1 type  1   force =     0.00000000    0.00000002    0.76041797
     atom    2 type  1   force =    -0.00000000   -0.00000002    0.76041797
     atom    3 type  1   force =     0.00000000   -0.00000002   -0.76041797
     atom    4 type  1   force =     0.00000000    0.00000002   -0.76041797
     atom    5 type  1   force =     0.00148322   -0.00085631   -0.22861801
     atom    6 type  1   force =    -0.00148322    0.00085631   -0.22861801
     atom    7 type  1   force =    -0.00148322    0.00085631    0.22861801
     atom    8 type  1   force =     0.00148322   -0.00085631    0.22861801
     atom    9 type  2   force =     0.00196832   -0.00113641    0.49241101
     atom   10 type  2   force =    -0.00196832    0.00113641    0.49241101
     atom   11 type  2   force =    -0.00196832    0.00113641   -0.49241101
     atom   12 type  2   force =     0.00196832   -0.00113641   -0.49241101
     atom   13 type  2   force =    -0.00196634   13.74342943    0.00000000
     atom   14 type  2   force =   -11.89943313    6.87014087   -0.00000000
     atom   15 type  2   force =     0.00196634  -13.74342943   -0.00000000
     atom   16 type  2   force =    11.89943313   -6.87014087    0.00000000
     atom   17 type  2   force =   -11.90314231   -6.87001182    0.00000000
     atom   18 type  2   force =    11.90314231    6.87001182   -0.00000000
     atom   19 type  2   force =     0.00000000   -0.00000000    0.00000000
     atom   20 type  2   force =     0.00000000    0.00000000    0.00000000
     atom   21 type  2   force =    -0.00000000   -0.00000000    0.00000000
     atom   22 type  2   force =     0.00000000    0.00000000    0.00000000
     atom   23 type  2   force =     0.00000000    0.00000000    0.00000000
     atom   24 type  2   force =     0.00000000    0.00000000    0.00000000
     The core correction contribution to forces
     atom    1 type  1   force =    -0.00000000    0.00000000   -0.00008494
     atom    2 type  1   force =     0.00000000   -0.00000000   -0.00008494
     atom    3 type  1   force =     0.00000000   -0.00000000    0.00008494
     atom    4 type  1   force =    -0.00000000    0.00000000    0.00008494
     atom    5 type  1   force =     0.00000321   -0.00000186    0.00001061
     atom    6 type  1   force =    -0.00000321    0.00000186    0.00001061
     atom    7 type  1   force =    -0.00000321    0.00000186   -0.00001061
     atom    8 type  1   force =     0.00000321   -0.00000186   -0.00001061
     atom    9 type  2   force =     0.00000121   -0.00000070   -0.00192738
     atom   10 type  2   force =    -0.00000121    0.00000070   -0.00192738
     atom   11 type  2   force =    -0.00000121    0.00000070    0.00192738
     atom   12 type  2   force =     0.00000121   -0.00000070    0.00192738
     atom   13 type  2   force =    -0.00000120    0.00081627    0.00000000
     atom   14 type  2   force =    -0.00070504    0.00040705   -0.00000000
     atom   15 type  2   force =     0.00000120   -0.00081627   -0.00000000
     atom   16 type  2   force =     0.00070504   -0.00040705    0.00000000
     atom   17 type  2   force =    -0.00070751   -0.00040710    0.00000000
     atom   18 type  2   force =     0.00070751    0.00040710   -0.00000000
     atom   19 type  2   force =     0.00000000    0.00000000    0.00000000
     atom   20 type  2   force =     0.00000000    0.00000000    0.00000000
     atom   21 type  2   force =    -0.00000000    0.00000000    0.00000000
     atom   22 type  2   force =     0.00000000    0.00000000    0.00000000
     atom   23 type  2   force =     0.00000000    0.00000000    0.00000000
     atom   24 type  2   force =     0.00000000    0.00000000    0.00000000
     The Hubbard contrib.    to forces
     atom    1 type  1   force =     0.00000000    0.00000000    0.00000000
     atom    2 type  1   force =     0.00000000    0.00000000    0.00000000
     atom    3 type  1   force =     0.00000000    0.00000000    0.00000000
     atom    4 type  1   force =     0.00000000    0.00000000    0.00000000
     atom    5 type  1   force =     0.00000000    0.00000000    0.00000000
     atom    6 type  1   force =     0.00000000    0.00000000    0.00000000
     atom    7 type  1   force =     0.00000000    0.00000000    0.00000000
     atom    8 type  1   force =     0.00000000    0.00000000    0.00000000
     atom    9 type  2   force =     0.00000000    0.00000000    0.00000000
     atom   10 type  2   force =     0.00000000    0.00000000    0.00000000
     atom   11 type  2   force =     0.00000000    0.00000000    0.00000000
     atom   12 type  2   force =     0.00000000    0.00000000    0.00000000
     atom   13 type  2   force =     0.00000000    0.00000000    0.00000000
     atom   14 type  2   force =     0.00000000    0.00000000    0.00000000
     atom   15 type  2   force =     0.00000000    0.00000000    0.00000000
     atom   16 type  2   force =     0.00000000    0.00000000    0.00000000
     atom   17 type  2   force =     0.00000000    0.00000000    0.00000000
     atom   18 type  2   force =     0.00000000    0.00000000    0.00000000
     atom   19 type  2   force =     0.00000000    0.00000000    0.00000000
     atom   20 type  2   force =     0.00000000    0.00000000    0.00000000
     atom   21 type  2   force =     0.00000000    0.00000000    0.00000000
     atom   22 type  2   force =     0.00000000    0.00000000    0.00000000
     atom   23 type  2   force =     0.00000000    0.00000000    0.00000000
     atom   24 type  2   force =     0.00000000    0.00000000    0.00000000
     The SCF correction term to forces
     atom    1 type  1   force =     0.00000002   -0.00000001    0.00000212
     atom    2 type  1   force =    -0.00000002    0.00000001    0.00000212
     atom    3 type  1   force =    -0.00000002    0.00000001   -0.00000212
     atom    4 type  1   force =     0.00000002   -0.00000001   -0.00000212
     atom    5 type  1   force =    -0.00000000    0.00000000   -0.00000569
     atom    6 type  1   force =     0.00000000   -0.00000000   -0.00000569
     atom    7 type  1   force =     0.00000000   -0.00000000    0.00000569
     atom    8 type  1   force =    -0.00000000    0.00000000    0.00000569
     atom    9 type  2   force =    -0.00000006    0.00000003   -0.00000170
     atom   10 type  2   force =     0.00000006   -0.00000003   -0.00000170
     atom   11 type  2   force =     0.00000006   -0.00000003    0.00000170
     atom   12 type  2   force =    -0.00000006    0.00000003    0.00000170
     atom   13 type  2   force =     0.00000001    0.00000262    0.00000000
     atom   14 type  2   force =    -0.00000227    0.00000131    0.00000000
     atom   15 type  2   force =    -0.00000001   -0.00000262   -0.00000000
     atom   16 type  2   force =     0.00000227   -0.00000131   -0.00000000
     atom   17 type  2   force =    -0.00000226   -0.00000132    0.00000000
     atom   18 type  2   force =     0.00000226    0.00000132   -0.00000000
     atom   19 type  2   force =    -0.00000000   -0.00000000   -0.00000000
     atom   20 type  2   force =     0.00000000   -0.00000000   -0.00000000
     atom   21 type  2   force =    -0.00000000    0.00000000   -0.00000000
     atom   22 type  2   force =    -0.00000000    0.00000000   -0.00000000
     atom   23 type  2   force =    -0.00000000   -0.00000000   -0.00000000
     atom   24 type  2   force =     0.00000000    0.00000000   -0.00000000

     Total force =     0.004250     Total SCF correction =     0.000014
     Energy error            =      6.0E-05 Ry
     Gradient error          =      1.4E-03 Ry/Bohr

     number of scf cycles    =   5
     number of bfgs steps    =   4

     energy             old  =   -7950.0565974909 Ry
     energy             new  =   -7950.0566573045 Ry

     CASE: energy            _new < energy            _old

     new trust radius        =       0.0041345033 bohr
     new conv_thr            =       0.0000000002 Ry


ATOMIC_POSITIONS (crystal)
Mg           -0.0000000000       -0.0000000000        0.4070281456
Mg            0.0000000000        0.0000000000        0.9070281456
Mg           -0.0000000000       -0.0000000000        0.5929718544
Mg            0.0000000000        0.0000000000        0.0929718544
Mg            0.3333330000        0.6666670000        0.6560546089
Mg            0.6666670000        0.3333330000        0.1560546089
Mg            0.6666670000        0.3333330000        0.3439453911
Mg            0.3333330000        0.6666670000        0.8439453911
Ni            0.3333330000        0.6666670000        0.3754975088
Ni            0.6666670000        0.3333330000        0.8754975088
Ni            0.6666670000        0.3333330000        0.6245024912
Ni            0.3333330000        0.6666670000        0.1245024912
Ni            0.1656248511        0.3312487022        0.2500000000
Ni            0.8343751489        0.1656248511        0.7500000000
Ni            0.8343751489        0.6687512978        0.7500000000
Ni            0.1656248511        0.8343751489        0.2500000000
Ni            0.6687512978        0.8343751489        0.2500000000
Ni            0.3312487022        0.1656248511        0.7500000000
Ni            0.5000000000        0.0000000000        0.5000000000
Ni            0.5000000000        0.5000000000       -0.0000000000
Ni            0.5000000000        0.0000000000       -0.0000000000
Ni            0.5000000000        0.5000000000        0.5000000000
Ni           -0.0000000000        0.5000000000       -0.0000000000
Ni           -0.0000000000        0.5000000000        0.5000000000



     Writing config-only to output data dir ./ACOptimization/out/iso.save/
     NEW-OLD atomic charge density approx. for the potential

     Check: negative core charge=   -0.000016

     total cpu time spent up to now is     2891.1 secs

     Self-consistent Calculation

     iteration #  1     ecut=    50.00 Ry     beta= 0.10
     Davidson diagonalization with overlap
     ethr =  1.00E-06,  avg # of iterations =  4.0

     Threshold (ethr) on eigenvalues was too large:
     Diagonalizing with lowered threshold

     Davidson diagonalization with overlap
     ethr =  1.61E-09,  avg # of iterations =  5.3

     total cpu time spent up to now is     2946.0 secs

     total energy              =   -7950.05668031 Ry
     estimated scf accuracy    <       0.00000558 Ry

     iteration #  2     ecut=    50.00 Ry     beta= 0.10
     Davidson diagonalization with overlap
     ethr =  1.52E-09,  avg # of iterations =  1.0

     total cpu time spent up to now is     2964.7 secs

     total energy              =   -7950.05667843 Ry
     estimated scf accuracy    <       0.00000205 Ry

     iteration #  3     ecut=    50.00 Ry     beta= 0.10
     Davidson diagonalization with overlap
     ethr =  5.58E-10,  avg # of iterations =  1.0

     total cpu time spent up to now is     2983.3 secs

     total energy              =   -7950.05667660 Ry
     estimated scf accuracy    <       0.00000089 Ry

     iteration #  4     ecut=    50.00 Ry     beta= 0.10
     Davidson diagonalization with overlap
     ethr =  2.42E-10,  avg # of iterations =  4.0

     total cpu time spent up to now is     3007.8 secs

     total energy              =   -7950.05667673 Ry
     estimated scf accuracy    <       0.00000024 Ry

     iteration #  5     ecut=    50.00 Ry     beta= 0.10
     Davidson diagonalization with overlap
     ethr =  6.57E-11,  avg # of iterations =  2.0

     total cpu time spent up to now is     3029.0 secs

     total energy              =   -7950.05667683 Ry
     estimated scf accuracy    <       0.00000020 Ry

     iteration #  6     ecut=    50.00 Ry     beta= 0.10
     Davidson diagonalization with overlap
     ethr =  5.41E-11,  avg # of iterations =  2.0

     total cpu time spent up to now is     3050.3 secs

     total energy              =   -7950.05667676 Ry
     estimated scf accuracy    <       0.00000016 Ry

     iteration #  7     ecut=    50.00 Ry     beta= 0.10
     Davidson diagonalization with overlap
     ethr =  4.27E-11,  avg # of iterations =  2.0

     total cpu time spent up to now is     3073.6 secs

     total energy              =   -7950.05667665 Ry
     estimated scf accuracy    <       0.00000004 Ry

     iteration #  8     ecut=    50.00 Ry     beta= 0.10
     Davidson diagonalization with overlap
     ethr =  1.13E-11,  avg # of iterations =  4.0

     total cpu time spent up to now is     3098.3 secs

     total energy              =   -7950.05667665 Ry
     estimated scf accuracy    <          5.1E-09 Ry

     iteration #  9     ecut=    50.00 Ry     beta= 0.10
     Davidson diagonalization with overlap
     ethr =  1.39E-12,  avg # of iterations =  5.0

     total cpu time spent up to now is     3125.9 secs

     total energy              =   -7950.05667666 Ry
     estimated scf accuracy    <          2.4E-09 Ry

     iteration # 10     ecut=    50.00 Ry     beta= 0.10
     Davidson diagonalization with overlap
     ethr =  6.48E-13,  avg # of iterations =  2.7

     total cpu time spent up to now is     3150.5 secs

     total energy              =   -7950.05667666 Ry
     estimated scf accuracy    <          1.2E-09 Ry

     iteration # 11     ecut=    50.00 Ry     beta= 0.10
     Davidson diagonalization with overlap
     ethr =  3.23E-13,  avg # of iterations =  2.0

     total cpu time spent up to now is     3173.4 secs

     total energy              =   -7950.05667666 Ry
     estimated scf accuracy    <          1.4E-09 Ry

     iteration # 12     ecut=    50.00 Ry     beta= 0.10
     Davidson diagonalization with overlap
     ethr =  3.23E-13,  avg # of iterations =  3.0

     total cpu time spent up to now is     3201.5 secs

     total energy              =   -7950.05667667 Ry
     estimated scf accuracy    <          2.8E-10 Ry

     iteration # 13     ecut=    50.00 Ry     beta= 0.10
     Davidson diagonalization with overlap
     ethr =  1.00E-13,  avg # of iterations =  2.0

     total cpu time spent up to now is     3222.8 secs

     End of self-consistent calculation

          k = 0.0000 0.0000 0.0000 ( 13249 PWs)   bands (ev):

   -90.3041 -90.3041 -90.3027 -90.3027 -90.3025 -90.3025 -90.3009 -90.3009
   -90.2516 -90.2516 -90.2502 -90.2502 -90.2498 -90.2498 -90.2484 -90.2484
   -90.2281 -90.2281 -90.2281 -90.2281 -90.2281 -90.2281 -90.2281 -90.2281
   -90.2280 -90.2280 -90.2280 -90.2280 -90.2280 -90.2280 -90.2280 -90.2280
   -62.6246 -62.6246 -62.6244 -62.6244 -62.6234 -62.6234 -62.6233 -62.6233
   -62.5706 -62.5706 -62.5705 -62.5705 -62.5692 -62.5692 -62.5692 -62.5692
   -52.2917 -52.2917 -52.2872 -52.2872 -52.2871 -52.2871 -52.2781 -52.2781
   -52.2455 -52.2455 -52.2429 -52.2429 -52.2418 -52.2418 -52.2370 -52.2370
   -52.2367 -52.2367 -52.2338 -52.2338 -52.2335 -52.2335 -52.2287 -52.2287
   -52.1712 -52.1712 -52.1693 -52.1693 -52.1664 -52.1664 -52.1629 -52.1629
   -50.1775 -50.1775 -50.1738 -50.1738 -50.1572 -50.1572 -50.1525 -50.1525
   -50.1418 -50.1418 -50.1376 -50.1376 -50.1183 -50.1183 -50.1167 -50.1167
   -50.0757 -50.0757 -50.0660 -50.0660 -50.0617 -50.0617 -50.0593 -50.0593
   -50.0558 -50.0558 -50.0552 -50.0552 -50.0405 -50.0405 -50.0244 -50.0244
   -50.0104 -50.0104 -49.9919 -49.9919 -49.9850 -49.9850 -49.9746 -49.9746
   -49.9729 -49.9729 -49.9700 -49.9700 -49.9656 -49.9656 -49.9554 -49.9554
   -49.9408 -49.9408 -49.9401 -49.9401 -49.9307 -49.9307 -49.9291 -49.9291
   -49.9169 -49.9169 -49.9116 -49.9116 -49.9107 -49.9107 -49.9095 -49.9095
   -29.7560 -29.7560 -29.7557 -29.7557 -29.7515 -29.7515 -29.7511 -29.7511
   -29.7007 -29.7007 -29.7007 -29.7007 -29.6955 -29.6955 -29.6953 -29.6953
   -29.4711 -29.4711 -29.4709 -29.4709 -29.4687 -29.4687 -29.4685 -29.4685
   -29.4672 -29.4672 -29.4670 -29.4670 -29.4601 -29.4601 -29.4596 -29.4596
   -29.4179 -29.4179 -29.4178 -29.4178 -29.4105 -29.4105 -29.4104 -29.4104
   -29.4089 -29.4089 -29.4088 -29.4088 -29.4055 -29.4055 -29.4053 -29.4053
     4.1642   4.1642   4.7624   4.7624   4.7670   4.7670   6.1812   6.1812
     6.8250   6.8250   8.1766   8.1766   8.2219   8.2219   8.2652   8.2652
     8.7911   8.7911   8.8213   8.8213   8.9719   8.9719   9.0041   9.0041
     9.1442   9.1442   9.1532   9.1532   9.1723   9.1723   9.1878   9.1878
     9.2103   9.2103   9.2139   9.2139   9.3278   9.3278   9.3486   9.3486
     9.3899   9.3899   9.4429   9.4429   9.4475   9.4475   9.4529   9.4529
     9.4782   9.4782   9.5409   9.5409   9.5981   9.5981   9.6162   9.6162
     9.6434   9.6434   9.6791   9.6791   9.9524   9.9524   9.9526   9.9526
     9.9694   9.9694   9.9779   9.9779   9.9826   9.9826  10.0378  10.0378
    10.1953  10.1953  10.2542  10.2542  10.3255  10.3255  10.3400  10.3400
    10.3822  10.3822  10.4373  10.4373  10.4726  10.4726  10.4731  10.4731
    10.6188  10.6188  10.6378  10.6378  10.8584  10.8584  11.0196  11.0196
    11.0745  11.0745  11.0849  11.0849  11.0909  11.0909  11.1294  11.1294
    11.2505  11.2505  11.3039  11.3039  11.3851  11.3851  11.3930  11.3930
    11.5118  11.5118  11.5215  11.5215  11.6001  11.6001  11.6014  11.6014
    11.6084  11.6084  11.6122  11.6122  11.6185  11.6185  11.6233  11.6233
    11.6261  11.6261  11.6446  11.6446  11.6598  11.6598  11.6599  11.6599
    11.6820  11.6820  11.6889  11.6889  11.7050  11.7050  11.7311  11.7311
    11.7532  11.7532  11.7723  11.7723  11.7736  11.7736  11.7881  11.7881
    11.8111  11.8111  11.8499  11.8499  11.9240  11.9240  12.1494  12.1494
    12.2019  12.2019  12.4171  12.4171  12.4187  12.4187  12.6333  12.6333
    12.6342  12.6342  12.6400  12.6400  12.6403  12.6403  12.9988  12.9988
    13.1088  13.1088  13.2712  13.2712  13.3196  13.3196  13.3494  13.3494
    13.3659  13.3659  13.3809  13.3809  13.3852  13.3852  13.4550  13.4550
    13.6978  13.6978  13.7263  13.7263  13.7305  13.7305  13.7818  13.7818
    15.0637  15.0637  15.1161  15.1161  15.1168  15.1168  15.1276  15.1276
    15.5189  15.5189  15.5650  15.5650  15.9705  15.9705  15.9913  15.9913
    16.5284  16.5284  16.6076  16.6076  16.6244  16.6244  16.7074  16.7074
    16.7877  16.7877  17.0054  17.0054  17.4648  17.4648  17.4759  17.4759
    17.9527  17.9527  17.9725  17.9725  18.0281  18.0281  18.5285  18.5285
    18.5384  18.5384  18.5602  18.5602  18.7621  18.7621  20.1661  20.1661
    20.2427  20.2427

          k = 0.0000 0.3849 0.0000 ( 13152 PWs)   bands (ev):

   -90.3035 -90.3035 -90.3025 -90.3025 -90.3022 -90.3022 -90.3012 -90.3012
   -90.2466 -90.2466 -90.2457 -90.2457 -90.2453 -90.2453 -90.2445 -90.2445
   -90.2330 -90.2330 -90.2328 -90.2328 -90.2326 -90.2326 -90.2324 -90.2324
   -90.2280 -90.2280 -90.2280 -90.2280 -90.2280 -90.2280 -90.2280 -90.2280
   -62.6245 -62.6245 -62.6244 -62.6244 -62.6232 -62.6232 -62.6231 -62.6231
   -62.5706 -62.5706 -62.5706 -62.5706 -62.5692 -62.5692 -62.5691 -62.5691
   -52.2916 -52.2916 -52.2868 -52.2868 -52.2849 -52.2849 -52.2755 -52.2755
   -52.2386 -52.2386 -52.2373 -52.2373 -52.2349 -52.2349 -52.2328 -52.2328
   -52.2241 -52.2241 -52.2208 -52.2208 -52.2190 -52.2190 -52.2126 -52.2126
   -52.1792 -52.1792 -52.1752 -52.1752 -52.1747 -52.1747 -52.1698 -52.1698
   -50.1744 -50.1744 -50.1682 -50.1682 -50.1615 -50.1615 -50.1509 -50.1509
   -50.1176 -50.1176 -50.1165 -50.1165 -50.1063 -50.1063 -50.1036 -50.1036
   -50.0681 -50.0681 -50.0638 -50.0638 -50.0621 -50.0621 -50.0585 -50.0585
   -50.0484 -50.0484 -50.0468 -50.0468 -50.0331 -50.0331 -50.0199 -50.0199
   -50.0085 -50.0085 -49.9941 -49.9941 -49.9906 -49.9906 -49.9857 -49.9857
   -49.9669 -49.9669 -49.9626 -49.9626 -49.9533 -49.9533 -49.9517 -49.9517
   -49.9482 -49.9482 -49.9476 -49.9476 -49.9315 -49.9315 -49.9297 -49.9297
   -49.9263 -49.9263 -49.9253 -49.9253 -49.9108 -49.9108 -49.9089 -49.9089
   -29.7552 -29.7552 -29.7552 -29.7552 -29.7509 -29.7509 -29.7507 -29.7507
   -29.7014 -29.7014 -29.7013 -29.7013 -29.6964 -29.6964 -29.6963 -29.6963
   -29.4712 -29.4712 -29.4711 -29.4711 -29.4677 -29.4677 -29.4676 -29.4676
   -29.4660 -29.4660 -29.4658 -29.4658 -29.4603 -29.4603 -29.4600 -29.4600
   -29.4173 -29.4173 -29.4173 -29.4173 -29.4114 -29.4114 -29.4114 -29.4114
   -29.4094 -29.4094 -29.4093 -29.4093 -29.4050 -29.4050 -29.4050 -29.4050
     5.1172   5.1172   5.6928   5.6928   5.6952   5.6952   7.0719   7.0719
     7.5362   7.5362   7.7180   7.7180   8.0347   8.0347   8.0480   8.0480
     8.6279   8.6279   8.6621   8.6621   8.8150   8.8150   8.8981   8.8981
     8.9678   8.9678   9.0911   9.0911   9.1515   9.1515   9.2143   9.2143
     9.2916   9.2916   9.3468   9.3468   9.3771   9.3771   9.4184   9.4184
     9.4311   9.4311   9.4567   9.4567   9.5570   9.5570   9.6507   9.6507
     9.6976   9.6976   9.7528   9.7528   9.7938   9.7938   9.8489   9.8489
     9.8685   9.8685   9.8990   9.8990   9.9038   9.9038   9.9866   9.9866
     9.9933   9.9933  10.0296  10.0296  10.0327  10.0327  10.0987  10.0987
    10.1223  10.1223  10.1294  10.1294  10.1995  10.1995  10.2499  10.2499
    10.3144  10.3144  10.3637  10.3637  10.3841  10.3841  10.3958  10.3958
    10.4521  10.4521  10.5467  10.5467  10.5740  10.5740  10.6145  10.6145
    10.6291  10.6291  10.7271  10.7271  10.7373  10.7373  10.7922  10.7922
    10.8097  10.8097  10.8710  10.8710  10.9323  10.9323  10.9437  10.9437
    10.9664  10.9664  11.0150  11.0150  11.0975  11.0975  11.1077  11.1077
    11.1835  11.1835  11.2138  11.2138  11.2407  11.2407  11.2692  11.2692
    11.3328  11.3328  11.3464  11.3464  11.3624  11.3624  11.4159  11.4159
    11.4220  11.4220  11.4804  11.4804  11.5167  11.5167  11.5696  11.5696
    11.5749  11.5749  11.6459  11.6459  11.6616  11.6616  11.6713  11.6713
    11.7171  11.7171  11.7299  11.7299  11.7324  11.7324  11.7622  11.7622
    11.8151  11.8151  11.8448  11.8448  11.8623  11.8623  11.9513  11.9513
    11.9798  11.9798  12.0443  12.0443  12.1155  12.1155  12.2336  12.2336
    12.4849  12.4849  12.5500  12.5500  12.8917  12.8917  12.9049  12.9049
    13.0982  13.0982  13.1986  13.1986  13.2837  13.2837  13.4461  13.4461
    13.5193  13.5193  13.5486  13.5486  13.6281  13.6281  13.8454  13.8454
    14.4276  14.4276  14.8496  14.8496  15.1439  15.1439  15.1950  15.1950
    16.4227  16.4227  16.8865  16.8865  16.9449  16.9449  17.0621  17.0621
    17.8390  17.8390  17.9120  17.9120  17.9738  17.9738  18.0954  18.0954
    18.1690  18.1690  18.3233  18.3233  18.7458  18.7458  19.1454  19.1454
    19.2495  19.2495  19.2790  19.2790  19.7834  19.7834  19.8091  19.8091
    20.1403  20.1403  20.5212  20.5212  20.8734  20.8734  21.1710  21.1710
    21.2166  21.2166

          k = 0.3333 0.5774 0.0000 ( 13128 PWs)   bands (ev):

   -90.3028 -90.3028 -90.3028 -90.3028 -90.3017 -90.3017 -90.3017 -90.3017
   -90.2408 -90.2408 -90.2408 -90.2408 -90.2396 -90.2396 -90.2395 -90.2395
   -90.2391 -90.2391 -90.2390 -90.2390 -90.2372 -90.2372 -90.2372 -90.2372
   -90.2281 -90.2281 -90.2280 -90.2280 -90.2280 -90.2280 -90.2280 -90.2280
   -62.6244 -62.6244 -62.6244 -62.6244 -62.6231 -62.6231 -62.6231 -62.6231
   -62.5706 -62.5706 -62.5706 -62.5706 -62.5692 -62.5692 -62.5692 -62.5692
   -52.2885 -52.2885 -52.2884 -52.2884 -52.2836 -52.2836 -52.2834 -52.2834
   -52.2350 -52.2350 -52.2318 -52.2318 -52.2316 -52.2316 -52.2315 -52.2315
   -52.2044 -52.2044 -52.2034 -52.2034 -52.2000 -52.2000 -52.1979 -52.1979
   -52.1962 -52.1962 -52.1941 -52.1941 -52.1889 -52.1889 -52.1884 -52.1884
   -50.1677 -50.1677 -50.1675 -50.1675 -50.1629 -50.1629 -50.1585 -50.1585
   -50.0931 -50.0931 -50.0927 -50.0927 -50.0914 -50.0914 -50.0904 -50.0904
   -50.0836 -50.0836 -50.0803 -50.0803 -50.0768 -50.0768 -50.0535 -50.0535
   -50.0405 -50.0405 -50.0377 -50.0377 -50.0354 -50.0354 -50.0080 -50.0080
   -50.0063 -50.0063 -50.0045 -50.0045 -49.9932 -49.9932 -49.9920 -49.9920
   -49.9716 -49.9716 -49.9613 -49.9613 -49.9544 -49.9544 -49.9541 -49.9541
   -49.9469 -49.9469 -49.9433 -49.9433 -49.9399 -49.9399 -49.9344 -49.9344
   -49.9332 -49.9332 -49.9317 -49.9317 -49.9139 -49.9139 -49.9132 -49.9132
   -29.7552 -29.7552 -29.7549 -29.7549 -29.7507 -29.7507 -29.7504 -29.7504
   -29.7019 -29.7019 -29.7018 -29.7018 -29.6968 -29.6968 -29.6967 -29.6967
   -29.4722 -29.4722 -29.4705 -29.4705 -29.4677 -29.4677 -29.4676 -29.4676
   -29.4651 -29.4651 -29.4650 -29.4650 -29.4614 -29.4614 -29.4594 -29.4594
   -29.4172 -29.4172 -29.4172 -29.4172 -29.4121 -29.4121 -29.4119 -29.4119
   -29.4096 -29.4096 -29.4094 -29.4094 -29.4049 -29.4049 -29.4048 -29.4048
     6.6990   6.6990   6.6998   6.6998   7.1186   7.1186   7.2278   7.2278
     7.2331   7.2331   7.4303   7.4303   7.5436   7.5436   7.5483   7.5483
     7.7261   7.7261   8.5762   8.5762   8.5771   8.5771   8.5826   8.5826
     8.5884   8.5884   8.6171   8.6171   8.6906   8.6906   9.3377   9.3377
     9.3456   9.3456   9.3483   9.3483   9.4629   9.4629   9.4785   9.4785
     9.6157   9.6157   9.6487   9.6487   9.7616   9.7616   9.7770   9.7770
     9.8407   9.8407   9.8426   9.8426   9.8869   9.8869   9.8957   9.8957
     9.9076   9.9076   9.9117   9.9117   9.9874   9.9874  10.0476  10.0476
    10.0664  10.0664  10.0689  10.0689  10.0800  10.0800  10.0884  10.0884
    10.1073  10.1073  10.1513  10.1513  10.1636  10.1636  10.1855  10.1855
    10.1976  10.1976  10.2004  10.2004  10.2486  10.2486  10.2554  10.2554
    10.3112  10.3112  10.3207  10.3207  10.3414  10.3414  10.3617  10.3617
    10.3970  10.3970  10.5360  10.5360  10.5560  10.5560  10.5681  10.5681
    10.6921  10.6921  10.7969  10.7969  10.8161  10.8161  10.8206  10.8206
    10.8574  10.8574  10.8781  10.8781  11.0329  11.0329  11.0372  11.0372
    11.1176  11.1176  11.1418  11.1418  11.1597  11.1597  11.1728  11.1728
    11.2209  11.2209  11.2337  11.2337  11.2492  11.2492  11.3330  11.3330
    11.3814  11.3814  11.4077  11.4077  11.4181  11.4181  11.4201  11.4201
    11.4509  11.4509  11.4630  11.4630  11.4698  11.4698  11.5102  11.5102
    11.5288  11.5288  11.5343  11.5343  11.5963  11.5963  11.6508  11.6508
    11.7998  11.7998  11.8161  11.8161  11.8954  11.8954  11.8964  11.8964
    11.9174  11.9174  11.9873  11.9873  11.9987  11.9987  12.0886  12.0886
    12.1435  12.1435  12.2068  12.2068  12.2081  12.2081  12.4173  12.4173
    12.5511  12.5511  12.5613  12.5613  12.6171  12.6171  13.9419  13.9419
    13.9625  13.9625  14.0055  14.0055  14.2001  14.2001  14.2074  14.2074
    14.7624  14.7624  16.5702  16.5702  16.5723  16.5723  16.7206  16.7206
    16.9806  16.9806  16.9809  16.9809  17.5265  17.5265  17.6216  17.6216
    17.6224  17.6224  17.6654  17.6654  17.6738  17.6738  17.9358  17.9358
    18.1312  18.1312  18.4949  18.4949  18.5980  18.5980  18.6125  18.6125
    19.3833  19.3833  19.3860  19.3860  19.6455  19.6455  19.6597  19.6597
    19.7718  19.7718  20.3653  20.3653  21.7564  21.7564  21.7647  21.7647
    21.9568  21.9568

     the Fermi energy is    12.2752 ev

!    total energy              =   -7950.05667667 Ry
     total all-electron energy =    -51823.908760 Ry
     estimated scf accuracy    <          6.5E-11 Ry
     smearing contrib. (-TS)   =       0.11440371 Ry
     internal energy E=F+TS    =   -7950.17108038 Ry

     The total energy is F=E-TS. E is the sum of the following terms:
     one-electron contribution =   -4573.61609555 Ry
     hartree contribution      =    2432.83219709 Ry
     xc contribution           =    -681.28329874 Ry
     ewald contribution        =   -3589.97733146 Ry
     one-center paw contrib.   =   -1538.12655171 Ry

     convergence has been achieved in  13 iterations

     Forces acting on atoms (cartesian axes, Ry/au):

     atom    1 type  1   force =    -0.00000000   -0.00000000    0.00084533
     atom    2 type  1   force =    -0.00000000   -0.00000000    0.00084533
     atom    3 type  1   force =     0.00000000    0.00000000   -0.00084533
     atom    4 type  1   force =     0.00000000    0.00000000   -0.00084533
     atom    5 type  1   force =    -0.00000000   -0.00000000    0.00021130
     atom    6 type  1   force =    -0.00000000   -0.00000000    0.00021130
     atom    7 type  1   force =     0.00000000    0.00000000   -0.00021130
     atom    8 type  1   force =     0.00000000    0.00000000   -0.00021130
     atom    9 type  2   force =    -0.00000000   -0.00000000   -0.00099241
     atom   10 type  2   force =     0.00000000    0.00000000   -0.00099241
     atom   11 type  2   force =     0.00000000    0.00000000    0.00099241
     atom   12 type  2   force =     0.00000000    0.00000000    0.00099241
     atom   13 type  2   force =     0.00000000    0.00093806    0.00000000
     atom   14 type  2   force =    -0.00081238    0.00046903    0.00000000
     atom   15 type  2   force =     0.00000000   -0.00093806    0.00000000
     atom   16 type  2   force =     0.00081238   -0.00046903    0.00000000
     atom   17 type  2   force =    -0.00081238   -0.00046903    0.00000000
     atom   18 type  2   force =     0.00081238    0.00046903   -0.00000000
     atom   19 type  2   force =     0.00000000    0.00000000   -0.00000000
     atom   20 type  2   force =    -0.00000000   -0.00000000    0.00000000
     atom   21 type  2   force =     0.00000000    0.00000000    0.00000000
     atom   22 type  2   force =    -0.00000000   -0.00000000    0.00000000
     atom   23 type  2   force =     0.00000000    0.00000000    0.00000000
     atom   24 type  2   force =     0.00000000    0.00000000   -0.00000000
     The non-local contrib.  to forces
     atom    1 type  1   force =    -0.00000000   -0.00000000    0.01547716
     atom    2 type  1   force =     0.00000000    0.00000000    0.01547716
     atom    3 type  1   force =     0.00000000   -0.00000000   -0.01547716
     atom    4 type  1   force =     0.00000000    0.00000000   -0.01547716
     atom    5 type  1   force =    -0.00000000   -0.00000000   -0.00386044
     atom    6 type  1   force =    -0.00000000    0.00000000   -0.00386044
     atom    7 type  1   force =     0.00000000    0.00000000    0.00386044
     atom    8 type  1   force =     0.00000000    0.00000000    0.00386044
     atom    9 type  2   force =     0.00000000   -0.00000000   -0.00874152
     atom   10 type  2   force =     0.00000000    0.00000000   -0.00874152
     atom   11 type  2   force =    -0.00000000   -0.00000000    0.00874152
     atom   12 type  2   force =     0.00000000    0.00000000    0.00874152
     atom   13 type  2   force =     0.00000000   -0.08567949   -0.00000000
     atom   14 type  2   force =     0.07420061   -0.04283974    0.00000000
     atom   15 type  2   force =     0.00000000    0.08567949    0.00000000
     atom   16 type  2   force =    -0.07420061    0.04283974    0.00000000
     atom   17 type  2   force =     0.07420061    0.04283974   -0.00000000
     atom   18 type  2   force =    -0.07420061   -0.04283974    0.00000000
     atom   19 type  2   force =     0.00000000    0.00000000    0.00000000
     atom   20 type  2   force =    -0.00000000   -0.00000000    0.00000000
     atom   21 type  2   force =     0.00000000    0.00000000    0.00000000
     atom   22 type  2   force =     0.00000000   -0.00000000    0.00000000
     atom   23 type  2   force =    -0.00000000    0.00000000   -0.00000000
     atom   24 type  2   force =     0.00000000   -0.00000000    0.00000000
     The ionic contribution  to forces
     atom    1 type  1   force =    -0.00001505    0.00000876   -0.84912481
     atom    2 type  1   force =     0.00001505   -0.00000876   -0.84912481
     atom    3 type  1   force =     0.00001505   -0.00000876    0.84912481
     atom    4 type  1   force =    -0.00001505    0.00000876    0.84912481
     atom    5 type  1   force =     0.00005344   -0.00003077    0.23314174
     atom    6 type  1   force =    -0.00005344    0.00003077    0.23314174
     atom    7 type  1   force =    -0.00005344    0.00003077   -0.23314174
     atom    8 type  1   force =     0.00005344   -0.00003077   -0.23314174
     atom    9 type  2   force =     0.00005663   -0.00003269   -0.52675539
     atom   10 type  2   force =    -0.00005663    0.00003269   -0.52675539
     atom   11 type  2   force =    -0.00005663    0.00003269    0.52675539
     atom   12 type  2   force =     0.00005663   -0.00003269    0.52675539
     atom   13 type  2   force =     0.00006916  -13.68222463    0.00000000
     atom   14 type  2   force =    11.84923523   -6.84115923   -0.00000000
     atom   15 type  2   force =    -0.00006916   13.68222463   -0.00000000
     atom   16 type  2   force =   -11.84923523    6.84115923    0.00000000
     atom   17 type  2   force =    11.84918867    6.84105248    0.00000000
     atom   18 type  2   force =   -11.84918867   -6.84105248   -0.00000000
     atom   19 type  2   force =    -0.00000000    0.00000000    0.00000000
     atom   20 type  2   force =    -0.00000000    0.00000000    0.00000000
     atom   21 type  2   force =    -0.00000000   -0.00000000    0.00000000
     atom   22 type  2   force =     0.00000000   -0.00000000    0.00000000
     atom   23 type  2   force =     0.00000000    0.00000000    0.00000000
     atom   24 type  2   force =     0.00000000   -0.00000000    0.00000000
     The local contribution  to forces
     atom    1 type  1   force =     0.00000000    0.00000002    0.83458330
     atom    2 type  1   force =     0.00000000   -0.00000002    0.83458330
     atom    3 type  1   force =     0.00000000   -0.00000002   -0.83458330
     atom    4 type  1   force =     0.00000000    0.00000002   -0.83458330
     atom    5 type  1   force =     0.00148322   -0.00085632   -0.22907971
     atom    6 type  1   force =    -0.00148322    0.00085632   -0.22907971
     atom    7 type  1   force =    -0.00148322    0.00085632    0.22907971
     atom    8 type  1   force =     0.00148322   -0.00085632    0.22907971
     atom    9 type  2   force =     0.00196834   -0.00113642    0.53643847
     atom   10 type  2   force =    -0.00196834    0.00113642    0.53643847
     atom   11 type  2   force =    -0.00196834    0.00113642   -0.53643847
     atom   12 type  2   force =     0.00196834   -0.00113642   -0.53643847
     atom   13 type  2   force =    -0.00196628   13.76910678    0.00000000
     atom   14 type  2   force =   -11.92167030    6.88297951   -0.00000000
     atom   15 type  2   force =     0.00196628  -13.76910678   -0.00000000
     atom   16 type  2   force =    11.92167030   -6.88297951    0.00000000
     atom   17 type  2   force =   -11.92537951   -6.88285055    0.00000000
     atom   18 type  2   force =    11.92537951    6.88285055   -0.00000000
     atom   19 type  2   force =     0.00000000   -0.00000000    0.00000000
     atom   20 type  2   force =     0.00000000    0.00000000    0.00000000
     atom   21 type  2   force =    -0.00000000   -0.00000000    0.00000000
     atom   22 type  2   force =     0.00000000    0.00000000    0.00000000
     atom   23 type  2   force =     0.00000000    0.00000000    0.00000000
     atom   24 type  2   force =     0.00000000    0.00000000    0.00000000
     The core correction contribution to forces
     atom    1 type  1   force =    -0.00000000    0.00000000   -0.00007733
     atom    2 type  1   force =     0.00000000   -0.00000000   -0.00007733
     atom    3 type  1   force =     0.00000000   -0.00000000    0.00007733
     atom    4 type  1   force =    -0.00000000    0.00000000    0.00007733
     atom    5 type  1   force =     0.00000321   -0.00000186    0.00001271
     atom    6 type  1   force =    -0.00000321    0.00000186    0.00001271
     atom    7 type  1   force =    -0.00000321    0.00000186   -0.00001271
     atom    8 type  1   force =     0.00000321   -0.00000186   -0.00001271
     atom    9 type  2   force =     0.00000121   -0.00000070   -0.00193188
     atom   10 type  2   force =    -0.00000121    0.00000070   -0.00193188
     atom   11 type  2   force =    -0.00000121    0.00000070    0.00193188
     atom   12 type  2   force =     0.00000121   -0.00000070    0.00193188
     atom   13 type  2   force =    -0.00000120    0.00081125    0.00000000
     atom   14 type  2   force =    -0.00070069    0.00040454   -0.00000000
     atom   15 type  2   force =     0.00000120   -0.00081125   -0.00000000
     atom   16 type  2   force =     0.00070069   -0.00040454    0.00000000
     atom   17 type  2   force =    -0.00070316   -0.00040459    0.00000000
     atom   18 type  2   force =     0.00070316    0.00040459   -0.00000000
     atom   19 type  2   force =     0.00000000    0.00000000    0.00000000
     atom   20 type  2   force =     0.00000000    0.00000000    0.00000000
     atom   21 type  2   force =    -0.00000000    0.00000000    0.00000000
     atom   22 type  2   force =     0.00000000    0.00000000    0.00000000
     atom   23 type  2   force =     0.00000000    0.00000000    0.00000000
     atom   24 type  2   force =     0.00000000    0.00000000    0.00000000
     The Hubbard contrib.    to forces
     atom    1 type  1   force =     0.00000000    0.00000000    0.00000000
     atom    2 type  1   force =     0.00000000    0.00000000    0.00000000
     atom    3 type  1   force =     0.00000000    0.00000000    0.00000000
     atom    4 type  1   force =     0.00000000    0.00000000    0.00000000
     atom    5 type  1   force =     0.00000000    0.00000000    0.00000000
     atom    6 type  1   force =     0.00000000    0.00000000    0.00000000
     atom    7 type  1   force =     0.00000000    0.00000000    0.00000000
     atom    8 type  1   force =     0.00000000    0.00000000    0.00000000
     atom    9 type  2   force =     0.00000000    0.00000000    0.00000000
     atom   10 type  2   force =     0.00000000    0.00000000    0.00000000
     atom   11 type  2   force =     0.00000000    0.00000000    0.00000000
     atom   12 type  2   force =     0.00000000    0.00000000    0.00000000
     atom   13 type  2   force =     0.00000000    0.00000000    0.00000000
     atom   14 type  2   force =     0.00000000    0.00000000    0.00000000
     atom   15 type  2   force =     0.00000000    0.00000000    0.00000000
     atom   16 type  2   force =     0.00000000    0.00000000    0.00000000
     atom   17 type  2   force =     0.00000000    0.00000000    0.00000000
     atom   18 type  2   force =     0.00000000    0.00000000    0.00000000
     atom   19 type  2   force =     0.00000000    0.00000000    0.00000000
     atom   20 type  2   force =     0.00000000    0.00000000    0.00000000
     atom   21 type  2   force =     0.00000000    0.00000000    0.00000000
     atom   22 type  2   force =     0.00000000    0.00000000    0.00000000
     atom   23 type  2   force =     0.00000000    0.00000000    0.00000000
     atom   24 type  2   force =     0.00000000    0.00000000    0.00000000
     The SCF correction term to forces
     atom    1 type  1   force =    -0.00000000    0.00000000   -0.00001298
     atom    2 type  1   force =     0.00000000   -0.00000000   -0.00001298
     atom    3 type  1   force =     0.00000000   -0.00000000    0.00001298
     atom    4 type  1   force =    -0.00000000    0.00000000    0.00001298
     atom    5 type  1   force =    -0.00000000    0.00000000   -0.00000301
     atom    6 type  1   force =     0.00000000   -0.00000000   -0.00000301
     atom    7 type  1   force =     0.00000000   -0.00000000    0.00000301
     atom    8 type  1   force =    -0.00000000    0.00000000    0.00000301
     atom    9 type  2   force =     0.00000000   -0.00000000   -0.00000210
     atom   10 type  2   force =    -0.00000000    0.00000000   -0.00000210
     atom   11 type  2   force =    -0.00000000    0.00000000    0.00000210
     atom   12 type  2   force =     0.00000000   -0.00000000    0.00000210
     atom   13 type  2   force =    -0.00000001    0.00000530    0.00000000
     atom   14 type  2   force =    -0.00000459    0.00000265    0.00000000
     atom   15 type  2   force =     0.00000001   -0.00000530   -0.00000000
     atom   16 type  2   force =     0.00000459   -0.00000265   -0.00000000
     atom   17 type  2   force =    -0.00000459   -0.00000264    0.00000000
     atom   18 type  2   force =     0.00000459    0.00000264   -0.00000000
     atom   19 type  2   force =    -0.00000000   -0.00000000   -0.00000000
     atom   20 type  2   force =     0.00000000   -0.00000000   -0.00000000
     atom   21 type  2   force =    -0.00000000    0.00000000   -0.00000000
     atom   22 type  2   force =    -0.00000000    0.00000000   -0.00000000
     atom   23 type  2   force =    -0.00000000   -0.00000000    0.00000000
     atom   24 type  2   force =     0.00000000    0.00000000   -0.00000000

     Total force =     0.003501     Total SCF correction =     0.000030
     Energy error            =      1.9E-05 Ry
     Gradient error          =      9.9E-04 Ry/Bohr

     number of scf cycles    =   6
     number of bfgs steps    =   5

     energy             old  =   -7950.0566573045 Ry
     energy             new  =   -7950.0566766706 Ry

     CASE: energy            _new < energy            _old

     new trust radius        =       0.0045479537 bohr
     new conv_thr            =       0.0000000002 Ry


ATOMIC_POSITIONS (crystal)
Mg           -0.0000000000       -0.0000000000        0.4071789699
Mg            0.0000000000        0.0000000000        0.9071789699
Mg           -0.0000000000       -0.0000000000        0.5928210301
Mg            0.0000000000        0.0000000000        0.0928210301
Mg            0.3333330000        0.6666670000        0.6560919077
Mg            0.6666670000        0.3333330000        0.1560919077
Mg            0.6666670000        0.3333330000        0.3439080923
Mg            0.3333330000        0.6666670000        0.8439080923
Ni            0.3333330000        0.6666670000        0.3754640865
Ni            0.6666670000        0.3333330000        0.8754640865
Ni            0.6666670000        0.3333330000        0.6245359135
Ni            0.3333330000        0.6666670000        0.1245359135
Ni            0.1657006790        0.3314003580        0.2500000000
Ni            0.8342993210        0.1657006790        0.7500000000
Ni            0.8342993210        0.6685996420        0.7500000000
Ni            0.1657006790        0.8342993210        0.2500000000
Ni            0.6685996420        0.8342993210        0.2500000000
Ni            0.3314003580        0.1657006790        0.7500000000
Ni            0.5000000000        0.0000000000        0.5000000000
Ni            0.5000000000        0.5000000000       -0.0000000000
Ni            0.5000000000        0.0000000000       -0.0000000000
Ni            0.5000000000        0.5000000000        0.5000000000
Ni           -0.0000000000        0.5000000000       -0.0000000000
Ni           -0.0000000000        0.5000000000        0.5000000000



     Writing config-only to output data dir ./ACOptimization/out/iso.save/
     NEW-OLD atomic charge density approx. for the potential

     Check: negative core charge=   -0.000016

     total cpu time spent up to now is     3238.3 secs

     Self-consistent Calculation

     iteration #  1     ecut=    50.00 Ry     beta= 0.10
     Davidson diagonalization with overlap
     ethr =  1.00E-06,  avg # of iterations =  5.0

     Threshold (ethr) on eigenvalues was too large:
     Diagonalizing with lowered threshold

     Davidson diagonalization with overlap
     ethr =  9.62E-09,  avg # of iterations =  5.0

     total cpu time spent up to now is     3295.7 secs

     total energy              =   -7950.05677823 Ry
     estimated scf accuracy    <       0.00002585 Ry

     iteration #  2     ecut=    50.00 Ry     beta= 0.10
     Davidson diagonalization with overlap
     ethr =  7.02E-09,  avg # of iterations =  1.0

     total cpu time spent up to now is     3314.4 secs

     total energy              =   -7950.05672003 Ry
     estimated scf accuracy    <       0.00001794 Ry

     iteration #  3     ecut=    50.00 Ry     beta= 0.10
     Davidson diagonalization with overlap
     ethr =  4.88E-09,  avg # of iterations =  2.0

     total cpu time spent up to now is     3337.0 secs

     total energy              =   -7950.05670018 Ry
     estimated scf accuracy    <       0.00000364 Ry

     iteration #  4     ecut=    50.00 Ry     beta= 0.10
     Davidson diagonalization with overlap
     ethr =  9.89E-10,  avg # of iterations =  4.0

     total cpu time spent up to now is     3363.6 secs

     total energy              =   -7950.05669938 Ry
     estimated scf accuracy    <       0.00000138 Ry

     iteration #  5     ecut=    50.00 Ry     beta= 0.10
     Davidson diagonalization with overlap
     ethr =  3.76E-10,  avg # of iterations =  1.0

     total cpu time spent up to now is     3382.3 secs

     total energy              =   -7950.05670060 Ry
     estimated scf accuracy    <       0.00000168 Ry

     iteration #  6     ecut=    50.00 Ry     beta= 0.10
     Davidson diagonalization with overlap
     ethr =  3.76E-10,  avg # of iterations =  2.0

     total cpu time spent up to now is     3406.0 secs

     total energy              =   -7950.05669895 Ry
     estimated scf accuracy    <       0.00000126 Ry

     iteration #  7     ecut=    50.00 Ry     beta= 0.10
     Davidson diagonalization with overlap
     ethr =  3.43E-10,  avg # of iterations =  2.0

     total cpu time spent up to now is     3429.7 secs

     total energy              =   -7950.05669604 Ry
     estimated scf accuracy    <       0.00000023 Ry

     iteration #  8     ecut=    50.00 Ry     beta= 0.10
     Davidson diagonalization with overlap
     ethr =  6.34E-11,  avg # of iterations =  4.7

     total cpu time spent up to now is     3458.5 secs

     total energy              =   -7950.05669586 Ry
     estimated scf accuracy    <       0.00000005 Ry

     iteration #  9     ecut=    50.00 Ry     beta= 0.10
     Davidson diagonalization with overlap
     ethr =  1.40E-11,  avg # of iterations =  2.0

     total cpu time spent up to now is     3482.2 secs

     total energy              =   -7950.05669582 Ry
     estimated scf accuracy    <       0.00000005 Ry

     iteration # 10     ecut=    50.00 Ry     beta= 0.10
     Davidson diagonalization with overlap
     ethr =  1.26E-11,  avg # of iterations =  2.0

     total cpu time spent up to now is     3504.3 secs

     total energy              =   -7950.05669576 Ry
     estimated scf accuracy    <          8.3E-09 Ry

     iteration # 11     ecut=    50.00 Ry     beta= 0.10
     Davidson diagonalization with overlap
     ethr =  2.24E-12,  avg # of iterations =  5.0

     total cpu time spent up to now is     3537.2 secs

     total energy              =   -7950.05669579 Ry
     estimated scf accuracy    <       0.00000001 Ry

     iteration # 12     ecut=    50.00 Ry     beta= 0.10
     Davidson diagonalization with overlap
     ethr =  2.24E-12,  avg # of iterations =  4.0

     total cpu time spent up to now is     3564.6 secs

     total energy              =   -7950.05669580 Ry
     estimated scf accuracy    <          3.7E-10 Ry

     iteration # 13     ecut=    50.00 Ry     beta= 0.10
     Davidson diagonalization with overlap
     ethr =  1.01E-13,  avg # of iterations =  4.0

     total cpu time spent up to now is     3590.7 secs

     total energy              =   -7950.05669580 Ry
     estimated scf accuracy    <          8.3E-10 Ry

     iteration # 14     ecut=    50.00 Ry     beta= 0.10
     Davidson diagonalization with overlap
     ethr =  1.01E-13,  avg # of iterations =  2.0

     total cpu time spent up to now is     3615.9 secs

     End of self-consistent calculation

          k = 0.0000 0.0000 0.0000 ( 13249 PWs)   bands (ev):

   -90.3040 -90.3040 -90.3026 -90.3026 -90.3023 -90.3023 -90.3008 -90.3008
   -90.2516 -90.2516 -90.2501 -90.2501 -90.2499 -90.2499 -90.2484 -90.2484
   -90.2283 -90.2283 -90.2283 -90.2283 -90.2282 -90.2282 -90.2282 -90.2282
   -90.2278 -90.2278 -90.2278 -90.2278 -90.2277 -90.2277 -90.2277 -90.2277
   -62.6243 -62.6243 -62.6242 -62.6242 -62.6231 -62.6231 -62.6230 -62.6230
   -62.5710 -62.5710 -62.5710 -62.5710 -62.5696 -62.5696 -62.5696 -62.5696
   -52.2916 -52.2916 -52.2871 -52.2871 -52.2869 -52.2869 -52.2780 -52.2780
   -52.2455 -52.2455 -52.2430 -52.2430 -52.2415 -52.2415 -52.2369 -52.2369
   -52.2367 -52.2367 -52.2340 -52.2340 -52.2332 -52.2332 -52.2286 -52.2286
   -52.1714 -52.1714 -52.1690 -52.1690 -52.1663 -52.1663 -52.1629 -52.1629
   -50.1774 -50.1774 -50.1737 -50.1737 -50.1572 -50.1572 -50.1524 -50.1524
   -50.1417 -50.1417 -50.1376 -50.1376 -50.1180 -50.1180 -50.1164 -50.1164
   -50.0756 -50.0756 -50.0657 -50.0657 -50.0619 -50.0619 -50.0592 -50.0592
   -50.0558 -50.0558 -50.0551 -50.0551 -50.0404 -50.0404 -50.0243 -50.0243
   -50.0102 -50.0102 -49.9918 -49.9918 -49.9847 -49.9847 -49.9744 -49.9744
   -49.9727 -49.9727 -49.9698 -49.9698 -49.9659 -49.9659 -49.9556 -49.9556
   -49.9405 -49.9405 -49.9398 -49.9398 -49.9305 -49.9305 -49.9289 -49.9289
   -49.9174 -49.9174 -49.9121 -49.9121 -49.9112 -49.9112 -49.9100 -49.9100
   -29.7558 -29.7558 -29.7555 -29.7555 -29.7513 -29.7513 -29.7509 -29.7509
   -29.7012 -29.7012 -29.7011 -29.7011 -29.6959 -29.6959 -29.6956 -29.6956
   -29.4710 -29.4710 -29.4707 -29.4707 -29.4684 -29.4684 -29.4682 -29.4682
   -29.4670 -29.4670 -29.4668 -29.4668 -29.4599 -29.4599 -29.4594 -29.4594
   -29.4185 -29.4185 -29.4185 -29.4185 -29.4108 -29.4108 -29.4107 -29.4107
   -29.4092 -29.4092 -29.4090 -29.4090 -29.4059 -29.4059 -29.4057 -29.4057
     4.1642   4.1642   4.7613   4.7613   4.7678   4.7678   6.1801   6.1801
     6.8264   6.8264   8.1779   8.1779   8.2219   8.2219   8.2651   8.2651
     8.7893   8.7893   8.8203   8.8203   8.9716   8.9716   9.0037   9.0037
     9.1425   9.1425   9.1529   9.1529   9.1720   9.1720   9.1879   9.1879
     9.2101   9.2101   9.2140   9.2140   9.3277   9.3277   9.3485   9.3485
     9.3905   9.3905   9.4431   9.4431   9.4465   9.4465   9.4531   9.4531
     9.4782   9.4782   9.5405   9.5405   9.5978   9.5978   9.6163   9.6163
     9.6430   9.6430   9.6792   9.6792   9.9523   9.9523   9.9524   9.9524
     9.9696   9.9696   9.9780   9.9780   9.9828   9.9828  10.0380  10.0380
    10.1950  10.1950  10.2538  10.2538  10.3263  10.3263  10.3402  10.3402
    10.3824  10.3824  10.4378  10.4378  10.4731  10.4731  10.4732  10.4732
    10.6192  10.6192  10.6382  10.6382  10.8600  10.8600  11.0199  11.0199
    11.0744  11.0744  11.0856  11.0856  11.0917  11.0917  11.1302  11.1302
    11.2499  11.2499  11.3034  11.3034  11.3853  11.3853  11.3934  11.3934
    11.5126  11.5126  11.5223  11.5223  11.6000  11.6000  11.6013  11.6013
    11.6078  11.6078  11.6116  11.6116  11.6182  11.6182  11.6234  11.6234
    11.6271  11.6271  11.6442  11.6442  11.6602  11.6602  11.6604  11.6604
    11.6818  11.6818  11.6892  11.6892  11.7050  11.7050  11.7313  11.7313
    11.7536  11.7536  11.7716  11.7716  11.7729  11.7729  11.7879  11.7879
    11.8111  11.8111  11.8503  11.8503  11.9244  11.9244  12.1495  12.1495
    12.2020  12.2020  12.4176  12.4176  12.4192  12.4192  12.6335  12.6335
    12.6342  12.6342  12.6398  12.6398  12.6398  12.6398  13.0002  13.0002
    13.1099  13.1099  13.2735  13.2735  13.3197  13.3197  13.3477  13.3477
    13.3656  13.3656  13.3790  13.3790  13.3851  13.3851  13.4557  13.4557
    13.6983  13.6983  13.7268  13.7268  13.7279  13.7279  13.7795  13.7795
    15.0648  15.0648  15.1162  15.1162  15.1180  15.1180  15.1279  15.1279
    15.5202  15.5202  15.5663  15.5663  15.9707  15.9707  15.9915  15.9915
    16.5264  16.5264  16.6093  16.6093  16.6260  16.6260  16.7052  16.7052
    16.7849  16.7849  17.0049  17.0049  17.4641  17.4641  17.4753  17.4753
    17.9533  17.9533  17.9731  17.9731  18.0287  18.0287  18.5280  18.5280
    18.5381  18.5381  18.5590  18.5590  18.7625  18.7625  20.1597  20.1597
    20.2422  20.2422

          k = 0.0000 0.3849 0.0000 ( 13152 PWs)   bands (ev):

   -90.3034 -90.3034 -90.3024 -90.3024 -90.3021 -90.3021 -90.3011 -90.3011
   -90.2466 -90.2466 -90.2455 -90.2455 -90.2455 -90.2455 -90.2444 -90.2444
   -90.2331 -90.2331 -90.2330 -90.2330 -90.2323 -90.2323 -90.2322 -90.2322
   -90.2282 -90.2282 -90.2282 -90.2282 -90.2278 -90.2278 -90.2277 -90.2277
   -62.6242 -62.6242 -62.6242 -62.6242 -62.6229 -62.6229 -62.6229 -62.6229
   -62.5710 -62.5710 -62.5710 -62.5710 -62.5695 -62.5695 -62.5695 -62.5695
   -52.2915 -52.2915 -52.2867 -52.2867 -52.2847 -52.2847 -52.2754 -52.2754
   -52.2385 -52.2385 -52.2374 -52.2374 -52.2347 -52.2347 -52.2327 -52.2327
   -52.2241 -52.2241 -52.2206 -52.2206 -52.2192 -52.2192 -52.2125 -52.2125
   -52.1791 -52.1791 -52.1754 -52.1754 -52.1744 -52.1744 -52.1698 -52.1698
   -50.1743 -50.1743 -50.1681 -50.1681 -50.1614 -50.1614 -50.1508 -50.1508
   -50.1175 -50.1175 -50.1166 -50.1166 -50.1060 -50.1060 -50.1034 -50.1034
   -50.0681 -50.0681 -50.0636 -50.0636 -50.0619 -50.0619 -50.0583 -50.0583
   -50.0484 -50.0484 -50.0467 -50.0467 -50.0330 -50.0330 -50.0199 -50.0199
   -50.0084 -50.0084 -49.9940 -49.9940 -49.9903 -49.9903 -49.9854 -49.9854
   -49.9667 -49.9667 -49.9624 -49.9624 -49.9535 -49.9535 -49.9520 -49.9520
   -49.9480 -49.9480 -49.9476 -49.9476 -49.9312 -49.9312 -49.9295 -49.9295
   -49.9268 -49.9268 -49.9257 -49.9257 -49.9113 -49.9113 -49.9094 -49.9094
   -29.7550 -29.7550 -29.7550 -29.7550 -29.7506 -29.7506 -29.7505 -29.7505
   -29.7018 -29.7018 -29.7018 -29.7018 -29.6967 -29.6967 -29.6967 -29.6967
   -29.4711 -29.4711 -29.4710 -29.4710 -29.4675 -29.4675 -29.4674 -29.4674
   -29.4658 -29.4658 -29.4656 -29.4656 -29.4600 -29.4600 -29.4598 -29.4598
   -29.4179 -29.4179 -29.4179 -29.4179 -29.4118 -29.4118 -29.4117 -29.4117
   -29.4097 -29.4097 -29.4096 -29.4096 -29.4055 -29.4055 -29.4055 -29.4055
     5.1172   5.1172   5.6919   5.6919   5.6960   5.6960   7.0713   7.0713
     7.5373   7.5373   7.7173   7.7173   8.0350   8.0350   8.0474   8.0474
     8.6276   8.6276   8.6626   8.6626   8.8147   8.8147   8.8983   8.8983
     8.9677   8.9677   9.0909   9.0909   9.1510   9.1510   9.2142   9.2142
     9.2916   9.2916   9.3464   9.3464   9.3767   9.3767   9.4179   9.4179
     9.4312   9.4312   9.4565   9.4565   9.5567   9.5567   9.6508   9.6508
     9.6976   9.6976   9.7527   9.7527   9.7941   9.7941   9.8483   9.8483
     9.8680   9.8680   9.8988   9.8988   9.9034   9.9034   9.9867   9.9867
     9.9930   9.9930  10.0297  10.0297  10.0327  10.0327  10.0986  10.0986
    10.1227  10.1227  10.1296  10.1296  10.2000  10.2000  10.2502  10.2502
    10.3142  10.3142  10.3636  10.3636  10.3838  10.3838  10.3965  10.3965
    10.4527  10.4527  10.5469  10.5469  10.5739  10.5739  10.6151  10.6151
    10.6296  10.6296  10.7272  10.7272  10.7379  10.7379  10.7923  10.7923
    10.8099  10.8099  10.8714  10.8714  10.9325  10.9325  10.9439  10.9439
    10.9666  10.9666  11.0145  11.0145  11.0974  11.0974  11.1085  11.1085
    11.1839  11.1839  11.2130  11.2130  11.2401  11.2401  11.2688  11.2688
    11.3326  11.3326  11.3459  11.3459  11.3626  11.3626  11.4161  11.4161
    11.4216  11.4216  11.4807  11.4807  11.5168  11.5168  11.5696  11.5696
    11.5748  11.5748  11.6458  11.6458  11.6620  11.6620  11.6717  11.6717
    11.7172  11.7172  11.7302  11.7302  11.7324  11.7324  11.7624  11.7624
    11.8148  11.8148  11.8446  11.8446  11.8623  11.8623  11.9514  11.9514
    11.9799  11.9799  12.0445  12.0445  12.1158  12.1158  12.2337  12.2337
    12.4851  12.4851  12.5509  12.5509  12.8924  12.8924  12.9057  12.9057
    13.0975  13.0975  13.1991  13.1991  13.2817  13.2817  13.4463  13.4463
    13.5193  13.5193  13.5493  13.5493  13.6272  13.6272  13.8467  13.8467
    14.4283  14.4283  14.8501  14.8501  15.1425  15.1425  15.1950  15.1950
    16.4233  16.4233  16.8876  16.8876  16.9425  16.9425  17.0601  17.0601
    17.8396  17.8396  17.9122  17.9122  17.9748  17.9748  18.0955  18.0955
    18.1701  18.1701  18.3239  18.3239  18.7465  18.7465  19.1454  19.1454
    19.2484  19.2484  19.2816  19.2816  19.7804  19.7804  19.8068  19.8068
    20.1420  20.1420  20.5211  20.5211  20.8734  20.8734  21.1711  21.1711
    21.2164  21.2165

          k = 0.3333 0.5774 0.0000 ( 13128 PWs)   bands (ev):

   -90.3027 -90.3027 -90.3027 -90.3027 -90.3016 -90.3016 -90.3016 -90.3016
   -90.2404 -90.2404 -90.2404 -90.2404 -90.2397 -90.2397 -90.2397 -90.2397
   -90.2393 -90.2393 -90.2392 -90.2392 -90.2371 -90.2371 -90.2371 -90.2371
   -90.2283 -90.2283 -90.2282 -90.2282 -90.2277 -90.2277 -90.2277 -90.2277
   -62.6241 -62.6241 -62.6241 -62.6241 -62.6229 -62.6229 -62.6229 -62.6229
   -62.5710 -62.5710 -62.5710 -62.5710 -62.5696 -62.5696 -62.5696 -62.5696
   -52.2884 -52.2884 -52.2883 -52.2883 -52.2835 -52.2835 -52.2833 -52.2833
   -52.2352 -52.2352 -52.2318 -52.2318 -52.2315 -52.2315 -52.2313 -52.2313
   -52.2044 -52.2044 -52.2033 -52.2033 -52.2000 -52.2000 -52.1981 -52.1981
   -52.1961 -52.1961 -52.1943 -52.1943 -52.1887 -52.1887 -52.1881 -52.1881
   -50.1677 -50.1677 -50.1674 -50.1674 -50.1628 -50.1628 -50.1584 -50.1584
   -50.0928 -50.0928 -50.0927 -50.0927 -50.0913 -50.0913 -50.0905 -50.0905
   -50.0835 -50.0835 -50.0800 -50.0800 -50.0763 -50.0763 -50.0536 -50.0536
   -50.0404 -50.0404 -50.0375 -50.0375 -50.0353 -50.0353 -50.0079 -50.0079
   -50.0060 -50.0060 -50.0043 -50.0043 -49.9931 -49.9931 -49.9919 -49.9919
   -49.9714 -49.9714 -49.9610 -49.9610 -49.9544 -49.9544 -49.9540 -49.9540
   -49.9473 -49.9473 -49.9432 -49.9432 -49.9397 -49.9397 -49.9349 -49.9349
   -49.9330 -49.9330 -49.9320 -49.9320 -49.9144 -49.9144 -49.9137 -49.9137
   -29.7549 -29.7549 -29.7547 -29.7547 -29.7504 -29.7504 -29.7501 -29.7501
   -29.7023 -29.7023 -29.7023 -29.7023 -29.6972 -29.6972 -29.6970 -29.6970
   -29.4721 -29.4721 -29.4703 -29.4703 -29.4674 -29.4674 -29.4674 -29.4674
   -29.4648 -29.4648 -29.4647 -29.4647 -29.4612 -29.4612 -29.4591 -29.4591
   -29.4178 -29.4178 -29.4178 -29.4178 -29.4124 -29.4124 -29.4122 -29.4122
   -29.4099 -29.4099 -29.4097 -29.4097 -29.4053 -29.4053 -29.4052 -29.4052
     6.6984   6.6984   6.6992   6.6992   7.1196   7.1196   7.2276   7.2276
     7.2329   7.2329   7.4333   7.4333   7.5435   7.5435   7.5482   7.5482
     7.7239   7.7239   8.5762   8.5762   8.5774   8.5774   8.5818   8.5818
     8.5873   8.5873   8.6157   8.6157   8.6921   8.6921   9.3375   9.3375
     9.3449   9.3449   9.3477   9.3477   9.4625   9.4625   9.4778   9.4778
     9.6158   9.6158   9.6486   9.6486   9.7611   9.7611   9.7766   9.7766
     9.8418   9.8418   9.8425   9.8425   9.8872   9.8872   9.8958   9.8958
     9.9092   9.9092   9.9118   9.9118   9.9894   9.9894  10.0480  10.0480
    10.0661  10.0661  10.0695  10.0695  10.0804  10.0804  10.0885  10.0885
    10.1066  10.1066  10.1517  10.1517  10.1641  10.1641  10.1849  10.1849
    10.1969  10.1969  10.2005  10.2005  10.2483  10.2483  10.2556  10.2556
    10.3107  10.3107  10.3208  10.3208  10.3409  10.3409  10.3617  10.3617
    10.3970  10.3970  10.5352  10.5352  10.5554  10.5554  10.5672  10.5672
    10.6919  10.6919  10.7967  10.7967  10.8158  10.8158  10.8201  10.8201
    10.8572  10.8572  10.8788  10.8788  11.0339  11.0339  11.0383  11.0383
    11.1178  11.1178  11.1420  11.1420  11.1604  11.1604  11.1721  11.1721
    11.2209  11.2209  11.2330  11.2330  11.2496  11.2496  11.3329  11.3329
    11.3809  11.3809  11.4082  11.4082  11.4172  11.4172  11.4203  11.4203
    11.4510  11.4510  11.4628  11.4628  11.4699  11.4699  11.5101  11.5101
    11.5287  11.5287  11.5342  11.5342  11.5959  11.5959  11.6506  11.6506
    11.8000  11.8000  11.8160  11.8160  11.8959  11.8959  11.8967  11.8967
    11.9180  11.9180  11.9875  11.9875  11.9988  11.9988  12.0884  12.0884
    12.1433  12.1433  12.2069  12.2069  12.2082  12.2082  12.4183  12.4183
    12.5514  12.5514  12.5616  12.5616  12.6172  12.6172  13.9421  13.9421
    13.9625  13.9625  14.0046  14.0046  14.2008  14.2008  14.2081  14.2081
    14.7646  14.7646  16.5712  16.5712  16.5732  16.5732  16.7201  16.7201
    16.9801  16.9801  16.9804  16.9804  17.5253  17.5253  17.6226  17.6226
    17.6235  17.6235  17.6649  17.6649  17.6732  17.6732  17.9397  17.9397
    18.1270  18.1270  18.4945  18.4945  18.5948  18.5948  18.6093  18.6093
    19.3849  19.3849  19.3877  19.3877  19.6464  19.6464  19.6606  19.6606
    19.7723  19.7723  20.3646  20.3646  21.7575  21.7575  21.7657  21.7657
    21.9573  21.9573

     the Fermi energy is    12.2754 ev

!    total energy              =   -7950.05669580 Ry
     total all-electron energy =    -51823.908779 Ry
     estimated scf accuracy    <          3.7E-11 Ry
     smearing contrib. (-TS)   =       0.11439020 Ry
     internal energy E=F+TS    =   -7950.17108601 Ry

     The total energy is F=E-TS. E is the sum of the following terms:
     one-electron contribution =   -4573.84110287 Ry
     hartree contribution      =    2432.94489024 Ry
     xc contribution           =    -681.28364649 Ry
     ewald contribution        =   -3589.86464829 Ry
     one-center paw contrib.   =   -1538.12657860 Ry

     convergence has been achieved in  14 iterations

     Forces acting on atoms (cartesian axes, Ry/au):

     atom    1 type  1   force =    -0.00000000   -0.00000000    0.00025081
     atom    2 type  1   force =    -0.00000000   -0.00000000    0.00025081
     atom    3 type  1   force =     0.00000000    0.00000000   -0.00025081
     atom    4 type  1   force =     0.00000000    0.00000000   -0.00025081
     atom    5 type  1   force =    -0.00000000   -0.00000000    0.00007600
     atom    6 type  1   force =    -0.00000000   -0.00000000    0.00007600
     atom    7 type  1   force =    -0.00000000   -0.00000000   -0.00007600
     atom    8 type  1   force =     0.00000000    0.00000000   -0.00007600
     atom    9 type  2   force =     0.00000000    0.00000000   -0.00059776
     atom   10 type  2   force =     0.00000000    0.00000000   -0.00059776
     atom   11 type  2   force =    -0.00000000   -0.00000000    0.00059776
     atom   12 type  2   force =    -0.00000000   -0.00000000    0.00059776
     atom   13 type  2   force =     0.00000000    0.00047501   -0.00000000
     atom   14 type  2   force =    -0.00041137    0.00023751   -0.00000000
     atom   15 type  2   force =     0.00000000   -0.00047501   -0.00000000
     atom   16 type  2   force =     0.00041137   -0.00023751   -0.00000000
     atom   17 type  2   force =    -0.00041137   -0.00023751   -0.00000000
     atom   18 type  2   force =     0.00041137    0.00023751    0.00000000
     atom   19 type  2   force =     0.00000000    0.00000000    0.00000000
     atom   20 type  2   force =     0.00000000   -0.00000000    0.00000000
     atom   21 type  2   force =    -0.00000000    0.00000000    0.00000000
     atom   22 type  2   force =    -0.00000000    0.00000000    0.00000000
     atom   23 type  2   force =     0.00000000    0.00000000    0.00000000
     atom   24 type  2   force =     0.00000000   -0.00000000   -0.00000000
     The non-local contrib.  to forces
     atom    1 type  1   force =     0.00000000    0.00000000    0.01346000
     atom    2 type  1   force =     0.00000000   -0.00000000    0.01346000
     atom    3 type  1   force =     0.00000000    0.00000000   -0.01346000
     atom    4 type  1   force =     0.00000000   -0.00000000   -0.01346000
     atom    5 type  1   force =    -0.00000000   -0.00000000   -0.00439155
     atom    6 type  1   force =     0.00000000    0.00000000   -0.00439155
     atom    7 type  1   force =    -0.00000000   -0.00000000    0.00439155
     atom    8 type  1   force =     0.00000000    0.00000000    0.00439155
     atom    9 type  2   force =     0.00000000    0.00000000   -0.00833050
     atom   10 type  2   force =     0.00000000    0.00000000   -0.00833050
     atom   11 type  2   force =     0.00000000    0.00000000    0.00833050
     atom   12 type  2   force =     0.00000000    0.00000000    0.00833050
     atom   13 type  2   force =     0.00000000   -0.08579439    0.00000000
     atom   14 type  2   force =     0.07430012   -0.04289720    0.00000000
     atom   15 type  2   force =     0.00000000    0.08579439   -0.00000000
     atom   16 type  2   force =    -0.07430012    0.04289720   -0.00000000
     atom   17 type  2   force =     0.07430012    0.04289720    0.00000000
     atom   18 type  2   force =    -0.07430012   -0.04289720    0.00000000
     atom   19 type  2   force =    -0.00000000    0.00000000    0.00000000
     atom   20 type  2   force =     0.00000000    0.00000000   -0.00000000
     atom   21 type  2   force =     0.00000000    0.00000000   -0.00000000
     atom   22 type  2   force =     0.00000000   -0.00000000   -0.00000000
     atom   23 type  2   force =     0.00000000    0.00000000    0.00000000
     atom   24 type  2   force =     0.00000000    0.00000000    0.00000000
     The ionic contribution  to forces
     atom    1 type  1   force =    -0.00001502    0.00000875   -0.92288530
     atom    2 type  1   force =     0.00001502   -0.00000875   -0.92288530
     atom    3 type  1   force =     0.00001502   -0.00000875    0.92288530
     atom    4 type  1   force =    -0.00001502    0.00000875    0.92288530
     atom    5 type  1   force =     0.00005342   -0.00003076    0.22081633
     atom    6 type  1   force =    -0.00005342    0.00003076    0.22081633
     atom    7 type  1   force =    -0.00005342    0.00003076   -0.22081633
     atom    8 type  1   force =     0.00005342   -0.00003076   -0.22081633
     atom    9 type  2   force =     0.00005651   -0.00003262   -0.47026990
     atom   10 type  2   force =    -0.00005651    0.00003262   -0.47026990
     atom   11 type  2   force =    -0.00005651    0.00003262    0.47026990
     atom   12 type  2   force =     0.00005651   -0.00003262    0.47026990
     atom   13 type  2   force =     0.00006924  -13.81877756    0.00000000
     atom   14 type  2   force =    11.96749351   -6.90943568   -0.00000000
     atom   15 type  2   force =    -0.00006924   13.81877756   -0.00000000
     atom   16 type  2   force =   -11.96749351    6.90943568    0.00000000
     atom   17 type  2   force =    11.96744701    6.90932889    0.00000000
     atom   18 type  2   force =   -11.96744701   -6.90932889   -0.00000000
     atom   19 type  2   force =    -0.00000000    0.00000000    0.00000000
     atom   20 type  2   force =    -0.00000000    0.00000000    0.00000000
     atom   21 type  2   force =    -0.00000000   -0.00000000    0.00000000
     atom   22 type  2   force =     0.00000000   -0.00000000    0.00000000
     atom   23 type  2   force =     0.00000000    0.00000000    0.00000000
     atom   24 type  2   force =    -0.00000000   -0.00000000    0.00000000
     The local contribution  to forces
     atom    1 type  1   force =     0.00000000    0.00000002    0.90975518
     atom    2 type  1   force =    -0.00000000   -0.00000002    0.90975518
     atom    3 type  1   force =    -0.00000000   -0.00000002   -0.90975518
     atom    4 type  1   force =     0.00000000    0.00000002   -0.90975518
     atom    5 type  1   force =     0.00148322   -0.00085632   -0.21635908
     atom    6 type  1   force =    -0.00148322    0.00085632   -0.21635908
     atom    7 type  1   force =    -0.00148322    0.00085632    0.21635908
     atom    8 type  1   force =     0.00148322   -0.00085632    0.21635908
     atom    9 type  2   force =     0.00196841   -0.00113646    0.47993052
     atom   10 type  2   force =    -0.00196841    0.00113646    0.47993052
     atom   11 type  2   force =    -0.00196841    0.00113646   -0.47993052
     atom   12 type  2   force =     0.00196841   -0.00113646   -0.47993052
     atom   13 type  2   force =    -0.00196626   13.90533767    0.00000000
     atom   14 type  2   force =   -12.03964967    6.95109492   -0.00000000
     atom   15 type  2   force =     0.00196626  -13.90533767   -0.00000000
     atom   16 type  2   force =    12.03964967   -6.95109492    0.00000000
     atom   17 type  2   force =   -12.04335891   -6.95096601    0.00000000
     atom   18 type  2   force =    12.04335891    6.95096601   -0.00000000
     atom   19 type  2   force =     0.00000000   -0.00000000    0.00000000
     atom   20 type  2   force =     0.00000000    0.00000000    0.00000000
     atom   21 type  2   force =    -0.00000000   -0.00000000    0.00000000
     atom   22 type  2   force =     0.00000000    0.00000000    0.00000000
     atom   23 type  2   force =     0.00000000    0.00000000    0.00000000
     atom   24 type  2   force =     0.00000000    0.00000000    0.00000000
     The core correction contribution to forces
     atom    1 type  1   force =    -0.00000000    0.00000000   -0.00006843
     atom    2 type  1   force =     0.00000000   -0.00000000   -0.00006843
     atom    3 type  1   force =     0.00000000   -0.00000000    0.00006843
     atom    4 type  1   force =    -0.00000000    0.00000000    0.00006843
     atom    5 type  1   force =     0.00000321   -0.00000186    0.00001477
     atom    6 type  1   force =    -0.00000321    0.00000186    0.00001477
     atom    7 type  1   force =    -0.00000321    0.00000186   -0.00001477
     atom    8 type  1   force =     0.00000321   -0.00000186   -0.00001477
     atom    9 type  2   force =     0.00000121   -0.00000070   -0.00193249
     atom   10 type  2   force =    -0.00000121    0.00000070   -0.00193249
     atom   11 type  2   force =    -0.00000121    0.00000070    0.00193249
     atom   12 type  2   force =     0.00000121   -0.00000070    0.00193249
     atom   13 type  2   force =    -0.00000120    0.00079310    0.00000000
     atom   14 type  2   force =    -0.00068497    0.00039547   -0.00000000
     atom   15 type  2   force =     0.00000120   -0.00079310   -0.00000000
     atom   16 type  2   force =     0.00068497   -0.00039547    0.00000000
     atom   17 type  2   force =    -0.00068745   -0.00039551    0.00000000
     atom   18 type  2   force =     0.00068745    0.00039551   -0.00000000
     atom   19 type  2   force =     0.00000000    0.00000000    0.00000000
     atom   20 type  2   force =     0.00000000    0.00000000    0.00000000
     atom   21 type  2   force =    -0.00000000    0.00000000    0.00000000
     atom   22 type  2   force =     0.00000000    0.00000000    0.00000000
     atom   23 type  2   force =     0.00000000    0.00000000    0.00000000
     atom   24 type  2   force =     0.00000000    0.00000000    0.00000000
     The Hubbard contrib.    to forces
     atom    1 type  1   force =     0.00000000    0.00000000    0.00000000
     atom    2 type  1   force =     0.00000000    0.00000000    0.00000000
     atom    3 type  1   force =     0.00000000    0.00000000    0.00000000
     atom    4 type  1   force =     0.00000000    0.00000000    0.00000000
     atom    5 type  1   force =     0.00000000    0.00000000    0.00000000
     atom    6 type  1   force =     0.00000000    0.00000000    0.00000000
     atom    7 type  1   force =     0.00000000    0.00000000    0.00000000
     atom    8 type  1   force =     0.00000000    0.00000000    0.00000000
     atom    9 type  2   force =     0.00000000    0.00000000    0.00000000
     atom   10 type  2   force =     0.00000000    0.00000000    0.00000000
     atom   11 type  2   force =     0.00000000    0.00000000    0.00000000
     atom   12 type  2   force =     0.00000000    0.00000000    0.00000000
     atom   13 type  2   force =     0.00000000    0.00000000    0.00000000
     atom   14 type  2   force =     0.00000000    0.00000000    0.00000000
     atom   15 type  2   force =     0.00000000    0.00000000    0.00000000
     atom   16 type  2   force =     0.00000000    0.00000000    0.00000000
     atom   17 type  2   force =     0.00000000    0.00000000    0.00000000
     atom   18 type  2   force =     0.00000000    0.00000000    0.00000000
     atom   19 type  2   force =     0.00000000    0.00000000    0.00000000
     atom   20 type  2   force =     0.00000000    0.00000000    0.00000000
     atom   21 type  2   force =     0.00000000    0.00000000    0.00000000
     atom   22 type  2   force =     0.00000000    0.00000000    0.00000000
     atom   23 type  2   force =     0.00000000    0.00000000    0.00000000
     atom   24 type  2   force =     0.00000000    0.00000000    0.00000000
     The SCF correction term to forces
     atom    1 type  1   force =    -0.00000001    0.00000000   -0.00001064
     atom    2 type  1   force =     0.00000001   -0.00000000   -0.00001064
     atom    3 type  1   force =     0.00000001   -0.00000000    0.00001064
     atom    4 type  1   force =    -0.00000001    0.00000000    0.00001064
     atom    5 type  1   force =    -0.00000000    0.00000000   -0.00000446
     atom    6 type  1   force =     0.00000000   -0.00000000   -0.00000446
     atom    7 type  1   force =     0.00000000   -0.00000000    0.00000446
     atom    8 type  1   force =    -0.00000000    0.00000000    0.00000446
     atom    9 type  2   force =     0.00000003   -0.00000001    0.00000461
     atom   10 type  2   force =    -0.00000003    0.00000001    0.00000461
     atom   11 type  2   force =    -0.00000003    0.00000001   -0.00000461
     atom   12 type  2   force =     0.00000003   -0.00000001   -0.00000461
     atom   13 type  2   force =    -0.00000001   -0.00000264   -0.00000000
     atom   14 type  2   force =     0.00000228   -0.00000132    0.00000000
     atom   15 type  2   force =     0.00000001    0.00000264    0.00000000
     atom   16 type  2   force =    -0.00000228    0.00000132   -0.00000000
     atom   17 type  2   force =     0.00000228    0.00000133   -0.00000000
     atom   18 type  2   force =    -0.00000228   -0.00000133    0.00000000
     atom   19 type  2   force =    -0.00000000   -0.00000000   -0.00000000
     atom   20 type  2   force =     0.00000000   -0.00000000   -0.00000000
     atom   21 type  2   force =    -0.00000000    0.00000000   -0.00000000
     atom   22 type  2   force =    -0.00000000    0.00000000   -0.00000000
     atom   23 type  2   force =    -0.00000000   -0.00000000   -0.00000000
     atom   24 type  2   force =     0.00000000    0.00000000   -0.00000000

     Total force =     0.001749     Total SCF correction =     0.000026
     Energy error            =      1.9E-05 Ry
     Gradient error          =      6.0E-04 Ry/Bohr

     number of scf cycles    =   7
     number of bfgs steps    =   6

     energy             old  =   -7950.0566766706 Ry
     energy             new  =   -7950.0566958038 Ry

     CASE: energy            _new < energy            _old

     new trust radius        =       0.0021078921 bohr
     new conv_thr            =       0.0000000002 Ry


ATOMIC_POSITIONS (crystal)
Mg           -0.0000000000       -0.0000000000        0.4072488742
Mg           -0.0000000000        0.0000000000        0.9072488742
Mg           -0.0000000000       -0.0000000000        0.5927511258
Mg            0.0000000000        0.0000000000        0.0927511258
Mg            0.3333330000        0.6666670000        0.6561098834
Mg            0.6666670000        0.3333330000        0.1561098834
Mg            0.6666670000        0.3333330000        0.3438901166
Mg            0.3333330000        0.6666670000        0.8438901166
Ni            0.3333330000        0.6666670000        0.3754207742
Ni            0.6666670000        0.3333330000        0.8754207742
Ni            0.6666670000        0.3333330000        0.6245792258
Ni            0.3333330000        0.6666670000        0.1245792258
Ni            0.1657772600        0.3315535201        0.2500000000
Ni            0.8342227400        0.1657772600        0.7500000000
Ni            0.8342227400        0.6684464799        0.7500000000
Ni            0.1657772600        0.8342227400        0.2500000000
Ni            0.6684464799        0.8342227400        0.2500000000
Ni            0.3315535201        0.1657772600        0.7500000000
Ni            0.5000000000        0.0000000000        0.5000000000
Ni            0.5000000000        0.5000000000        0.0000000000
Ni            0.5000000000        0.0000000000       -0.0000000000
Ni            0.5000000000        0.5000000000        0.5000000000
Ni           -0.0000000000        0.5000000000       -0.0000000000
Ni           -0.0000000000        0.5000000000        0.5000000000



     Writing config-only to output data dir ./ACOptimization/out/iso.save/
     NEW-OLD atomic charge density approx. for the potential

     Check: negative core charge=   -0.000016

     total cpu time spent up to now is     3631.3 secs

     Self-consistent Calculation

     iteration #  1     ecut=    50.00 Ry     beta= 0.10
     Davidson diagonalization with overlap
     ethr =  1.00E-06,  avg # of iterations =  3.0

     Threshold (ethr) on eigenvalues was too large:
     Diagonalizing with lowered threshold

     Davidson diagonalization with overlap
     ethr =  1.06E-08,  avg # of iterations =  5.0

     total cpu time spent up to now is     3686.4 secs

     total energy              =   -7950.05680318 Ry
     estimated scf accuracy    <       0.00002852 Ry

     iteration #  2     ecut=    50.00 Ry     beta= 0.10
     Davidson diagonalization with overlap
     ethr =  7.75E-09,  avg # of iterations =  1.0

     total cpu time spent up to now is     3705.1 secs

     total energy              =   -7950.05670230 Ry
     estimated scf accuracy    <       0.00002073 Ry

     iteration #  3     ecut=    50.00 Ry     beta= 0.10
     Davidson diagonalization with overlap
     ethr =  5.63E-09,  avg # of iterations =  3.7

     total cpu time spent up to now is     3730.0 secs

     total energy              =   -7950.05670859 Ry
     estimated scf accuracy    <       0.00000126 Ry

     iteration #  4     ecut=    50.00 Ry     beta= 0.10
     Davidson diagonalization with overlap
     ethr =  3.42E-10,  avg # of iterations =  4.0

     total cpu time spent up to now is     3753.2 secs

     total energy              =   -7950.05671131 Ry
     estimated scf accuracy    <       0.00000128 Ry

     iteration #  5     ecut=    50.00 Ry     beta= 0.10
     Davidson diagonalization with overlap
     ethr =  3.42E-10,  avg # of iterations =  1.0

     total cpu time spent up to now is     3771.9 secs

     total energy              =   -7950.05671209 Ry
     estimated scf accuracy    <       0.00000107 Ry

     iteration #  6     ecut=    50.00 Ry     beta= 0.10
     Davidson diagonalization with overlap
     ethr =  2.92E-10,  avg # of iterations =  2.0

     total cpu time spent up to now is     3795.7 secs

     total energy              =   -7950.05670404 Ry
     estimated scf accuracy    <       0.00000071 Ry

     iteration #  7     ecut=    50.00 Ry     beta= 0.10
     Davidson diagonalization with overlap
     ethr =  1.93E-10,  avg # of iterations =  4.0

     total cpu time spent up to now is     3822.8 secs

     total energy              =   -7950.05670168 Ry
     estimated scf accuracy    <       0.00000027 Ry

     iteration #  8     ecut=    50.00 Ry     beta= 0.10
     Davidson diagonalization with overlap
     ethr =  7.45E-11,  avg # of iterations =  4.0

     total cpu time spent up to now is     3848.6 secs

     total energy              =   -7950.05670135 Ry
     estimated scf accuracy    <       0.00000010 Ry

     iteration #  9     ecut=    50.00 Ry     beta= 0.10
     Davidson diagonalization with overlap
     ethr =  2.68E-11,  avg # of iterations =  4.0

     total cpu time spent up to now is     3871.9 secs

     total energy              =   -7950.05670120 Ry
     estimated scf accuracy    <          7.9E-09 Ry

     iteration # 10     ecut=    50.00 Ry     beta= 0.10
     Davidson diagonalization with overlap
     ethr =  2.14E-12,  avg # of iterations =  4.3

     total cpu time spent up to now is     3900.1 secs

     total energy              =   -7950.05670122 Ry
     estimated scf accuracy    <       0.00000001 Ry

     iteration # 11     ecut=    50.00 Ry     beta= 0.10
     Davidson diagonalization with overlap
     ethr =  2.14E-12,  avg # of iterations =  2.0

     total cpu time spent up to now is     3923.0 secs

     total energy              =   -7950.05670093 Ry
     estimated scf accuracy    <       0.00000002 Ry

     iteration # 12     ecut=    50.00 Ry     beta= 0.10
     Davidson diagonalization with overlap
     ethr =  2.14E-12,  avg # of iterations =  5.7

     total cpu time spent up to now is     3957.5 secs

     total energy              =   -7950.05670108 Ry
     estimated scf accuracy    <          5.7E-10 Ry

     iteration # 13     ecut=    50.00 Ry     beta= 0.10
     Davidson diagonalization with overlap
     ethr =  1.54E-13,  avg # of iterations =  2.0

     total cpu time spent up to now is     3981.2 secs

     total energy              =   -7950.05670108 Ry
     estimated scf accuracy    <          2.4E-10 Ry

     iteration # 14     ecut=    50.00 Ry     beta= 0.10
     Davidson diagonalization with overlap
     ethr =  1.00E-13,  avg # of iterations =  2.0

     total cpu time spent up to now is     4003.6 secs

     End of self-consistent calculation

          k = 0.0000 0.0000 0.0000 ( 13249 PWs)   bands (ev):

   -90.3041 -90.3041 -90.3027 -90.3027 -90.3024 -90.3024 -90.3009 -90.3009
   -90.2515 -90.2515 -90.2500 -90.2500 -90.2499 -90.2499 -90.2484 -90.2484
   -90.2282 -90.2282 -90.2282 -90.2282 -90.2281 -90.2281 -90.2281 -90.2281
   -90.2278 -90.2278 -90.2278 -90.2278 -90.2277 -90.2277 -90.2277 -90.2277
   -62.6242 -62.6242 -62.6241 -62.6241 -62.6230 -62.6230 -62.6229 -62.6229
   -62.5713 -62.5713 -62.5712 -62.5712 -62.5699 -62.5699 -62.5699 -62.5699
   -52.2917 -52.2917 -52.2872 -52.2872 -52.2870 -52.2870 -52.2781 -52.2781
   -52.2454 -52.2454 -52.2429 -52.2429 -52.2415 -52.2415 -52.2368 -52.2368
   -52.2367 -52.2367 -52.2338 -52.2338 -52.2333 -52.2333 -52.2286 -52.2286
   -52.1713 -52.1713 -52.1690 -52.1690 -52.1663 -52.1663 -52.1628 -52.1628
   -50.1774 -50.1774 -50.1736 -50.1736 -50.1574 -50.1574 -50.1526 -50.1526
   -50.1416 -50.1416 -50.1374 -50.1374 -50.1179 -50.1179 -50.1164 -50.1164
   -50.0756 -50.0756 -50.0656 -50.0656 -50.0619 -50.0619 -50.0590 -50.0590
   -50.0557 -50.0557 -50.0548 -50.0548 -50.0407 -50.0407 -50.0244 -50.0244
   -50.0103 -50.0103 -49.9918 -49.9918 -49.9847 -49.9847 -49.9744 -49.9744
   -49.9727 -49.9727 -49.9699 -49.9699 -49.9659 -49.9659 -49.9555 -49.9555
   -49.9404 -49.9404 -49.9397 -49.9397 -49.9306 -49.9306 -49.9289 -49.9289
   -49.9175 -49.9175 -49.9122 -49.9122 -49.9112 -49.9112 -49.9101 -49.9101
   -29.7557 -29.7557 -29.7554 -29.7554 -29.7511 -29.7511 -29.7507 -29.7507
   -29.7015 -29.7015 -29.7014 -29.7014 -29.6961 -29.6961 -29.6959 -29.6959
   -29.4709 -29.4709 -29.4706 -29.4706 -29.4683 -29.4683 -29.4681 -29.4681
   -29.4668 -29.4668 -29.4666 -29.4666 -29.4598 -29.4598 -29.4592 -29.4592
   -29.4189 -29.4189 -29.4188 -29.4188 -29.4110 -29.4110 -29.4110 -29.4110
   -29.4094 -29.4094 -29.4092 -29.4092 -29.4062 -29.4062 -29.4060 -29.4060
     4.1642   4.1642   4.7611   4.7611   4.7679   4.7679   6.1796   6.1796
     6.8270   6.8270   8.1790   8.1790   8.2218   8.2218   8.2645   8.2645
     8.7879   8.7879   8.8199   8.8199   8.9705   8.9705   9.0034   9.0034
     9.1417   9.1417   9.1528   9.1528   9.1721   9.1721   9.1883   9.1883
     9.2104   9.2104   9.2144   9.2144   9.3271   9.3271   9.3479   9.3479
     9.3907   9.3907   9.4432   9.4432   9.4460   9.4460   9.4532   9.4532
     9.4781   9.4781   9.5403   9.5403   9.5969   9.5969   9.6163   9.6163
     9.6421   9.6421   9.6793   9.6793   9.9523   9.9523   9.9525   9.9525
     9.9692   9.9692   9.9784   9.9784   9.9832   9.9832  10.0375  10.0375
    10.1947  10.1947  10.2535  10.2535  10.3268  10.3268  10.3401  10.3401
    10.3825  10.3825  10.4381  10.4381  10.4731  10.4731  10.4731  10.4731
    10.6192  10.6192  10.6382  10.6382  10.8615  10.8615  11.0199  11.0199
    11.0739  11.0739  11.0865  11.0865  11.0921  11.0921  11.1309  11.1309
    11.2492  11.2492  11.3028  11.3028  11.3853  11.3853  11.3937  11.3937
    11.5131  11.5131  11.5227  11.5227  11.6001  11.6001  11.6014  11.6014
    11.6078  11.6078  11.6116  11.6116  11.6180  11.6180  11.6233  11.6233
    11.6280  11.6280  11.6441  11.6441  11.6605  11.6605  11.6610  11.6610
    11.6818  11.6818  11.6893  11.6893  11.7051  11.7051  11.7312  11.7312
    11.7538  11.7538  11.7714  11.7714  11.7727  11.7727  11.7881  11.7881
    11.8111  11.8111  11.8504  11.8504  11.9245  11.9245  12.1493  12.1493
    12.2018  12.2018  12.4179  12.4179  12.4195  12.4195  12.6335  12.6335
    12.6342  12.6342  12.6398  12.6398  12.6398  12.6398  13.0009  13.0009
    13.1105  13.1105  13.2747  13.2747  13.3199  13.3199  13.3469  13.3469
    13.3657  13.3657  13.3782  13.3782  13.3853  13.3853  13.4560  13.4560
    13.6986  13.6986  13.7266  13.7266  13.7272  13.7272  13.7783  13.7783
    15.0654  15.0654  15.1161  15.1161  15.1186  15.1186  15.1279  15.1279
    15.5210  15.5210  15.5670  15.5670  15.9708  15.9708  15.9916  15.9916
    16.5254  16.5254  16.6100  16.6100  16.6267  16.6267  16.7041  16.7041
    16.7835  16.7835  17.0047  17.0047  17.4636  17.4636  17.4749  17.4749
    17.9536  17.9536  17.9734  17.9734  18.0290  18.0290  18.5278  18.5278
    18.5381  18.5381  18.5583  18.5583  18.7627  18.7627  20.1563  20.1563
    20.2419  20.2419

          k = 0.0000 0.3849 0.0000 ( 13152 PWs)   bands (ev):

   -90.3034 -90.3034 -90.3025 -90.3025 -90.3022 -90.3022 -90.3012 -90.3012
   -90.2466 -90.2466 -90.2455 -90.2455 -90.2454 -90.2454 -90.2444 -90.2444
   -90.2330 -90.2330 -90.2329 -90.2329 -90.2324 -90.2324 -90.2322 -90.2322
   -90.2281 -90.2281 -90.2281 -90.2281 -90.2278 -90.2278 -90.2278 -90.2278
   -62.6241 -62.6241 -62.6241 -62.6241 -62.6228 -62.6228 -62.6228 -62.6228
   -62.5713 -62.5713 -62.5713 -62.5713 -62.5698 -62.5698 -62.5698 -62.5698
   -52.2916 -52.2916 -52.2868 -52.2868 -52.2848 -52.2848 -52.2755 -52.2755
   -52.2385 -52.2385 -52.2373 -52.2373 -52.2347 -52.2347 -52.2326 -52.2326
   -52.2240 -52.2240 -52.2206 -52.2206 -52.2191 -52.2191 -52.2124 -52.2124
   -52.1791 -52.1791 -52.1753 -52.1753 -52.1744 -52.1744 -52.1697 -52.1697
   -50.1743 -50.1743 -50.1681 -50.1681 -50.1615 -50.1615 -50.1509 -50.1509
   -50.1174 -50.1174 -50.1164 -50.1164 -50.1059 -50.1059 -50.1033 -50.1033
   -50.0680 -50.0680 -50.0635 -50.0635 -50.0619 -50.0619 -50.0582 -50.0582
   -50.0483 -50.0483 -50.0466 -50.0466 -50.0332 -50.0332 -50.0199 -50.0199
   -50.0084 -50.0084 -49.9941 -49.9941 -49.9903 -49.9903 -49.9854 -49.9854
   -49.9667 -49.9667 -49.9624 -49.9624 -49.9535 -49.9535 -49.9520 -49.9520
   -49.9480 -49.9480 -49.9476 -49.9476 -49.9313 -49.9313 -49.9296 -49.9296
   -49.9269 -49.9269 -49.9258 -49.9258 -49.9113 -49.9113 -49.9094 -49.9094
   -29.7549 -29.7549 -29.7548 -29.7548 -29.7505 -29.7505 -29.7504 -29.7504
   -29.7021 -29.7021 -29.7021 -29.7021 -29.6970 -29.6970 -29.6969 -29.6969
   -29.4710 -29.4710 -29.4709 -29.4709 -29.4674 -29.4674 -29.4672 -29.4672
   -29.4657 -29.4657 -29.4654 -29.4654 -29.4599 -29.4599 -29.4597 -29.4597
   -29.4183 -29.4183 -29.4182 -29.4182 -29.4120 -29.4120 -29.4119 -29.4119
   -29.4099 -29.4099 -29.4098 -29.4098 -29.4057 -29.4057 -29.4057 -29.4057
     5.1171   5.1171   5.6918   5.6918   5.6959   5.6959   7.0710   7.0710
     7.5378   7.5378   7.7168   7.7168   8.0348   8.0348   8.0473   8.0473
     8.6273   8.6273   8.6630   8.6630   8.8141   8.8141   8.8983   8.8983
     8.9675   8.9675   9.0904   9.0904   9.1504   9.1504   9.2142   9.2142
     9.2917   9.2917   9.3463   9.3463   9.3768   9.3768   9.4176   9.4176
     9.4312   9.4312   9.4558   9.4558   9.5565   9.5565   9.6510   9.6510
     9.6976   9.6976   9.7524   9.7524   9.7943   9.7943   9.8478   9.8478
     9.8677   9.8677   9.8987   9.8987   9.9026   9.9026   9.9868   9.9868
     9.9927   9.9927  10.0296  10.0296  10.0327  10.0327  10.0984  10.0984
    10.1232  10.1232  10.1300  10.1300  10.2003  10.2003  10.2501  10.2501
    10.3140  10.3140  10.3634  10.3634  10.3835  10.3835  10.3971  10.3971
    10.4531  10.4531  10.5469  10.5469  10.5738  10.5738  10.6157  10.6157
    10.6298  10.6298  10.7273  10.7273  10.7384  10.7384  10.7925  10.7925
    10.8101  10.8101  10.8717  10.8717  10.9327  10.9327  10.9440  10.9440
    10.9667  10.9667  11.0141  11.0141  11.0974  11.0974  11.1091  11.1091
    11.1840  11.1840  11.2126  11.2126  11.2397  11.2397  11.2685  11.2685
    11.3326  11.3326  11.3458  11.3458  11.3628  11.3628  11.4162  11.4162
    11.4212  11.4212  11.4808  11.4808  11.5168  11.5168  11.5695  11.5695
    11.5747  11.5747  11.6460  11.6460  11.6622  11.6622  11.6721  11.6721
    11.7174  11.7174  11.7303  11.7303  11.7324  11.7324  11.7624  11.7624
    11.8147  11.8147  11.8445  11.8445  11.8623  11.8623  11.9515  11.9515
    11.9798  11.9798  12.0446  12.0446  12.1159  12.1159  12.2335  12.2335
    12.4853  12.4853  12.5517  12.5517  12.8927  12.8927  12.9062  12.9062
    13.0972  13.0972  13.1994  13.1994  13.2806  13.2806  13.4464  13.4464
    13.5195  13.5195  13.5495  13.5495  13.6268  13.6268  13.8473  13.8473
    14.4286  14.4286  14.8507  14.8507  15.1419  15.1419  15.1949  15.1949
    16.4236  16.4236  16.8887  16.8887  16.9409  16.9409  17.0592  17.0592
    17.8400  17.8400  17.9122  17.9122  17.9754  17.9754  18.0954  18.0954
    18.1704  18.1704  18.3242  18.3242  18.7468  18.7468  19.1453  19.1453
    19.2481  19.2481  19.2830  19.2830  19.7788  19.7788  19.8056  19.8056
    20.1429  20.1429  20.5213  20.5213  20.8733  20.8733  21.1711  21.1711
    21.2164  21.2164

          k = 0.3333 0.5774 0.0000 ( 13128 PWs)   bands (ev):

   -90.3028 -90.3028 -90.3028 -90.3028 -90.3016 -90.3016 -90.3016 -90.3016
   -90.2404 -90.2404 -90.2404 -90.2404 -90.2397 -90.2397 -90.2396 -90.2396
   -90.2392 -90.2392 -90.2391 -90.2391 -90.2371 -90.2371 -90.2371 -90.2371
   -90.2282 -90.2282 -90.2281 -90.2281 -90.2277 -90.2277 -90.2277 -90.2277
   -62.6240 -62.6240 -62.6240 -62.6240 -62.6228 -62.6228 -62.6228 -62.6228
   -62.5713 -62.5713 -62.5713 -62.5713 -62.5699 -62.5699 -62.5698 -62.5698
   -52.2885 -52.2885 -52.2884 -52.2884 -52.2835 -52.2835 -52.2833 -52.2833
   -52.2351 -52.2351 -52.2316 -52.2316 -52.2315 -52.2315 -52.2313 -52.2313
   -52.2043 -52.2043 -52.2031 -52.2031 -52.2002 -52.2002 -52.1980 -52.1980
   -52.1963 -52.1963 -52.1943 -52.1943 -52.1886 -52.1886 -52.1879 -52.1879
   -50.1677 -50.1677 -50.1675 -50.1675 -50.1627 -50.1627 -50.1584 -50.1584
   -50.0927 -50.0927 -50.0925 -50.0925 -50.0912 -50.0912 -50.0905 -50.0905
   -50.0834 -50.0834 -50.0797 -50.0797 -50.0761 -50.0761 -50.0539 -50.0539
   -50.0403 -50.0403 -50.0376 -50.0376 -50.0351 -50.0351 -50.0081 -50.0081
   -50.0059 -50.0059 -50.0044 -50.0044 -49.9931 -49.9931 -49.9918 -49.9918
   -49.9715 -49.9715 -49.9610 -49.9610 -49.9545 -49.9545 -49.9539 -49.9539
   -49.9474 -49.9474 -49.9433 -49.9433 -49.9397 -49.9397 -49.9349 -49.9349
   -49.9331 -49.9331 -49.9321 -49.9321 -49.9145 -49.9145 -49.9138 -49.9138
   -29.7548 -29.7548 -29.7546 -29.7546 -29.7503 -29.7503 -29.7500 -29.7500
   -29.7026 -29.7026 -29.7026 -29.7026 -29.6974 -29.6974 -29.6973 -29.6973
   -29.4720 -29.4720 -29.4702 -29.4702 -29.4673 -29.4673 -29.4672 -29.4672
   -29.4647 -29.4647 -29.4646 -29.4646 -29.4611 -29.4611 -29.4590 -29.4590
   -29.4182 -29.4182 -29.4181 -29.4181 -29.4126 -29.4126 -29.4124 -29.4124
   -29.4101 -29.4101 -29.4099 -29.4099 -29.4056 -29.4056 -29.4055 -29.4055
     6.6977   6.6977   6.6985   6.6985   7.1204   7.1204   7.2277   7.2277
     7.2330   7.2330   7.4349   7.4349   7.5431   7.5431   7.5478   7.5478
     7.7231   7.7231   8.5759   8.5759   8.5772   8.5772   8.5812   8.5812
     8.5866   8.5866   8.6151   8.6151   8.6931   8.6931   9.3377   9.3377
     9.3437   9.3437   9.3467   9.3467   9.4620   9.4620   9.4771   9.4771
     9.6160   9.6160   9.6485   9.6485   9.7605   9.7605   9.7761   9.7761
     9.8425   9.8425   9.8427   9.8427   9.8875   9.8875   9.8958   9.8958
     9.9106   9.9106   9.9120   9.9120   9.9910   9.9910  10.0482  10.0482
    10.0659  10.0659  10.0699  10.0699  10.0809  10.0809  10.0883  10.0883
    10.1059  10.1059  10.1521  10.1521  10.1645  10.1645  10.1842  10.1842
    10.1966  10.1966  10.2006  10.2006  10.2479  10.2479  10.2556  10.2556
    10.3105  10.3105  10.3208  10.3208  10.3409  10.3409  10.3616  10.3616
    10.3969  10.3969  10.5348  10.5348  10.5550  10.5550  10.5667  10.5667
    10.6913  10.6913  10.7966  10.7966  10.8156  10.8156  10.8199  10.8199
    10.8572  10.8572  10.8794  10.8794  11.0347  11.0347  11.0391  11.0391
    11.1178  11.1178  11.1423  11.1423  11.1608  11.1608  11.1717  11.1717
    11.2209  11.2209  11.2327  11.2327  11.2499  11.2499  11.3330  11.3330
    11.3805  11.3805  11.4086  11.4086  11.4168  11.4168  11.4205  11.4205
    11.4509  11.4509  11.4628  11.4628  11.4698  11.4698  11.5100  11.5100
    11.5285  11.5285  11.5341  11.5341  11.5955  11.5955  11.6504  11.6504
    11.8001  11.8001  11.8159  11.8159  11.8963  11.8963  11.8969  11.8969
    11.9184  11.9184  11.9876  11.9876  11.9989  11.9989  12.0884  12.0884
    12.1433  12.1433  12.2069  12.2069  12.2081  12.2081  12.4191  12.4191
    12.5514  12.5514  12.5616  12.5616  12.6173  12.6173  13.9423  13.9423
    13.9626  13.9626  14.0043  14.0043  14.2010  14.2010  14.2083  14.2083
    14.7663  14.7663  16.5717  16.5717  16.5738  16.5738  16.7200  16.7200
    16.9796  16.9796  16.9799  16.9799  17.5244  17.5244  17.6232  17.6232
    17.6241  17.6241  17.6645  17.6645  17.6728  17.6728  17.9423  17.9423
    18.1247  18.1247  18.4947  18.4947  18.5929  18.5929  18.6075  18.6075
    19.3856  19.3856  19.3884  19.3884  19.6471  19.6471  19.6612  19.6612
    19.7723  19.7723  20.3641  20.3641  21.7580  21.7580  21.7662  21.7662
    21.9576  21.9576

     the Fermi energy is    12.2755 ev

!    total energy              =   -7950.05670108 Ry
     total all-electron energy =    -51823.908784 Ry
     estimated scf accuracy    <          5.5E-11 Ry
     smearing contrib. (-TS)   =       0.11439104 Ry
     internal energy E=F+TS    =   -7950.17109211 Ry

     The total energy is F=E-TS. E is the sum of the following terms:
     one-electron contribution =   -4574.05400897 Ry
     hartree contribution      =    2433.05133034 Ry
     xc contribution           =    -681.28394858 Ry
     ewald contribution        =   -3589.75785124 Ry
     one-center paw contrib.   =   -1538.12661366 Ry

     convergence has been achieved in  14 iterations

     Forces acting on atoms (cartesian axes, Ry/au):

     atom    1 type  1   force =     0.00000000    0.00000000   -0.00002870
     atom    2 type  1   force =     0.00000000    0.00000000   -0.00002870
     atom    3 type  1   force =     0.00000000    0.00000000    0.00002870
     atom    4 type  1   force =     0.00000000    0.00000000    0.00002870
     atom    5 type  1   force =    -0.00000000   -0.00000000    0.00001199
     atom    6 type  1   force =     0.00000000    0.00000000    0.00001199
     atom    7 type  1   force =     0.00000000    0.00000000   -0.00001199
     atom    8 type  1   force =     0.00000000    0.00000000   -0.00001199
     atom    9 type  2   force =     0.00000000    0.00000000   -0.00023258
     atom   10 type  2   force =     0.00000000    0.00000000   -0.00023258
     atom   11 type  2   force =     0.00000000    0.00000000    0.00023258
     atom   12 type  2   force =     0.00000000   -0.00000000    0.00023258
     atom   13 type  2   force =     0.00000000    0.00003708    0.00000000
     atom   14 type  2   force =    -0.00003211    0.00001854    0.00000000
     atom   15 type  2   force =     0.00000000   -0.00003708    0.00000000
     atom   16 type  2   force =     0.00003211   -0.00001854    0.00000000
     atom   17 type  2   force =    -0.00003211   -0.00001854    0.00000000
     atom   18 type  2   force =     0.00003211    0.00001854    0.00000000
     atom   19 type  2   force =    -0.00000000   -0.00000000   -0.00000000
     atom   20 type  2   force =     0.00000000   -0.00000000    0.00000000
     atom   21 type  2   force =    -0.00000000   -0.00000000    0.00000000
     atom   22 type  2   force =     0.00000000    0.00000000   -0.00000000
     atom   23 type  2   force =    -0.00000000    0.00000000   -0.00000000
     atom   24 type  2   force =     0.00000000   -0.00000000   -0.00000000
     The non-local contrib.  to forces
     atom    1 type  1   force =     0.00000000    0.00000000    0.01241174
     atom    2 type  1   force =     0.00000000   -0.00000000    0.01241174
     atom    3 type  1   force =     0.00000000    0.00000000   -0.01241174
     atom    4 type  1   force =    -0.00000000   -0.00000000   -0.01241174
     atom    5 type  1   force =     0.00000000    0.00000000   -0.00461051
     atom    6 type  1   force =     0.00000000   -0.00000000   -0.00461051
     atom    7 type  1   force =    -0.00000000   -0.00000000    0.00461051
     atom    8 type  1   force =     0.00000000    0.00000000    0.00461051
     atom    9 type  2   force =    -0.00000000   -0.00000000   -0.00817392
     atom   10 type  2   force =     0.00000000    0.00000000   -0.00817392
     atom   11 type  2   force =    -0.00000000   -0.00000000    0.00817392
     atom   12 type  2   force =     0.00000000    0.00000000    0.00817392
     atom   13 type  2   force =     0.00000000   -0.08601307    0.00000000
     atom   14 type  2   force =     0.07448950   -0.04300653   -0.00000000
     atom   15 type  2   force =     0.00000000    0.08601307   -0.00000000
     atom   16 type  2   force =    -0.07448950    0.04300653    0.00000000
     atom   17 type  2   force =     0.07448950    0.04300653   -0.00000000
     atom   18 type  2   force =    -0.07448950   -0.04300653    0.00000000
     atom   19 type  2   force =     0.00000000   -0.00000000   -0.00000000
     atom   20 type  2   force =     0.00000000   -0.00000000   -0.00000000
     atom   21 type  2   force =    -0.00000000   -0.00000000    0.00000000
     atom   22 type  2   force =    -0.00000000    0.00000000    0.00000000
     atom   23 type  2   force =     0.00000000   -0.00000000    0.00000000
     atom   24 type  2   force =    -0.00000000   -0.00000000    0.00000000
     The ionic contribution  to forces
     atom    1 type  1   force =    -0.00001500    0.00000874   -0.95314606
     atom    2 type  1   force =     0.00001500   -0.00000874   -0.95314606
     atom    3 type  1   force =     0.00001500   -0.00000874    0.95314606
     atom    4 type  1   force =    -0.00001500    0.00000874    0.95314606
     atom    5 type  1   force =     0.00005342   -0.00003076    0.20672779
     atom    6 type  1   force =    -0.00005342    0.00003076    0.20672779
     atom    7 type  1   force =    -0.00005342    0.00003076   -0.20672779
     atom    8 type  1   force =     0.00005342   -0.00003076   -0.20672779
     atom    9 type  2   force =     0.00005641   -0.00003256   -0.37844384
     atom   10 type  2   force =    -0.00005641    0.00003256   -0.37844384
     atom   11 type  2   force =    -0.00005641    0.00003256    0.37844384
     atom   12 type  2   force =     0.00005641   -0.00003256    0.37844384
     atom   13 type  2   force =     0.00006934  -13.95111742    0.00000000
     atom   14 type  2   force =    12.08210319   -6.97560561   -0.00000000
     atom   15 type  2   force =    -0.00006934   13.95111742   -0.00000000
     atom   16 type  2   force =   -12.08210319    6.97560561    0.00000000
     atom   17 type  2   force =    12.08205674    6.97549873    0.00000000
     atom   18 type  2   force =   -12.08205674   -6.97549873   -0.00000000
     atom   19 type  2   force =    -0.00000000    0.00000000    0.00000000
     atom   20 type  2   force =    -0.00000000    0.00000000    0.00000000
     atom   21 type  2   force =    -0.00000000   -0.00000000    0.00000000
     atom   22 type  2   force =     0.00000000   -0.00000000    0.00000000
     atom   23 type  2   force =     0.00000000    0.00000000    0.00000000
     atom   24 type  2   force =    -0.00000000   -0.00000000    0.00000000
     The local contribution  to forces
     atom    1 type  1   force =     0.00000000    0.00000002    0.94077291
     atom    2 type  1   force =     0.00000000   -0.00000002    0.94077291
     atom    3 type  1   force =    -0.00000000   -0.00000002   -0.94077291
     atom    4 type  1   force =     0.00000000    0.00000002   -0.94077291
     atom    5 type  1   force =     0.00148322   -0.00085631   -0.20211747
     atom    6 type  1   force =    -0.00148322    0.00085631   -0.20211747
     atom    7 type  1   force =    -0.00148322    0.00085631    0.20211747
     atom    8 type  1   force =     0.00148322   -0.00085631    0.20211747
     atom    9 type  2   force =     0.00196847   -0.00113650    0.38830469
     atom   10 type  2   force =    -0.00196847    0.00113650    0.38830469
     atom   11 type  2   force =    -0.00196847    0.00113650   -0.38830469
     atom   12 type  2   force =     0.00196847   -0.00113650   -0.38830469
     atom   13 type  2   force =    -0.00196628   14.03746382    0.00000000
     atom   14 type  2   force =   -12.15407425    7.01715799   -0.00000000
     atom   15 type  2   force =     0.00196628  -14.03746382   -0.00000000
     atom   16 type  2   force =    12.15407425   -7.01715799    0.00000000
     atom   17 type  2   force =   -12.15778352   -7.01702907    0.00000000
     atom   18 type  2   force =    12.15778352    7.01702907   -0.00000000
     atom   19 type  2   force =     0.00000000   -0.00000000    0.00000000
     atom   20 type  2   force =     0.00000000    0.00000000    0.00000000
     atom   21 type  2   force =    -0.00000000   -0.00000000    0.00000000
     atom   22 type  2   force =     0.00000000    0.00000000    0.00000000
     atom   23 type  2   force =     0.00000000    0.00000000    0.00000000
     atom   24 type  2   force =     0.00000000    0.00000000    0.00000000
     The core correction contribution to forces
     atom    1 type  1   force =    -0.00000000    0.00000000   -0.00006393
     atom    2 type  1   force =     0.00000000   -0.00000000   -0.00006393
     atom    3 type  1   force =     0.00000000   -0.00000000    0.00006393
     atom    4 type  1   force =    -0.00000000    0.00000000    0.00006393
     atom    5 type  1   force =     0.00000321   -0.00000186    0.00001558
     atom    6 type  1   force =    -0.00000321    0.00000186    0.00001558
     atom    7 type  1   force =    -0.00000321    0.00000186   -0.00001558
     atom    8 type  1   force =     0.00000321   -0.00000186   -0.00001558
     atom    9 type  2   force =     0.00000121   -0.00000070   -0.00192281
     atom   10 type  2   force =    -0.00000121    0.00000070   -0.00192281
     atom   11 type  2   force =    -0.00000121    0.00000070    0.00192281
     atom   12 type  2   force =     0.00000121   -0.00000070    0.00192281
     atom   13 type  2   force =    -0.00000120    0.00078031    0.00000000
     atom   14 type  2   force =    -0.00067389    0.00038907   -0.00000000
     atom   15 type  2   force =     0.00000120   -0.00078031   -0.00000000
     atom   16 type  2   force =     0.00067389   -0.00038907    0.00000000
     atom   17 type  2   force =    -0.00067637   -0.00038911    0.00000000
     atom   18 type  2   force =     0.00067637    0.00038911   -0.00000000
     atom   19 type  2   force =     0.00000000    0.00000000    0.00000000
     atom   20 type  2   force =    -0.00000000    0.00000000    0.00000000
     atom   21 type  2   force =     0.00000000   -0.00000000    0.00000000
     atom   22 type  2   force =     0.00000000    0.00000000    0.00000000
     atom   23 type  2   force =     0.00000000    0.00000000    0.00000000
     atom   24 type  2   force =     0.00000000    0.00000000    0.00000000
     The Hubbard contrib.    to forces
     atom    1 type  1   force =     0.00000000    0.00000000    0.00000000
     atom    2 type  1   force =     0.00000000    0.00000000    0.00000000
     atom    3 type  1   force =     0.00000000    0.00000000    0.00000000
     atom    4 type  1   force =     0.00000000    0.00000000    0.00000000
     atom    5 type  1   force =     0.00000000    0.00000000    0.00000000
     atom    6 type  1   force =     0.00000000    0.00000000    0.00000000
     atom    7 type  1   force =     0.00000000    0.00000000    0.00000000
     atom    8 type  1   force =     0.00000000    0.00000000    0.00000000
     atom    9 type  2   force =     0.00000000    0.00000000    0.00000000
     atom   10 type  2   force =     0.00000000    0.00000000    0.00000000
     atom   11 type  2   force =     0.00000000    0.00000000    0.00000000
     atom   12 type  2   force =     0.00000000    0.00000000    0.00000000
     atom   13 type  2   force =     0.00000000    0.00000000    0.00000000
     atom   14 type  2   force =     0.00000000    0.00000000    0.00000000
     atom   15 type  2   force =     0.00000000    0.00000000    0.00000000
     atom   16 type  2   force =     0.00000000    0.00000000    0.00000000
     atom   17 type  2   force =     0.00000000    0.00000000    0.00000000
     atom   18 type  2   force =     0.00000000    0.00000000    0.00000000
     atom   19 type  2   force =     0.00000000    0.00000000    0.00000000
     atom   20 type  2   force =     0.00000000    0.00000000    0.00000000
     atom   21 type  2   force =     0.00000000    0.00000000    0.00000000
     atom   22 type  2   force =     0.00000000    0.00000000    0.00000000
     atom   23 type  2   force =     0.00000000    0.00000000    0.00000000
     atom   24 type  2   force =     0.00000000    0.00000000    0.00000000
     The SCF correction term to forces
     atom    1 type  1   force =    -0.00000001    0.00000000   -0.00000337
     atom    2 type  1   force =     0.00000001   -0.00000000   -0.00000337
     atom    3 type  1   force =     0.00000001   -0.00000000    0.00000337
     atom    4 type  1   force =    -0.00000001    0.00000000    0.00000337
     atom    5 type  1   force =    -0.00000000    0.00000000   -0.00000340
     atom    6 type  1   force =     0.00000000   -0.00000000   -0.00000340
     atom    7 type  1   force =     0.00000000   -0.00000000    0.00000340
     atom    8 type  1   force =    -0.00000000    0.00000000    0.00000340
     atom    9 type  2   force =     0.00000002   -0.00000001    0.00000330
     atom   10 type  2   force =    -0.00000002    0.00000001    0.00000330
     atom   11 type  2   force =    -0.00000002    0.00000001   -0.00000330
     atom   12 type  2   force =     0.00000002   -0.00000001   -0.00000330
     atom   13 type  2   force =    -0.00000001    0.00000462    0.00000000
     atom   14 type  2   force =    -0.00000400    0.00000231   -0.00000000
     atom   15 type  2   force =     0.00000001   -0.00000462   -0.00000000
     atom   16 type  2   force =     0.00000400   -0.00000231    0.00000000
     atom   17 type  2   force =    -0.00000400   -0.00000230    0.00000000
     atom   18 type  2   force =     0.00000400    0.00000230   -0.00000000
     atom   19 type  2   force =     0.00000000   -0.00000000    0.00000000
     atom   20 type  2   force =     0.00000000   -0.00000000   -0.00000000
     atom   21 type  2   force =    -0.00000000    0.00000000   -0.00000000
     atom   22 type  2   force =    -0.00000000    0.00000000    0.00000000
     atom   23 type  2   force =    -0.00000000   -0.00000000   -0.00000000
     atom   24 type  2   force =     0.00000000    0.00000000    0.00000000

     Total force =     0.000478     Total SCF correction =     0.000016
     Energy error            =      5.3E-06 Ry
     Gradient error          =      2.3E-04 Ry/Bohr

     bfgs converged in   8 scf cycles and   7 bfgs steps
     (criteria: energy <  1.0E-05 Ry, force <  1.0E-03 Ry/Bohr)

     End of BFGS Geometry Optimization

     Final energy             =   -7950.0567010765 Ry

     File ./ACOptimization/out/iso.bfgs deleted, as requested
Begin final coordinates

ATOMIC_POSITIONS (crystal)
Mg           -0.0000000000       -0.0000000000        0.4072488742
Mg           -0.0000000000        0.0000000000        0.9072488742
Mg           -0.0000000000       -0.0000000000        0.5927511258
Mg            0.0000000000        0.0000000000        0.0927511258
Mg            0.3333330000        0.6666670000        0.6561098834
Mg            0.6666670000        0.3333330000        0.1561098834
Mg            0.6666670000        0.3333330000        0.3438901166
Mg            0.3333330000        0.6666670000        0.8438901166
Ni            0.3333330000        0.6666670000        0.3754207742
Ni            0.6666670000        0.3333330000        0.8754207742
Ni            0.6666670000        0.3333330000        0.6245792258
Ni            0.3333330000        0.6666670000        0.1245792258
Ni            0.1657772600        0.3315535201        0.2500000000
Ni            0.8342227400        0.1657772600        0.7500000000
Ni            0.8342227400        0.6684464799        0.7500000000
Ni            0.1657772600        0.8342227400        0.2500000000
Ni            0.6684464799        0.8342227400        0.2500000000
Ni            0.3315535201        0.1657772600        0.7500000000
Ni            0.5000000000        0.0000000000        0.5000000000
Ni            0.5000000000        0.5000000000        0.0000000000
Ni            0.5000000000        0.0000000000       -0.0000000000
Ni            0.5000000000        0.5000000000        0.5000000000
Ni           -0.0000000000        0.5000000000       -0.0000000000
Ni           -0.0000000000        0.5000000000        0.5000000000
End final coordinates



     Writing all to output data dir ./ACOptimization/out/iso.save/
 
     init_run     :      9.19s CPU      9.51s WALL (       1 calls)
     electrons    :   3883.58s CPU   3885.85s WALL (       8 calls)
     update_pot   :     21.18s CPU     21.18s WALL (       7 calls)
     forces       :     37.59s CPU     37.59s WALL (       8 calls)

     Called by init_run:
     wfcinit      :      5.97s CPU      6.14s WALL (       1 calls)
                                        6.14s GPU  (       1 calls)
     potinit      :      2.59s CPU      2.62s WALL (       1 calls)
     hinit0       :      0.36s CPU      0.38s WALL (       1 calls)

     Called by electrons:
     c_bands      :   3050.35s CPU   3051.73s WALL (     167 calls)
     sum_band     :    389.63s CPU    389.91s WALL (     167 calls)
     v_of_rho     :      4.93s CPU      4.95s WALL (     171 calls)
     newd         :     43.48s CPU     47.74s WALL (     171 calls)
                                       30.92s GPU  (     164 calls)
     PAW_pot      :    402.21s CPU    402.16s WALL (     178 calls)
     mix_rho      :     29.78s CPU     30.27s WALL (     167 calls)

     Called by c_bands:
     init_us_2    :      2.36s CPU      2.37s WALL (    1050 calls)
     init_us_2:cp :      0.29s CPU      0.29s WALL (      21 calls)
     init_us_2:gp :      2.06s CPU      2.07s WALL (    1029 calls)
     cegterg      :   2983.15s CPU   2984.52s WALL (     501 calls)

     Called by *egterg:
     cdiaghg      :    146.05s CPU    146.49s WALL (    1786 calls)
                                      146.47s GPU  (    1786 calls)
     h_psi        :   1333.59s CPU   1335.00s WALL (    1822 calls)
                                     1334.49s GPU  (    1822 calls)
     s_psi        :     13.09s CPU    255.07s WALL (    1822 calls)
                                      253.96s GPU  (    1822 calls)
     g_psi        :      0.01s CPU      2.17s WALL (    1318 calls)
                                        2.15s GPU  (    1318 calls)

     Called by h_psi:
     h_psi:calbec :      0.11s CPU    255.51s WALL (    1822 calls)
                                      255.49s GPU  (    1822 calls)
     vloc_psi     :    826.71s CPU    828.08s WALL (    1822 calls)
                                      828.05s GPU  (    1822 calls)
     add_vuspsi   :      7.13s CPU    249.16s WALL (    1822 calls)
                                      249.13s GPU  (    1822 calls)

     General routines
     calbec       :     38.21s CPU     19.20s WALL (    2440 calls)
     fft          :      4.48s CPU      6.24s WALL (    4274 calls)
                                        1.78s GPU  (    3590 calls)
     ffts         :      1.97s CPU      2.86s WALL (    4855 calls)
                                        0.94s GPU  (    4171 calls)
     fftw         :     14.90s CPU    560.34s WALL ( 2535916 calls)
                                      548.48s GPU  ( 2535916 calls)
     interpolate  :      7.37s CPU      7.37s WALL (     684 calls)
 
     Parallel routines
 
     PWSCF        :      1h 7m CPU      1h 6m WALL

 
   This run was terminated on:  20:50:50  19Mar2026            

=------------------------------------------------------------------------------=
   JOB DONE.
=------------------------------------------------------------------------------=
