
     Program PWSCF v.7.2 starts on 19Mar2026 at 21:43:47 

     This program is part of the open-source Quantum ESPRESSO suite
     for quantum simulation of materials; please cite
         "P. Giannozzi et al., J. Phys.:Condens. Matter 21 395502 (2009);
         "P. Giannozzi et al., J. Phys.:Condens. Matter 29 465901 (2017);
         "P. Giannozzi et al., J. Chem. Phys. 152 154105 (2020);
          URL http://www.quantum-espresso.org", 
     in publications or presentations arising from this work. More details at
     http://www.quantum-espresso.org/quote

     Parallel version (MPI), running on     1 processors

     MPI processes distributed on     1 nodes
     4776 MiB available memory on the printing compute node when the environment starts
 
     Reading input from ACOptimization/in/iso_006.in
Warning: card &CELL ignored
Warning: card   CELL_DOFREE = 'ALL', ignored
Warning: card   CELL_DYNAMICS = 'BFGS', ignored
Warning: card   PRESS = 0.0, ignored
Warning: card   PRESS_CONV_THR = 0.01, ignored
Warning: card / ignored

     Current dimensions of program PWSCF are:
     Max number of different atomic species (ntypx) = 10
     Max number of k-points (npk) =  40000
     Max angular momentum in pseudopotentials (lmaxx) =  4
     file Mg.rel-pbesol-spnl-kjpaw_psl.1.0.0.UPF: wavefunction(s)  2P 2P renormalized
     file Ni.rel-pbesol-spn-kjpaw_psl.1.0.0.UPF: wavefunction(s)  3P 3P 3D 3D renormalized
     Message from routine setup:
     using ibrav=0 with symmetry is DISCOURAGED, use correct ibrav instead
 
     Subspace diagonalization in iterative solution of the eigenvalue problem:
     a serial algorithm will be used

 
     G-vector sticks info
     --------------------
     sticks:   dense  smooth     PW     G-vecs:    dense   smooth      PW
     Sum        2383    1177    337               305467   107921   16189
 
     Using Slab Decomposition
 

     Title: 
     Optimisation A C for MgNi2                                                 


     bravais-lattice index     =            0
     lattice parameter (alat)  =       9.2655  a.u.
     unit-cell volume          =    2259.9682 (a.u.)^3
     number of atoms/cell      =           24
     number of atomic types    =            2
     number of electrons       =       368.00
     number of Kohn-Sham states=          442
     kinetic-energy cutoff     =      50.0000  Ry
     charge density cutoff     =     400.0000  Ry
     scf convergence threshold =      1.0E-08
     mixing beta               =       0.1000
     number of iterations used =           20  local-TF  mixing
     energy convergence thresh.=      1.0E-05
     force convergence thresh. =      1.0E-03
     Exchange-correlation= SLA  PW   PSX  PSC
                           (   1   4  10   8   0   0   0)
     nstep                     =           50

     Non magnetic calculation with spin-orbit


     GPU acceleration is ACTIVE.


     celldm(1)=   9.265509  celldm(2)=   0.000000  celldm(3)=   0.000000
     celldm(4)=   0.000000  celldm(5)=   0.000000  celldm(6)=   0.000000

     crystal axes: (cart. coord. in units of alat)
               a(1) = (   1.000000   0.000000   0.000000 )  
               a(2) = (  -0.500000   0.866025   0.000000 )  
               a(3) = (   0.000000   0.000000   3.280680 )  

     reciprocal axes: (cart. coord. in units 2 pi/alat)
               b(1) = (  1.000000  0.577350 -0.000000 )  
               b(2) = (  0.000000  1.154700  0.000000 )  
               b(3) = (  0.000000 -0.000000  0.304815 )  


     PseudoPot. # 1 for Mg read from file:
     ./pseudo/Mg.rel-pbesol-spnl-kjpaw_psl.1.0.0.UPF
     MD5 check sum: e6ee56211aa1e9c295d50625d03707fa
     Pseudo is Projector augmented-wave + core cor, Zval = 10.0
     Generated using &quot;atomic&quot; code by A. Dal Corso  v.6.3
     Shape of augmentation charge: PSQ
     Using radial grid of 1129 points,  6 beta functions with: 
                l(1) =   0
                l(2) =   0
                l(3) =   1
                l(4) =   1
                l(5) =   1
                l(6) =   1
     Q(r) pseudized with 0 coefficients 


     PseudoPot. # 2 for Ni read from file:
     ./pseudo/Ni.rel-pbesol-spn-kjpaw_psl.1.0.0.UPF
     MD5 check sum: 1fa4c2409eb3b84dc9841cc3f54c2f43
     Pseudo is Projector augmented-wave + core cor, Zval = 18.0
     Generated using &quot;atomic&quot; code by A. Dal Corso  v.6.3
     Shape of augmentation charge: PSQ
     Using radial grid of 1195 points, 10 beta functions with: 
                l(1) =   0
                l(2) =   0
                l(3) =   1
                l(4) =   1
                l(5) =   1
                l(6) =   1
                l(7) =   2
                l(8) =   2
                l(9) =   2
               l(10) =   2
     Q(r) pseudized with 0 coefficients 


     atomic species   valence    mass     pseudopotential
        Mg            10.00    24.30500     Mg( 1.00)
        Ni            18.00    58.69340     Ni( 1.00)

     24 Sym. Ops., with inversion, found (12 have fractional translation)



   Cartesian axes

     site n.     atom                  positions (alat units)
         1           Mg  tau(   1) = (   0.0000000   0.0000000   1.3319561  )
         2           Mg  tau(   2) = (   0.0000000   0.0000000   2.9722961  )
         3           Mg  tau(   3) = (   0.0000000   0.0000000   1.9487239  )
         4           Mg  tau(   4) = (   0.0000000   0.0000000   0.3083839  )
         5           Mg  tau(   5) = (  -0.0000005   0.5773506   2.1514699  )
         6           Mg  tau(   6) = (   0.5000005   0.2886749   0.5111299  )
         7           Mg  tau(   7) = (   0.5000005   0.2886749   1.1292101  )
         8           Mg  tau(   8) = (  -0.0000005   0.5773506   2.7695501  )
         9           Ni  tau(   9) = (  -0.0000005   0.5773506   1.2297957  )
        10           Ni  tau(  10) = (   0.5000005   0.2886749   2.8701357  )
        11           Ni  tau(  11) = (   0.5000005   0.2886749   2.0508843  )
        12           Ni  tau(  12) = (  -0.0000005   0.5773506   0.4105443  )
        13           Ni  tau(  13) = (   0.0000005   0.2886749   0.8201700  )
        14           Ni  tau(  14) = (   0.7499995   0.1443379   2.4605100  )
        15           Ni  tau(  15) = (   0.4999995   0.5773506   2.4605100  )
        16           Ni  tau(  16) = (  -0.2499995   0.7216876   0.8201700  )
        17           Ni  tau(  17) = (   0.2500005   0.7216876   0.8201700  )
        18           Ni  tau(  18) = (   0.2499995   0.1443379   2.4605100  )
        19           Ni  tau(  19) = (   0.5000000   0.0000000   1.6403400  )
        20           Ni  tau(  20) = (   0.2500000   0.4330127   0.0000000  )
        21           Ni  tau(  21) = (   0.5000000   0.0000000   0.0000000  )
        22           Ni  tau(  22) = (   0.2500000   0.4330127   1.6403400  )
        23           Ni  tau(  23) = (  -0.2500000   0.4330127   0.0000000  )
        24           Ni  tau(  24) = (  -0.2500000   0.4330127   1.6403400  )

     number of k points=     3  Marzari-Vanderbilt smearing, width (Ry)=  0.0300
                       cart. coord. in units 2pi/alat
        k(    1) = (   0.0000000   0.0000000   0.0000000), wk =   0.1111111
        k(    2) = (   0.0000000   0.3849002   0.0000000), wk =   0.6666667
        k(    3) = (   0.3333333   0.5773502   0.0000000), wk =   0.2222222

     Dense  grid:   305467 G-vectors     FFT dimensions: (  60,  60, 200)

     Smooth grid:   107921 G-vectors     FFT dimensions: (  45,  45, 144)

     Estimated max dynamical RAM per process >       4.81 GB

     Check: negative core charge=   -0.000015

     Initial potential from superposition of free atoms

     starting charge     367.9890, renormalised to     368.0000
     Starting wfcs are  400 randomized atomic wfcs +   42 random wfcs
     Checking if some PAW data can be deallocated... 

     total cpu time spent up to now is       10.2 secs

     Self-consistent Calculation

     iteration #  1     ecut=    50.00 Ry     beta= 0.10
     Davidson diagonalization with overlap
     ethr =  1.00E-02,  avg # of iterations =  5.0

     total cpu time spent up to now is       37.5 secs

     total energy              =   -7950.72669863 Ry
     estimated scf accuracy    <       8.12077437 Ry

     iteration #  2     ecut=    50.00 Ry     beta= 0.10
     Davidson diagonalization with overlap
     ethr =  2.21E-03,  avg # of iterations =  1.0

     total cpu time spent up to now is       56.2 secs

     total energy              =   -7949.93941075 Ry
     estimated scf accuracy    <       4.78324574 Ry

     iteration #  3     ecut=    50.00 Ry     beta= 0.10
     Davidson diagonalization with overlap
     ethr =  1.30E-03,  avg # of iterations =  2.0

     total cpu time spent up to now is       77.3 secs

     total energy              =   -7950.09608121 Ry
     estimated scf accuracy    <       0.76359177 Ry

     iteration #  4     ecut=    50.00 Ry     beta= 0.10
     Davidson diagonalization with overlap
     ethr =  2.07E-04,  avg # of iterations =  2.0

     total cpu time spent up to now is       98.4 secs

     total energy              =   -7950.07550900 Ry
     estimated scf accuracy    <       0.41556107 Ry

     iteration #  5     ecut=    50.00 Ry     beta= 0.10
     Davidson diagonalization with overlap
     ethr =  1.13E-04,  avg # of iterations =  2.0

     total cpu time spent up to now is      118.8 secs

     total energy              =   -7950.05124605 Ry
     estimated scf accuracy    <       0.32642072 Ry

     iteration #  6     ecut=    50.00 Ry     beta= 0.10
     Davidson diagonalization with overlap
     ethr =  8.87E-05,  avg # of iterations =  1.7

     total cpu time spent up to now is      139.0 secs

     total energy              =   -7950.05949656 Ry
     estimated scf accuracy    <       0.26471827 Ry

     iteration #  7     ecut=    50.00 Ry     beta= 0.10
     Davidson diagonalization with overlap
     ethr =  7.19E-05,  avg # of iterations =  1.0

     total cpu time spent up to now is      157.6 secs

     total energy              =   -7950.00730708 Ry
     estimated scf accuracy    <       0.25778230 Ry

     iteration #  8     ecut=    50.00 Ry     beta= 0.10
     Davidson diagonalization with overlap
     ethr =  7.00E-05,  avg # of iterations =  5.0

     total cpu time spent up to now is      181.9 secs

     total energy              =   -7949.98206726 Ry
     estimated scf accuracy    <       0.04010990 Ry

     iteration #  9     ecut=    50.00 Ry     beta= 0.10
     Davidson diagonalization with overlap
     c_bands:  1 eigenvalues not converged
     ethr =  1.09E-05,  avg # of iterations = 16.3

     total cpu time spent up to now is      213.1 secs

     total energy              =   -7950.00170458 Ry
     estimated scf accuracy    <       0.02139585 Ry

     iteration # 10     ecut=    50.00 Ry     beta= 0.10
     Davidson diagonalization with overlap
     ethr =  5.81E-06,  avg # of iterations =  7.3

     total cpu time spent up to now is      238.7 secs

     total energy              =   -7950.01456729 Ry
     estimated scf accuracy    <       0.02383187 Ry

     iteration # 11     ecut=    50.00 Ry     beta= 0.10
     Davidson diagonalization with overlap
     ethr =  5.81E-06,  avg # of iterations =  1.0

     total cpu time spent up to now is      257.5 secs

     total energy              =   -7950.01466182 Ry
     estimated scf accuracy    <       0.00988492 Ry

     iteration # 12     ecut=    50.00 Ry     beta= 0.10
     Davidson diagonalization with overlap
     c_bands:  1 eigenvalues not converged
     ethr =  2.69E-06,  avg # of iterations =  8.0

     total cpu time spent up to now is      282.7 secs

     total energy              =   -7950.01831718 Ry
     estimated scf accuracy    <       0.00447003 Ry

     iteration # 13     ecut=    50.00 Ry     beta= 0.10
     Davidson diagonalization with overlap
     ethr =  1.21E-06,  avg # of iterations =  3.7

     total cpu time spent up to now is      309.4 secs

     total energy              =   -7950.02332413 Ry
     estimated scf accuracy    <       0.04348701 Ry

     iteration # 14     ecut=    50.00 Ry     beta= 0.10
     Davidson diagonalization with overlap
     ethr =  1.21E-06,  avg # of iterations =  2.0

     total cpu time spent up to now is      333.2 secs

     total energy              =   -7950.02487820 Ry
     estimated scf accuracy    <       0.01324272 Ry

     iteration # 15     ecut=    50.00 Ry     beta= 0.10
     Davidson diagonalization with overlap
     ethr =  1.21E-06,  avg # of iterations =  2.0

     total cpu time spent up to now is      354.9 secs

     total energy              =   -7950.02614265 Ry
     estimated scf accuracy    <       0.01004769 Ry

     iteration # 16     ecut=    50.00 Ry     beta= 0.10
     Davidson diagonalization with overlap
     ethr =  1.21E-06,  avg # of iterations =  2.0

     total cpu time spent up to now is      377.6 secs

     total energy              =   -7950.02661317 Ry
     estimated scf accuracy    <       0.01082726 Ry

     iteration # 17     ecut=    50.00 Ry     beta= 0.10
     Davidson diagonalization with overlap
     ethr =  1.21E-06,  avg # of iterations =  1.0

     total cpu time spent up to now is      396.3 secs

     total energy              =   -7950.02645264 Ry
     estimated scf accuracy    <       0.00940186 Ry

     iteration # 18     ecut=    50.00 Ry     beta= 0.10
     Davidson diagonalization with overlap
     ethr =  1.21E-06,  avg # of iterations =  1.0

     total cpu time spent up to now is      415.8 secs

     total energy              =   -7950.02630060 Ry
     estimated scf accuracy    <       0.00198412 Ry

     iteration # 19     ecut=    50.00 Ry     beta= 0.10
     Davidson diagonalization with overlap
     ethr =  5.39E-07,  avg # of iterations =  1.0

     total cpu time spent up to now is      434.6 secs

     total energy              =   -7950.02626262 Ry
     estimated scf accuracy    <       0.00171232 Ry

     iteration # 20     ecut=    50.00 Ry     beta= 0.10
     Davidson diagonalization with overlap
     ethr =  4.65E-07,  avg # of iterations =  1.3

     total cpu time spent up to now is      454.2 secs

     total energy              =   -7950.02633647 Ry
     estimated scf accuracy    <       0.00025947 Ry

     iteration # 21     ecut=    50.00 Ry     beta= 0.10
     Davidson diagonalization with overlap
     ethr =  7.05E-08,  avg # of iterations =  2.0

     total cpu time spent up to now is      477.6 secs

     total energy              =   -7950.02638806 Ry
     estimated scf accuracy    <       0.00009725 Ry

     iteration # 22     ecut=    50.00 Ry     beta= 0.10
     Davidson diagonalization with overlap
     ethr =  2.64E-08,  avg # of iterations =  1.0

     total cpu time spent up to now is      496.4 secs

     total energy              =   -7950.02638348 Ry
     estimated scf accuracy    <       0.00013195 Ry

     iteration # 23     ecut=    50.00 Ry     beta= 0.10
     Davidson diagonalization with overlap
     ethr =  2.64E-08,  avg # of iterations =  1.0

     total cpu time spent up to now is      515.2 secs

     total energy              =   -7950.02638421 Ry
     estimated scf accuracy    <       0.00001434 Ry

     iteration # 24     ecut=    50.00 Ry     beta= 0.10
     Davidson diagonalization with overlap
     ethr =  3.90E-09,  avg # of iterations =  1.3

     total cpu time spent up to now is      534.9 secs

     total energy              =   -7950.02638641 Ry
     estimated scf accuracy    <       0.00000411 Ry

     iteration # 25     ecut=    50.00 Ry     beta= 0.10
     Davidson diagonalization with overlap
     ethr =  1.12E-09,  avg # of iterations =  1.0

     total cpu time spent up to now is      553.7 secs

     total energy              =   -7950.02638747 Ry
     estimated scf accuracy    <       0.00000015 Ry

     iteration # 26     ecut=    50.00 Ry     beta= 0.10
     Davidson diagonalization with overlap
     ethr =  4.10E-11,  avg # of iterations =  5.0

     total cpu time spent up to now is      579.4 secs

     End of self-consistent calculation

          k = 0.0000 0.0000 0.0000 ( 13497 PWs)   bands (ev):

   -90.6504 -90.6504 -90.6494 -90.6494 -90.6490 -90.6490 -90.6479 -90.6479
   -90.6003 -90.6003 -90.6002 -90.6002 -90.5866 -90.5866 -90.5865 -90.5865
   -90.5805 -90.5805 -90.5805 -90.5805 -90.5805 -90.5805 -90.5804 -90.5804
   -90.5666 -90.5666 -90.5666 -90.5666 -90.5665 -90.5665 -90.5665 -90.5665
   -63.0549 -63.0549 -63.0549 -63.0549 -63.0539 -63.0539 -63.0538 -63.0538
   -63.0009 -63.0009 -63.0008 -63.0008 -62.9998 -62.9998 -62.9998 -62.9998
   -52.6399 -52.6399 -52.6299 -52.6299 -52.6284 -52.6284 -52.6213 -52.6213
   -52.5917 -52.5917 -52.5875 -52.5875 -52.5839 -52.5839 -52.5800 -52.5800
   -52.5784 -52.5784 -52.5764 -52.5764 -52.5701 -52.5701 -52.5678 -52.5678
   -52.5151 -52.5151 -52.5122 -52.5122 -52.5028 -52.5028 -52.4973 -52.4973
   -50.5206 -50.5206 -50.5128 -50.5128 -50.4988 -50.4988 -50.4952 -50.4952
   -50.4778 -50.4778 -50.4731 -50.4731 -50.4636 -50.4636 -50.4590 -50.4590
   -50.4194 -50.4194 -50.4128 -50.4128 -50.4033 -50.4033 -50.4027 -50.4027
   -50.4024 -50.4024 -50.3939 -50.3939 -50.3882 -50.3882 -50.3658 -50.3658
   -50.3551 -50.3551 -50.3362 -50.3362 -50.3308 -50.3308 -50.3208 -50.3208
   -50.3160 -50.3160 -50.3133 -50.3133 -50.2946 -50.2946 -50.2879 -50.2879
   -50.2865 -50.2865 -50.2858 -50.2858 -50.2822 -50.2822 -50.2805 -50.2805
   -50.2521 -50.2521 -50.2499 -50.2499 -50.2487 -50.2487 -50.2461 -50.2461
   -30.1852 -30.1852 -30.1850 -30.1850 -30.1812 -30.1812 -30.1810 -30.1810
   -30.1298 -30.1298 -30.1297 -30.1297 -30.1257 -30.1257 -30.1255 -30.1255
   -29.8997 -29.8997 -29.8994 -29.8994 -29.8982 -29.8982 -29.8981 -29.8981
   -29.8969 -29.8969 -29.8968 -29.8968 -29.8899 -29.8899 -29.8896 -29.8896
   -29.8455 -29.8455 -29.8453 -29.8453 -29.8408 -29.8408 -29.8408 -29.8408
   -29.8395 -29.8395 -29.8393 -29.8393 -29.8354 -29.8354 -29.8352 -29.8352
     3.9220   3.9220   4.5001   4.5001   4.5280   4.5280   5.9173   5.9173
     6.5290   6.5290   7.9178   7.9178   7.9614   7.9614   7.9731   7.9731
     8.5003   8.5003   8.5564   8.5564   8.6690   8.6690   8.7156   8.7156
     8.8700   8.8700   8.8731   8.8731   8.8928   8.8928   8.9113   8.9113
     8.9391   8.9391   8.9402   8.9402   9.0199   9.0199   9.0414   9.0414
     9.1000   9.1000   9.1518   9.1518   9.1631   9.1631   9.1634   9.1634
     9.1832   9.1832   9.2489   9.2489   9.2879   9.2879   9.3212   9.3212
     9.3331   9.3331   9.3858   9.3858   9.6470   9.6470   9.6542   9.6542
     9.6544   9.6544   9.6800   9.6800   9.6851   9.6851   9.7138   9.7138
     9.8858   9.8858   9.9461   9.9461  10.0063  10.0063  10.0169  10.0169
    10.0655  10.0655  10.1164  10.1164  10.1489  10.1489  10.1506  10.1506
    10.2874  10.2874  10.3052  10.3052  10.5388  10.5388  10.6732  10.6732
    10.7195  10.7195  10.7451  10.7451  10.7608  10.7608  10.8013  10.8013
    10.8968  10.8968  10.9509  10.9509  11.0330  11.0330  11.0445  11.0445
    11.1584  11.1584  11.1675  11.1675  11.2434  11.2434  11.2447  11.2447
    11.2575  11.2575  11.2585  11.2585  11.2622  11.2622  11.2640  11.2640
    11.2730  11.2730  11.2904  11.2904  11.2988  11.2988  11.3106  11.3106
    11.3276  11.3276  11.3292  11.3292  11.3472  11.3472  11.3656  11.3656
    11.3917  11.3917  11.4192  11.4192  11.4203  11.4203  11.4356  11.4356
    11.4506  11.4506  11.4745  11.4745  11.5485  11.5485  11.7617  11.7617
    11.8141  11.8141  12.0296  12.0296  12.0315  12.0315  12.2304  12.2304
    12.2323  12.2323  12.2478  12.2478  12.2479  12.2479  12.6238  12.6238
    12.7199  12.7199  12.8646  12.8646  12.9226  12.9226  12.9837  12.9837
    12.9967  12.9967  13.0111  13.0111  13.0144  13.0144  13.0471  13.0471
    13.3058  13.3058  13.3341  13.3341  13.3501  13.3501  13.3988  13.3988
    14.6325  14.6325  14.6845  14.6845  14.7100  14.7100  14.7210  14.7210
    15.0660  15.0660  15.1101  15.1101  15.5465  15.5465  15.5652  15.5652
    16.0742  16.0742  16.1369  16.1369  16.1535  16.1535  16.2213  16.2213
    16.3107  16.3107  16.5143  16.5143  16.9869  16.9869  16.9988  16.9988
    17.4719  17.4719  17.5028  17.5028  17.5227  17.5227  18.0068  18.0068
    18.0674  18.0674  18.0729  18.0729  18.1985  18.1985  19.6556  19.6556
    19.6729  19.6729

          k = 0.0000 0.3849 0.0000 ( 13496 PWs)   bands (ev):

   -90.6500 -90.6500 -90.6494 -90.6494 -90.6487 -90.6487 -90.6481 -90.6481
   -90.5962 -90.5962 -90.5962 -90.5962 -90.5848 -90.5848 -90.5847 -90.5847
   -90.5825 -90.5825 -90.5823 -90.5823 -90.5805 -90.5805 -90.5805 -90.5805
   -90.5709 -90.5709 -90.5709 -90.5709 -90.5666 -90.5666 -90.5665 -90.5665
   -63.0549 -63.0549 -63.0549 -63.0549 -63.0538 -63.0538 -63.0537 -63.0537
   -63.0009 -63.0009 -63.0009 -63.0009 -62.9998 -62.9998 -62.9998 -62.9998
   -52.6369 -52.6369 -52.6320 -52.6320 -52.6304 -52.6304 -52.6224 -52.6224
   -52.5852 -52.5852 -52.5833 -52.5833 -52.5726 -52.5726 -52.5716 -52.5716
   -52.5699 -52.5699 -52.5687 -52.5687 -52.5567 -52.5567 -52.5554 -52.5554
   -52.5320 -52.5320 -52.5305 -52.5305 -52.5173 -52.5173 -52.5168 -52.5168
   -50.5154 -50.5154 -50.5087 -50.5087 -50.5047 -50.5047 -50.4949 -50.4949
   -50.4582 -50.4582 -50.4536 -50.4536 -50.4518 -50.4518 -50.4487 -50.4487
   -50.4108 -50.4108 -50.4100 -50.4100 -50.4084 -50.4084 -50.4027 -50.4027
   -50.3929 -50.3929 -50.3888 -50.3888 -50.3855 -50.3855 -50.3702 -50.3702
   -50.3554 -50.3554 -50.3428 -50.3428 -50.3419 -50.3419 -50.3356 -50.3356
   -50.3180 -50.3180 -50.3154 -50.3154 -50.3024 -50.3024 -50.2996 -50.2996
   -50.2901 -50.2901 -50.2895 -50.2895 -50.2851 -50.2851 -50.2826 -50.2826
   -50.2662 -50.2662 -50.2650 -50.2650 -50.2510 -50.2510 -50.2486 -50.2486
   -30.1847 -30.1847 -30.1846 -30.1846 -30.1808 -30.1808 -30.1807 -30.1807
   -30.1305 -30.1305 -30.1304 -30.1304 -30.1265 -30.1265 -30.1264 -30.1264
   -29.9000 -29.9000 -29.8999 -29.8999 -29.8974 -29.8974 -29.8973 -29.8973
   -29.8960 -29.8960 -29.8958 -29.8958 -29.8902 -29.8902 -29.8901 -29.8901
   -29.8451 -29.8451 -29.8451 -29.8451 -29.8416 -29.8416 -29.8415 -29.8415
   -29.8401 -29.8401 -29.8400 -29.8400 -29.8352 -29.8352 -29.8351 -29.8351
     4.8542   4.8542   5.4077   5.4077   5.4380   5.4380   6.7886   6.7886
     7.2337   7.2337   7.4246   7.4246   7.7318   7.7318   7.7709   7.7709
     8.3443   8.3443   8.3815   8.3815   8.5177   8.5177   8.6074   8.6074
     8.6725   8.6725   8.7901   8.7901   8.8495   8.8495   8.9167   8.9167
     9.0045   9.0045   9.0523   9.0523   9.0933   9.0933   9.1275   9.1275
     9.1332   9.1332   9.1409   9.1409   9.2474   9.2474   9.3576   9.3576
     9.3976   9.3976   9.4485   9.4485   9.4927   9.4927   9.5436   9.5436
     9.5635   9.5635   9.5913   9.5913   9.5985   9.5985   9.6803   9.6803
     9.6841   9.6841   9.7197   9.7197   9.7255   9.7255   9.7843   9.7843
     9.8160   9.8160   9.8243   9.8243   9.8878   9.8878   9.9275   9.9275
     9.9972   9.9972  10.0396  10.0396  10.0647  10.0647  10.0799  10.0799
    10.1308  10.1308  10.2178  10.2178  10.2446  10.2446  10.2956  10.2956
    10.3028  10.3028  10.3955  10.3955  10.4098  10.4098  10.4659  10.4659
    10.4815  10.4815  10.5389  10.5389  10.5978  10.5978  10.6058  10.6058
    10.6252  10.6252  10.6750  10.6750  10.7574  10.7574  10.7724  10.7724
    10.8404  10.8404  10.8704  10.8704  10.8939  10.8939  10.9258  10.9258
    10.9880  10.9880  11.0046  11.0046  11.0134  11.0134  11.0607  11.0607
    11.0714  11.0714  11.1249  11.1249  11.1574  11.1574  11.2072  11.2072
    11.2168  11.2168  11.2915  11.2915  11.2997  11.2997  11.3133  11.3133
    11.3575  11.3575  11.3622  11.3622  11.3706  11.3706  11.3963  11.3963
    11.4529  11.4529  11.4760  11.4760  11.4926  11.4926  11.5773  11.5773
    11.6038  11.6038  11.6687  11.6687  11.7378  11.7378  11.8452  11.8452
    12.0930  12.0930  12.1701  12.1701  12.4878  12.4878  12.5044  12.5044
    12.7007  12.7007  12.8009  12.8009  12.8895  12.8895  13.0339  13.0339
    13.1146  13.1146  13.1314  13.1314  13.2340  13.2340  13.4385  13.4385
    14.0059  14.0059  14.4292  14.4292  14.7204  14.7204  14.7621  14.7621
    15.9395  15.9395  16.4580  16.4580  16.5029  16.5029  16.6001  16.6001
    17.3684  17.3684  17.4262  17.4262  17.4766  17.4766  17.5911  17.5911
    17.6846  17.6846  17.8455  17.8455  18.2421  18.2421  18.6209  18.6209
    18.7400  18.7400  18.7914  18.7914  19.2528  19.2528  19.3378  19.3378
    19.6358  19.6358  19.9852  19.9852  20.3246  20.3246  20.6258  20.6260
    20.6756  20.6756

          k = 0.3333 0.5774 0.0000 ( 13500 PWs)   bands (ev):

   -90.6496 -90.6496 -90.6496 -90.6496 -90.6484 -90.6484 -90.6484 -90.6484
   -90.5911 -90.5911 -90.5911 -90.5911 -90.5899 -90.5899 -90.5899 -90.5899
   -90.5805 -90.5805 -90.5805 -90.5805 -90.5767 -90.5767 -90.5767 -90.5767
   -90.5766 -90.5766 -90.5766 -90.5766 -90.5666 -90.5666 -90.5666 -90.5666
   -63.0548 -63.0548 -63.0548 -63.0548 -63.0538 -63.0538 -63.0538 -63.0538
   -63.0010 -63.0010 -63.0009 -63.0009 -62.9999 -62.9999 -62.9998 -62.9998
   -52.6336 -52.6336 -52.6335 -52.6335 -52.6284 -52.6284 -52.6283 -52.6283
   -52.5832 -52.5832 -52.5829 -52.5829 -52.5721 -52.5721 -52.5692 -52.5692
   -52.5556 -52.5556 -52.5520 -52.5520 -52.5505 -52.5505 -52.5488 -52.5488
   -52.5411 -52.5411 -52.5374 -52.5374 -52.5357 -52.5357 -52.5330 -52.5330
   -50.5105 -50.5105 -50.5093 -50.5093 -50.5037 -50.5037 -50.5019 -50.5019
   -50.4390 -50.4390 -50.4372 -50.4372 -50.4357 -50.4357 -50.4324 -50.4324
   -50.4256 -50.4256 -50.4247 -50.4247 -50.4215 -50.4215 -50.4123 -50.4123
   -50.3878 -50.3878 -50.3834 -50.3834 -50.3779 -50.3779 -50.3667 -50.3667
   -50.3528 -50.3528 -50.3515 -50.3515 -50.3440 -50.3440 -50.3436 -50.3436
   -50.3238 -50.3238 -50.3135 -50.3135 -50.3048 -50.3048 -50.3029 -50.3029
   -50.2916 -50.2916 -50.2899 -50.2899 -50.2877 -50.2877 -50.2835 -50.2835
   -50.2741 -50.2741 -50.2695 -50.2695 -50.2545 -50.2545 -50.2539 -50.2539
   -30.1846 -30.1846 -30.1844 -30.1844 -30.1807 -30.1807 -30.1804 -30.1804
   -30.1309 -30.1309 -30.1309 -30.1309 -30.1269 -30.1269 -30.1268 -30.1268
   -29.9009 -29.9009 -29.8994 -29.8994 -29.8973 -29.8973 -29.8973 -29.8973
   -29.8951 -29.8951 -29.8950 -29.8950 -29.8913 -29.8913 -29.8896 -29.8896
   -29.8451 -29.8451 -29.8450 -29.8450 -29.8422 -29.8422 -29.8421 -29.8421
   -29.8402 -29.8402 -29.8400 -29.8400 -29.8351 -29.8351 -29.8350 -29.8350
     6.4019   6.4019   6.4025   6.4025   6.8347   6.8347   6.9471   6.9471
     6.9520   6.9520   7.1311   7.1311   7.2382   7.2382   7.2430   7.2430
     7.4548   7.4548   8.2712   8.2712   8.2722   8.2722   8.2788   8.2788
     8.2851   8.2851   8.3339   8.3339   8.4022   8.4022   9.0348   9.0348
     9.0389   9.0389   9.0527   9.0527   9.1538   9.1538   9.1672   9.1672
     9.3193   9.3193   9.3501   9.3501   9.4500   9.4500   9.4651   9.4651
     9.5392   9.5392   9.5397   9.5397   9.5819   9.5819   9.5895   9.5895
     9.6080   9.6080   9.6135   9.6135   9.6851   9.6851   9.7356   9.7356
     9.7465   9.7465   9.7548   9.7548   9.7708   9.7708   9.7762   9.7762
     9.7912   9.7912   9.8414   9.8414   9.8537   9.8537   9.8676   9.8676
     9.8883   9.8883   9.8885   9.8885   9.9285   9.9285   9.9387   9.9387
    10.0016  10.0016  10.0027  10.0027  10.0351  10.0351  10.0444  10.0444
    10.0785  10.0785  10.2215  10.2215  10.2350  10.2350  10.2490  10.2490
    10.3533  10.3533  10.4659  10.4659  10.4838  10.4838  10.4972  10.4972
    10.5346  10.5346  10.5547  10.5547  10.6971  10.6971  10.7018  10.7018
    10.7726  10.7726  10.8015  10.8015  10.8161  10.8161  10.8327  10.8327
    10.8736  10.8736  10.8926  10.8926  10.9036  10.9036  10.9905  10.9905
    11.0312  11.0312  11.0578  11.0578  11.0706  11.0706  11.0760  11.0760
    11.0952  11.0952  11.1080  11.1080  11.1122  11.1122  11.1539  11.1539
    11.1652  11.1652  11.1749  11.1749  11.2342  11.2342  11.2832  11.2832
    11.4318  11.4318  11.4460  11.4460  11.5231  11.5231  11.5259  11.5259
    11.5456  11.5456  11.6108  11.6108  11.6227  11.6227  11.7134  11.7134
    11.7693  11.7693  11.8230  11.8230  11.8245  11.8245  12.0411  12.0411
    12.1531  12.1531  12.1643  12.1643  12.2285  12.2285  13.5309  13.5309
    13.5520  13.5520  13.5998  13.5998  13.7661  13.7661  13.7732  13.7732
    14.3310  14.3310  16.1237  16.1237  16.1257  16.1257  16.2789  16.2789
    16.5255  16.5255  16.5264  16.5264  17.0401  17.0401  17.1512  17.1512
    17.1522  17.1522  17.1854  17.1854  17.1933  17.1933  17.4693  17.4693
    17.6614  17.6614  18.0063  18.0063  18.1190  18.1190  18.1326  18.1326
    18.8647  18.8647  18.8673  18.8673  19.1093  19.1093  19.1229  19.1229
    19.2272  19.2272  19.7972  19.7972  21.2171  21.2171  21.2256  21.2256
    21.4063  21.4065

     the Fermi energy is    11.8909 ev

!    total energy              =   -7950.02639229 Ry
     total all-electron energy =    -51823.878476 Ry
     estimated scf accuracy    <          7.6E-09 Ry
     smearing contrib. (-TS)   =       0.11940024 Ry
     internal energy E=F+TS    =   -7950.14579253 Ry

     The total energy is F=E-TS. E is the sum of the following terms:
     one-electron contribution =   -4624.52183417 Ry
     hartree contribution      =    2453.33368870 Ry
     xc contribution           =    -680.98966594 Ry
     ewald contribution        =   -3559.86365364 Ry
     one-center paw contrib.   =   -1538.10432749 Ry

     convergence has been achieved in  26 iterations

     Forces acting on atoms (cartesian axes, Ry/au):

     atom    1 type  1   force =    -0.00000000   -0.00000000    0.00409335
     atom    2 type  1   force =     0.00000000    0.00000000    0.00409335
     atom    3 type  1   force =    -0.00000000   -0.00000000   -0.00409335
     atom    4 type  1   force =     0.00000000    0.00000000   -0.00409335
     atom    5 type  1   force =    -0.00000000   -0.00000000    0.00089282
     atom    6 type  1   force =     0.00000000    0.00000000    0.00089282
     atom    7 type  1   force =    -0.00000000   -0.00000000   -0.00089282
     atom    8 type  1   force =     0.00000000    0.00000000   -0.00089282
     atom    9 type  2   force =    -0.00000000   -0.00000000    0.00467766
     atom   10 type  2   force =    -0.00000000   -0.00000000    0.00467766
     atom   11 type  2   force =    -0.00000000   -0.00000000   -0.00467766
     atom   12 type  2   force =    -0.00000000   -0.00000000   -0.00467766
     atom   13 type  2   force =     0.00000000   -0.00298609    0.00000000
     atom   14 type  2   force =     0.00258603   -0.00149304   -0.00000000
     atom   15 type  2   force =     0.00000000    0.00298609    0.00000000
     atom   16 type  2   force =    -0.00258603    0.00149304    0.00000000
     atom   17 type  2   force =     0.00258603    0.00149304   -0.00000000
     atom   18 type  2   force =    -0.00258603   -0.00149304    0.00000000
     atom   19 type  2   force =     0.00000000    0.00000000    0.00000000
     atom   20 type  2   force =     0.00000000    0.00000000   -0.00000000
     atom   21 type  2   force =    -0.00000000   -0.00000000    0.00000000
     atom   22 type  2   force =    -0.00000000   -0.00000000    0.00000000
     atom   23 type  2   force =    -0.00000000   -0.00000000    0.00000000
     atom   24 type  2   force =     0.00000000    0.00000000    0.00000000
     The non-local contrib.  to forces
     atom    1 type  1   force =     0.00000000    0.00000000    0.02470147
     atom    2 type  1   force =     0.00000000    0.00000000    0.02470147
     atom    3 type  1   force =    -0.00000000   -0.00000000   -0.02470147
     atom    4 type  1   force =     0.00000000    0.00000000   -0.02470147
     atom    5 type  1   force =     0.00000000    0.00000000    0.00110118
     atom    6 type  1   force =     0.00000000   -0.00000000    0.00110118
     atom    7 type  1   force =    -0.00000000   -0.00000000   -0.00110118
     atom    8 type  1   force =     0.00000000    0.00000000   -0.00110118
     atom    9 type  2   force =    -0.00000000    0.00000000   -0.01006484
     atom   10 type  2   force =     0.00000000    0.00000000   -0.01006484
     atom   11 type  2   force =     0.00000000    0.00000000    0.01006484
     atom   12 type  2   force =    -0.00000000   -0.00000000    0.01006484
     atom   13 type  2   force =     0.00000000   -0.09369313    0.00000000
     atom   14 type  2   force =     0.08114064   -0.04684656   -0.00000000
     atom   15 type  2   force =     0.00000000    0.09369313    0.00000000
     atom   16 type  2   force =    -0.08114064    0.04684656    0.00000000
     atom   17 type  2   force =     0.08114064    0.04684656    0.00000000
     atom   18 type  2   force =    -0.08114064   -0.04684656    0.00000000
     atom   19 type  2   force =    -0.00000000    0.00000000   -0.00000000
     atom   20 type  2   force =     0.00000000   -0.00000000   -0.00000000
     atom   21 type  2   force =     0.00000000    0.00000000   -0.00000000
     atom   22 type  2   force =    -0.00000000    0.00000000   -0.00000000
     atom   23 type  2   force =    -0.00000000    0.00000000   -0.00000000
     atom   24 type  2   force =     0.00000000   -0.00000000    0.00000000
     The ionic contribution  to forces
     atom    1 type  1   force =    -0.00001462    0.00000964   -0.24956257
     atom    2 type  1   force =     0.00001462   -0.00000964   -0.24956257
     atom    3 type  1   force =     0.00001462   -0.00000964    0.24956257
     atom    4 type  1   force =    -0.00001462    0.00000964    0.24956257
     atom    5 type  1   force =     0.00005298   -0.00002925    0.06594787
     atom    6 type  1   force =    -0.00005298    0.00002925    0.06594787
     atom    7 type  1   force =    -0.00005298    0.00002925   -0.06594787
     atom    8 type  1   force =     0.00005298   -0.00002925   -0.06594787
     atom    9 type  2   force =     0.00005475   -0.00003154    1.20340150
     atom   10 type  2   force =    -0.00005475    0.00003154    1.20340150
     atom   11 type  2   force =    -0.00005475    0.00003154   -1.20340150
     atom   12 type  2   force =     0.00005475   -0.00003154   -1.20340150
     atom   13 type  2   force =     0.00006993  -15.02722018   -0.00000000
     atom   14 type  2   force =    13.01403468   -7.51365763    0.00000000
     atom   15 type  2   force =    -0.00006993   15.02722018    0.00000000
     atom   16 type  2   force =   -13.01403468    7.51365763   -0.00000000
     atom   17 type  2   force =    13.01398913    7.51355058   -0.00000000
     atom   18 type  2   force =   -13.01398913   -7.51355058    0.00000000
     atom   19 type  2   force =     0.00000000   -0.00000000   -0.00000000
     atom   20 type  2   force =    -0.00000000    0.00000000   -0.00000000
     atom   21 type  2   force =     0.00000000   -0.00000000   -0.00000000
     atom   22 type  2   force =    -0.00000000    0.00000000    0.00000000
     atom   23 type  2   force =    -0.00000000    0.00000000   -0.00000000
     atom   24 type  2   force =    -0.00000000    0.00000000   -0.00000000
     The local contribution  to forces
     atom    1 type  1   force =     0.00000000   -0.00000113    0.22911805
     atom    2 type  1   force =     0.00000000    0.00000113    0.22911805
     atom    3 type  1   force =    -0.00000000    0.00000113   -0.22911805
     atom    4 type  1   force =     0.00000000   -0.00000113   -0.22911805
     atom    5 type  1   force =     0.00149643   -0.00086522   -0.06616572
     atom    6 type  1   force =    -0.00149643    0.00086522   -0.06616572
     atom    7 type  1   force =    -0.00149643    0.00086522    0.06616572
     atom    8 type  1   force =     0.00149643   -0.00086522    0.06616572
     atom    9 type  2   force =     0.00198617   -0.00114678   -1.18692227
     atom   10 type  2   force =    -0.00198617    0.00114678   -1.18692227
     atom   11 type  2   force =    -0.00198617    0.00114678    1.18692227
     atom   12 type  2   force =     0.00198617   -0.00114678    1.18692227
     atom   13 type  2   force =    -0.00198474   15.11819862    0.00000000
     atom   14 type  2   force =   -13.08998860    7.55750952    0.00000000
     atom   15 type  2   force =     0.00198474  -15.11819862    0.00000000
     atom   16 type  2   force =    13.08998860   -7.55750952    0.00000000
     atom   17 type  2   force =   -13.09373623   -7.55738143    0.00000000
     atom   18 type  2   force =    13.09373623    7.55738143    0.00000000
     atom   19 type  2   force =     0.00000000    0.00000000    0.00000000
     atom   20 type  2   force =     0.00000000    0.00000000   -0.00000000
     atom   21 type  2   force =     0.00000000    0.00000000   -0.00000000
     atom   22 type  2   force =     0.00000000    0.00000000    0.00000000
     atom   23 type  2   force =    -0.00000000    0.00000000   -0.00000000
     atom   24 type  2   force =    -0.00000000    0.00000000    0.00000000
     The core correction contribution to forces
     atom    1 type  1   force =     0.00000000   -0.00000000   -0.00011382
     atom    2 type  1   force =    -0.00000000    0.00000000   -0.00011382
     atom    3 type  1   force =    -0.00000000    0.00000000    0.00011382
     atom    4 type  1   force =     0.00000000   -0.00000000    0.00011382
     atom    5 type  1   force =     0.00000324   -0.00000187   -0.00000608
     atom    6 type  1   force =    -0.00000324    0.00000187   -0.00000608
     atom    7 type  1   force =    -0.00000324    0.00000187    0.00000608
     atom    8 type  1   force =     0.00000324   -0.00000187    0.00000608
     atom    9 type  2   force =     0.00000121   -0.00000070   -0.00169276
     atom   10 type  2   force =    -0.00000121    0.00000070   -0.00169276
     atom   11 type  2   force =    -0.00000121    0.00000070    0.00169276
     atom   12 type  2   force =     0.00000121   -0.00000070    0.00169276
     atom   13 type  2   force =    -0.00000121    0.00082809    0.00000000
     atom   14 type  2   force =    -0.00071526    0.00041295    0.00000000
     atom   15 type  2   force =     0.00000121   -0.00082809    0.00000000
     atom   16 type  2   force =     0.00071526   -0.00041295   -0.00000000
     atom   17 type  2   force =    -0.00071775   -0.00041300    0.00000000
     atom   18 type  2   force =     0.00071775    0.00041300    0.00000000
     atom   19 type  2   force =     0.00000000    0.00000000    0.00000000
     atom   20 type  2   force =     0.00000000    0.00000000   -0.00000000
     atom   21 type  2   force =     0.00000000    0.00000000   -0.00000000
     atom   22 type  2   force =     0.00000000    0.00000000    0.00000000
     atom   23 type  2   force =     0.00000000    0.00000000   -0.00000000
     atom   24 type  2   force =    -0.00000000    0.00000000    0.00000000
     The Hubbard contrib.    to forces
     atom    1 type  1   force =     0.00000000    0.00000000    0.00000000
     atom    2 type  1   force =     0.00000000    0.00000000    0.00000000
     atom    3 type  1   force =     0.00000000    0.00000000    0.00000000
     atom    4 type  1   force =     0.00000000    0.00000000    0.00000000
     atom    5 type  1   force =     0.00000000    0.00000000    0.00000000
     atom    6 type  1   force =     0.00000000    0.00000000    0.00000000
     atom    7 type  1   force =     0.00000000    0.00000000    0.00000000
     atom    8 type  1   force =     0.00000000    0.00000000    0.00000000
     atom    9 type  2   force =     0.00000000    0.00000000    0.00000000
     atom   10 type  2   force =     0.00000000    0.00000000    0.00000000
     atom   11 type  2   force =     0.00000000    0.00000000    0.00000000
     atom   12 type  2   force =     0.00000000    0.00000000    0.00000000
     atom   13 type  2   force =     0.00000000    0.00000000    0.00000000
     atom   14 type  2   force =     0.00000000    0.00000000    0.00000000
     atom   15 type  2   force =     0.00000000    0.00000000    0.00000000
     atom   16 type  2   force =     0.00000000    0.00000000    0.00000000
     atom   17 type  2   force =     0.00000000    0.00000000    0.00000000
     atom   18 type  2   force =     0.00000000    0.00000000    0.00000000
     atom   19 type  2   force =     0.00000000    0.00000000    0.00000000
     atom   20 type  2   force =     0.00000000    0.00000000    0.00000000
     atom   21 type  2   force =     0.00000000    0.00000000    0.00000000
     atom   22 type  2   force =     0.00000000    0.00000000    0.00000000
     atom   23 type  2   force =     0.00000000    0.00000000    0.00000000
     atom   24 type  2   force =     0.00000000    0.00000000    0.00000000
     The SCF correction term to forces
     atom    1 type  1   force =     0.00000076   -0.00000044   -0.00004978
     atom    2 type  1   force =    -0.00000076    0.00000044   -0.00004978
     atom    3 type  1   force =    -0.00000076    0.00000044    0.00004978
     atom    4 type  1   force =     0.00000076   -0.00000044    0.00004978
     atom    5 type  1   force =    -0.00000076    0.00000044    0.00001556
     atom    6 type  1   force =     0.00000076   -0.00000044    0.00001556
     atom    7 type  1   force =     0.00000076   -0.00000044   -0.00001556
     atom    8 type  1   force =    -0.00000076    0.00000044   -0.00001556
     atom    9 type  2   force =    -0.00000524    0.00000302   -0.00004397
     atom   10 type  2   force =     0.00000524   -0.00000302   -0.00004397
     atom   11 type  2   force =     0.00000524   -0.00000302    0.00004397
     atom   12 type  2   force =    -0.00000524    0.00000302    0.00004397
     atom   13 type  2   force =    -0.00000058   -0.00000743    0.00000000
     atom   14 type  2   force =     0.00000601   -0.00000347   -0.00000000
     atom   15 type  2   force =     0.00000058    0.00000743   -0.00000000
     atom   16 type  2   force =    -0.00000601    0.00000347    0.00000000
     atom   17 type  2   force =     0.00000615    0.00000421    0.00000000
     atom   18 type  2   force =    -0.00000615   -0.00000421   -0.00000000
     atom   19 type  2   force =    -0.00000000    0.00000000    0.00000000
     atom   20 type  2   force =    -0.00000000    0.00000000    0.00000000
     atom   21 type  2   force =    -0.00000000   -0.00000000    0.00000000
     atom   22 type  2   force =     0.00000000   -0.00000000    0.00000000
     atom   23 type  2   force =    -0.00000000    0.00000000    0.00000000
     atom   24 type  2   force =    -0.00000000   -0.00000000    0.00000000

     Total force =     0.014534     Total SCF correction =     0.000138

     BFGS Geometry Optimization
     Energy error            =      0.0E+00 Ry
     Gradient error          =      4.7E-03 Ry/Bohr

     number of scf cycles    =   1
     number of bfgs steps    =   0

     energy             new  =   -7950.0263922899 Ry

     new trust radius        =       0.0046776615 bohr
     new conv_thr            =       0.0000000100 Ry


ATOMIC_POSITIONS (crystal)
Mg           -0.0000000000       -0.0000000000        0.4061346622
Mg            0.0000000000        0.0000000000        0.9061346622
Mg           -0.0000000000       -0.0000000000        0.5938653378
Mg            0.0000000000        0.0000000000        0.0938653378
Mg            0.3333330000        0.6666670000        0.6558293717
Mg            0.6666670000        0.3333330000        0.1558293717
Mg            0.6666670000        0.3333330000        0.3441706283
Mg            0.3333330000        0.6666670000        0.8441706283
Ni            0.3333330000        0.6666670000        0.3750138848
Ni            0.6666670000        0.3333330000        0.8750138848
Ni            0.6666670000        0.3333330000        0.6249861152
Ni            0.3333330000        0.6666670000        0.1249861152
Ni            0.1664809316        0.3329608632        0.2500000000
Ni            0.8335190684        0.1664809316        0.7500000000
Ni            0.8335190684        0.6670391368        0.7500000000
Ni            0.1664809316        0.8335190684        0.2500000000
Ni            0.6670391368        0.8335190684        0.2500000000
Ni            0.3329608632        0.1664809316        0.7500000000
Ni            0.5000000000        0.0000000000        0.5000000000
Ni            0.5000000000        0.5000000000       -0.0000000000
Ni            0.5000000000       -0.0000000000        0.0000000000
Ni            0.5000000000        0.5000000000        0.5000000000
Ni           -0.0000000000        0.5000000000        0.0000000000
Ni           -0.0000000000        0.5000000000        0.5000000000



     Writing config-only to output data dir ./ACOptimization/out/iso.save/
     NEW-OLD atomic charge density approx. for the potential

     Check: negative core charge=   -0.000015

     total cpu time spent up to now is      594.8 secs

     Self-consistent Calculation

     iteration #  1     ecut=    50.00 Ry     beta= 0.10
     Davidson diagonalization with overlap
     ethr =  1.00E-06,  avg # of iterations =  6.0

     Threshold (ethr) on eigenvalues was too large:
     Diagonalizing with lowered threshold

     Davidson diagonalization with overlap
     ethr =  7.35E-08,  avg # of iterations =  2.3

     total cpu time spent up to now is      650.7 secs

     total energy              =   -7950.02749873 Ry
     estimated scf accuracy    <       0.00029978 Ry

     iteration #  2     ecut=    50.00 Ry     beta= 0.10
     Davidson diagonalization with overlap
     ethr =  8.15E-08,  avg # of iterations =  1.0

     total cpu time spent up to now is      669.3 secs

     total energy              =   -7950.02685290 Ry
     estimated scf accuracy    <       0.00020337 Ry

     iteration #  3     ecut=    50.00 Ry     beta= 0.10
     Davidson diagonalization with overlap
     ethr =  5.53E-08,  avg # of iterations =  2.0

     total cpu time spent up to now is      691.5 secs

     total energy              =   -7950.02662617 Ry
     estimated scf accuracy    <       0.00003598 Ry

     iteration #  4     ecut=    50.00 Ry     beta= 0.10
     Davidson diagonalization with overlap
     ethr =  9.78E-09,  avg # of iterations =  4.0

     total cpu time spent up to now is      718.0 secs

     total energy              =   -7950.02665734 Ry
     estimated scf accuracy    <       0.00001036 Ry

     iteration #  5     ecut=    50.00 Ry     beta= 0.10
     Davidson diagonalization with overlap
     ethr =  2.82E-09,  avg # of iterations =  1.3

     total cpu time spent up to now is      737.4 secs

     total energy              =   -7950.02666171 Ry
     estimated scf accuracy    <       0.00000883 Ry

     iteration #  6     ecut=    50.00 Ry     beta= 0.10
     Davidson diagonalization with overlap
     ethr =  2.40E-09,  avg # of iterations =  2.0

     total cpu time spent up to now is      760.9 secs

     total energy              =   -7950.02660529 Ry
     estimated scf accuracy    <       0.00000684 Ry

     iteration #  7     ecut=    50.00 Ry     beta= 0.10
     Davidson diagonalization with overlap
     ethr =  1.86E-09,  avg # of iterations =  4.0

     total cpu time spent up to now is      787.4 secs

     total energy              =   -7950.02659964 Ry
     estimated scf accuracy    <       0.00000385 Ry

     iteration #  8     ecut=    50.00 Ry     beta= 0.10
     Davidson diagonalization with overlap
     ethr =  1.05E-09,  avg # of iterations =  2.0

     total cpu time spent up to now is      811.1 secs

     total energy              =   -7950.02658371 Ry
     estimated scf accuracy    <       0.00000615 Ry

     iteration #  9     ecut=    50.00 Ry     beta= 0.10
     Davidson diagonalization with overlap
     ethr =  1.05E-09,  avg # of iterations =  2.7

     total cpu time spent up to now is      834.9 secs

     total energy              =   -7950.02658016 Ry
     estimated scf accuracy    <       0.00000097 Ry

     iteration # 10     ecut=    50.00 Ry     beta= 0.10
     Davidson diagonalization with overlap
     ethr =  2.64E-10,  avg # of iterations =  4.0

     total cpu time spent up to now is      862.0 secs

     total energy              =   -7950.02658053 Ry
     estimated scf accuracy    <       0.00000021 Ry

     iteration # 11     ecut=    50.00 Ry     beta= 0.10
     Davidson diagonalization with overlap
     ethr =  5.66E-11,  avg # of iterations =  1.0

     total cpu time spent up to now is      880.7 secs

     total energy              =   -7950.02657810 Ry
     estimated scf accuracy    <       0.00000026 Ry

     iteration # 12     ecut=    50.00 Ry     beta= 0.10
     Davidson diagonalization with overlap
     ethr =  5.66E-11,  avg # of iterations =  4.3

     total cpu time spent up to now is      912.0 secs

     total energy              =   -7950.02657929 Ry
     estimated scf accuracy    <       0.00000027 Ry

     iteration # 13     ecut=    50.00 Ry     beta= 0.10
     Davidson diagonalization with overlap
     ethr =  5.66E-11,  avg # of iterations =  1.0

     total cpu time spent up to now is      930.8 secs

     total energy              =   -7950.02657928 Ry
     estimated scf accuracy    <       0.00000001 Ry

     iteration # 14     ecut=    50.00 Ry     beta= 0.10
     Davidson diagonalization with overlap
     ethr =  2.96E-12,  avg # of iterations =  2.0

     total cpu time spent up to now is      955.5 secs

     End of self-consistent calculation

          k = 0.0000 0.0000 0.0000 ( 13497 PWs)   bands (ev):

   -90.6494 -90.6494 -90.6483 -90.6483 -90.6480 -90.6480 -90.6469 -90.6469
   -90.5992 -90.5992 -90.5990 -90.5990 -90.5879 -90.5879 -90.5878 -90.5878
   -90.5793 -90.5793 -90.5793 -90.5793 -90.5793 -90.5793 -90.5792 -90.5792
   -90.5680 -90.5680 -90.5680 -90.5680 -90.5679 -90.5679 -90.5679 -90.5679
   -63.0549 -63.0549 -63.0549 -63.0549 -63.0538 -63.0538 -63.0538 -63.0538
   -63.0008 -63.0008 -63.0007 -63.0007 -62.9996 -62.9996 -62.9996 -62.9996
   -52.6389 -52.6389 -52.6288 -52.6288 -52.6276 -52.6276 -52.6202 -52.6202
   -52.5905 -52.5905 -52.5862 -52.5862 -52.5827 -52.5827 -52.5798 -52.5798
   -52.5788 -52.5788 -52.5777 -52.5777 -52.5715 -52.5715 -52.5691 -52.5691
   -52.5140 -52.5140 -52.5113 -52.5113 -52.5040 -52.5040 -52.4983 -52.4983
   -50.5201 -50.5201 -50.5125 -50.5125 -50.4976 -50.4976 -50.4939 -50.4939
   -50.4778 -50.4778 -50.4743 -50.4743 -50.4639 -50.4639 -50.4581 -50.4581
   -50.4190 -50.4190 -50.4120 -50.4120 -50.4033 -50.4033 -50.4031 -50.4031
   -50.4029 -50.4029 -50.3948 -50.3948 -50.3865 -50.3865 -50.3657 -50.3657
   -50.3540 -50.3540 -50.3358 -50.3358 -50.3299 -50.3299 -50.3203 -50.3203
   -50.3148 -50.3148 -50.3121 -50.3121 -50.2958 -50.2958 -50.2876 -50.2876
   -50.2870 -50.2870 -50.2849 -50.2849 -50.2811 -50.2811 -50.2793 -50.2793
   -50.2532 -50.2532 -50.2510 -50.2510 -50.2500 -50.2500 -50.2474 -50.2474
   -30.1852 -30.1852 -30.1850 -30.1850 -30.1812 -30.1812 -30.1810 -30.1810
   -30.1297 -30.1297 -30.1296 -30.1296 -30.1255 -30.1255 -30.1253 -30.1253
   -29.8997 -29.8997 -29.8994 -29.8994 -29.8982 -29.8982 -29.8981 -29.8981
   -29.8968 -29.8968 -29.8968 -29.8968 -29.8899 -29.8899 -29.8896 -29.8896
   -29.8455 -29.8455 -29.8453 -29.8453 -29.8406 -29.8406 -29.8406 -29.8406
   -29.8393 -29.8393 -29.8391 -29.8391 -29.8353 -29.8353 -29.8351 -29.8351
     3.9222   3.9222   4.5031   4.5031   4.5251   4.5251   5.9164   5.9164
     6.5303   6.5303   7.9158   7.9158   7.9619   7.9619   7.9769   7.9769
     8.5020   8.5020   8.5553   8.5553   8.6745   8.6745   8.7159   8.7159
     8.8691   8.8691   8.8724   8.8724   8.8923   8.8923   8.9095   8.9095
     8.9365   8.9365   8.9379   8.9379   9.0234   9.0234   9.0448   9.0448
     9.1001   9.1001   9.1513   9.1513   9.1628   9.1628   9.1629   9.1629
     9.1840   9.1840   9.2495   9.2495   9.2920   9.2920   9.3214   9.3214
     9.3373   9.3373   9.3858   9.3858   9.6504   9.6504   9.6533   9.6533
     9.6534   9.6534   9.6785   9.6785   9.6835   9.6835   9.7176   9.7176
     9.8863   9.8863   9.9465   9.9465  10.0058  10.0058  10.0182  10.0182
    10.0654  10.0654  10.1168  10.1168  10.1502  10.1502  10.1519  10.1519
    10.2887  10.2887  10.3066  10.3066  10.5358  10.5358  10.6748  10.6748
    10.7221  10.7221  10.7463  10.7463  10.7582  10.7582  10.7991  10.7991
    10.8992  10.8992  10.9531  10.9531  11.0339  11.0339  11.0447  11.0447
    11.1584  11.1584  11.1676  11.1676  11.2437  11.2437  11.2444  11.2444
    11.2559  11.2559  11.2599  11.2599  11.2610  11.2610  11.2623  11.2623
    11.2715  11.2715  11.2894  11.2894  11.2987  11.2987  11.3086  11.3086
    11.3281  11.3281  11.3284  11.3284  11.3468  11.3468  11.3665  11.3665
    11.3920  11.3920  11.4180  11.4180  11.4190  11.4190  11.4340  11.4340
    11.4504  11.4504  11.4755  11.4755  11.5496  11.5496  11.7630  11.7630
    11.8154  11.8154  12.0297  12.0297  12.0316  12.0316  12.2312  12.2312
    12.2330  12.2330  12.2465  12.2465  12.2467  12.2467  12.6249  12.6249
    12.7205  12.7205  12.8657  12.8657  12.9222  12.9222  12.9820  12.9820
    12.9951  12.9951  13.0098  13.0098  13.0130  13.0130  13.0475  13.0475
    13.3055  13.3055  13.3337  13.3337  13.3484  13.3484  13.3974  13.3974
    14.6337  14.6337  14.6858  14.6858  14.7112  14.7112  14.7222  14.7222
    15.0665  15.0665  15.1108  15.1108  15.5462  15.5462  15.5651  15.5651
    16.0725  16.0725  16.1385  16.1385  16.1550  16.1550  16.2197  16.2197
    16.3080  16.3080  16.5139  16.5139  16.9870  16.9870  16.9988  16.9988
    17.4721  17.4721  17.5028  17.5028  17.5226  17.5226  18.0064  18.0064
    18.0662  18.0662  18.0716  18.0716  18.1987  18.1987  19.6527  19.6527
    19.6732  19.6732

          k = 0.0000 0.3849 0.0000 ( 13496 PWs)   bands (ev):

   -90.6489 -90.6489 -90.6483 -90.6483 -90.6477 -90.6477 -90.6470 -90.6470
   -90.5951 -90.5951 -90.5950 -90.5950 -90.5841 -90.5841 -90.5838 -90.5838
   -90.5835 -90.5835 -90.5831 -90.5831 -90.5793 -90.5793 -90.5793 -90.5793
   -90.5722 -90.5722 -90.5722 -90.5722 -90.5679 -90.5679 -90.5679 -90.5679
   -63.0549 -63.0549 -63.0548 -63.0548 -63.0538 -63.0538 -63.0537 -63.0537
   -63.0008 -63.0008 -63.0007 -63.0007 -62.9996 -62.9996 -62.9996 -62.9996
   -52.6358 -52.6358 -52.6309 -52.6309 -52.6295 -52.6295 -52.6215 -52.6215
   -52.5840 -52.5840 -52.5823 -52.5823 -52.5738 -52.5738 -52.5714 -52.5714
   -52.5702 -52.5702 -52.5677 -52.5677 -52.5580 -52.5580 -52.5564 -52.5564
   -52.5312 -52.5312 -52.5296 -52.5296 -52.5185 -52.5185 -52.5177 -52.5177
   -50.5147 -50.5147 -50.5082 -50.5082 -50.5036 -50.5036 -50.4941 -50.4941
   -50.4584 -50.4584 -50.4544 -50.4544 -50.4512 -50.4512 -50.4485 -50.4485
   -50.4107 -50.4107 -50.4091 -50.4091 -50.4084 -50.4084 -50.4034 -50.4034
   -50.3930 -50.3930 -50.3895 -50.3895 -50.3839 -50.3839 -50.3699 -50.3699
   -50.3544 -50.3544 -50.3422 -50.3422 -50.3412 -50.3412 -50.3350 -50.3350
   -50.3169 -50.3169 -50.3142 -50.3142 -50.3015 -50.3015 -50.2986 -50.2986
   -50.2911 -50.2911 -50.2906 -50.2906 -50.2840 -50.2840 -50.2816 -50.2816
   -50.2674 -50.2674 -50.2661 -50.2661 -50.2522 -50.2522 -50.2498 -50.2498
   -30.1847 -30.1847 -30.1846 -30.1846 -30.1808 -30.1808 -30.1807 -30.1807
   -30.1304 -30.1304 -30.1303 -30.1303 -30.1263 -30.1263 -30.1262 -30.1262
   -29.9001 -29.9001 -29.8999 -29.8999 -29.8974 -29.8974 -29.8973 -29.8973
   -29.8960 -29.8960 -29.8957 -29.8957 -29.8902 -29.8902 -29.8900 -29.8900
   -29.8452 -29.8452 -29.8451 -29.8451 -29.8414 -29.8414 -29.8413 -29.8413
   -29.8398 -29.8398 -29.8398 -29.8398 -29.8350 -29.8350 -29.8350 -29.8350
     4.8545   4.8545   5.4110   5.4110   5.4353   5.4353   6.7879   6.7879
     7.2349   7.2349   7.4250   7.4250   7.7346   7.7346   7.7686   7.7686
     8.3452   8.3452   8.3814   8.3814   8.5207   8.5207   8.6081   8.6081
     8.6733   8.6733   8.7927   8.7927   8.8515   8.8515   8.9167   8.9167
     9.0042   9.0042   9.0524   9.0524   9.0914   9.0914   9.1275   9.1275
     9.1352   9.1352   9.1426   9.1426   9.2479   9.2479   9.3568   9.3568
     9.3978   9.3978   9.4497   9.4497   9.4930   9.4930   9.5448   9.5448
     9.5646   9.5646   9.5932   9.5932   9.5984   9.5984   9.6804   9.6804
     9.6845   9.6845   9.7201   9.7201   9.7253   9.7253   9.7855   9.7855
     9.8148   9.8148   9.8233   9.8233   9.8875   9.8875   9.9291   9.9291
     9.9972   9.9972  10.0407  10.0407  10.0651  10.0651  10.0785  10.0785
    10.1302  10.1302  10.2190  10.2190  10.2454  10.2454  10.2945  10.2945
    10.3027  10.3027  10.3956  10.3956  10.4091  10.4091  10.4651  10.4651
    10.4809  10.4809  10.5385  10.5385  10.5977  10.5977  10.6063  10.6063
    10.6256  10.6256  10.6755  10.6755  10.7576  10.7576  10.7715  10.7715
    10.8409  10.8409  10.8704  10.8704  10.8945  10.8945  10.9254  10.9254
    10.9874  10.9874  11.0039  11.0039  11.0135  11.0135  11.0610  11.0610
    11.0719  11.0719  11.1252  11.1252  11.1578  11.1578  11.2074  11.2074
    11.2170  11.2170  11.2901  11.2901  11.2996  11.2996  11.3126  11.3126
    11.3569  11.3569  11.3631  11.3631  11.3704  11.3704  11.3968  11.3968
    11.4523  11.4523  11.4759  11.4759  11.4927  11.4927  11.5773  11.5773
    11.6040  11.6040  11.6691  11.6691  11.7379  11.7379  11.8461  11.8461
    12.0932  12.0932  12.1691  12.1691  12.4879  12.4879  12.5049  12.5049
    12.7002  12.7002  12.8001  12.8001  12.8889  12.8889  13.0338  13.0338
    13.1138  13.1138  13.1324  13.1324  13.2330  13.2330  13.4398  13.4398
    14.0068  14.0068  14.4277  14.4277  14.7195  14.7195  14.7628  14.7628
    15.9401  15.9401  16.4548  16.4548  16.5040  16.5040  16.5988  16.5988
    17.3684  17.3684  17.4275  17.4275  17.4763  17.4763  17.5922  17.5922
    17.6870  17.6870  17.8458  17.8458  18.2432  18.2432  18.6216  18.6216
    18.7382  18.7382  18.7929  18.7929  19.2509  19.2509  19.3363  19.3363
    19.6368  19.6368  19.9840  19.9840  20.3250  20.3250  20.6259  20.6261
    20.6749  20.6749

          k = 0.3333 0.5774 0.0000 ( 13500 PWs)   bands (ev):

   -90.6485 -90.6485 -90.6485 -90.6485 -90.6474 -90.6474 -90.6474 -90.6474
   -90.5900 -90.5900 -90.5900 -90.5900 -90.5886 -90.5886 -90.5886 -90.5886
   -90.5793 -90.5793 -90.5793 -90.5793 -90.5781 -90.5781 -90.5780 -90.5780
   -90.5780 -90.5780 -90.5779 -90.5779 -90.5680 -90.5680 -90.5679 -90.5679
   -63.0548 -63.0548 -63.0548 -63.0548 -63.0538 -63.0538 -63.0538 -63.0538
   -63.0008 -63.0008 -63.0008 -63.0008 -62.9997 -62.9997 -62.9996 -62.9996
   -52.6326 -52.6326 -52.6324 -52.6324 -52.6275 -52.6275 -52.6274 -52.6274
   -52.5820 -52.5820 -52.5817 -52.5817 -52.5735 -52.5735 -52.5705 -52.5705
   -52.5539 -52.5539 -52.5504 -52.5504 -52.5502 -52.5502 -52.5487 -52.5487
   -52.5423 -52.5423 -52.5386 -52.5386 -52.5364 -52.5364 -52.5341 -52.5341
   -50.5095 -50.5095 -50.5086 -50.5086 -50.5032 -50.5032 -50.5011 -50.5011
   -50.4378 -50.4378 -50.4372 -50.4372 -50.4363 -50.4363 -50.4330 -50.4330
   -50.4259 -50.4259 -50.4248 -50.4248 -50.4225 -50.4225 -50.4105 -50.4105
   -50.3865 -50.3865 -50.3842 -50.3842 -50.3788 -50.3788 -50.3654 -50.3654
   -50.3523 -50.3523 -50.3505 -50.3505 -50.3435 -50.3435 -50.3430 -50.3430
   -50.3226 -50.3226 -50.3125 -50.3125 -50.3039 -50.3039 -50.3018 -50.3018
   -50.2907 -50.2907 -50.2893 -50.2893 -50.2888 -50.2888 -50.2837 -50.2837
   -50.2753 -50.2753 -50.2707 -50.2707 -50.2557 -50.2557 -50.2551 -50.2551
   -30.1846 -30.1846 -30.1844 -30.1844 -30.1807 -30.1807 -30.1804 -30.1804
   -30.1308 -30.1308 -30.1308 -30.1308 -30.1267 -30.1267 -30.1266 -30.1266
   -29.9009 -29.9009 -29.8994 -29.8994 -29.8973 -29.8973 -29.8972 -29.8972
   -29.8951 -29.8951 -29.8950 -29.8950 -29.8913 -29.8913 -29.8896 -29.8896
   -29.8451 -29.8451 -29.8450 -29.8450 -29.8420 -29.8420 -29.8419 -29.8419
   -29.8399 -29.8399 -29.8398 -29.8398 -29.8350 -29.8350 -29.8349 -29.8349
     6.4044   6.4044   6.4050   6.4050   6.8340   6.8340   6.9451   6.9451
     6.9500   6.9500   7.1321   7.1321   7.2406   7.2406   7.2453   7.2453
     7.4513   7.4513   8.2732   8.2732   8.2744   8.2744   8.2797   8.2797
     8.2857   8.2857   8.3316   8.3316   8.4015   8.4015   9.0395   9.0395
     9.0433   9.0433   9.0515   9.0515   9.1559   9.1559   9.1698   9.1698
     9.3186   9.3186   9.3501   9.3501   9.4515   9.4515   9.4666   9.4666
     9.5390   9.5390   9.5391   9.5391   9.5814   9.5814   9.5894   9.5894
     9.6073   9.6073   9.6116   9.6116   9.6837   9.6837   9.7363   9.7363
     9.7488   9.7488   9.7559   9.7559   9.7727   9.7727   9.7746   9.7746
     9.7911   9.7911   9.8415   9.8415   9.8535   9.8535   9.8680   9.8680
     9.8879   9.8879   9.8884   9.8884   9.9296   9.9296   9.9396   9.9396
    10.0005  10.0005  10.0030  10.0030  10.0333  10.0333  10.0444  10.0444
    10.0790  10.0790  10.2203  10.2203  10.2352  10.2352  10.2491  10.2491
    10.3561  10.3561  10.4656  10.4656  10.4837  10.4837  10.4968  10.4968
    10.5339  10.5339  10.5533  10.5533  10.6968  10.6968  10.7013  10.7013
    10.7734  10.7734  10.8012  10.8012  10.8162  10.8162  10.8324  10.8324
    10.8734  10.8734  10.8924  10.8924  10.9032  10.9032  10.9898  10.9898
    11.0316  11.0316  11.0577  11.0577  11.0699  11.0699  11.0749  11.0749
    11.0955  11.0955  11.1075  11.1075  11.1130  11.1130  11.1540  11.1540
    11.1659  11.1659  11.1756  11.1756  11.2349  11.2349  11.2839  11.2839
    11.4321  11.4321  11.4465  11.4465  11.5230  11.5230  11.5258  11.5258
    11.5454  11.5454  11.6109  11.6109  11.6228  11.6228  11.7130  11.7130
    11.7685  11.7685  11.8236  11.8236  11.8252  11.8252  12.0398  12.0398
    12.1543  12.1543  12.1653  12.1653  12.2279  12.2279  13.5303  13.5303
    13.5513  13.5513  13.5990  13.5990  13.7675  13.7675  13.7746  13.7746
    14.3288  14.3288  16.1237  16.1237  16.1257  16.1257  16.2779  16.2779
    16.5269  16.5269  16.5276  16.5276  17.0419  17.0419  17.1515  17.1515
    17.1525  17.1525  17.1860  17.1860  17.1939  17.1939  17.4675  17.4675
    17.6596  17.6596  18.0034  18.0034  18.1186  18.1186  18.1324  18.1324
    18.8660  18.8660  18.8687  18.8687  19.1088  19.1088  19.1225  19.1225
    19.2294  19.2294  19.7973  19.7973  21.2175  21.2175  21.2260  21.2260
    21.4065  21.4066

     the Fermi energy is    11.8911 ev

!    total energy              =   -7950.02657929 Ry
     total all-electron energy =    -51823.878663 Ry
     estimated scf accuracy    <          5.2E-09 Ry
     smearing contrib. (-TS)   =       0.11937318 Ry
     internal energy E=F+TS    =   -7950.14595247 Ry

     The total energy is F=E-TS. E is the sum of the following terms:
     one-electron contribution =   -4623.96427937 Ry
     hartree contribution      =    2453.05606196 Ry
     xc contribution           =    -680.98888506 Ry
     ewald contribution        =   -3560.14468834 Ry
     one-center paw contrib.   =   -1538.10416166 Ry

     convergence has been achieved in  14 iterations

     Forces acting on atoms (cartesian axes, Ry/au):

     atom    1 type  1   force =     0.00000000    0.00000000    0.00367951
     atom    2 type  1   force =     0.00000000    0.00000000    0.00367951
     atom    3 type  1   force =     0.00000000    0.00000000   -0.00367951
     atom    4 type  1   force =     0.00000000    0.00000000   -0.00367951
     atom    5 type  1   force =    -0.00000000   -0.00000000    0.00081001
     atom    6 type  1   force =     0.00000000    0.00000000    0.00081001
     atom    7 type  1   force =    -0.00000000   -0.00000000   -0.00081001
     atom    8 type  1   force =    -0.00000000   -0.00000000   -0.00081001
     atom    9 type  2   force =     0.00000000   -0.00000000    0.00320834
     atom   10 type  2   force =    -0.00000000   -0.00000000    0.00320834
     atom   11 type  2   force =     0.00000000    0.00000000   -0.00320834
     atom   12 type  2   force =     0.00000000    0.00000000   -0.00320834
     atom   13 type  2   force =     0.00000000   -0.00186991   -0.00000000
     atom   14 type  2   force =     0.00161939   -0.00093495   -0.00000000
     atom   15 type  2   force =    -0.00000000    0.00186991    0.00000000
     atom   16 type  2   force =    -0.00161939    0.00093495    0.00000000
     atom   17 type  2   force =     0.00161939    0.00093495   -0.00000000
     atom   18 type  2   force =    -0.00161939   -0.00093495   -0.00000000
     atom   19 type  2   force =    -0.00000000   -0.00000000   -0.00000000
     atom   20 type  2   force =     0.00000000    0.00000000    0.00000000
     atom   21 type  2   force =    -0.00000000   -0.00000000   -0.00000000
     atom   22 type  2   force =     0.00000000    0.00000000    0.00000000
     atom   23 type  2   force =     0.00000000    0.00000000    0.00000000
     atom   24 type  2   force =     0.00000000    0.00000000    0.00000000
     The non-local contrib.  to forces
     atom    1 type  1   force =     0.00000000   -0.00000000    0.02359776
     atom    2 type  1   force =     0.00000000    0.00000000    0.02359776
     atom    3 type  1   force =    -0.00000000   -0.00000000   -0.02359776
     atom    4 type  1   force =    -0.00000000    0.00000000   -0.02359776
     atom    5 type  1   force =    -0.00000000   -0.00000000    0.00045675
     atom    6 type  1   force =    -0.00000000    0.00000000    0.00045675
     atom    7 type  1   force =     0.00000000   -0.00000000   -0.00045675
     atom    8 type  1   force =     0.00000000    0.00000000   -0.00045675
     atom    9 type  2   force =     0.00000000    0.00000000   -0.01123245
     atom   10 type  2   force =     0.00000000    0.00000000   -0.01123245
     atom   11 type  2   force =    -0.00000000   -0.00000000    0.01123245
     atom   12 type  2   force =     0.00000000    0.00000000    0.01123245
     atom   13 type  2   force =     0.00000000   -0.09214644    0.00000000
     atom   14 type  2   force =     0.07980117   -0.04607322    0.00000000
     atom   15 type  2   force =     0.00000000    0.09214644    0.00000000
     atom   16 type  2   force =    -0.07980117    0.04607322    0.00000000
     atom   17 type  2   force =     0.07980117    0.04607322    0.00000000
     atom   18 type  2   force =    -0.07980117   -0.04607322    0.00000000
     atom   19 type  2   force =     0.00000000    0.00000000    0.00000000
     atom   20 type  2   force =    -0.00000000   -0.00000000    0.00000000
     atom   21 type  2   force =    -0.00000000   -0.00000000    0.00000000
     atom   22 type  2   force =    -0.00000000    0.00000000    0.00000000
     atom   23 type  2   force =     0.00000000   -0.00000000   -0.00000000
     atom   24 type  2   force =     0.00000000    0.00000000   -0.00000000
     The ionic contribution  to forces
     atom    1 type  1   force =    -0.00001466    0.00000967   -0.34133937
     atom    2 type  1   force =     0.00001466   -0.00000967   -0.34133937
     atom    3 type  1   force =     0.00001466   -0.00000967    0.34133937
     atom    4 type  1   force =    -0.00001466    0.00000967    0.34133937
     atom    5 type  1   force =     0.00005291   -0.00002921    0.10956667
     atom    6 type  1   force =    -0.00005291    0.00002921    0.10956667
     atom    7 type  1   force =    -0.00005291    0.00002921   -0.10956667
     atom    8 type  1   force =     0.00005291   -0.00002921   -0.10956667
     atom    9 type  2   force =     0.00005493   -0.00003164    0.83181690
     atom   10 type  2   force =    -0.00005493    0.00003164    0.83181690
     atom   11 type  2   force =    -0.00005493    0.00003164   -0.83181690
     atom   12 type  2   force =     0.00005493   -0.00003164   -0.83181690
     atom   13 type  2   force =     0.00006954  -14.72402295    0.00000000
     atom   14 type  2   force =    12.75145795   -7.36205889    0.00000000
     atom   15 type  2   force =    -0.00006954   14.72402295    0.00000000
     atom   16 type  2   force =   -12.75145795    7.36205889   -0.00000000
     atom   17 type  2   force =    12.75141241    7.36195230   -0.00000000
     atom   18 type  2   force =   -12.75141241   -7.36195230    0.00000000
     atom   19 type  2   force =    -0.00000000   -0.00000000   -0.00000000
     atom   20 type  2   force =    -0.00000000    0.00000000   -0.00000000
     atom   21 type  2   force =    -0.00000000   -0.00000000   -0.00000000
     atom   22 type  2   force =    -0.00000000   -0.00000000    0.00000000
     atom   23 type  2   force =    -0.00000000    0.00000000   -0.00000000
     atom   24 type  2   force =     0.00000000   -0.00000000    0.00000000
     The local contribution  to forces
     atom    1 type  1   force =     0.00000000   -0.00000113    0.32154555
     atom    2 type  1   force =    -0.00000000    0.00000113    0.32154555
     atom    3 type  1   force =    -0.00000000    0.00000113   -0.32154555
     atom    4 type  1   force =     0.00000000   -0.00000113   -0.32154555
     atom    5 type  1   force =     0.00149646   -0.00086523   -0.10925765
     atom    6 type  1   force =    -0.00149646    0.00086523   -0.10925765
     atom    7 type  1   force =    -0.00149646    0.00086523    0.10925765
     atom    8 type  1   force =     0.00149646   -0.00086523    0.10925765
     atom    9 type  2   force =     0.00198606   -0.00114672   -0.81564008
     atom   10 type  2   force =    -0.00198606    0.00114672   -0.81564008
     atom   11 type  2   force =    -0.00198606    0.00114672    0.81564008
     atom   12 type  2   force =     0.00198606   -0.00114672    0.81564008
     atom   13 type  2   force =    -0.00198452   14.81449747    0.00000000
     atom   14 type  2   force =   -12.82697568    7.40565884    0.00000000
     atom   15 type  2   force =     0.00198452  -14.81449747    0.00000000
     atom   16 type  2   force =    12.82697568   -7.40565884    0.00000000
     atom   17 type  2   force =   -12.83072335   -7.40553103    0.00000000
     atom   18 type  2   force =    12.83072335    7.40553103    0.00000000
     atom   19 type  2   force =     0.00000000    0.00000000    0.00000000
     atom   20 type  2   force =     0.00000000    0.00000000   -0.00000000
     atom   21 type  2   force =     0.00000000    0.00000000   -0.00000000
     atom   22 type  2   force =     0.00000000    0.00000000    0.00000000
     atom   23 type  2   force =    -0.00000000    0.00000000   -0.00000000
     atom   24 type  2   force =    -0.00000000    0.00000000    0.00000000
     The core correction contribution to forces
     atom    1 type  1   force =     0.00000000   -0.00000000   -0.00010930
     atom    2 type  1   force =    -0.00000000    0.00000000   -0.00010930
     atom    3 type  1   force =    -0.00000000    0.00000000    0.00010930
     atom    4 type  1   force =     0.00000000   -0.00000000    0.00010930
     atom    5 type  1   force =     0.00000324   -0.00000187   -0.00000367
     atom    6 type  1   force =    -0.00000324    0.00000187   -0.00000367
     atom    7 type  1   force =    -0.00000324    0.00000187    0.00000367
     atom    8 type  1   force =     0.00000324   -0.00000187    0.00000367
     atom    9 type  2   force =     0.00000121   -0.00000070   -0.00168471
     atom   10 type  2   force =    -0.00000121    0.00000070   -0.00168471
     atom   11 type  2   force =    -0.00000121    0.00000070    0.00168471
     atom   12 type  2   force =     0.00000121   -0.00000070    0.00168471
     atom   13 type  2   force =    -0.00000121    0.00081805    0.00000000
     atom   14 type  2   force =    -0.00070656    0.00040793    0.00000000
     atom   15 type  2   force =     0.00000121   -0.00081805    0.00000000
     atom   16 type  2   force =     0.00070656   -0.00040793    0.00000000
     atom   17 type  2   force =    -0.00070906   -0.00040798   -0.00000000
     atom   18 type  2   force =     0.00070906    0.00040798    0.00000000
     atom   19 type  2   force =     0.00000000    0.00000000    0.00000000
     atom   20 type  2   force =     0.00000000    0.00000000   -0.00000000
     atom   21 type  2   force =    -0.00000000    0.00000000   -0.00000000
     atom   22 type  2   force =     0.00000000    0.00000000   -0.00000000
     atom   23 type  2   force =    -0.00000000    0.00000000   -0.00000000
     atom   24 type  2   force =    -0.00000000    0.00000000   -0.00000000
     The Hubbard contrib.    to forces
     atom    1 type  1   force =     0.00000000    0.00000000    0.00000000
     atom    2 type  1   force =     0.00000000    0.00000000    0.00000000
     atom    3 type  1   force =     0.00000000    0.00000000    0.00000000
     atom    4 type  1   force =     0.00000000    0.00000000    0.00000000
     atom    5 type  1   force =     0.00000000    0.00000000    0.00000000
     atom    6 type  1   force =     0.00000000    0.00000000    0.00000000
     atom    7 type  1   force =     0.00000000    0.00000000    0.00000000
     atom    8 type  1   force =     0.00000000    0.00000000    0.00000000
     atom    9 type  2   force =     0.00000000    0.00000000    0.00000000
     atom   10 type  2   force =     0.00000000    0.00000000    0.00000000
     atom   11 type  2   force =     0.00000000    0.00000000    0.00000000
     atom   12 type  2   force =     0.00000000    0.00000000    0.00000000
     atom   13 type  2   force =     0.00000000    0.00000000    0.00000000
     atom   14 type  2   force =     0.00000000    0.00000000    0.00000000
     atom   15 type  2   force =     0.00000000    0.00000000    0.00000000
     atom   16 type  2   force =     0.00000000    0.00000000    0.00000000
     atom   17 type  2   force =     0.00000000    0.00000000    0.00000000
     atom   18 type  2   force =     0.00000000    0.00000000    0.00000000
     atom   19 type  2   force =     0.00000000    0.00000000    0.00000000
     atom   20 type  2   force =     0.00000000    0.00000000    0.00000000
     atom   21 type  2   force =     0.00000000    0.00000000    0.00000000
     atom   22 type  2   force =     0.00000000    0.00000000    0.00000000
     atom   23 type  2   force =     0.00000000    0.00000000    0.00000000
     atom   24 type  2   force =     0.00000000    0.00000000    0.00000000
     The SCF correction term to forces
     atom    1 type  1   force =     0.00000002   -0.00000001   -0.00001512
     atom    2 type  1   force =    -0.00000002    0.00000001   -0.00001512
     atom    3 type  1   force =    -0.00000002    0.00000001    0.00001512
     atom    4 type  1   force =     0.00000002   -0.00000001    0.00001512
     atom    5 type  1   force =     0.00000000   -0.00000000    0.00004790
     atom    6 type  1   force =    -0.00000000    0.00000000    0.00004790
     atom    7 type  1   force =    -0.00000000    0.00000000   -0.00004790
     atom    8 type  1   force =     0.00000000   -0.00000000   -0.00004790
     atom    9 type  2   force =    -0.00000006    0.00000004   -0.00005132
     atom   10 type  2   force =     0.00000006   -0.00000004   -0.00005132
     atom   11 type  2   force =     0.00000006   -0.00000004    0.00005132
     atom   12 type  2   force =    -0.00000006    0.00000004    0.00005132
     atom   13 type  2   force =     0.00000002    0.00007608   -0.00000000
     atom   14 type  2   force =    -0.00006586    0.00003803    0.00000000
     atom   15 type  2   force =    -0.00000002   -0.00007608    0.00000000
     atom   16 type  2   force =     0.00006586   -0.00003803   -0.00000000
     atom   17 type  2   force =    -0.00006587   -0.00003806   -0.00000000
     atom   18 type  2   force =     0.00006587    0.00003806    0.00000000
     atom   19 type  2   force =     0.00000000    0.00000000    0.00000000
     atom   20 type  2   force =    -0.00000000   -0.00000000   -0.00000000
     atom   21 type  2   force =     0.00000000    0.00000000   -0.00000000
     atom   22 type  2   force =    -0.00000000   -0.00000000    0.00000000
     atom   23 type  2   force =    -0.00000000   -0.00000000   -0.00000000
     atom   24 type  2   force =    -0.00000000   -0.00000000    0.00000000

     Total force =     0.010906     Total SCF correction =     0.000235
     Energy error            =      1.9E-04 Ry
     Gradient error          =      3.7E-03 Ry/Bohr

     number of scf cycles    =   2
     number of bfgs steps    =   1

     energy             old  =   -7950.0263922899 Ry
     energy             new  =   -7950.0265792856 Ry

     CASE: energy            _new < energy            _old

     new trust radius        =       0.0051454276 bohr
     new conv_thr            =       0.0000000006 Ry


ATOMIC_POSITIONS (crystal)
Mg            0.0000000000        0.0000000000        0.4063039354
Mg            0.0000000000        0.0000000000        0.9063039354
Mg           -0.0000000000       -0.0000000000        0.5936960646
Mg            0.0000000000        0.0000000000        0.0936960646
Mg            0.3333330000        0.6666670000        0.6558666173
Mg            0.6666670000        0.3333330000        0.1558666173
Mg            0.6666670000        0.3333330000        0.3441333827
Mg            0.3333330000        0.6666670000        0.8441333827
Ni            0.3333330000        0.6666670000        0.3751638989
Ni            0.6666670000        0.3333330000        0.8751638989
Ni            0.6666670000        0.3333330000        0.6248361011
Ni            0.3333330000        0.6666670000        0.1248361011
Ni            0.1663142530        0.3326275060        0.2500000000
Ni            0.8336857471        0.1663142530        0.7500000000
Ni            0.8336857470        0.6673724940        0.7500000000
Ni            0.1663142529        0.8336857470        0.2500000000
Ni            0.6673724940        0.8336857470        0.2500000000
Ni            0.3326275060        0.1663142530        0.7500000000
Ni            0.5000000000       -0.0000000000        0.5000000000
Ni            0.5000000000        0.5000000000        0.0000000000
Ni            0.5000000000       -0.0000000000       -0.0000000000
Ni            0.5000000000        0.5000000000        0.5000000000
Ni           -0.0000000000        0.5000000000        0.0000000000
Ni           -0.0000000000        0.5000000000        0.5000000000



     Writing config-only to output data dir ./ACOptimization/out/iso.save/
     NEW-OLD atomic charge density approx. for the potential

     Check: negative core charge=   -0.000015

     total cpu time spent up to now is      970.8 secs

     Self-consistent Calculation

     iteration #  1     ecut=    50.00 Ry     beta= 0.10
     Davidson diagonalization with overlap
     ethr =  1.00E-06,  avg # of iterations =  6.0

     Threshold (ethr) on eigenvalues was too large:
     Diagonalizing with lowered threshold

     Davidson diagonalization with overlap
     ethr =  6.60E-08,  avg # of iterations =  2.0

     total cpu time spent up to now is     1026.3 secs

     total energy              =   -7950.02755048 Ry
     estimated scf accuracy    <       0.00026816 Ry

     iteration #  2     ecut=    50.00 Ry     beta= 0.10
     Davidson diagonalization with overlap
     ethr =  7.29E-08,  avg # of iterations =  1.0

     total cpu time spent up to now is     1045.0 secs

     total energy              =   -7950.02703696 Ry
     estimated scf accuracy    <       0.00017557 Ry

     iteration #  3     ecut=    50.00 Ry     beta= 0.10
     Davidson diagonalization with overlap
     ethr =  4.77E-08,  avg # of iterations =  2.0

     total cpu time spent up to now is     1066.7 secs

     total energy              =   -7950.02677355 Ry
     estimated scf accuracy    <       0.00004165 Ry

     iteration #  4     ecut=    50.00 Ry     beta= 0.10
     Davidson diagonalization with overlap
     ethr =  1.13E-08,  avg # of iterations =  4.0

     total cpu time spent up to now is     1092.7 secs

     total energy              =   -7950.02680812 Ry
     estimated scf accuracy    <       0.00000924 Ry

     iteration #  5     ecut=    50.00 Ry     beta= 0.10
     Davidson diagonalization with overlap
     ethr =  2.51E-09,  avg # of iterations =  2.0

     total cpu time spent up to now is     1113.7 secs

     total energy              =   -7950.02681110 Ry
     estimated scf accuracy    <       0.00000751 Ry

     iteration #  6     ecut=    50.00 Ry     beta= 0.10
     Davidson diagonalization with overlap
     ethr =  2.04E-09,  avg # of iterations =  2.0

     total cpu time spent up to now is     1137.2 secs

     total energy              =   -7950.02678682 Ry
     estimated scf accuracy    <       0.00000587 Ry

     iteration #  7     ecut=    50.00 Ry     beta= 0.10
     Davidson diagonalization with overlap
     ethr =  1.59E-09,  avg # of iterations =  2.0

     total cpu time spent up to now is     1161.4 secs

     total energy              =   -7950.02674485 Ry
     estimated scf accuracy    <       0.00000281 Ry

     iteration #  8     ecut=    50.00 Ry     beta= 0.10
     Davidson diagonalization with overlap
     ethr =  7.62E-10,  avg # of iterations =  4.0

     total cpu time spent up to now is     1188.4 secs

     total energy              =   -7950.02673356 Ry
     estimated scf accuracy    <       0.00000465 Ry

     iteration #  9     ecut=    50.00 Ry     beta= 0.10
     Davidson diagonalization with overlap
     ethr =  7.62E-10,  avg # of iterations =  2.7

     total cpu time spent up to now is     1212.1 secs

     total energy              =   -7950.02672968 Ry
     estimated scf accuracy    <       0.00000033 Ry

     iteration # 10     ecut=    50.00 Ry     beta= 0.10
     Davidson diagonalization with overlap
     ethr =  9.05E-11,  avg # of iterations =  5.0

     total cpu time spent up to now is     1240.8 secs

     total energy              =   -7950.02672993 Ry
     estimated scf accuracy    <       0.00000016 Ry

     iteration # 11     ecut=    50.00 Ry     beta= 0.10
     Davidson diagonalization with overlap
     ethr =  4.46E-11,  avg # of iterations =  2.0

     total cpu time spent up to now is     1264.0 secs

     total energy              =   -7950.02672762 Ry
     estimated scf accuracy    <       0.00000028 Ry

     iteration # 12     ecut=    50.00 Ry     beta= 0.10
     Davidson diagonalization with overlap
     ethr =  4.46E-11,  avg # of iterations =  5.7

     total cpu time spent up to now is     1296.2 secs

     total energy              =   -7950.02672868 Ry
     estimated scf accuracy    <       0.00000001 Ry

     iteration # 13     ecut=    50.00 Ry     beta= 0.10
     Davidson diagonalization with overlap
     ethr =  3.96E-12,  avg # of iterations =  3.3

     total cpu time spent up to now is     1322.5 secs

     total energy              =   -7950.02672865 Ry
     estimated scf accuracy    <          8.3E-09 Ry

     iteration # 14     ecut=    50.00 Ry     beta= 0.10
     Davidson diagonalization with overlap
     ethr =  2.25E-12,  avg # of iterations =  4.0

     total cpu time spent up to now is     1349.4 secs

     total energy              =   -7950.02672866 Ry
     estimated scf accuracy    <          4.6E-09 Ry

     iteration # 15     ecut=    50.00 Ry     beta= 0.10
     Davidson diagonalization with overlap
     ethr =  1.24E-12,  avg # of iterations =  1.0

     total cpu time spent up to now is     1368.2 secs

     total energy              =   -7950.02672866 Ry
     estimated scf accuracy    <          1.0E-09 Ry

     iteration # 16     ecut=    50.00 Ry     beta= 0.10
     Davidson diagonalization with overlap
     ethr =  2.76E-13,  avg # of iterations =  2.0

     total cpu time spent up to now is     1390.6 secs

     End of self-consistent calculation

          k = 0.0000 0.0000 0.0000 ( 13497 PWs)   bands (ev):

   -90.6485 -90.6485 -90.6473 -90.6473 -90.6471 -90.6471 -90.6459 -90.6459
   -90.5981 -90.5981 -90.5979 -90.5979 -90.5894 -90.5894 -90.5892 -90.5892
   -90.5781 -90.5781 -90.5781 -90.5781 -90.5781 -90.5781 -90.5781 -90.5781
   -90.5695 -90.5695 -90.5695 -90.5695 -90.5694 -90.5694 -90.5694 -90.5694
   -63.0548 -63.0548 -63.0548 -63.0548 -63.0537 -63.0537 -63.0537 -63.0537
   -63.0006 -63.0006 -63.0005 -63.0005 -62.9994 -62.9994 -62.9994 -62.9994
   -52.6380 -52.6380 -52.6278 -52.6278 -52.6269 -52.6269 -52.6193 -52.6193
   -52.5893 -52.5893 -52.5850 -52.5850 -52.5816 -52.5816 -52.5813 -52.5813
   -52.5792 -52.5792 -52.5776 -52.5776 -52.5730 -52.5730 -52.5706 -52.5706
   -52.5129 -52.5129 -52.5105 -52.5105 -52.5054 -52.5054 -52.4993 -52.4993
   -50.5198 -50.5198 -50.5123 -50.5123 -50.4964 -50.4964 -50.4927 -50.4927
   -50.4780 -50.4780 -50.4755 -50.4755 -50.4642 -50.4642 -50.4573 -50.4573
   -50.4186 -50.4186 -50.4112 -50.4112 -50.4039 -50.4039 -50.4039 -50.4039
   -50.4028 -50.4028 -50.3958 -50.3958 -50.3848 -50.3848 -50.3655 -50.3655
   -50.3530 -50.3530 -50.3354 -50.3354 -50.3290 -50.3290 -50.3198 -50.3198
   -50.3135 -50.3135 -50.3111 -50.3111 -50.2972 -50.2972 -50.2889 -50.2889
   -50.2862 -50.2862 -50.2841 -50.2841 -50.2799 -50.2799 -50.2780 -50.2780
   -50.2545 -50.2545 -50.2523 -50.2523 -50.2514 -50.2514 -50.2488 -50.2488
   -30.1851 -30.1851 -30.1849 -30.1849 -30.1811 -30.1811 -30.1808 -30.1808
   -30.1296 -30.1296 -30.1295 -30.1295 -30.1253 -30.1253 -30.1251 -30.1251
   -29.8997 -29.8997 -29.8994 -29.8994 -29.8980 -29.8980 -29.8979 -29.8979
   -29.8967 -29.8967 -29.8966 -29.8966 -29.8898 -29.8898 -29.8895 -29.8895
   -29.8456 -29.8456 -29.8454 -29.8454 -29.8404 -29.8404 -29.8403 -29.8403
   -29.8390 -29.8390 -29.8388 -29.8388 -29.8351 -29.8351 -29.8349 -29.8349
     3.9224   3.9224   4.5064   4.5064   4.5220   4.5220   5.9151   5.9151
     6.5319   6.5319   7.9139   7.9139   7.9622   7.9622   7.9806   7.9806
     8.5032   8.5032   8.5540   8.5540   8.6798   8.6798   8.7161   8.7161
     8.8677   8.8677   8.8716   8.8716   8.8914   8.8914   8.9076   8.9076
     8.9336   8.9336   8.9354   8.9354   9.0268   9.0268   9.0481   9.0481
     9.1003   9.1003   9.1509   9.1509   9.1619   9.1619   9.1627   9.1627
     9.1846   9.1846   9.2500   9.2500   9.2960   9.2960   9.3214   9.3214
     9.3414   9.3414   9.3856   9.3856   9.6522   9.6522   9.6522   9.6522
     9.6539   9.6539   9.6769   9.6769   9.6818   9.6818   9.7214   9.7214
     9.8867   9.8867   9.9468   9.9468  10.0053  10.0053  10.0194  10.0194
    10.0652  10.0652  10.1172  10.1172  10.1515  10.1515  10.1532  10.1532
    10.2899  10.2899  10.3082  10.3082  10.5330  10.5330  10.6763  10.6763
    10.7246  10.7246  10.7476  10.7476  10.7557  10.7557  10.7971  10.7971
    10.9015  10.9015  10.9552  10.9552  11.0347  11.0347  11.0449  11.0449
    11.1586  11.1586  11.1678  11.1678  11.2439  11.2439  11.2440  11.2440
    11.2540  11.2540  11.2599  11.2599  11.2604  11.2604  11.2614  11.2614
    11.2703  11.2703  11.2883  11.2883  11.2987  11.2987  11.3065  11.3065
    11.3274  11.3274  11.3287  11.3287  11.3465  11.3465  11.3674  11.3674
    11.3924  11.3924  11.4166  11.4166  11.4175  11.4175  11.4322  11.4322
    11.4501  11.4501  11.4766  11.4766  11.5507  11.5507  11.7643  11.7643
    11.8166  11.8166  12.0298  12.0298  12.0318  12.0318  12.2320  12.2320
    12.2339  12.2339  12.2450  12.2450  12.2452  12.2452  12.6263  12.6263
    12.7214  12.7214  12.8674  12.8674  12.9218  12.9218  12.9798  12.9798
    12.9934  12.9934  13.0081  13.0081  13.0115  13.0115  13.0480  13.0480
    13.3053  13.3053  13.3335  13.3335  13.3462  13.3462  13.3954  13.3954
    14.6351  14.6351  14.6872  14.6872  14.7125  14.7125  14.7235  14.7235
    15.0673  15.0673  15.1118  15.1118  15.5459  15.5459  15.5650  15.5650
    16.0702  16.0702  16.1405  16.1405  16.1570  16.1570  16.2175  16.2175
    16.3046  16.3046  16.5132  16.5132  16.9869  16.9869  16.9985  16.9985
    17.4724  17.4724  17.5029  17.5029  17.5227  17.5227  18.0056  18.0056
    18.0649  18.0649  18.0702  18.0702  18.1989  18.1989  19.6483  19.6483
    19.6735  19.6735

          k = 0.0000 0.3849 0.0000 ( 13496 PWs)   bands (ev):

   -90.6480 -90.6480 -90.6473 -90.6473 -90.6468 -90.6468 -90.6461 -90.6461
   -90.5940 -90.5940 -90.5939 -90.5939 -90.5852 -90.5852 -90.5852 -90.5852
   -90.5823 -90.5823 -90.5822 -90.5822 -90.5781 -90.5781 -90.5781 -90.5781
   -90.5737 -90.5737 -90.5737 -90.5737 -90.5694 -90.5694 -90.5694 -90.5694
   -63.0548 -63.0548 -63.0547 -63.0547 -63.0537 -63.0537 -63.0536 -63.0536
   -63.0006 -63.0006 -63.0006 -63.0006 -62.9995 -62.9995 -62.9994 -62.9994
   -52.6349 -52.6349 -52.6299 -52.6299 -52.6287 -52.6287 -52.6207 -52.6207
   -52.5828 -52.5828 -52.5814 -52.5814 -52.5749 -52.5749 -52.5729 -52.5729
   -52.5692 -52.5692 -52.5669 -52.5669 -52.5595 -52.5595 -52.5573 -52.5573
   -52.5305 -52.5305 -52.5287 -52.5287 -52.5198 -52.5198 -52.5185 -52.5185
   -50.5141 -50.5141 -50.5080 -50.5080 -50.5027 -50.5027 -50.4934 -50.4934
   -50.4587 -50.4587 -50.4554 -50.4554 -50.4506 -50.4506 -50.4482 -50.4482
   -50.4112 -50.4112 -50.4084 -50.4084 -50.4082 -50.4082 -50.4041 -50.4041
   -50.3932 -50.3932 -50.3903 -50.3903 -50.3824 -50.3824 -50.3695 -50.3695
   -50.3535 -50.3535 -50.3416 -50.3416 -50.3406 -50.3406 -50.3343 -50.3343
   -50.3158 -50.3158 -50.3130 -50.3130 -50.3006 -50.3006 -50.2976 -50.2976
   -50.2922 -50.2922 -50.2918 -50.2918 -50.2829 -50.2829 -50.2806 -50.2806
   -50.2687 -50.2687 -50.2674 -50.2674 -50.2536 -50.2536 -50.2512 -50.2512
   -30.1846 -30.1846 -30.1845 -30.1845 -30.1806 -30.1806 -30.1806 -30.1806
   -30.1303 -30.1303 -30.1302 -30.1302 -30.1261 -30.1261 -30.1260 -30.1260
   -29.9000 -29.9000 -29.8999 -29.8999 -29.8972 -29.8972 -29.8971 -29.8971
   -29.8958 -29.8958 -29.8956 -29.8956 -29.8901 -29.8901 -29.8899 -29.8899
   -29.8452 -29.8452 -29.8452 -29.8452 -29.8412 -29.8412 -29.8411 -29.8411
   -29.8396 -29.8396 -29.8395 -29.8395 -29.8349 -29.8349 -29.8348 -29.8348
     4.8548   4.8548   5.4143   5.4143   5.4324   5.4324   6.7870   6.7870
     7.2363   7.2363   7.4252   7.4252   7.7374   7.7374   7.7661   7.7661
     8.3458   8.3458   8.3812   8.3812   8.5236   8.5236   8.6088   8.6088
     8.6739   8.6739   8.7951   8.7951   8.8533   8.8533   8.9167   8.9167
     9.0038   9.0038   9.0522   9.0522   9.0890   9.0890   9.1271   9.1271
     9.1365   9.1365   9.1452   9.1452   9.2484   9.2484   9.3560   9.3560
     9.3979   9.3979   9.4509   9.4509   9.4932   9.4932   9.5456   9.5456
     9.5655   9.5655   9.5951   9.5951   9.5982   9.5982   9.6802   9.6802
     9.6849   9.6849   9.7204   9.7204   9.7250   9.7250   9.7866   9.7866
     9.8138   9.8138   9.8222   9.8222   9.8871   9.8871   9.9306   9.9306
     9.9971   9.9971  10.0416  10.0416  10.0654  10.0654  10.0773  10.0773
    10.1296  10.1296  10.2202  10.2202  10.2461  10.2461  10.2934  10.2934
    10.3028  10.3028  10.3956  10.3956  10.4086  10.4086  10.4643  10.4643
    10.4803  10.4803  10.5382  10.5382  10.5977  10.5977  10.6067  10.6067
    10.6261  10.6261  10.6758  10.6758  10.7578  10.7578  10.7707  10.7707
    10.8415  10.8415  10.8702  10.8702  10.8948  10.8948  10.9250  10.9250
    10.9867  10.9867  11.0030  11.0030  11.0136  11.0136  11.0614  11.0614
    11.0723  11.0723  11.1256  11.1256  11.1580  11.1580  11.2075  11.2075
    11.2171  11.2171  11.2885  11.2885  11.2995  11.2995  11.3119  11.3119
    11.3563  11.3563  11.3640  11.3640  11.3702  11.3702  11.3972  11.3972
    11.4516  11.4516  11.4758  11.4758  11.4928  11.4928  11.5773  11.5773
    11.6042  11.6042  11.6695  11.6695  11.7380  11.7380  11.8471  11.8471
    12.0934  12.0934  12.1684  12.1684  12.4880  12.4880  12.5056  12.5056
    12.6995  12.6995  12.7993  12.7993  12.8879  12.8879  13.0337  13.0337
    13.1130  13.1130  13.1336  13.1336  13.2318  13.2318  13.4415  13.4415
    14.0077  14.0077  14.4261  14.4261  14.7183  14.7183  14.7637  14.7637
    15.9409  15.9409  16.4517  16.4517  16.5045  16.5045  16.5971  16.5971
    17.3684  17.3684  17.4289  17.4289  17.4763  17.4763  17.5935  17.5935
    17.6896  17.6896  17.8461  17.8461  18.2444  18.2444  18.6223  18.6223
    18.7361  18.7361  18.7950  18.7950  19.2484  19.2484  19.3342  19.3342
    19.6381  19.6381  19.9828  19.9828  20.3252  20.3252  20.6261  20.6262
    20.6741  20.6741

          k = 0.3333 0.5774 0.0000 ( 13500 PWs)   bands (ev):

   -90.6476 -90.6476 -90.6476 -90.6476 -90.6464 -90.6464 -90.6464 -90.6464
   -90.5890 -90.5890 -90.5890 -90.5890 -90.5873 -90.5873 -90.5873 -90.5873
   -90.5796 -90.5796 -90.5795 -90.5795 -90.5795 -90.5795 -90.5794 -90.5794
   -90.5781 -90.5781 -90.5781 -90.5781 -90.5695 -90.5695 -90.5694 -90.5694
   -63.0547 -63.0547 -63.0547 -63.0547 -63.0537 -63.0537 -63.0537 -63.0537
   -63.0007 -63.0007 -63.0006 -63.0006 -62.9995 -62.9995 -62.9995 -62.9995
   -52.6316 -52.6316 -52.6315 -52.6315 -52.6267 -52.6267 -52.6266 -52.6266
   -52.5807 -52.5807 -52.5806 -52.5806 -52.5751 -52.5751 -52.5721 -52.5721
   -52.5523 -52.5523 -52.5499 -52.5499 -52.5488 -52.5488 -52.5487 -52.5487
   -52.5437 -52.5437 -52.5400 -52.5400 -52.5371 -52.5371 -52.5351 -52.5351
   -50.5085 -50.5085 -50.5081 -50.5081 -50.5029 -50.5029 -50.5003 -50.5003
   -50.4373 -50.4373 -50.4369 -50.4369 -50.4367 -50.4367 -50.4338 -50.4338
   -50.4272 -50.4272 -50.4243 -50.4243 -50.4233 -50.4233 -50.4088 -50.4088
   -50.3854 -50.3854 -50.3849 -50.3849 -50.3798 -50.3798 -50.3642 -50.3642
   -50.3518 -50.3518 -50.3496 -50.3496 -50.3429 -50.3429 -50.3425 -50.3425
   -50.3214 -50.3214 -50.3116 -50.3116 -50.3030 -50.3030 -50.3008 -50.3008
   -50.2900 -50.2900 -50.2897 -50.2897 -50.2890 -50.2890 -50.2836 -50.2836
   -50.2768 -50.2768 -50.2722 -50.2722 -50.2570 -50.2570 -50.2564 -50.2564
   -30.1845 -30.1845 -30.1843 -30.1843 -30.1805 -30.1805 -30.1803 -30.1803
   -30.1307 -30.1307 -30.1306 -30.1306 -30.1265 -30.1265 -30.1264 -30.1264
   -29.9009 -29.9009 -29.8993 -29.8993 -29.8971 -29.8971 -29.8971 -29.8971
   -29.8949 -29.8949 -29.8948 -29.8948 -29.8912 -29.8912 -29.8895 -29.8895
   -29.8452 -29.8452 -29.8451 -29.8451 -29.8417 -29.8417 -29.8417 -29.8417
   -29.8396 -29.8396 -29.8395 -29.8395 -29.8348 -29.8348 -29.8347 -29.8347
     6.4066   6.4066   6.4073   6.4073   6.8335   6.8335   6.9429   6.9429
     6.9479   6.9479   7.1338   7.1338   7.2429   7.2429   7.2476   7.2476
     7.4472   7.4472   8.2750   8.2750   8.2765   8.2765   8.2804   8.2804
     8.2859   8.2859   8.3288   8.3288   8.4011   8.4011   9.0440   9.0440
     9.0474   9.0474   9.0501   9.0501   9.1577   9.1577   9.1722   9.1722
     9.3178   9.3178   9.3499   9.3499   9.4528   9.4528   9.4679   9.4679
     9.5383   9.5383   9.5390   9.5390   9.5808   9.5808   9.5891   9.5891
     9.6064   9.6064   9.6099   9.6099   9.6826   9.6826   9.7372   9.7372
     9.7506   9.7506   9.7567   9.7567   9.7730   9.7730   9.7745   9.7745
     9.7910   9.7910   9.8416   9.8416   9.8535   9.8535   9.8685   9.8685
     9.8870   9.8870   9.8883   9.8883   9.9307   9.9307   9.9405   9.9405
     9.9993   9.9993  10.0033  10.0033  10.0314  10.0314  10.0445  10.0445
    10.0794  10.0794  10.2190  10.2190  10.2353  10.2353  10.2490  10.2490
    10.3588  10.3588  10.4651  10.4651  10.4833  10.4833  10.4962  10.4962
    10.5330  10.5330  10.5520  10.5520  10.6966  10.6966  10.7010  10.7010
    10.7743  10.7743  10.8009  10.8009  10.8164  10.8164  10.8319  10.8319
    10.8731  10.8731  10.8920  10.8920  10.9027  10.9027  10.9891  10.9891
    11.0318  11.0318  11.0576  11.0576  11.0692  11.0692  11.0735  11.0735
    11.0957  11.0957  11.1069  11.1069  11.1138  11.1138  11.1539  11.1539
    11.1665  11.1665  11.1763  11.1763  11.2354  11.2354  11.2846  11.2846
    11.4323  11.4323  11.4470  11.4470  11.5230  11.5230  11.5257  11.5257
    11.5453  11.5453  11.6109  11.6109  11.6229  11.6229  11.7124  11.7124
    11.7676  11.7676  11.8243  11.8243  11.8259  11.8259  12.0387  12.0387
    12.1555  12.1555  12.1663  12.1663  12.2274  12.2274  13.5297  13.5297
    13.5507  13.5507  13.5981  13.5981  13.7690  13.7690  13.7762  13.7762
    14.3270  14.3270  16.1239  16.1239  16.1259  16.1259  16.2768  16.2768
    16.5281  16.5281  16.5287  16.5287  17.0433  17.0433  17.1520  17.1520
    17.1529  17.1529  17.1865  17.1865  17.1945  17.1945  17.4665  17.4665
    17.6569  17.6569  18.0004  18.0004  18.1176  18.1176  18.1314  18.1314
    18.8676  18.8676  18.8703  18.8703  19.1085  19.1085  19.1222  19.1222
    19.2315  19.2315  19.7972  19.7972  21.2181  21.2181  21.2265  21.2265
    21.4068  21.4068

     the Fermi energy is    11.8913 ev

!    total energy              =   -7950.02672867 Ry
     total all-electron energy =    -51823.878812 Ry
     estimated scf accuracy    <          5.0E-10 Ry
     smearing contrib. (-TS)   =       0.11934563 Ry
     internal energy E=F+TS    =   -7950.14607431 Ry

     The total energy is F=E-TS. E is the sum of the following terms:
     one-electron contribution =   -4623.49486066 Ry
     hartree contribution      =    2452.82458407 Ry
     xc contribution           =    -680.98864683 Ry
     ewald contribution        =   -3560.38311125 Ry
     one-center paw contrib.   =   -1538.10403964 Ry

     convergence has been achieved in  16 iterations

     Forces acting on atoms (cartesian axes, Ry/au):

     atom    1 type  1   force =     0.00000000    0.00000000    0.00312798
     atom    2 type  1   force =     0.00000000    0.00000000    0.00312798
     atom    3 type  1   force =    -0.00000000   -0.00000000   -0.00312798
     atom    4 type  1   force =    -0.00000000   -0.00000000   -0.00312798
     atom    5 type  1   force =     0.00000000    0.00000000    0.00066185
     atom    6 type  1   force =    -0.00000000   -0.00000000    0.00066185
     atom    7 type  1   force =     0.00000000    0.00000000   -0.00066185
     atom    8 type  1   force =    -0.00000000   -0.00000000   -0.00066185
     atom    9 type  2   force =     0.00000000    0.00000000    0.00216540
     atom   10 type  2   force =     0.00000000    0.00000000    0.00216540
     atom   11 type  2   force =     0.00000000    0.00000000   -0.00216540
     atom   12 type  2   force =     0.00000000    0.00000000   -0.00216540
     atom   13 type  2   force =    -0.00000000   -0.00107117   -0.00000000
     atom   14 type  2   force =     0.00092766   -0.00053559    0.00000000
     atom   15 type  2   force =     0.00000000    0.00107117    0.00000000
     atom   16 type  2   force =    -0.00092766    0.00053559   -0.00000000
     atom   17 type  2   force =     0.00092766    0.00053559    0.00000000
     atom   18 type  2   force =    -0.00092766   -0.00053559    0.00000000
     atom   19 type  2   force =    -0.00000000   -0.00000000   -0.00000000
     atom   20 type  2   force =     0.00000000    0.00000000    0.00000000
     atom   21 type  2   force =    -0.00000000    0.00000000    0.00000000
     atom   22 type  2   force =     0.00000000    0.00000000   -0.00000000
     atom   23 type  2   force =     0.00000000    0.00000000    0.00000000
     atom   24 type  2   force =     0.00000000    0.00000000    0.00000000
     The non-local contrib.  to forces
     atom    1 type  1   force =     0.00000000   -0.00000000    0.02201962
     atom    2 type  1   force =     0.00000000    0.00000000    0.02201962
     atom    3 type  1   force =     0.00000000    0.00000000   -0.02201962
     atom    4 type  1   force =     0.00000000    0.00000000   -0.02201962
     atom    5 type  1   force =    -0.00000000   -0.00000000   -0.00029809
     atom    6 type  1   force =     0.00000000    0.00000000   -0.00029809
     atom    7 type  1   force =     0.00000000    0.00000000    0.00029809
     atom    8 type  1   force =     0.00000000    0.00000000    0.00029809
     atom    9 type  2   force =    -0.00000000   -0.00000000   -0.01121466
     atom   10 type  2   force =     0.00000000    0.00000000   -0.01121466
     atom   11 type  2   force =     0.00000000    0.00000000    0.01121466
     atom   12 type  2   force =     0.00000000   -0.00000000    0.01121466
     atom   13 type  2   force =     0.00000000   -0.09118790    0.00000000
     atom   14 type  2   force =     0.07897104   -0.04559395    0.00000000
     atom   15 type  2   force =     0.00000000    0.09118790    0.00000000
     atom   16 type  2   force =    -0.07897104    0.04559395    0.00000000
     atom   17 type  2   force =     0.07897104    0.04559395    0.00000000
     atom   18 type  2   force =    -0.07897104   -0.04559395    0.00000000
     atom   19 type  2   force =     0.00000000   -0.00000000    0.00000000
     atom   20 type  2   force =    -0.00000000    0.00000000    0.00000000
     atom   21 type  2   force =    -0.00000000   -0.00000000    0.00000000
     atom   22 type  2   force =     0.00000000   -0.00000000   -0.00000000
     atom   23 type  2   force =    -0.00000000    0.00000000   -0.00000000
     atom   24 type  2   force =     0.00000000    0.00000000    0.00000000
     The ionic contribution  to forces
     atom    1 type  1   force =    -0.00001469    0.00000969   -0.45113597
     atom    2 type  1   force =     0.00001469   -0.00000969   -0.45113597
     atom    3 type  1   force =     0.00001469   -0.00000969    0.45113597
     atom    4 type  1   force =    -0.00001469    0.00000969    0.45113597
     atom    5 type  1   force =     0.00005283   -0.00002917    0.15183453
     atom    6 type  1   force =    -0.00005283    0.00002917    0.15183453
     atom    7 type  1   force =    -0.00005283    0.00002917   -0.15183453
     atom    8 type  1   force =     0.00005283   -0.00002917   -0.15183453
     atom    9 type  2   force =     0.00005508   -0.00003172    0.46729760
     atom   10 type  2   force =    -0.00005508    0.00003172    0.46729760
     atom   11 type  2   force =    -0.00005508    0.00003172   -0.46729760
     atom   12 type  2   force =     0.00005508   -0.00003172   -0.46729760
     atom   13 type  2   force =     0.00006917  -14.45310634   -0.00000000
     atom   14 type  2   force =    12.51683704   -7.22660044    0.00000000
     atom   15 type  2   force =    -0.00006917   14.45310634    0.00000000
     atom   16 type  2   force =   -12.51683704    7.22660044   -0.00000000
     atom   17 type  2   force =    12.51679154    7.22649431   -0.00000000
     atom   18 type  2   force =   -12.51679154   -7.22649431    0.00000000
     atom   19 type  2   force =     0.00000000   -0.00000000   -0.00000000
     atom   20 type  2   force =     0.00000000    0.00000000   -0.00000000
     atom   21 type  2   force =     0.00000000   -0.00000000   -0.00000000
     atom   22 type  2   force =     0.00000000   -0.00000000   -0.00000000
     atom   23 type  2   force =     0.00000000   -0.00000000   -0.00000000
     atom   24 type  2   force =     0.00000000   -0.00000000   -0.00000000
     The local contribution  to forces
     atom    1 type  1   force =     0.00000000   -0.00000113    0.43235462
     atom    2 type  1   force =    -0.00000000    0.00000113    0.43235462
     atom    3 type  1   force =    -0.00000000    0.00000113   -0.43235462
     atom    4 type  1   force =     0.00000000   -0.00000113   -0.43235462
     atom    5 type  1   force =     0.00149650   -0.00086525   -0.15087970
     atom    6 type  1   force =    -0.00149650    0.00086525   -0.15087970
     atom    7 type  1   force =    -0.00149650    0.00086525    0.15087970
     atom    8 type  1   force =     0.00149650   -0.00086525    0.15087970
     atom    9 type  2   force =     0.00198597   -0.00114668   -0.45217613
     atom   10 type  2   force =    -0.00198597    0.00114668   -0.45217613
     atom   11 type  2   force =    -0.00198597    0.00114668    0.45217613
     atom   12 type  2   force =     0.00198597   -0.00114668    0.45217613
     atom   13 type  2   force =    -0.00198431   14.54349691    0.00000000
     atom   14 type  2   force =   -12.59228228    7.27015846    0.00000000
     atom   15 type  2   force =     0.00198431  -14.54349691    0.00000000
     atom   16 type  2   force =    12.59228228   -7.27015846    0.00000000
     atom   17 type  2   force =   -12.59603000   -7.27003093    0.00000000
     atom   18 type  2   force =    12.59603000    7.27003093    0.00000000
     atom   19 type  2   force =     0.00000000    0.00000000    0.00000000
     atom   20 type  2   force =     0.00000000    0.00000000   -0.00000000
     atom   21 type  2   force =     0.00000000    0.00000000   -0.00000000
     atom   22 type  2   force =     0.00000000    0.00000000    0.00000000
     atom   23 type  2   force =     0.00000000    0.00000000   -0.00000000
     atom   24 type  2   force =     0.00000000    0.00000000    0.00000000
     The core correction contribution to forces
     atom    1 type  1   force =     0.00000000   -0.00000000   -0.00010307
     atom    2 type  1   force =    -0.00000000    0.00000000   -0.00010307
     atom    3 type  1   force =    -0.00000000    0.00000000    0.00010307
     atom    4 type  1   force =     0.00000000   -0.00000000    0.00010307
     atom    5 type  1   force =     0.00000324   -0.00000187   -0.00000087
     atom    6 type  1   force =    -0.00000324    0.00000187   -0.00000087
     atom    7 type  1   force =    -0.00000324    0.00000187    0.00000087
     atom    8 type  1   force =     0.00000324   -0.00000187    0.00000087
     atom    9 type  2   force =     0.00000121   -0.00000070   -0.00172959
     atom   10 type  2   force =    -0.00000121    0.00000070   -0.00172959
     atom   11 type  2   force =    -0.00000121    0.00000070    0.00172959
     atom   12 type  2   force =     0.00000121   -0.00000070    0.00172959
     atom   13 type  2   force =    -0.00000121    0.00082830    0.00000000
     atom   14 type  2   force =    -0.00071544    0.00041306    0.00000000
     atom   15 type  2   force =     0.00000121   -0.00082830    0.00000000
     atom   16 type  2   force =     0.00071544   -0.00041306    0.00000000
     atom   17 type  2   force =    -0.00071794   -0.00041310    0.00000000
     atom   18 type  2   force =     0.00071794    0.00041310    0.00000000
     atom   19 type  2   force =     0.00000000    0.00000000    0.00000000
     atom   20 type  2   force =     0.00000000    0.00000000   -0.00000000
     atom   21 type  2   force =     0.00000000    0.00000000   -0.00000000
     atom   22 type  2   force =     0.00000000    0.00000000    0.00000000
     atom   23 type  2   force =     0.00000000    0.00000000   -0.00000000
     atom   24 type  2   force =    -0.00000000    0.00000000    0.00000000
     The Hubbard contrib.    to forces
     atom    1 type  1   force =     0.00000000    0.00000000    0.00000000
     atom    2 type  1   force =     0.00000000    0.00000000    0.00000000
     atom    3 type  1   force =     0.00000000    0.00000000    0.00000000
     atom    4 type  1   force =     0.00000000    0.00000000    0.00000000
     atom    5 type  1   force =     0.00000000    0.00000000    0.00000000
     atom    6 type  1   force =     0.00000000    0.00000000    0.00000000
     atom    7 type  1   force =     0.00000000    0.00000000    0.00000000
     atom    8 type  1   force =     0.00000000    0.00000000    0.00000000
     atom    9 type  2   force =     0.00000000    0.00000000    0.00000000
     atom   10 type  2   force =     0.00000000    0.00000000    0.00000000
     atom   11 type  2   force =     0.00000000    0.00000000    0.00000000
     atom   12 type  2   force =     0.00000000    0.00000000    0.00000000
     atom   13 type  2   force =     0.00000000    0.00000000    0.00000000
     atom   14 type  2   force =     0.00000000    0.00000000    0.00000000
     atom   15 type  2   force =     0.00000000    0.00000000    0.00000000
     atom   16 type  2   force =     0.00000000    0.00000000    0.00000000
     atom   17 type  2   force =     0.00000000    0.00000000    0.00000000
     atom   18 type  2   force =     0.00000000    0.00000000    0.00000000
     atom   19 type  2   force =     0.00000000    0.00000000    0.00000000
     atom   20 type  2   force =     0.00000000    0.00000000    0.00000000
     atom   21 type  2   force =     0.00000000    0.00000000    0.00000000
     atom   22 type  2   force =     0.00000000    0.00000000    0.00000000
     atom   23 type  2   force =     0.00000000    0.00000000    0.00000000
     atom   24 type  2   force =     0.00000000    0.00000000    0.00000000
     The SCF correction term to forces
     atom    1 type  1   force =     0.00000001   -0.00000001   -0.00000721
     atom    2 type  1   force =    -0.00000001    0.00000001   -0.00000721
     atom    3 type  1   force =    -0.00000001    0.00000001    0.00000721
     atom    4 type  1   force =     0.00000001   -0.00000001    0.00000721
     atom    5 type  1   force =     0.00000000   -0.00000000    0.00000597
     atom    6 type  1   force =    -0.00000000    0.00000000    0.00000597
     atom    7 type  1   force =    -0.00000000    0.00000000   -0.00000597
     atom    8 type  1   force =     0.00000000   -0.00000000   -0.00000597
     atom    9 type  2   force =    -0.00000005    0.00000003   -0.00001182
     atom   10 type  2   force =     0.00000005   -0.00000003   -0.00001182
     atom   11 type  2   force =     0.00000005   -0.00000003    0.00001182
     atom   12 type  2   force =    -0.00000005    0.00000003    0.00001182
     atom   13 type  2   force =     0.00000001   -0.00001014    0.00000000
     atom   14 type  2   force =     0.00000880   -0.00000508   -0.00000000
     atom   15 type  2   force =    -0.00000001    0.00001014   -0.00000000
     atom   16 type  2   force =    -0.00000880    0.00000508    0.00000000
     atom   17 type  2   force =     0.00000879    0.00000506    0.00000000
     atom   18 type  2   force =    -0.00000879   -0.00000506   -0.00000000
     atom   19 type  2   force =     0.00000000    0.00000000    0.00000000
     atom   20 type  2   force =    -0.00000000   -0.00000000    0.00000000
     atom   21 type  2   force =     0.00000000    0.00000000    0.00000000
     atom   22 type  2   force =     0.00000000   -0.00000000   -0.00000000
     atom   23 type  2   force =    -0.00000000   -0.00000000    0.00000000
     atom   24 type  2   force =    -0.00000000   -0.00000000    0.00000000

     Total force =     0.008157     Total SCF correction =     0.000039
     Energy error            =      1.5E-04 Ry
     Gradient error          =      3.1E-03 Ry/Bohr

     number of scf cycles    =   3
     number of bfgs steps    =   2

     energy             old  =   -7950.0265792856 Ry
     energy             new  =   -7950.0267286739 Ry

     CASE: energy            _new < energy            _old

     new trust radius        =       0.0077181414 bohr
     new conv_thr            =       0.0000000005 Ry


ATOMIC_POSITIONS (crystal)
Mg            0.0000000000        0.0000000000        0.4065578453
Mg            0.0000000000        0.0000000000        0.9065578453
Mg           -0.0000000000       -0.0000000000        0.5934421547
Mg           -0.0000000000        0.0000000000        0.0934421547
Mg            0.3333330000        0.6666670000        0.6559209072
Mg            0.6666670000        0.3333330000        0.1559209072
Mg            0.6666670000        0.3333330000        0.3440790928
Mg            0.3333330000        0.6666670000        0.8440790928
Ni            0.3333330000        0.6666670000        0.3753578876
Ni            0.6666670000        0.3333330000        0.8753578876
Ni            0.6666670000        0.3333330000        0.6246421124
Ni            0.3333330000        0.6666670000        0.1246421124
Ni            0.1661188243        0.3322366487        0.2500000000
Ni            0.8338811758        0.1661188243        0.7500000000
Ni            0.8338811757        0.6677633513        0.7500000000
Ni            0.1661188242        0.8338811757        0.2500000000
Ni            0.6677633515        0.8338811757        0.2500000000
Ni            0.3322366485        0.1661188243        0.7500000000
Ni            0.5000000000       -0.0000000000        0.5000000000
Ni            0.5000000000        0.5000000000        0.0000000000
Ni            0.5000000000       -0.0000000000       -0.0000000000
Ni            0.5000000000        0.5000000000        0.5000000000
Ni           -0.0000000000        0.5000000000        0.0000000000
Ni           -0.0000000000        0.5000000000        0.5000000000



     Writing config-only to output data dir ./ACOptimization/out/iso.save/
     NEW-OLD atomic charge density approx. for the potential

     Check: negative core charge=   -0.000015

     total cpu time spent up to now is     1405.9 secs

     Self-consistent Calculation

     iteration #  1     ecut=    50.00 Ry     beta= 0.10
     Davidson diagonalization with overlap
     ethr =  1.00E-06,  avg # of iterations =  6.0

     total cpu time spent up to now is     1447.0 secs

     total energy              =   -7950.02814012 Ry
     estimated scf accuracy    <       0.00040540 Ry

     iteration #  2     ecut=    50.00 Ry     beta= 0.10
     Davidson diagonalization with overlap
     ethr =  1.10E-07,  avg # of iterations =  2.0

     total cpu time spent up to now is     1468.7 secs

     total energy              =   -7950.02745320 Ry
     estimated scf accuracy    <       0.00028877 Ry

     iteration #  3     ecut=    50.00 Ry     beta= 0.10
     Davidson diagonalization with overlap
     ethr =  7.85E-08,  avg # of iterations =  2.0

     total cpu time spent up to now is     1490.5 secs

     total energy              =   -7950.02695640 Ry
     estimated scf accuracy    <       0.00009196 Ry

     iteration #  4     ecut=    50.00 Ry     beta= 0.10
     Davidson diagonalization with overlap
     ethr =  2.50E-08,  avg # of iterations =  4.0

     total cpu time spent up to now is     1516.4 secs

     total energy              =   -7950.02695823 Ry
     estimated scf accuracy    <       0.00001247 Ry

     iteration #  5     ecut=    50.00 Ry     beta= 0.10
     Davidson diagonalization with overlap
     ethr =  3.39E-09,  avg # of iterations =  4.0

     total cpu time spent up to now is     1538.7 secs

     total energy              =   -7950.02700078 Ry
     estimated scf accuracy    <       0.00001342 Ry

     iteration #  6     ecut=    50.00 Ry     beta= 0.10
     Davidson diagonalization with overlap
     ethr =  3.39E-09,  avg # of iterations =  2.0

     total cpu time spent up to now is     1562.6 secs

     total energy              =   -7950.02693333 Ry
     estimated scf accuracy    <       0.00000908 Ry

     iteration #  7     ecut=    50.00 Ry     beta= 0.10
     Davidson diagonalization with overlap
     ethr =  2.47E-09,  avg # of iterations =  4.0

     total cpu time spent up to now is     1589.2 secs

     total energy              =   -7950.02686102 Ry
     estimated scf accuracy    <       0.00001532 Ry

     iteration #  8     ecut=    50.00 Ry     beta= 0.10
     Davidson diagonalization with overlap
     ethr =  2.47E-09,  avg # of iterations =  4.0

     total cpu time spent up to now is     1616.7 secs

     total energy              =   -7950.02686578 Ry
     estimated scf accuracy    <       0.00000362 Ry

     iteration #  9     ecut=    50.00 Ry     beta= 0.10
     Davidson diagonalization with overlap
     ethr =  9.85E-10,  avg # of iterations =  1.7

     total cpu time spent up to now is     1637.3 secs

     total energy              =   -7950.02686104 Ry
     estimated scf accuracy    <       0.00000023 Ry

     iteration # 10     ecut=    50.00 Ry     beta= 0.10
     Davidson diagonalization with overlap
     ethr =  6.35E-11,  avg # of iterations =  4.3

     total cpu time spent up to now is     1666.0 secs

     total energy              =   -7950.02686129 Ry
     estimated scf accuracy    <       0.00000019 Ry

     iteration # 11     ecut=    50.00 Ry     beta= 0.10
     Davidson diagonalization with overlap
     ethr =  5.16E-11,  avg # of iterations =  2.0

     total cpu time spent up to now is     1689.1 secs

     total energy              =   -7950.02685994 Ry
     estimated scf accuracy    <       0.00000020 Ry

     iteration # 12     ecut=    50.00 Ry     beta= 0.10
     Davidson diagonalization with overlap
     ethr =  5.16E-11,  avg # of iterations =  4.0

     total cpu time spent up to now is     1716.1 secs

     total energy              =   -7950.02686036 Ry
     estimated scf accuracy    <       0.00000032 Ry

     iteration # 13     ecut=    50.00 Ry     beta= 0.10
     Davidson diagonalization with overlap
     ethr =  5.16E-11,  avg # of iterations =  4.0

     total cpu time spent up to now is     1743.8 secs

     total energy              =   -7950.02686065 Ry
     estimated scf accuracy    <       0.00000002 Ry

     iteration # 14     ecut=    50.00 Ry     beta= 0.10
     Davidson diagonalization with overlap
     ethr =  4.89E-12,  avg # of iterations =  5.0

     total cpu time spent up to now is     1771.9 secs

     total energy              =   -7950.02686068 Ry
     estimated scf accuracy    <          7.7E-09 Ry

     iteration # 15     ecut=    50.00 Ry     beta= 0.10
     Davidson diagonalization with overlap
     ethr =  2.08E-12,  avg # of iterations =  2.0

     total cpu time spent up to now is     1794.8 secs

     total energy              =   -7950.02686068 Ry
     estimated scf accuracy    <          6.0E-09 Ry

     iteration # 16     ecut=    50.00 Ry     beta= 0.10
     Davidson diagonalization with overlap
     ethr =  1.63E-12,  avg # of iterations =  2.0

     total cpu time spent up to now is     1819.0 secs

     total energy              =   -7950.02686069 Ry
     estimated scf accuracy    <          1.8E-09 Ry

     iteration # 17     ecut=    50.00 Ry     beta= 0.10
     Davidson diagonalization with overlap
     ethr =  4.97E-13,  avg # of iterations =  2.0

     total cpu time spent up to now is     1842.5 secs

     End of self-consistent calculation

          k = 0.0000 0.0000 0.0000 ( 13497 PWs)   bands (ev):

   -90.6472 -90.6472 -90.6460 -90.6460 -90.6459 -90.6459 -90.6446 -90.6446
   -90.5966 -90.5966 -90.5963 -90.5963 -90.5913 -90.5913 -90.5910 -90.5910
   -90.5765 -90.5765 -90.5765 -90.5765 -90.5764 -90.5764 -90.5764 -90.5764
   -90.5715 -90.5715 -90.5715 -90.5715 -90.5714 -90.5714 -90.5714 -90.5714
   -63.0546 -63.0546 -63.0546 -63.0546 -63.0535 -63.0535 -63.0535 -63.0535
   -63.0005 -63.0005 -63.0004 -63.0004 -62.9993 -62.9993 -62.9993 -62.9993
   -52.6369 -52.6369 -52.6263 -52.6263 -52.6260 -52.6260 -52.6180 -52.6180
   -52.5878 -52.5878 -52.5833 -52.5833 -52.5833 -52.5833 -52.5811 -52.5811
   -52.5801 -52.5801 -52.5759 -52.5759 -52.5751 -52.5751 -52.5725 -52.5725
   -52.5114 -52.5114 -52.5096 -52.5096 -52.5071 -52.5071 -52.5005 -52.5005
   -50.5193 -50.5193 -50.5122 -50.5122 -50.4949 -50.4949 -50.4910 -50.4910
   -50.4783 -50.4783 -50.4771 -50.4771 -50.4643 -50.4643 -50.4561 -50.4561
   -50.4181 -50.4181 -50.4101 -50.4101 -50.4049 -50.4049 -50.4046 -50.4046
   -50.4028 -50.4028 -50.3973 -50.3973 -50.3825 -50.3825 -50.3651 -50.3651
   -50.3515 -50.3515 -50.3348 -50.3348 -50.3277 -50.3277 -50.3190 -50.3190
   -50.3117 -50.3117 -50.3097 -50.3097 -50.2991 -50.2991 -50.2905 -50.2905
   -50.2849 -50.2849 -50.2828 -50.2828 -50.2783 -50.2783 -50.2763 -50.2763
   -50.2562 -50.2562 -50.2540 -50.2540 -50.2534 -50.2534 -50.2508 -50.2508
   -30.1849 -30.1849 -30.1847 -30.1847 -30.1808 -30.1808 -30.1806 -30.1806
   -30.1296 -30.1296 -30.1295 -30.1295 -30.1252 -30.1252 -30.1250 -30.1250
   -29.8996 -29.8996 -29.8993 -29.8993 -29.8977 -29.8977 -29.8976 -29.8976
   -29.8964 -29.8964 -29.8963 -29.8963 -29.8896 -29.8896 -29.8893 -29.8893
   -29.8458 -29.8458 -29.8456 -29.8456 -29.8402 -29.8402 -29.8402 -29.8402
   -29.8388 -29.8388 -29.8386 -29.8386 -29.8351 -29.8351 -29.8348 -29.8348
     3.9226   3.9226   4.5108   4.5108   4.5175   4.5175   5.9133   5.9133
     6.5343   6.5343   7.9116   7.9116   7.9624   7.9624   7.9854   7.9854
     8.5041   8.5041   8.5520   8.5520   8.6866   8.6866   8.7162   8.7162
     8.8655   8.8655   8.8702   8.8702   8.8900   8.8900   8.9049   8.9049
     8.9296   8.9296   8.9323   8.9323   9.0312   9.0312   9.0525   9.0525
     9.1007   9.1007   9.1505   9.1505   9.1605   9.1605   9.1626   9.1626
     9.1855   9.1855   9.2505   9.2505   9.3012   9.3012   9.3215   9.3215
     9.3467   9.3467   9.3854   9.3854   9.6506   9.6506   9.6506   9.6506
     9.6584   9.6584   9.6748   9.6748   9.6795   9.6795   9.7263   9.7263
     9.8873   9.8873   9.9471   9.9471  10.0047  10.0047  10.0209  10.0209
    10.0650  10.0650  10.1179  10.1179  10.1535  10.1535  10.1549  10.1549
    10.2917  10.2917  10.3102  10.3102  10.5296  10.5296  10.6785  10.6785
    10.7280  10.7280  10.7493  10.7493  10.7526  10.7526  10.7947  10.7947
    10.9044  10.9044  10.9580  10.9580  11.0359  11.0359  11.0452  11.0452
    11.1590  11.1590  11.1681  11.1681  11.2433  11.2433  11.2439  11.2439
    11.2513  11.2513  11.2577  11.2577  11.2587  11.2587  11.2635  11.2635
    11.2689  11.2689  11.2870  11.2870  11.2988  11.2988  11.3040  11.3040
    11.3261  11.3261  11.3295  11.3295  11.3461  11.3461  11.3686  11.3686
    11.3931  11.3931  11.4146  11.4146  11.4154  11.4154  11.4299  11.4299
    11.4499  11.4499  11.4781  11.4781  11.5523  11.5523  11.7659  11.7659
    11.8183  11.8183  12.0302  12.0302  12.0323  12.0323  12.2332  12.2332
    12.2351  12.2351  12.2430  12.2430  12.2432  12.2432  12.6283  12.6283
    12.7229  12.7229  12.8702  12.8702  12.9214  12.9214  12.9767  12.9767
    12.9911  12.9911  13.0052  13.0052  13.0095  13.0095  13.0489  13.0489
    13.3053  13.3053  13.3334  13.3334  13.3428  13.3428  13.3923  13.3923
    14.6373  14.6373  14.6894  14.6894  14.7143  14.7143  14.7253  14.7253
    15.0687  15.0687  15.1133  15.1133  15.5455  15.5455  15.5650  15.5650
    16.0670  16.0670  16.1434  16.1434  16.1599  16.1599  16.2141  16.2141
    16.2995  16.2995  16.5123  16.5123  16.9866  16.9866  16.9982  16.9982
    17.4728  17.4728  17.5033  17.5033  17.5229  17.5229  18.0043  18.0043
    18.0631  18.0631  18.0683  18.0683  18.1993  18.1993  19.6411  19.6411
    19.6736  19.6736

          k = 0.0000 0.3849 0.0000 ( 13496 PWs)   bands (ev):

   -90.6467 -90.6467 -90.6460 -90.6460 -90.6456 -90.6456 -90.6448 -90.6448
   -90.5924 -90.5924 -90.5923 -90.5923 -90.5872 -90.5872 -90.5871 -90.5871
   -90.5806 -90.5806 -90.5806 -90.5806 -90.5764 -90.5764 -90.5764 -90.5764
   -90.5757 -90.5757 -90.5757 -90.5757 -90.5714 -90.5714 -90.5714 -90.5714
   -63.0546 -63.0546 -63.0545 -63.0545 -63.0535 -63.0535 -63.0534 -63.0534
   -63.0006 -63.0006 -63.0005 -63.0005 -62.9994 -62.9994 -62.9993 -62.9993
   -52.6337 -52.6337 -52.6286 -52.6286 -52.6277 -52.6277 -52.6196 -52.6196
   -52.5814 -52.5814 -52.5805 -52.5805 -52.5759 -52.5759 -52.5749 -52.5749
   -52.5679 -52.5679 -52.5660 -52.5660 -52.5614 -52.5614 -52.5582 -52.5582
   -52.5299 -52.5299 -52.5273 -52.5273 -52.5215 -52.5215 -52.5193 -52.5193
   -50.5134 -50.5134 -50.5077 -50.5077 -50.5015 -50.5015 -50.4925 -50.4925
   -50.4594 -50.4594 -50.4566 -50.4566 -50.4497 -50.4497 -50.4474 -50.4474
   -50.4122 -50.4122 -50.4080 -50.4080 -50.4073 -50.4073 -50.4045 -50.4045
   -50.3937 -50.3937 -50.3913 -50.3913 -50.3803 -50.3803 -50.3687 -50.3687
   -50.3523 -50.3523 -50.3407 -50.3407 -50.3397 -50.3397 -50.3334 -50.3334
   -50.3143 -50.3143 -50.3114 -50.3114 -50.2996 -50.2996 -50.2962 -50.2962
   -50.2938 -50.2938 -50.2932 -50.2932 -50.2814 -50.2814 -50.2792 -50.2792
   -50.2705 -50.2705 -50.2691 -50.2691 -50.2554 -50.2554 -50.2531 -50.2531
   -30.1844 -30.1844 -30.1843 -30.1843 -30.1804 -30.1804 -30.1803 -30.1803
   -30.1303 -30.1303 -30.1302 -30.1302 -30.1259 -30.1259 -30.1259 -30.1259
   -29.8999 -29.8999 -29.8997 -29.8997 -29.8969 -29.8969 -29.8968 -29.8968
   -29.8955 -29.8955 -29.8953 -29.8953 -29.8899 -29.8899 -29.8898 -29.8898
   -29.8455 -29.8455 -29.8454 -29.8454 -29.8410 -29.8410 -29.8409 -29.8409
   -29.8393 -29.8393 -29.8392 -29.8392 -29.8348 -29.8348 -29.8348 -29.8348
     4.8552   4.8552   5.4190   5.4190   5.4282   5.4282   6.7856   6.7856
     7.2384   7.2384   7.4252   7.4252   7.7412   7.7412   7.7626   7.7626
     8.3464   8.3464   8.3808   8.3808   8.5273   8.5273   8.6097   8.6097
     8.6746   8.6746   8.7981   8.7981   8.8555   8.8555   8.9167   8.9167
     9.0034   9.0034   9.0515   9.0515   9.0856   9.0856   9.1266   9.1266
     9.1372   9.1372   9.1495   9.1495   9.2491   9.2491   9.3550   9.3550
     9.3979   9.3979   9.4523   9.4523   9.4935   9.4935   9.5464   9.5464
     9.5663   9.5663   9.5975   9.5975   9.5982   9.5982   9.6796   9.6796
     9.6855   9.6855   9.7208   9.7208   9.7246   9.7246   9.7878   9.7878
     9.8126   9.8126   9.8208   9.8208   9.8868   9.8868   9.9327   9.9327
     9.9969   9.9969  10.0427  10.0427  10.0658  10.0658  10.0759  10.0759
    10.1290  10.1290  10.2218  10.2218  10.2470  10.2470  10.2921  10.2921
    10.3030  10.3030  10.3957  10.3957  10.4082  10.4082  10.4631  10.4631
    10.4796  10.4796  10.5378  10.5378  10.5977  10.5977  10.6074  10.6074
    10.6269  10.6269  10.6761  10.6761  10.7580  10.7580  10.7700  10.7700
    10.8424  10.8424  10.8696  10.8696  10.8952  10.8952  10.9246  10.9246
    10.9858  10.9858  11.0017  11.0017  11.0138  11.0138  11.0619  11.0619
    11.0728  11.0728  11.1260  11.1260  11.1585  11.1585  11.2076  11.2076
    11.2173  11.2173  11.2863  11.2863  11.2995  11.2995  11.3111  11.3111
    11.3556  11.3556  11.3653  11.3653  11.3699  11.3699  11.3980  11.3980
    11.4505  11.4505  11.4756  11.4756  11.4930  11.4930  11.5773  11.5773
    11.6045  11.6045  11.6701  11.6701  11.7381  11.7381  11.8483  11.8483
    12.0938  12.0938  12.1676  12.1676  12.4882  12.4882  12.5068  12.5068
    12.6984  12.6984  12.7985  12.7985  12.8861  12.8861  13.0337  13.0337
    13.1120  13.1120  13.1352  13.1352  13.2300  13.2300  13.4439  13.4439
    14.0089  14.0089  14.4243  14.4243  14.7164  14.7164  14.7649  14.7649
    15.9419  15.9419  16.4479  16.4479  16.5048  16.5048  16.5944  16.5944
    17.3686  17.3686  17.4306  17.4306  17.4764  17.4764  17.5952  17.5952
    17.6934  17.6934  17.8467  17.8467  18.2460  18.2460  18.6232  18.6232
    18.7330  18.7330  18.7982  18.7982  19.2445  19.2445  19.3309  19.3309
    19.6401  19.6401  19.9811  19.9811  20.3256  20.3256  20.6264  20.6264
    20.6728  20.6729

          k = 0.3333 0.5774 0.0000 ( 13500 PWs)   bands (ev):

   -90.6462 -90.6462 -90.6462 -90.6462 -90.6452 -90.6452 -90.6452 -90.6452
   -90.5875 -90.5875 -90.5875 -90.5875 -90.5856 -90.5856 -90.5856 -90.5856
   -90.5815 -90.5815 -90.5814 -90.5814 -90.5814 -90.5814 -90.5813 -90.5813
   -90.5764 -90.5764 -90.5764 -90.5764 -90.5715 -90.5715 -90.5715 -90.5715
   -63.0545 -63.0545 -63.0545 -63.0545 -63.0534 -63.0534 -63.0534 -63.0534
   -63.0006 -63.0006 -63.0005 -63.0005 -62.9994 -62.9994 -62.9994 -62.9994
   -52.6304 -52.6304 -52.6303 -52.6303 -52.6257 -52.6257 -52.6255 -52.6255
   -52.5789 -52.5789 -52.5789 -52.5789 -52.5771 -52.5771 -52.5741 -52.5741
   -52.5501 -52.5501 -52.5496 -52.5496 -52.5490 -52.5490 -52.5466 -52.5466
   -52.5455 -52.5455 -52.5419 -52.5419 -52.5377 -52.5377 -52.5364 -52.5364
   -50.5075 -50.5075 -50.5074 -50.5074 -50.5026 -50.5026 -50.4994 -50.4994
   -50.4378 -50.4378 -50.4375 -50.4375 -50.4353 -50.4353 -50.4347 -50.4347
   -50.4288 -50.4288 -50.4250 -50.4250 -50.4225 -50.4225 -50.4065 -50.4065
   -50.3862 -50.3862 -50.3834 -50.3834 -50.3811 -50.3811 -50.3624 -50.3624
   -50.3510 -50.3510 -50.3483 -50.3483 -50.3421 -50.3421 -50.3418 -50.3418
   -50.3197 -50.3197 -50.3103 -50.3103 -50.3016 -50.3016 -50.2998 -50.2998
   -50.2916 -50.2916 -50.2889 -50.2889 -50.2884 -50.2884 -50.2830 -50.2830
   -50.2787 -50.2787 -50.2741 -50.2741 -50.2588 -50.2588 -50.2582 -50.2582
   -30.1843 -30.1843 -30.1841 -30.1841 -30.1803 -30.1803 -30.1801 -30.1801
   -30.1307 -30.1307 -30.1306 -30.1306 -30.1264 -30.1264 -30.1262 -30.1262
   -29.9007 -29.9007 -29.8992 -29.8992 -29.8969 -29.8969 -29.8968 -29.8968
   -29.8946 -29.8946 -29.8946 -29.8946 -29.8910 -29.8910 -29.8893 -29.8893
   -29.8454 -29.8454 -29.8453 -29.8453 -29.8415 -29.8415 -29.8414 -29.8414
   -29.8394 -29.8394 -29.8392 -29.8392 -29.8348 -29.8348 -29.8347 -29.8347
     6.4093   6.4093   6.4100   6.4100   6.8332   6.8332   6.9399   6.9399
     6.9449   6.9449   7.1368   7.1368   7.2460   7.2460   7.2506   7.2506
     7.4414   7.4414   8.2768   8.2768   8.2793   8.2793   8.2815   8.2815
     8.2859   8.2859   8.3250   8.3250   8.4010   8.4010   9.0482   9.0482
     9.0494   9.0494   9.0525   9.0525   9.1597   9.1597   9.1749   9.1749
     9.3168   9.3168   9.3496   9.3496   9.4543   9.4543   9.4693   9.4693
     9.5376   9.5376   9.5386   9.5386   9.5799   9.5799   9.5887   9.5887
     9.6054   9.6054   9.6081   9.6081   9.6817   9.6817   9.7384   9.7384
     9.7523   9.7523   9.7577   9.7577   9.7708   9.7708   9.7768   9.7768
     9.7913   9.7913   9.8415   9.8415   9.8534   9.8534   9.8697   9.8697
     9.8858   9.8858   9.8883   9.8883   9.9320   9.9320   9.9419   9.9419
     9.9977   9.9977  10.0038  10.0038  10.0288  10.0288  10.0447  10.0447
    10.0799  10.0799  10.2171  10.2171  10.2354  10.2354  10.2488  10.2488
    10.3623  10.3623  10.4645  10.4645  10.4829  10.4829  10.4954  10.4954
    10.5318  10.5318  10.5506  10.5506  10.6967  10.6967  10.7010  10.7010
    10.7757  10.7757  10.8006  10.8006  10.8169  10.8169  10.8310  10.8310
    10.8728  10.8728  10.8914  10.8914  10.9022  10.9022  10.9882  10.9882
    11.0321  11.0321  11.0575  11.0575  11.0685  11.0685  11.0716  11.0716
    11.0958  11.0958  11.1060  11.1060  11.1149  11.1149  11.1536  11.1536
    11.1673  11.1673  11.1774  11.1774  11.2361  11.2361  11.2854  11.2854
    11.4327  11.4327  11.4476  11.4476  11.5232  11.5232  11.5256  11.5256
    11.5454  11.5454  11.6109  11.6109  11.6230  11.6230  11.7117  11.7117
    11.7665  11.7665  11.8253  11.8253  11.8268  11.8268  12.0376  12.0376
    12.1572  12.1572  12.1677  12.1677  12.2268  12.2268  13.5289  13.5289
    13.5499  13.5499  13.5969  13.5969  13.7711  13.7711  13.7783  13.7783
    14.3252  14.3252  16.1244  16.1244  16.1264  16.1264  16.2753  16.2753
    16.5295  16.5295  16.5300  16.5300  17.0450  17.0450  17.1529  17.1529
    17.1539  17.1539  17.1871  17.1871  17.1951  17.1951  17.4660  17.4660
    17.6523  17.6523  17.9962  17.9962  18.1157  18.1157  18.1296  18.1296
    18.8701  18.8701  18.8728  18.8728  19.1084  19.1084  19.1221  19.1221
    19.2345  19.2345  19.7969  19.7969  21.2190  21.2190  21.2273  21.2273
    21.4072  21.4073

     the Fermi energy is    11.8917 ev

!    total energy              =   -7950.02686070 Ry
     total all-electron energy =    -51823.878944 Ry
     estimated scf accuracy    <          1.8E-10 Ry
     smearing contrib. (-TS)   =       0.11930459 Ry
     internal energy E=F+TS    =   -7950.14616529 Ry

     The total energy is F=E-TS. E is the sum of the following terms:
     one-electron contribution =   -4622.98161043 Ry
     hartree contribution      =    2452.56979283 Ry
     xc contribution           =    -680.98815014 Ry
     ewald contribution        =   -3560.64231247 Ry
     one-center paw contrib.   =   -1538.10388510 Ry

     convergence has been achieved in  17 iterations

     Forces acting on atoms (cartesian axes, Ry/au):

     atom    1 type  1   force =    -0.00000000   -0.00000000    0.00228453
     atom    2 type  1   force =     0.00000000    0.00000000    0.00228453
     atom    3 type  1   force =    -0.00000000   -0.00000000   -0.00228453
     atom    4 type  1   force =    -0.00000000   -0.00000000   -0.00228453
     atom    5 type  1   force =    -0.00000000   -0.00000000    0.00048080
     atom    6 type  1   force =     0.00000000    0.00000000    0.00048080
     atom    7 type  1   force =     0.00000000    0.00000000   -0.00048080
     atom    8 type  1   force =     0.00000000    0.00000000   -0.00048080
     atom    9 type  2   force =     0.00000000    0.00000000    0.00074164
     atom   10 type  2   force =    -0.00000000   -0.00000000    0.00074164
     atom   11 type  2   force =     0.00000000    0.00000000   -0.00074164
     atom   12 type  2   force =     0.00000000    0.00000000   -0.00074164
     atom   13 type  2   force =     0.00000000   -0.00007505   -0.00000000
     atom   14 type  2   force =     0.00006499   -0.00003752    0.00000000
     atom   15 type  2   force =     0.00000000    0.00007505    0.00000000
     atom   16 type  2   force =    -0.00006499    0.00003752   -0.00000000
     atom   17 type  2   force =     0.00006499    0.00003752    0.00000000
     atom   18 type  2   force =    -0.00006499   -0.00003752    0.00000000
     atom   19 type  2   force =    -0.00000000    0.00000000   -0.00000000
     atom   20 type  2   force =     0.00000000    0.00000000   -0.00000000
     atom   21 type  2   force =     0.00000000    0.00000000   -0.00000000
     atom   22 type  2   force =    -0.00000000    0.00000000    0.00000000
     atom   23 type  2   force =     0.00000000    0.00000000    0.00000000
     atom   24 type  2   force =    -0.00000000   -0.00000000   -0.00000000
     The non-local contrib.  to forces
     atom    1 type  1   force =     0.00000000    0.00000000    0.01951691
     atom    2 type  1   force =     0.00000000    0.00000000    0.01951691
     atom    3 type  1   force =    -0.00000000    0.00000000   -0.01951691
     atom    4 type  1   force =    -0.00000000   -0.00000000   -0.01951691
     atom    5 type  1   force =     0.00000000   -0.00000000   -0.00138549
     atom    6 type  1   force =     0.00000000    0.00000000   -0.00138549
     atom    7 type  1   force =    -0.00000000   -0.00000000    0.00138549
     atom    8 type  1   force =     0.00000000    0.00000000    0.00138549
     atom    9 type  2   force =     0.00000000    0.00000000   -0.01151659
     atom   10 type  2   force =     0.00000000    0.00000000   -0.01151659
     atom   11 type  2   force =     0.00000000    0.00000000    0.01151659
     atom   12 type  2   force =     0.00000000   -0.00000000    0.01151659
     atom   13 type  2   force =     0.00000000   -0.08970188    0.00000000
     atom   14 type  2   force =     0.07768412   -0.04485094    0.00000000
     atom   15 type  2   force =     0.00000000    0.08970188    0.00000000
     atom   16 type  2   force =    -0.07768412    0.04485094    0.00000000
     atom   17 type  2   force =     0.07768412    0.04485094    0.00000000
     atom   18 type  2   force =    -0.07768412   -0.04485094    0.00000000
     atom   19 type  2   force =    -0.00000000   -0.00000000    0.00000000
     atom   20 type  2   force =     0.00000000   -0.00000000   -0.00000000
     atom   21 type  2   force =     0.00000000    0.00000000    0.00000000
     atom   22 type  2   force =    -0.00000000   -0.00000000    0.00000000
     atom   23 type  2   force =    -0.00000000   -0.00000000    0.00000000
     atom   24 type  2   force =     0.00000000    0.00000000    0.00000000
     The ionic contribution  to forces
     atom    1 type  1   force =    -0.00001473    0.00000971   -0.61265980
     atom    2 type  1   force =     0.00001473   -0.00000971   -0.61265980
     atom    3 type  1   force =     0.00001473   -0.00000971    0.61265980
     atom    4 type  1   force =    -0.00001473    0.00000971    0.61265980
     atom    5 type  1   force =     0.00005272   -0.00002911    0.20711302
     atom    6 type  1   force =    -0.00005272    0.00002911    0.20711302
     atom    7 type  1   force =    -0.00005272    0.00002911   -0.20711302
     atom    8 type  1   force =     0.00005272   -0.00002911   -0.20711302
     atom    9 type  2   force =     0.00005524   -0.00003180   -0.00419885
     atom   10 type  2   force =    -0.00005524    0.00003180   -0.00419885
     atom   11 type  2   force =    -0.00005524    0.00003180    0.00419885
     atom   12 type  2   force =     0.00005524   -0.00003180    0.00419885
     atom   13 type  2   force =     0.00006870  -14.13440470    0.00000000
     atom   14 type  2   force =    12.24083298   -7.06724944    0.00000000
     atom   15 type  2   force =    -0.00006870   14.13440470    0.00000000
     atom   16 type  2   force =   -12.24083298    7.06724944   -0.00000000
     atom   17 type  2   force =    12.24078757    7.06714389   -0.00000000
     atom   18 type  2   force =   -12.24078757   -7.06714389    0.00000000
     atom   19 type  2   force =    -0.00000000   -0.00000000   -0.00000000
     atom   20 type  2   force =    -0.00000000   -0.00000000   -0.00000000
     atom   21 type  2   force =    -0.00000000   -0.00000000   -0.00000000
     atom   22 type  2   force =    -0.00000000   -0.00000000   -0.00000000
     atom   23 type  2   force =     0.00000000   -0.00000000   -0.00000000
     atom   24 type  2   force =     0.00000000   -0.00000000   -0.00000000
     The local contribution  to forces
     atom    1 type  1   force =     0.00000000   -0.00000112    0.59552202
     atom    2 type  1   force =     0.00000000    0.00000112    0.59552202
     atom    3 type  1   force =    -0.00000000    0.00000112   -0.59552202
     atom    4 type  1   force =     0.00000000   -0.00000112   -0.59552202
     atom    5 type  1   force =     0.00149654   -0.00086526   -0.20526293
     atom    6 type  1   force =    -0.00149654    0.00086526   -0.20526293
     atom    7 type  1   force =    -0.00149654    0.00086526    0.20526293
     atom    8 type  1   force =     0.00149654   -0.00086526    0.20526293
     atom    9 type  2   force =     0.00198587   -0.00114662    0.01823414
     atom   10 type  2   force =    -0.00198587    0.00114662    0.01823414
     atom   11 type  2   force =    -0.00198587    0.00114662   -0.01823414
     atom   12 type  2   force =     0.00198587   -0.00114662   -0.01823414
     atom   13 type  2   force =    -0.00198403   14.22425975    0.00000000
     atom   14 type  2   force =   -12.31581471    7.11053974    0.00000000
     atom   15 type  2   force =     0.00198403  -14.22425975    0.00000000
     atom   16 type  2   force =    12.31581471   -7.11053974    0.00000000
     atom   17 type  2   force =   -12.31956252   -7.11041258    0.00000000
     atom   18 type  2   force =    12.31956252    7.11041258    0.00000000
     atom   19 type  2   force =     0.00000000    0.00000000    0.00000000
     atom   20 type  2   force =     0.00000000    0.00000000   -0.00000000
     atom   21 type  2   force =     0.00000000    0.00000000   -0.00000000
     atom   22 type  2   force =     0.00000000    0.00000000    0.00000000
     atom   23 type  2   force =     0.00000000    0.00000000   -0.00000000
     atom   24 type  2   force =     0.00000000    0.00000000    0.00000000
     The core correction contribution to forces
     atom    1 type  1   force =     0.00000000   -0.00000000   -0.00009354
     atom    2 type  1   force =    -0.00000000    0.00000000   -0.00009354
     atom    3 type  1   force =    -0.00000000    0.00000000    0.00009354
     atom    4 type  1   force =     0.00000000   -0.00000000    0.00009354
     atom    5 type  1   force =     0.00000324   -0.00000187    0.00000311
     atom    6 type  1   force =    -0.00000324    0.00000187    0.00000311
     atom    7 type  1   force =    -0.00000324    0.00000187   -0.00000311
     atom    8 type  1   force =     0.00000324   -0.00000187   -0.00000311
     atom    9 type  2   force =     0.00000121   -0.00000070   -0.00177179
     atom   10 type  2   force =    -0.00000121    0.00000070   -0.00177179
     atom   11 type  2   force =    -0.00000121    0.00000070    0.00177179
     atom   12 type  2   force =     0.00000121   -0.00000070    0.00177179
     atom   13 type  2   force =    -0.00000121    0.00082351    0.00000000
     atom   14 type  2   force =    -0.00071129    0.00041067    0.00000000
     atom   15 type  2   force =     0.00000121   -0.00082351    0.00000000
     atom   16 type  2   force =     0.00071129   -0.00041067    0.00000000
     atom   17 type  2   force =    -0.00071379   -0.00041071    0.00000000
     atom   18 type  2   force =     0.00071379    0.00041071    0.00000000
     atom   19 type  2   force =     0.00000000    0.00000000    0.00000000
     atom   20 type  2   force =     0.00000000    0.00000000   -0.00000000
     atom   21 type  2   force =     0.00000000    0.00000000   -0.00000000
     atom   22 type  2   force =     0.00000000    0.00000000    0.00000000
     atom   23 type  2   force =     0.00000000    0.00000000   -0.00000000
     atom   24 type  2   force =     0.00000000    0.00000000    0.00000000
     The Hubbard contrib.    to forces
     atom    1 type  1   force =     0.00000000    0.00000000    0.00000000
     atom    2 type  1   force =     0.00000000    0.00000000    0.00000000
     atom    3 type  1   force =     0.00000000    0.00000000    0.00000000
     atom    4 type  1   force =     0.00000000    0.00000000    0.00000000
     atom    5 type  1   force =     0.00000000    0.00000000    0.00000000
     atom    6 type  1   force =     0.00000000    0.00000000    0.00000000
     atom    7 type  1   force =     0.00000000    0.00000000    0.00000000
     atom    8 type  1   force =     0.00000000    0.00000000    0.00000000
     atom    9 type  2   force =     0.00000000    0.00000000    0.00000000
     atom   10 type  2   force =     0.00000000    0.00000000    0.00000000
     atom   11 type  2   force =     0.00000000    0.00000000    0.00000000
     atom   12 type  2   force =     0.00000000    0.00000000    0.00000000
     atom   13 type  2   force =     0.00000000    0.00000000    0.00000000
     atom   14 type  2   force =     0.00000000    0.00000000    0.00000000
     atom   15 type  2   force =     0.00000000    0.00000000    0.00000000
     atom   16 type  2   force =     0.00000000    0.00000000    0.00000000
     atom   17 type  2   force =     0.00000000    0.00000000    0.00000000
     atom   18 type  2   force =     0.00000000    0.00000000    0.00000000
     atom   19 type  2   force =     0.00000000    0.00000000    0.00000000
     atom   20 type  2   force =     0.00000000    0.00000000    0.00000000
     atom   21 type  2   force =     0.00000000    0.00000000    0.00000000
     atom   22 type  2   force =     0.00000000    0.00000000    0.00000000
     atom   23 type  2   force =     0.00000000    0.00000000    0.00000000
     atom   24 type  2   force =     0.00000000    0.00000000    0.00000000
     The SCF correction term to forces
     atom    1 type  1   force =     0.00000001   -0.00000001   -0.00000106
     atom    2 type  1   force =    -0.00000001    0.00000001   -0.00000106
     atom    3 type  1   force =    -0.00000001    0.00000001    0.00000106
     atom    4 type  1   force =     0.00000001   -0.00000001    0.00000106
     atom    5 type  1   force =     0.00000000   -0.00000000    0.00001309
     atom    6 type  1   force =    -0.00000000    0.00000000    0.00001309
     atom    7 type  1   force =    -0.00000000    0.00000000   -0.00001309
     atom    8 type  1   force =     0.00000000   -0.00000000   -0.00001309
     atom    9 type  2   force =    -0.00000005    0.00000003   -0.00000526
     atom   10 type  2   force =     0.00000005   -0.00000003   -0.00000526
     atom   11 type  2   force =     0.00000005   -0.00000003    0.00000526
     atom   12 type  2   force =    -0.00000005    0.00000003    0.00000526
     atom   13 type  2   force =     0.00000001    0.00004015    0.00000000
     atom   14 type  2   force =    -0.00003476    0.00002007   -0.00000000
     atom   15 type  2   force =    -0.00000001   -0.00004015   -0.00000000
     atom   16 type  2   force =     0.00003476   -0.00002007    0.00000000
     atom   17 type  2   force =    -0.00003476   -0.00002009    0.00000000
     atom   18 type  2   force =     0.00003476    0.00002009   -0.00000000
     atom   19 type  2   force =    -0.00000000    0.00000000    0.00000000
     atom   20 type  2   force =     0.00000000   -0.00000000   -0.00000000
     atom   21 type  2   force =     0.00000000    0.00000000   -0.00000000
     atom   22 type  2   force =     0.00000000   -0.00000000    0.00000000
     atom   23 type  2   force =    -0.00000000   -0.00000000   -0.00000000
     atom   24 type  2   force =    -0.00000000   -0.00000000    0.00000000

     Total force =     0.004903     Total SCF correction =     0.000102
     Energy error            =      1.3E-04 Ry
     Gradient error          =      2.3E-03 Ry/Bohr

     number of scf cycles    =   4
     number of bfgs steps    =   3

     energy             old  =   -7950.0267286739 Ry
     energy             new  =   -7950.0268607023 Ry

     CASE: energy            _new < energy            _old

     new trust radius        =       0.0107906788 bohr
     new conv_thr            =       0.0000000004 Ry


ATOMIC_POSITIONS (crystal)
Mg           -0.0000000000       -0.0000000000        0.4069128349
Mg            0.0000000000        0.0000000000        0.9069128349
Mg           -0.0000000000       -0.0000000000        0.5930871651
Mg           -0.0000000000       -0.0000000000        0.0930871651
Mg            0.3333330000        0.6666670000        0.6559965789
Mg            0.6666670000        0.3333330000        0.1559965789
Mg            0.6666670000        0.3333330000        0.3440034211
Mg            0.3333330000        0.6666670000        0.8440034211
Ni            0.3333330000        0.6666670000        0.3755720682
Ni            0.6666670000        0.3333330000        0.8755720682
Ni            0.6666670000        0.3333330000        0.6244279318
Ni            0.3333330000        0.6666670000        0.1244279318
Ni            0.1659367965        0.3318725929        0.2500000000
Ni            0.8340632037        0.1659367965        0.7500000000
Ni            0.8340632035        0.6681274071        0.7500000000
Ni            0.1659367963        0.8340632035        0.2500000000
Ni            0.6681274072        0.8340632035        0.2500000000
Ni            0.3318725928        0.1659367965        0.7500000000
Ni            0.5000000000       -0.0000000000        0.5000000000
Ni            0.5000000000        0.5000000000       -0.0000000000
Ni            0.5000000000        0.0000000000       -0.0000000000
Ni            0.5000000000        0.5000000000        0.5000000000
Ni           -0.0000000000        0.5000000000        0.0000000000
Ni           -0.0000000000        0.5000000000        0.5000000000



     Writing config-only to output data dir ./ACOptimization/out/iso.save/
     NEW-OLD atomic charge density approx. for the potential

     Check: negative core charge=   -0.000015

     total cpu time spent up to now is     1858.1 secs

     Self-consistent Calculation

     iteration #  1     ecut=    50.00 Ry     beta= 0.10
     Davidson diagonalization with overlap
     ethr =  1.00E-06,  avg # of iterations =  6.0

     total cpu time spent up to now is     1899.5 secs

     total energy              =   -7950.02833529 Ry
     estimated scf accuracy    <       0.00047916 Ry

     iteration #  2     ecut=    50.00 Ry     beta= 0.10
     Davidson diagonalization with overlap
     ethr =  1.30E-07,  avg # of iterations =  2.0

     total cpu time spent up to now is     1921.0 secs

     total energy              =   -7950.02763628 Ry
     estimated scf accuracy    <       0.00032497 Ry

     iteration #  3     ecut=    50.00 Ry     beta= 0.10
     Davidson diagonalization with overlap
     ethr =  8.83E-08,  avg # of iterations =  2.0

     total cpu time spent up to now is     1942.7 secs

     total energy              =   -7950.02702680 Ry
     estimated scf accuracy    <       0.00011578 Ry

     iteration #  4     ecut=    50.00 Ry     beta= 0.10
     Davidson diagonalization with overlap
     ethr =  3.15E-08,  avg # of iterations =  4.0

     total cpu time spent up to now is     1968.1 secs

     total energy              =   -7950.02703772 Ry
     estimated scf accuracy    <       0.00001454 Ry

     iteration #  5     ecut=    50.00 Ry     beta= 0.10
     Davidson diagonalization with overlap
     ethr =  3.95E-09,  avg # of iterations =  4.3

     total cpu time spent up to now is     1990.7 secs

     total energy              =   -7950.02709182 Ry
     estimated scf accuracy    <       0.00001518 Ry

     iteration #  6     ecut=    50.00 Ry     beta= 0.10
     Davidson diagonalization with overlap
     ethr =  3.95E-09,  avg # of iterations =  2.0

     total cpu time spent up to now is     2014.3 secs

     total energy              =   -7950.02704015 Ry
     estimated scf accuracy    <       0.00000991 Ry

     iteration #  7     ecut=    50.00 Ry     beta= 0.10
     Davidson diagonalization with overlap
     ethr =  2.69E-09,  avg # of iterations =  2.0

     total cpu time spent up to now is     2039.0 secs

     total energy              =   -7950.02691222 Ry
     estimated scf accuracy    <       0.00001251 Ry

     iteration #  8     ecut=    50.00 Ry     beta= 0.10
     Davidson diagonalization with overlap
     ethr =  2.69E-09,  avg # of iterations =  5.0

     total cpu time spent up to now is     2068.5 secs

     total energy              =   -7950.02693271 Ry
     estimated scf accuracy    <       0.00000844 Ry

     iteration #  9     ecut=    50.00 Ry     beta= 0.10
     Davidson diagonalization with overlap
     ethr =  2.29E-09,  avg # of iterations =  2.0

     total cpu time spent up to now is     2090.7 secs

     total energy              =   -7950.02692675 Ry
     estimated scf accuracy    <       0.00000070 Ry

     iteration # 10     ecut=    50.00 Ry     beta= 0.10
     Davidson diagonalization with overlap
     ethr =  1.89E-10,  avg # of iterations =  2.0

     total cpu time spent up to now is     2116.7 secs

     total energy              =   -7950.02692483 Ry
     estimated scf accuracy    <       0.00000013 Ry

     iteration # 11     ecut=    50.00 Ry     beta= 0.10
     Davidson diagonalization with overlap
     ethr =  3.44E-11,  avg # of iterations =  4.7

     total cpu time spent up to now is     2144.6 secs

     total energy              =   -7950.02692412 Ry
     estimated scf accuracy    <       0.00000025 Ry

     iteration # 12     ecut=    50.00 Ry     beta= 0.10
     Davidson diagonalization with overlap
     ethr =  3.44E-11,  avg # of iterations =  3.0

     total cpu time spent up to now is     2170.9 secs

     total energy              =   -7950.02692378 Ry
     estimated scf accuracy    <       0.00000016 Ry

     iteration # 13     ecut=    50.00 Ry     beta= 0.10
     Davidson diagonalization with overlap
     ethr =  3.44E-11,  avg # of iterations =  4.7

     total cpu time spent up to now is     2202.2 secs

     total energy              =   -7950.02692468 Ry
     estimated scf accuracy    <       0.00000006 Ry

     iteration # 14     ecut=    50.00 Ry     beta= 0.10
     Davidson diagonalization with overlap
     ethr =  1.58E-11,  avg # of iterations =  2.0

     total cpu time spent up to now is     2225.0 secs

     total energy              =   -7950.02692460 Ry
     estimated scf accuracy    <       0.00000002 Ry

     iteration # 15     ecut=    50.00 Ry     beta= 0.10
     Davidson diagonalization with overlap
     ethr =  5.04E-12,  avg # of iterations =  2.7

     total cpu time spent up to now is     2251.2 secs

     total energy              =   -7950.02692461 Ry
     estimated scf accuracy    <       0.00000001 Ry

     iteration # 16     ecut=    50.00 Ry     beta= 0.10
     Davidson diagonalization with overlap
     ethr =  3.45E-12,  avg # of iterations =  2.0

     total cpu time spent up to now is     2273.3 secs

     total energy              =   -7950.02692462 Ry
     estimated scf accuracy    <          6.1E-09 Ry

     iteration # 17     ecut=    50.00 Ry     beta= 0.10
     Davidson diagonalization with overlap
     ethr =  1.66E-12,  avg # of iterations =  2.0

     total cpu time spent up to now is     2295.9 secs

     total energy              =   -7950.02692462 Ry
     estimated scf accuracy    <          1.1E-09 Ry

     iteration # 18     ecut=    50.00 Ry     beta= 0.10
     Davidson diagonalization with overlap
     ethr =  3.01E-13,  avg # of iterations =  4.3

     total cpu time spent up to now is     2321.4 secs

     total energy              =   -7950.02692463 Ry
     estimated scf accuracy    <          9.0E-10 Ry

     iteration # 19     ecut=    50.00 Ry     beta= 0.10
     Davidson diagonalization with overlap
     ethr =  2.45E-13,  avg # of iterations =  2.0

     total cpu time spent up to now is     2343.7 secs

     End of self-consistent calculation

          k = 0.0000 0.0000 0.0000 ( 13497 PWs)   bands (ev):

   -90.6458 -90.6458 -90.6446 -90.6446 -90.6444 -90.6444 -90.6431 -90.6431
   -90.5954 -90.5954 -90.5943 -90.5943 -90.5936 -90.5936 -90.5926 -90.5926
   -90.5744 -90.5744 -90.5744 -90.5744 -90.5743 -90.5743 -90.5743 -90.5743
   -90.5740 -90.5740 -90.5740 -90.5740 -90.5739 -90.5739 -90.5739 -90.5739
   -63.0543 -63.0543 -63.0543 -63.0543 -63.0532 -63.0532 -63.0531 -63.0531
   -63.0007 -63.0007 -63.0006 -63.0006 -62.9994 -62.9994 -62.9994 -62.9994
   -52.6355 -52.6355 -52.6250 -52.6250 -52.6247 -52.6247 -52.6166 -52.6166
   -52.5862 -52.5862 -52.5857 -52.5857 -52.5830 -52.5830 -52.5812 -52.5812
   -52.5786 -52.5786 -52.5776 -52.5776 -52.5745 -52.5745 -52.5738 -52.5738
   -52.5095 -52.5095 -52.5093 -52.5093 -52.5091 -52.5091 -52.5012 -52.5012
   -50.5190 -50.5190 -50.5123 -50.5123 -50.4932 -50.4932 -50.4892 -50.4892
   -50.4789 -50.4789 -50.4789 -50.4789 -50.4641 -50.4641 -50.4546 -50.4546
   -50.4177 -50.4177 -50.4086 -50.4086 -50.4061 -50.4061 -50.4052 -50.4052
   -50.4031 -50.4031 -50.3990 -50.3990 -50.3798 -50.3798 -50.3643 -50.3643
   -50.3499 -50.3499 -50.3341 -50.3341 -50.3262 -50.3262 -50.3179 -50.3179
   -50.3095 -50.3095 -50.3081 -50.3081 -50.3014 -50.3014 -50.2923 -50.2923
   -50.2833 -50.2833 -50.2813 -50.2813 -50.2764 -50.2764 -50.2742 -50.2742
   -50.2585 -50.2585 -50.2562 -50.2562 -50.2559 -50.2559 -50.2533 -50.2533
   -30.1846 -30.1846 -30.1843 -30.1843 -30.1804 -30.1804 -30.1802 -30.1802
   -30.1299 -30.1299 -30.1298 -30.1298 -30.1252 -30.1252 -30.1250 -30.1250
   -29.8994 -29.8994 -29.8991 -29.8991 -29.8973 -29.8973 -29.8972 -29.8972
   -29.8959 -29.8959 -29.8958 -29.8958 -29.8893 -29.8893 -29.8890 -29.8890
   -29.8464 -29.8464 -29.8463 -29.8463 -29.8401 -29.8401 -29.8401 -29.8401
   -29.8387 -29.8387 -29.8385 -29.8385 -29.8352 -29.8352 -29.8350 -29.8350
     3.9227   3.9227   4.5118   4.5118   4.5164   4.5164   5.9107   5.9107
     6.5376   6.5376   7.9093   7.9093   7.9624   7.9624   7.9907   7.9907
     8.5040   8.5040   8.5494   8.5494   8.6941   8.6941   8.7162   8.7162
     8.8624   8.8624   8.8682   8.8682   8.8879   8.8879   8.9016   8.9016
     8.9247   8.9247   8.9286   8.9286   9.0362   9.0362   9.0574   9.0574
     9.1015   9.1015   9.1502   9.1502   9.1584   9.1584   9.1627   9.1627
     9.1865   9.1865   9.2510   9.2510   9.3069   9.3069   9.3215   9.3215
     9.3525   9.3525   9.3850   9.3850   9.6486   9.6486   9.6487   9.6487
     9.6637   9.6637   9.6722   9.6722   9.6768   9.6768   9.7320   9.7320
     9.8878   9.8878   9.9474   9.9474  10.0042  10.0042  10.0227  10.0227
    10.0648  10.0648  10.1189  10.1189  10.1558  10.1558  10.1570  10.1570
    10.2939  10.2939  10.3127  10.3127  10.5263  10.5263  10.6812  10.6812
    10.7320  10.7320  10.7492  10.7492  10.7514  10.7514  10.7925  10.7925
    10.9077  10.9077  10.9611  10.9611  11.0373  11.0373  11.0457  11.0457
    11.1598  11.1598  11.1689  11.1689  11.2419  11.2419  11.2436  11.2436
    11.2478  11.2478  11.2545  11.2545  11.2578  11.2578  11.2659  11.2659
    11.2679  11.2679  11.2856  11.2856  11.2992  11.2992  11.3012  11.3012
    11.3246  11.3246  11.3306  11.3306  11.3456  11.3456  11.3702  11.3702
    11.3941  11.3941  11.4120  11.4120  11.4128  11.4128  11.4271  11.4271
    11.4495  11.4495  11.4800  11.4800  11.5542  11.5542  11.7678  11.7678
    11.8202  11.8202  12.0310  12.0310  12.0331  12.0331  12.2348  12.2348
    12.2367  12.2367  12.2405  12.2405  12.2407  12.2407  12.6312  12.6312
    12.7251  12.7251  12.8744  12.8744  12.9211  12.9211  12.9722  12.9722
    12.9885  12.9885  13.0011  13.0011  13.0073  13.0073  13.0505  13.0505
    13.3055  13.3055  13.3336  13.3336  13.3378  13.3378  13.3879  13.3879
    14.6402  14.6402  14.6925  14.6925  14.7163  14.7163  14.7275  14.7275
    15.0708  15.0708  15.1156  15.1156  15.5453  15.5453  15.5651  15.5651
    16.0624  16.0624  16.1475  16.1475  16.1638  16.1638  16.2093  16.2093
    16.2925  16.2925  16.5111  16.5111  16.9859  16.9859  16.9974  16.9974
    17.4734  17.4734  17.5040  17.5040  17.5235  17.5235  18.0022  18.0022
    18.0608  18.0608  18.0658  18.0658  18.2000  18.2000  19.6302  19.6302
    19.6735  19.6735

          k = 0.0000 0.3849 0.0000 ( 13496 PWs)   bands (ev):

   -90.6453 -90.6453 -90.6445 -90.6445 -90.6442 -90.6442 -90.6434 -90.6434
   -90.5909 -90.5909 -90.5903 -90.5903 -90.5895 -90.5895 -90.5889 -90.5889
   -90.5787 -90.5787 -90.5785 -90.5785 -90.5782 -90.5782 -90.5780 -90.5780
   -90.5744 -90.5744 -90.5744 -90.5744 -90.5739 -90.5739 -90.5739 -90.5739
   -63.0542 -63.0542 -63.0542 -63.0542 -63.0532 -63.0532 -63.0531 -63.0531
   -63.0007 -63.0007 -63.0007 -63.0007 -62.9995 -62.9995 -62.9994 -62.9994
   -52.6323 -52.6323 -52.6272 -52.6272 -52.6266 -52.6266 -52.6185 -52.6185
   -52.5818 -52.5818 -52.5789 -52.5789 -52.5773 -52.5773 -52.5754 -52.5754
   -52.5674 -52.5674 -52.5648 -52.5648 -52.5637 -52.5637 -52.5582 -52.5582
   -52.5298 -52.5298 -52.5256 -52.5256 -52.5236 -52.5236 -52.5196 -52.5196
   -50.5127 -50.5127 -50.5075 -50.5075 -50.5003 -50.5003 -50.4916 -50.4916
   -50.4604 -50.4604 -50.4580 -50.4580 -50.4485 -50.4485 -50.4462 -50.4462
   -50.4134 -50.4134 -50.4087 -50.4087 -50.4062 -50.4062 -50.4039 -50.4039
   -50.3945 -50.3945 -50.3922 -50.3922 -50.3779 -50.3779 -50.3675 -50.3675
   -50.3508 -50.3508 -50.3397 -50.3397 -50.3385 -50.3385 -50.3322 -50.3322
   -50.3126 -50.3126 -50.3095 -50.3095 -50.2988 -50.2988 -50.2960 -50.2960
   -50.2944 -50.2944 -50.2943 -50.2943 -50.2794 -50.2794 -50.2776 -50.2776
   -50.2728 -50.2728 -50.2712 -50.2712 -50.2578 -50.2578 -50.2555 -50.2555
   -30.1841 -30.1841 -30.1840 -30.1840 -30.1800 -30.1800 -30.1800 -30.1800
   -30.1305 -30.1305 -30.1305 -30.1305 -30.1260 -30.1260 -30.1259 -30.1259
   -29.8996 -29.8996 -29.8995 -29.8995 -29.8965 -29.8965 -29.8964 -29.8964
   -29.8951 -29.8951 -29.8948 -29.8948 -29.8896 -29.8896 -29.8894 -29.8894
   -29.8461 -29.8461 -29.8460 -29.8460 -29.8409 -29.8409 -29.8408 -29.8408
   -29.8392 -29.8392 -29.8391 -29.8391 -29.8350 -29.8350 -29.8349 -29.8349
     4.8556   4.8556   5.4229   5.4229   5.4247   5.4247   6.7838   6.7838
     7.2411   7.2411   7.4248   7.4248   7.7457   7.7457   7.7581   7.7581
     8.3466   8.3466   8.3804   8.3804   8.5313   8.5313   8.6107   8.6107
     8.6751   8.6751   8.8011   8.8011   8.8578   8.8578   8.9166   8.9166
     9.0028   9.0028   9.0501   9.0501   9.0811   9.0811   9.1257   9.1257
     9.1375   9.1375   9.1548   9.1548   9.2502   9.2502   9.3540   9.3540
     9.3979   9.3979   9.4537   9.4537   9.4938   9.4938   9.5469   9.5469
     9.5668   9.5668   9.5973   9.5973   9.6008   9.6008   9.6787   9.6787
     9.6859   9.6859   9.7212   9.7212   9.7241   9.7241   9.7891   9.7891
     9.8115   9.8115   9.8191   9.8191   9.8866   9.8866   9.9351   9.9351
     9.9966   9.9966  10.0438  10.0438  10.0662  10.0662  10.0745  10.0745
    10.1285  10.1285  10.2237  10.2237  10.2480  10.2480  10.2909  10.2909
    10.3036  10.3036  10.3957  10.3957  10.4082  10.4082  10.4618  10.4618
    10.4789  10.4789  10.5375  10.5375  10.5979  10.5979  10.6083  10.6083
    10.6279  10.6279  10.6763  10.6763  10.7580  10.7580  10.7698  10.7698
    10.8438  10.8438  10.8685  10.8685  10.8951  10.8951  10.9244  10.9244
    10.9848  10.9848  11.0000  11.0000  11.0141  11.0141  11.0627  11.0627
    11.0733  11.0733  11.1267  11.1267  11.1589  11.1589  11.2077  11.2077
    11.2173  11.2173  11.2837  11.2837  11.2997  11.2997  11.3103  11.3103
    11.3550  11.3550  11.3669  11.3669  11.3697  11.3697  11.3989  11.3989
    11.4491  11.4491  11.4753  11.4753  11.4934  11.4934  11.5774  11.5774
    11.6049  11.6049  11.6710  11.6710  11.7385  11.7385  11.8496  11.8496
    12.0946  12.0946  12.1673  12.1673  12.4887  12.4887  12.5086  12.5086
    12.6969  12.6969  12.7979  12.7979  12.8831  12.8831  13.0337  13.0337
    13.1108  13.1108  13.1374  13.1374  13.2275  13.2275  13.4473  13.4473
    14.0106  14.0106  14.4223  14.4223  14.7134  14.7134  14.7667  14.7667
    15.9433  15.9433  16.4440  16.4440  16.5043  16.5043  16.5906  16.5906
    17.3689  17.3689  17.4328  17.4328  17.4768  17.4768  17.5972  17.5972
    17.6983  17.6983  17.8476  17.8476  18.2482  18.2482  18.6244  18.6244
    18.7291  18.7291  18.8031  18.8031  19.2387  19.2387  19.3262  19.3262
    19.6432  19.6432  19.9790  19.9790  20.3260  20.3260  20.6267  20.6267
    20.6712  20.6712

          k = 0.3333 0.5774 0.0000 ( 13500 PWs)   bands (ev):

   -90.6448 -90.6448 -90.6448 -90.6448 -90.6438 -90.6438 -90.6438 -90.6438
   -90.5856 -90.5856 -90.5856 -90.5856 -90.5845 -90.5845 -90.5844 -90.5844
   -90.5839 -90.5839 -90.5838 -90.5838 -90.5828 -90.5828 -90.5828 -90.5828
   -90.5744 -90.5744 -90.5744 -90.5744 -90.5739 -90.5739 -90.5739 -90.5739
   -63.0542 -63.0542 -63.0542 -63.0542 -63.0531 -63.0531 -63.0531 -63.0531
   -63.0008 -63.0008 -63.0007 -63.0007 -62.9995 -62.9995 -62.9995 -62.9995
   -52.6290 -52.6290 -52.6289 -52.6289 -52.6245 -52.6245 -52.6244 -52.6244
   -52.5796 -52.5796 -52.5769 -52.5769 -52.5768 -52.5768 -52.5765 -52.5765
   -52.5496 -52.5496 -52.5493 -52.5493 -52.5477 -52.5477 -52.5476 -52.5476
   -52.5442 -52.5442 -52.5440 -52.5440 -52.5378 -52.5378 -52.5375 -52.5375
   -50.5069 -50.5069 -50.5061 -50.5061 -50.5023 -50.5023 -50.4985 -50.4985
   -50.4388 -50.4388 -50.4379 -50.4379 -50.4358 -50.4358 -50.4342 -50.4342
   -50.4301 -50.4301 -50.4260 -50.4260 -50.4209 -50.4209 -50.4039 -50.4039
   -50.3876 -50.3876 -50.3826 -50.3826 -50.3813 -50.3813 -50.3604 -50.3604
   -50.3499 -50.3499 -50.3468 -50.3468 -50.3412 -50.3412 -50.3410 -50.3410
   -50.3177 -50.3177 -50.3087 -50.3087 -50.2998 -50.2998 -50.2992 -50.2992
   -50.2935 -50.2935 -50.2887 -50.2887 -50.2868 -50.2868 -50.2816 -50.2816
   -50.2810 -50.2810 -50.2766 -50.2766 -50.2611 -50.2611 -50.2606 -50.2606
   -30.1840 -30.1840 -30.1838 -30.1838 -30.1799 -30.1799 -30.1797 -30.1797
   -30.1309 -30.1309 -30.1309 -30.1309 -30.1264 -30.1264 -30.1263 -30.1263
   -29.9005 -29.9005 -29.8990 -29.8990 -29.8965 -29.8965 -29.8964 -29.8964
   -29.8942 -29.8942 -29.8941 -29.8941 -29.8906 -29.8906 -29.8890 -29.8890
   -29.8460 -29.8460 -29.8459 -29.8459 -29.8415 -29.8415 -29.8414 -29.8414
   -29.8393 -29.8393 -29.8391 -29.8391 -29.8350 -29.8350 -29.8349 -29.8349
     6.4120   6.4120   6.4128   6.4128   6.8333   6.8333   6.9362   6.9362
     6.9412   6.9412   7.1416   7.1416   7.2495   7.2495   7.2541   7.2541
     7.4337   7.4337   8.2777   8.2777   8.2825   8.2825   8.2836   8.2836
     8.2853   8.2853   8.3200   8.3200   8.4014   8.4014   9.0459   9.0459
     9.0549   9.0549   9.0576   9.0576   9.1617   9.1617   9.1775   9.1775
     9.3154   9.3154   9.3491   9.3491   9.4559   9.4559   9.4707   9.4707
     9.5372   9.5372   9.5380   9.5380   9.5787   9.5787   9.5881   9.5881
     9.6042   9.6042   9.6066   9.6066   9.6815   9.6815   9.7400   9.7400
     9.7533   9.7533   9.7587   9.7587   9.7685   9.7685   9.7791   9.7791
     9.7921   9.7921   9.8413   9.8413   9.8536   9.8536   9.8714   9.8714
     9.8841   9.8841   9.8884   9.8884   9.9334   9.9334   9.9437   9.9437
     9.9955   9.9955  10.0044  10.0044  10.0256  10.0256  10.0450  10.0450
    10.0805  10.0805  10.2147  10.2147  10.2354  10.2354  10.2483  10.2483
    10.3663  10.3663  10.4637  10.4637  10.4821  10.4821  10.4941  10.4941
    10.5303  10.5303  10.5492  10.5492  10.6974  10.6974  10.7016  10.7016
    10.7775  10.7775  10.8004  10.8004  10.8178  10.8178  10.8298  10.8298
    10.8724  10.8724  10.8905  10.8905  10.9017  10.9017  10.9871  10.9871
    11.0324  11.0324  11.0575  11.0575  11.0678  11.0678  11.0690  11.0690
    11.0960  11.0960  11.1048  11.1048  11.1162  11.1162  11.1530  11.1530
    11.1682  11.1682  11.1787  11.1787  11.2368  11.2368  11.2863  11.2863
    11.4333  11.4333  11.4483  11.4483  11.5237  11.5237  11.5257  11.5257
    11.5458  11.5458  11.6110  11.6110  11.6231  11.6231  11.7108  11.7108
    11.7650  11.7650  11.8264  11.8264  11.8280  11.8280  12.0368  12.0368
    12.1592  12.1592  12.1695  12.1695  12.2262  12.2262  13.5281  13.5281
    13.5490  13.5490  13.5952  13.5952  13.7736  13.7736  13.7809  13.7809
    14.3240  14.3240  16.1254  16.1254  16.1273  16.1273  16.2735  16.2735
    16.5308  16.5308  16.5312  16.5312  17.0465  17.0465  17.1545  17.1545
    17.1555  17.1555  17.1877  17.1877  17.1957  17.1957  17.4671  17.4671
    17.6452  17.6452  17.9911  17.9911  18.1122  18.1122  18.1263  18.1263
    18.8736  18.8736  18.8763  18.8763  19.1086  19.1086  19.1223  19.1223
    19.2381  19.2381  19.7962  19.7962  21.2205  21.2205  21.2286  21.2286
    21.4078  21.4078

     the Fermi energy is    11.8921 ev

!    total energy              =   -7950.02692464 Ry
     total all-electron energy =    -51823.879008 Ry
     estimated scf accuracy    <          2.0E-10 Ry
     smearing contrib. (-TS)   =       0.11925200 Ry
     internal energy E=F+TS    =   -7950.14617663 Ry

     The total energy is F=E-TS. E is the sum of the following terms:
     one-electron contribution =   -4622.56881421 Ry
     hartree contribution      =    2452.36596753 Ry
     xc contribution           =    -680.98804110 Ry
     ewald contribution        =   -3560.85153538 Ry
     one-center paw contrib.   =   -1538.10375347 Ry

     convergence has been achieved in  19 iterations

     Forces acting on atoms (cartesian axes, Ry/au):

     atom    1 type  1   force =     0.00000000    0.00000000    0.00108247
     atom    2 type  1   force =     0.00000000    0.00000000    0.00108247
     atom    3 type  1   force =    -0.00000000   -0.00000000   -0.00108247
     atom    4 type  1   force =     0.00000000   -0.00000000   -0.00108247
     atom    5 type  1   force =     0.00000000    0.00000000    0.00023043
     atom    6 type  1   force =    -0.00000000   -0.00000000    0.00023043
     atom    7 type  1   force =    -0.00000000   -0.00000000   -0.00023043
     atom    8 type  1   force =    -0.00000000   -0.00000000   -0.00023043
     atom    9 type  2   force =     0.00000000    0.00000000   -0.00100936
     atom   10 type  2   force =     0.00000000    0.00000000   -0.00100936
     atom   11 type  2   force =     0.00000000    0.00000000    0.00100936
     atom   12 type  2   force =     0.00000000    0.00000000    0.00100936
     atom   13 type  2   force =     0.00000000    0.00092028    0.00000000
     atom   14 type  2   force =    -0.00079698    0.00046014    0.00000000
     atom   15 type  2   force =     0.00000000   -0.00092028    0.00000000
     atom   16 type  2   force =     0.00079698   -0.00046014    0.00000000
     atom   17 type  2   force =    -0.00079698   -0.00046014   -0.00000000
     atom   18 type  2   force =     0.00079698    0.00046014    0.00000000
     atom   19 type  2   force =     0.00000000   -0.00000000    0.00000000
     atom   20 type  2   force =    -0.00000000    0.00000000    0.00000000
     atom   21 type  2   force =     0.00000000   -0.00000000    0.00000000
     atom   22 type  2   force =     0.00000000    0.00000000    0.00000000
     atom   23 type  2   force =     0.00000000    0.00000000   -0.00000000
     atom   24 type  2   force =     0.00000000    0.00000000    0.00000000
     The non-local contrib.  to forces
     atom    1 type  1   force =     0.00000000    0.00000000    0.01578268
     atom    2 type  1   force =    -0.00000000   -0.00000000    0.01578268
     atom    3 type  1   force =     0.00000000    0.00000000   -0.01578268
     atom    4 type  1   force =     0.00000000   -0.00000000   -0.01578268
     atom    5 type  1   force =    -0.00000000   -0.00000000   -0.00283313
     atom    6 type  1   force =     0.00000000    0.00000000   -0.00283313
     atom    7 type  1   force =    -0.00000000   -0.00000000    0.00283313
     atom    8 type  1   force =     0.00000000    0.00000000    0.00283313
     atom    9 type  2   force =     0.00000000    0.00000000   -0.01176987
     atom   10 type  2   force =     0.00000000    0.00000000   -0.01176987
     atom   11 type  2   force =    -0.00000000   -0.00000000    0.01176987
     atom   12 type  2   force =     0.00000000    0.00000000    0.01176987
     atom   13 type  2   force =     0.00000000   -0.08813436   -0.00000000
     atom   14 type  2   force =     0.07632660   -0.04406718   -0.00000000
     atom   15 type  2   force =     0.00000000    0.08813436   -0.00000000
     atom   16 type  2   force =    -0.07632660    0.04406718   -0.00000000
     atom   17 type  2   force =     0.07632660    0.04406718    0.00000000
     atom   18 type  2   force =    -0.07632660   -0.04406718   -0.00000000
     atom   19 type  2   force =    -0.00000000   -0.00000000   -0.00000000
     atom   20 type  2   force =    -0.00000000   -0.00000000    0.00000000
     atom   21 type  2   force =    -0.00000000   -0.00000000   -0.00000000
     atom   22 type  2   force =     0.00000000    0.00000000   -0.00000000
     atom   23 type  2   force =    -0.00000000   -0.00000000    0.00000000
     atom   24 type  2   force =     0.00000000    0.00000000   -0.00000000
     The ionic contribution  to forces
     atom    1 type  1   force =    -0.00001477    0.00000972   -0.83138017
     atom    2 type  1   force =     0.00001477   -0.00000972   -0.83138017
     atom    3 type  1   force =     0.00001477   -0.00000972    0.83138017
     atom    4 type  1   force =    -0.00001477    0.00000972    0.83138017
     atom    5 type  1   force =     0.00005259   -0.00002904    0.26806282
     atom    6 type  1   force =    -0.00005259    0.00002904    0.26806282
     atom    7 type  1   force =    -0.00005259    0.00002904   -0.26806282
     atom    8 type  1   force =     0.00005259   -0.00002904   -0.26806282
     atom    9 type  2   force =     0.00005537   -0.00003186   -0.52821099
     atom   10 type  2   force =    -0.00005537    0.00003186   -0.52821099
     atom   11 type  2   force =    -0.00005537    0.00003186    0.52821099
     atom   12 type  2   force =     0.00005537   -0.00003186    0.52821099
     atom   13 type  2   force =     0.00006819  -13.83717880   -0.00000000
     atom   14 type  2   force =    11.98342737   -6.91863624    0.00000000
     atom   15 type  2   force =    -0.00006819   13.83717880    0.00000000
     atom   16 type  2   force =   -11.98342737    6.91863624   -0.00000000
     atom   17 type  2   force =    11.98338211    6.91853138   -0.00000000
     atom   18 type  2   force =   -11.98338211   -6.91853138    0.00000000
     atom   19 type  2   force =    -0.00000000   -0.00000000   -0.00000000
     atom   20 type  2   force =    -0.00000000   -0.00000000   -0.00000000
     atom   21 type  2   force =    -0.00000000   -0.00000000   -0.00000000
     atom   22 type  2   force =    -0.00000000   -0.00000000   -0.00000000
     atom   23 type  2   force =     0.00000000    0.00000000   -0.00000000
     atom   24 type  2   force =     0.00000000    0.00000000   -0.00000000
     The local contribution  to forces
     atom    1 type  1   force =     0.00000000   -0.00000112    0.81674210
     atom    2 type  1   force =    -0.00000000    0.00000112    0.81674210
     atom    3 type  1   force =     0.00000000    0.00000112   -0.81674210
     atom    4 type  1   force =     0.00000000   -0.00000112   -0.81674210
     atom    5 type  1   force =     0.00149659   -0.00086529   -0.26502938
     atom    6 type  1   force =    -0.00149659    0.00086529   -0.26502938
     atom    7 type  1   force =    -0.00149659    0.00086529    0.26502938
     atom    8 type  1   force =     0.00149659   -0.00086529    0.26502938
     atom    9 type  2   force =     0.00198579   -0.00114659    0.54081088
     atom   10 type  2   force =    -0.00198579    0.00114659    0.54081088
     atom   11 type  2   force =    -0.00198579    0.00114659   -0.54081088
     atom   12 type  2   force =     0.00198579   -0.00114659   -0.54081088
     atom   13 type  2   force =    -0.00198370   13.92649570    0.00000000
     atom   14 type  2   force =   -12.05794333    6.96165754    0.00000000
     atom   15 type  2   force =     0.00198370  -13.92649570    0.00000000
     atom   16 type  2   force =    12.05794333   -6.96165754    0.00000000
     atom   17 type  2   force =   -12.06169127   -6.96153083    0.00000000
     atom   18 type  2   force =    12.06169127    6.96153083    0.00000000
     atom   19 type  2   force =     0.00000000    0.00000000    0.00000000
     atom   20 type  2   force =     0.00000000    0.00000000   -0.00000000
     atom   21 type  2   force =     0.00000000   -0.00000000   -0.00000000
     atom   22 type  2   force =     0.00000000    0.00000000    0.00000000
     atom   23 type  2   force =     0.00000000    0.00000000   -0.00000000
     atom   24 type  2   force =     0.00000000    0.00000000    0.00000000
     The core correction contribution to forces
     atom    1 type  1   force =     0.00000000   -0.00000000   -0.00007970
     atom    2 type  1   force =    -0.00000000    0.00000000   -0.00007970
     atom    3 type  1   force =    -0.00000000    0.00000000    0.00007970
     atom    4 type  1   force =     0.00000000   -0.00000000    0.00007970
     atom    5 type  1   force =     0.00000324   -0.00000187    0.00000822
     atom    6 type  1   force =    -0.00000324    0.00000187    0.00000822
     atom    7 type  1   force =    -0.00000324    0.00000187   -0.00000822
     atom    8 type  1   force =     0.00000324   -0.00000187   -0.00000822
     atom    9 type  2   force =     0.00000121   -0.00000070   -0.00182638
     atom   10 type  2   force =    -0.00000121    0.00000070   -0.00182638
     atom   11 type  2   force =    -0.00000121    0.00000070    0.00182638
     atom   12 type  2   force =     0.00000121   -0.00000070    0.00182638
     atom   13 type  2   force =    -0.00000121    0.00081659    0.00000000
     atom   14 type  2   force =    -0.00070530    0.00040720    0.00000000
     atom   15 type  2   force =     0.00000121   -0.00081659    0.00000000
     atom   16 type  2   force =     0.00070530   -0.00040720    0.00000000
     atom   17 type  2   force =    -0.00070779   -0.00040725    0.00000000
     atom   18 type  2   force =     0.00070779    0.00040725    0.00000000
     atom   19 type  2   force =     0.00000000    0.00000000    0.00000000
     atom   20 type  2   force =     0.00000000    0.00000000   -0.00000000
     atom   21 type  2   force =     0.00000000    0.00000000   -0.00000000
     atom   22 type  2   force =     0.00000000    0.00000000    0.00000000
     atom   23 type  2   force =     0.00000000    0.00000000   -0.00000000
     atom   24 type  2   force =     0.00000000    0.00000000    0.00000000
     The Hubbard contrib.    to forces
     atom    1 type  1   force =     0.00000000    0.00000000    0.00000000
     atom    2 type  1   force =     0.00000000    0.00000000    0.00000000
     atom    3 type  1   force =     0.00000000    0.00000000    0.00000000
     atom    4 type  1   force =     0.00000000    0.00000000    0.00000000
     atom    5 type  1   force =     0.00000000    0.00000000    0.00000000
     atom    6 type  1   force =     0.00000000    0.00000000    0.00000000
     atom    7 type  1   force =     0.00000000    0.00000000    0.00000000
     atom    8 type  1   force =     0.00000000    0.00000000    0.00000000
     atom    9 type  2   force =     0.00000000    0.00000000    0.00000000
     atom   10 type  2   force =     0.00000000    0.00000000    0.00000000
     atom   11 type  2   force =     0.00000000    0.00000000    0.00000000
     atom   12 type  2   force =     0.00000000    0.00000000    0.00000000
     atom   13 type  2   force =     0.00000000    0.00000000    0.00000000
     atom   14 type  2   force =     0.00000000    0.00000000    0.00000000
     atom   15 type  2   force =     0.00000000    0.00000000    0.00000000
     atom   16 type  2   force =     0.00000000    0.00000000    0.00000000
     atom   17 type  2   force =     0.00000000    0.00000000    0.00000000
     atom   18 type  2   force =     0.00000000    0.00000000    0.00000000
     atom   19 type  2   force =     0.00000000    0.00000000    0.00000000
     atom   20 type  2   force =     0.00000000    0.00000000    0.00000000
     atom   21 type  2   force =     0.00000000    0.00000000    0.00000000
     atom   22 type  2   force =     0.00000000    0.00000000    0.00000000
     atom   23 type  2   force =     0.00000000    0.00000000    0.00000000
     atom   24 type  2   force =     0.00000000    0.00000000    0.00000000
     The SCF correction term to forces
     atom    1 type  1   force =     0.00000001   -0.00000001    0.00001756
     atom    2 type  1   force =    -0.00000001    0.00000001    0.00001756
     atom    3 type  1   force =    -0.00000001    0.00000001   -0.00001756
     atom    4 type  1   force =     0.00000001   -0.00000001   -0.00001756
     atom    5 type  1   force =     0.00000000   -0.00000000    0.00002191
     atom    6 type  1   force =    -0.00000000    0.00000000    0.00002191
     atom    7 type  1   force =    -0.00000000    0.00000000   -0.00002191
     atom    8 type  1   force =     0.00000000   -0.00000000   -0.00002191
     atom    9 type  2   force =    -0.00000004    0.00000002   -0.00001300
     atom   10 type  2   force =     0.00000004   -0.00000002   -0.00001300
     atom   11 type  2   force =     0.00000004   -0.00000002    0.00001300
     atom   12 type  2   force =    -0.00000004    0.00000002    0.00001300
     atom   13 type  2   force =     0.00000001    0.00001288    0.00000000
     atom   14 type  2   force =    -0.00001115    0.00000644   -0.00000000
     atom   15 type  2   force =    -0.00000001   -0.00001288   -0.00000000
     atom   16 type  2   force =     0.00001115   -0.00000644    0.00000000
     atom   17 type  2   force =    -0.00001115   -0.00000645    0.00000000
     atom   18 type  2   force =     0.00001115    0.00000645   -0.00000000
     atom   19 type  2   force =     0.00000000    0.00000000    0.00000000
     atom   20 type  2   force =     0.00000000   -0.00000000    0.00000000
     atom   21 type  2   force =    -0.00000000   -0.00000000   -0.00000000
     atom   22 type  2   force =     0.00000000   -0.00000000    0.00000000
     atom   23 type  2   force =    -0.00000000   -0.00000000    0.00000000
     atom   24 type  2   force =    -0.00000000   -0.00000000    0.00000000

     Total force =     0.003749     Total SCF correction =     0.000069
     Energy error            =      6.4E-05 Ry
     Gradient error          =      1.1E-03 Ry/Bohr

     number of scf cycles    =   5
     number of bfgs steps    =   4

     energy             old  =   -7950.0268607023 Ry
     energy             new  =   -7950.0269246379 Ry

     CASE: energy            _new < energy            _old

     new trust radius        =       0.0021955121 bohr
     new conv_thr            =       0.0000000002 Ry


ATOMIC_POSITIONS (crystal)
Mg           -0.0000000000       -0.0000000000        0.4069850624
Mg            0.0000000000        0.0000000000        0.9069850624
Mg           -0.0000000000       -0.0000000000        0.5930149376
Mg           -0.0000000000       -0.0000000000        0.0930149376
Mg            0.3333330000        0.6666670000        0.6560120076
Mg            0.6666670000        0.3333330000        0.1560120076
Mg            0.6666670000        0.3333330000        0.3439879924
Mg            0.3333330000        0.6666670000        0.8439879924
Ni            0.3333330000        0.6666670000        0.3755647779
Ni            0.6666670000        0.3333330000        0.8755647779
Ni            0.6666670000        0.3333330000        0.6244352221
Ni            0.3333330000        0.6666670000        0.1244352221
Ni            0.1659685952        0.3319361905        0.2500000000
Ni            0.8340314049        0.1659685952        0.7500000000
Ni            0.8340314048        0.6680638095        0.7500000000
Ni            0.1659685951        0.8340314048        0.2500000000
Ni            0.6680638097        0.8340314048        0.2500000000
Ni            0.3319361903        0.1659685952        0.7500000000
Ni            0.5000000000       -0.0000000000        0.5000000000
Ni            0.5000000000        0.5000000000        0.0000000000
Ni            0.5000000000       -0.0000000000       -0.0000000000
Ni            0.5000000000        0.5000000000        0.5000000000
Ni           -0.0000000000        0.5000000000        0.0000000000
Ni           -0.0000000000        0.5000000000        0.5000000000



     Writing config-only to output data dir ./ACOptimization/out/iso.save/
     NEW-OLD atomic charge density approx. for the potential

     Check: negative core charge=   -0.000015

     total cpu time spent up to now is     2359.3 secs

     Self-consistent Calculation

     iteration #  1     ecut=    50.00 Ry     beta= 0.10
     Davidson diagonalization with overlap
     ethr =  1.00E-06,  avg # of iterations =  3.0

     Threshold (ethr) on eigenvalues was too large:
     Diagonalizing with lowered threshold

     Davidson diagonalization with overlap
     ethr =  1.61E-09,  avg # of iterations =  6.7

     total cpu time spent up to now is     2417.8 secs

     total energy              =   -7950.02696093 Ry
     estimated scf accuracy    <       0.00000430 Ry

     iteration #  2     ecut=    50.00 Ry     beta= 0.10
     Davidson diagonalization with overlap
     ethr =  1.17E-09,  avg # of iterations =  1.0

     total cpu time spent up to now is     2436.9 secs

     total energy              =   -7950.02694094 Ry
     estimated scf accuracy    <       0.00000286 Ry

     iteration #  3     ecut=    50.00 Ry     beta= 0.10
     Davidson diagonalization with overlap
     ethr =  7.78E-10,  avg # of iterations =  2.0

     total cpu time spent up to now is     2458.9 secs

     total energy              =   -7950.02693700 Ry
     estimated scf accuracy    <       0.00000082 Ry

     iteration #  4     ecut=    50.00 Ry     beta= 0.10
     Davidson diagonalization with overlap
     ethr =  2.22E-10,  avg # of iterations =  4.0

     total cpu time spent up to now is     2485.2 secs

     total energy              =   -7950.02693680 Ry
     estimated scf accuracy    <       0.00000023 Ry

     iteration #  5     ecut=    50.00 Ry     beta= 0.10
     Davidson diagonalization with overlap
     ethr =  6.34E-11,  avg # of iterations =  2.0

     total cpu time spent up to now is     2506.8 secs

     total energy              =   -7950.02693734 Ry
     estimated scf accuracy    <       0.00000033 Ry

     iteration #  6     ecut=    50.00 Ry     beta= 0.10
     Davidson diagonalization with overlap
     ethr =  6.34E-11,  avg # of iterations =  2.0

     total cpu time spent up to now is     2530.9 secs

     total energy              =   -7950.02693725 Ry
     estimated scf accuracy    <       0.00000020 Ry

     iteration #  7     ecut=    50.00 Ry     beta= 0.10
     Davidson diagonalization with overlap
     ethr =  5.32E-11,  avg # of iterations =  2.0

     total cpu time spent up to now is     2555.0 secs

     total energy              =   -7950.02693670 Ry
     estimated scf accuracy    <       0.00000008 Ry

     iteration #  8     ecut=    50.00 Ry     beta= 0.10
     Davidson diagonalization with overlap
     ethr =  2.16E-11,  avg # of iterations =  4.0

     total cpu time spent up to now is     2581.1 secs

     total energy              =   -7950.02693664 Ry
     estimated scf accuracy    <          4.0E-09 Ry

     iteration #  9     ecut=    50.00 Ry     beta= 0.10
     Davidson diagonalization with overlap
     ethr =  1.09E-12,  avg # of iterations =  4.3

     total cpu time spent up to now is     2610.2 secs

     total energy              =   -7950.02693663 Ry
     estimated scf accuracy    <          6.1E-09 Ry

     iteration # 10     ecut=    50.00 Ry     beta= 0.10
     Davidson diagonalization with overlap
     ethr =  1.09E-12,  avg # of iterations =  2.0

     total cpu time spent up to now is     2634.8 secs

     total energy              =   -7950.02693663 Ry
     estimated scf accuracy    <          1.5E-09 Ry

     iteration # 11     ecut=    50.00 Ry     beta= 0.10
     Davidson diagonalization with overlap
     ethr =  4.01E-13,  avg # of iterations =  4.0

     total cpu time spent up to now is     2661.2 secs

     total energy              =   -7950.02693663 Ry
     estimated scf accuracy    <          9.5E-10 Ry

     iteration # 12     ecut=    50.00 Ry     beta= 0.10
     Davidson diagonalization with overlap
     ethr =  2.58E-13,  avg # of iterations =  5.0

     total cpu time spent up to now is     2693.6 secs

     End of self-consistent calculation

          k = 0.0000 0.0000 0.0000 ( 13497 PWs)   bands (ev):

   -90.6457 -90.6457 -90.6446 -90.6446 -90.6443 -90.6443 -90.6431 -90.6431
   -90.5953 -90.5953 -90.5941 -90.5941 -90.5937 -90.5937 -90.5926 -90.5926
   -90.5742 -90.5742 -90.5742 -90.5742 -90.5742 -90.5742 -90.5741 -90.5741
   -90.5741 -90.5741 -90.5741 -90.5741 -90.5740 -90.5740 -90.5740 -90.5740
   -63.0542 -63.0542 -63.0542 -63.0542 -63.0531 -63.0531 -63.0530 -63.0530
   -63.0009 -63.0009 -63.0008 -63.0008 -62.9996 -62.9996 -62.9996 -62.9996
   -52.6355 -52.6355 -52.6249 -52.6249 -52.6247 -52.6247 -52.6166 -52.6166
   -52.5861 -52.5861 -52.5858 -52.5858 -52.5830 -52.5830 -52.5810 -52.5810
   -52.5785 -52.5785 -52.5778 -52.5778 -52.5745 -52.5745 -52.5736 -52.5736
   -52.5094 -52.5094 -52.5093 -52.5093 -52.5091 -52.5091 -52.5012 -52.5012
   -50.5190 -50.5190 -50.5123 -50.5123 -50.4931 -50.4931 -50.4891 -50.4891
   -50.4790 -50.4790 -50.4789 -50.4789 -50.4639 -50.4639 -50.4545 -50.4545
   -50.4176 -50.4176 -50.4084 -50.4084 -50.4062 -50.4062 -50.4052 -50.4052
   -50.4030 -50.4030 -50.3990 -50.3990 -50.3797 -50.3797 -50.3642 -50.3642
   -50.3498 -50.3498 -50.3340 -50.3340 -50.3260 -50.3260 -50.3178 -50.3178
   -50.3093 -50.3093 -50.3080 -50.3080 -50.3016 -50.3016 -50.2924 -50.2924
   -50.2831 -50.2831 -50.2811 -50.2811 -50.2762 -50.2762 -50.2740 -50.2740
   -50.2588 -50.2588 -50.2565 -50.2565 -50.2561 -50.2561 -50.2535 -50.2535
   -30.1845 -30.1845 -30.1842 -30.1842 -30.1803 -30.1803 -30.1801 -30.1801
   -30.1301 -30.1301 -30.1300 -30.1300 -30.1254 -30.1254 -30.1252 -30.1252
   -29.8993 -29.8993 -29.8990 -29.8990 -29.8972 -29.8972 -29.8971 -29.8971
   -29.8958 -29.8958 -29.8957 -29.8957 -29.8892 -29.8892 -29.8889 -29.8889
   -29.8467 -29.8467 -29.8465 -29.8465 -29.8403 -29.8403 -29.8402 -29.8402
   -29.8388 -29.8388 -29.8386 -29.8386 -29.8354 -29.8354 -29.8352 -29.8352
     3.9227   3.9227   4.5112   4.5112   4.5169   4.5169   5.9102   5.9102
     6.5382   6.5382   7.9097   7.9097   7.9623   7.9623   7.9908   7.9908
     8.5032   8.5032   8.5490   8.5490   8.6941   8.6941   8.7160   8.7160
     8.8617   8.8617   8.8680   8.8680   8.8877   8.8877   8.9015   8.9015
     8.9245   8.9245   8.9286   8.9286   9.0363   9.0363   9.0575   9.0575
     9.1017   9.1017   9.1503   9.1503   9.1580   9.1580   9.1628   9.1628
     9.1865   9.1865   9.2509   9.2509   9.3069   9.3069   9.3215   9.3215
     9.3525   9.3525   9.3851   9.3851   9.6484   9.6484   9.6485   9.6485
     9.6639   9.6639   9.6722   9.6722   9.6768   9.6768   9.7322   9.7322
     9.8877   9.8877   9.9473   9.9473  10.0045  10.0045  10.0228  10.0228
    10.0648  10.0648  10.1191  10.1191  10.1561  10.1561  10.1571  10.1571
    10.2941  10.2941  10.3129  10.3129  10.5269  10.5269  10.6814  10.6814
    10.7320  10.7320  10.7494  10.7494  10.7518  10.7518  10.7927  10.7927
    10.9076  10.9076  10.9611  10.9611  11.0374  11.0374  11.0459  11.0459
    11.1602  11.1602  11.1692  11.1692  11.2418  11.2418  11.2436  11.2436
    11.2475  11.2475  11.2542  11.2542  11.2577  11.2577  11.2661  11.2661
    11.2683  11.2683  11.2854  11.2854  11.2994  11.2994  11.3013  11.3013
    11.3245  11.3245  11.3308  11.3308  11.3457  11.3457  11.3703  11.3703
    11.3943  11.3943  11.4117  11.4117  11.4124  11.4124  11.4270  11.4270
    11.4495  11.4495  11.4802  11.4802  11.5544  11.5544  11.7679  11.7679
    11.8202  11.8202  12.0312  12.0312  12.0334  12.0334  12.2350  12.2350
    12.2369  12.2369  12.2403  12.2403  12.2404  12.2404  12.6318  12.6318
    12.7256  12.7256  12.8755  12.8755  12.9211  12.9211  12.9713  12.9713
    12.9883  12.9883  13.0002  13.0002  13.0072  13.0072  13.0508  13.0508
    13.3058  13.3058  13.3338  13.3338  13.3366  13.3366  13.3868  13.3868
    14.6408  14.6408  14.6931  14.6931  14.7164  14.7164  14.7277  14.7277
    15.0714  15.0714  15.1162  15.1162  15.5453  15.5453  15.5651  15.5651
    16.0616  16.0616  16.1482  16.1482  16.1646  16.1646  16.2082  16.2082
    16.2911  16.2911  16.5109  16.5109  16.9856  16.9856  16.9971  16.9971
    17.4736  17.4736  17.5042  17.5042  17.5238  17.5238  18.0016  18.0016
    18.0606  18.0606  18.0656  18.0656  18.2002  18.2002  19.6273  19.6273
    19.6733  19.6733

          k = 0.0000 0.3849 0.0000 ( 13496 PWs)   bands (ev):

   -90.6452 -90.6452 -90.6444 -90.6444 -90.6442 -90.6442 -90.6433 -90.6433
   -90.5909 -90.5909 -90.5901 -90.5901 -90.5897 -90.5897 -90.5890 -90.5890
   -90.5786 -90.5786 -90.5784 -90.5784 -90.5783 -90.5783 -90.5781 -90.5781
   -90.5742 -90.5742 -90.5742 -90.5742 -90.5740 -90.5740 -90.5740 -90.5740
   -63.0541 -63.0541 -63.0541 -63.0541 -63.0531 -63.0531 -63.0530 -63.0530
   -63.0009 -63.0009 -63.0009 -63.0009 -62.9996 -62.9996 -62.9996 -62.9996
   -52.6322 -52.6322 -52.6271 -52.6271 -52.6265 -52.6265 -52.6184 -52.6184
   -52.5819 -52.5819 -52.5787 -52.5787 -52.5774 -52.5774 -52.5753 -52.5753
   -52.5674 -52.5674 -52.5646 -52.5646 -52.5638 -52.5638 -52.5582 -52.5582
   -52.5298 -52.5298 -52.5254 -52.5254 -52.5238 -52.5238 -52.5195 -52.5195
   -50.5126 -50.5126 -50.5075 -50.5075 -50.5002 -50.5002 -50.4916 -50.4916
   -50.4604 -50.4604 -50.4580 -50.4580 -50.4484 -50.4484 -50.4461 -50.4461
   -50.4135 -50.4135 -50.4087 -50.4087 -50.4061 -50.4061 -50.4038 -50.4038
   -50.3945 -50.3945 -50.3922 -50.3922 -50.3777 -50.3777 -50.3675 -50.3675
   -50.3507 -50.3507 -50.3396 -50.3396 -50.3384 -50.3384 -50.3321 -50.3321
   -50.3124 -50.3124 -50.3093 -50.3093 -50.2988 -50.2988 -50.2962 -50.2962
   -50.2943 -50.2943 -50.2942 -50.2942 -50.2792 -50.2792 -50.2775 -50.2775
   -50.2730 -50.2730 -50.2714 -50.2714 -50.2580 -50.2580 -50.2558 -50.2558
   -30.1840 -30.1840 -30.1839 -30.1839 -30.1799 -30.1799 -30.1799 -30.1799
   -30.1307 -30.1307 -30.1307 -30.1307 -30.1261 -30.1261 -30.1261 -30.1261
   -29.8996 -29.8996 -29.8994 -29.8994 -29.8964 -29.8964 -29.8963 -29.8963
   -29.8950 -29.8950 -29.8947 -29.8947 -29.8895 -29.8895 -29.8894 -29.8894
   -29.8463 -29.8463 -29.8463 -29.8463 -29.8411 -29.8411 -29.8409 -29.8409
   -29.8393 -29.8393 -29.8392 -29.8392 -29.8352 -29.8352 -29.8351 -29.8351
     4.8556   4.8556   5.4224   5.4224   5.4252   5.4252   6.7835   6.7835
     7.2416   7.2416   7.4245   7.4245   7.7460   7.7460   7.7577   7.7577
     8.3464   8.3464   8.3805   8.3805   8.5313   8.5313   8.6108   8.6108
     8.6751   8.6751   8.8011   8.8011   8.8576   8.8576   8.9166   8.9166
     9.0028   9.0028   9.0499   9.0499   9.0807   9.0807   9.1255   9.1255
     9.1375   9.1375   9.1549   9.1549   9.2502   9.2502   9.3540   9.3540
     9.3979   9.3979   9.4536   9.4536   9.4940   9.4940   9.5466   9.5466
     9.5666   9.5666   9.5972   9.5972   9.6007   9.6007   9.6787   9.6787
     9.6858   9.6858   9.7212   9.7212   9.7241   9.7241   9.7890   9.7890
     9.8117   9.8117   9.8191   9.8191   9.8868   9.8868   9.9353   9.9353
     9.9966   9.9966  10.0438  10.0438  10.0661  10.0661  10.0748  10.0748
    10.1287  10.1287  10.2238  10.2238  10.2480  10.2480  10.2912  10.2912
    10.3038  10.3038  10.3958  10.3958  10.4085  10.4085  10.4618  10.4618
    10.4790  10.4790  10.5376  10.5376  10.5980  10.5980  10.6085  10.6085
    10.6280  10.6280  10.6761  10.6761  10.7580  10.7580  10.7701  10.7701
    10.8440  10.8440  10.8682  10.8682  10.8949  10.8949  10.9242  10.9242
    10.9847  10.9847  10.9997  10.9997  11.0143  11.0143  11.0628  11.0628
    11.0732  11.0732  11.1268  11.1268  11.1590  11.1590  11.2078  11.2078
    11.2172  11.2172  11.2836  11.2836  11.2999  11.2999  11.3104  11.3104
    11.3550  11.3550  11.3670  11.3670  11.3697  11.3697  11.3990  11.3990
    11.4489  11.4489  11.4753  11.4753  11.4934  11.4934  11.5774  11.5774
    11.6050  11.6050  11.6711  11.6711  11.7386  11.7386  11.8497  11.8497
    12.0947  12.0947  12.1677  12.1677  12.4889  12.4889  12.5090  12.5090
    12.6966  12.6966  12.7981  12.7981  12.8822  12.8822  13.0338  13.0338
    13.1108  13.1108  13.1378  13.1378  13.2271  13.2271  13.4480  13.4480
    14.0109  14.0109  14.4224  14.4224  14.7128  14.7128  14.7668  14.7668
    15.9436  15.9436  16.4443  16.4443  16.5033  16.5033  16.5897  16.5897
    17.3692  17.3692  17.4329  17.4329  17.4772  17.4772  17.5973  17.5973
    17.6989  17.6989  17.8479  17.8479  18.2485  18.2485  18.6245  18.6245
    18.7285  18.7285  18.8043  18.8043  19.2374  19.2374  19.3251  19.3251
    19.6440  19.6440  19.9789  19.9789  20.3260  20.3260  20.6267  20.6267
    20.6709  20.6710

          k = 0.3333 0.5774 0.0000 ( 13500 PWs)   bands (ev):

   -90.6447 -90.6447 -90.6447 -90.6447 -90.6437 -90.6437 -90.6437 -90.6437
   -90.5854 -90.5854 -90.5854 -90.5854 -90.5845 -90.5845 -90.5845 -90.5845
   -90.5841 -90.5841 -90.5840 -90.5840 -90.5827 -90.5827 -90.5827 -90.5827
   -90.5742 -90.5742 -90.5742 -90.5742 -90.5741 -90.5741 -90.5741 -90.5741
   -63.0541 -63.0541 -63.0541 -63.0541 -63.0530 -63.0530 -63.0530 -63.0530
   -63.0009 -63.0009 -63.0009 -63.0009 -62.9997 -62.9997 -62.9996 -62.9996
   -52.6289 -52.6289 -52.6288 -52.6288 -52.6245 -52.6245 -52.6243 -52.6243
   -52.5797 -52.5797 -52.5767 -52.5767 -52.5767 -52.5767 -52.5766 -52.5766
   -52.5496 -52.5496 -52.5492 -52.5492 -52.5478 -52.5478 -52.5475 -52.5475
   -52.5442 -52.5442 -52.5440 -52.5440 -52.5376 -52.5376 -52.5375 -52.5375
   -50.5069 -50.5069 -50.5060 -50.5060 -50.5023 -50.5023 -50.4984 -50.4984
   -50.4389 -50.4389 -50.4378 -50.4378 -50.4359 -50.4359 -50.4342 -50.4342
   -50.4300 -50.4300 -50.4259 -50.4259 -50.4206 -50.4206 -50.4038 -50.4038
   -50.3876 -50.3876 -50.3826 -50.3826 -50.3812 -50.3812 -50.3603 -50.3603
   -50.3497 -50.3497 -50.3467 -50.3467 -50.3411 -50.3411 -50.3409 -50.3409
   -50.3175 -50.3175 -50.3085 -50.3085 -50.2996 -50.2996 -50.2993 -50.2993
   -50.2937 -50.2937 -50.2887 -50.2887 -50.2867 -50.2867 -50.2815 -50.2815
   -50.2812 -50.2812 -50.2768 -50.2768 -50.2614 -50.2614 -50.2608 -50.2608
   -30.1839 -30.1839 -30.1837 -30.1837 -30.1798 -30.1798 -30.1796 -30.1796
   -30.1311 -30.1311 -30.1311 -30.1311 -30.1266 -30.1266 -30.1264 -30.1264
   -29.9004 -29.9004 -29.8989 -29.8989 -29.8964 -29.8964 -29.8963 -29.8963
   -29.8941 -29.8941 -29.8940 -29.8940 -29.8906 -29.8906 -29.8889 -29.8889
   -29.8463 -29.8463 -29.8462 -29.8462 -29.8416 -29.8416 -29.8415 -29.8415
   -29.8394 -29.8394 -29.8392 -29.8392 -29.8352 -29.8352 -29.8351 -29.8351
     6.4118   6.4118   6.4126   6.4126   6.8338   6.8338   6.9359   6.9359
     6.9410   6.9410   7.1431   7.1431   7.2496   7.2496   7.2541   7.2541
     7.4325   7.4325   8.2773   8.2773   8.2827   8.2827   8.2837   8.2837
     8.2849   8.2849   8.3192   8.3192   8.4021   8.4021   9.0458   9.0458
     9.0547   9.0547   9.0574   9.0574   9.1615   9.1615   9.1772   9.1772
     9.3154   9.3154   9.3490   9.3490   9.4557   9.4557   9.4705   9.4705
     9.5376   9.5376   9.5379   9.5379   9.5788   9.5788   9.5881   9.5881
     9.6042   9.6042   9.6073   9.6073   9.6824   9.6824   9.7402   9.7402
     9.7532   9.7532   9.7589   9.7589   9.7687   9.7687   9.7792   9.7792
     9.7918   9.7918   9.8415   9.8415   9.8538   9.8538   9.8712   9.8712
     9.8838   9.8838   9.8885   9.8885   9.9333   9.9333   9.9439   9.9439
     9.9952   9.9952  10.0045  10.0045  10.0253  10.0253  10.0450  10.0450
    10.0805  10.0805  10.2143  10.2143  10.2351  10.2351  10.2479  10.2479
    10.3663  10.3663  10.4636  10.4636  10.4819  10.4819  10.4939  10.4939
    10.5302  10.5302  10.5495  10.5495  10.6978  10.6978  10.7021  10.7021
    10.7777  10.7777  10.8005  10.8005  10.8181  10.8181  10.8294  10.8294
    10.8724  10.8724  10.8902  10.8902  10.9018  10.9018  10.9870  10.9870
    11.0322  11.0322  11.0577  11.0577  11.0679  11.0679  11.0685  11.0685
    11.0959  11.0959  11.1047  11.1047  11.1163  11.1163  11.1529  11.1529
    11.1682  11.1682  11.1787  11.1787  11.2366  11.2366  11.2862  11.2862
    11.4334  11.4334  11.4483  11.4483  11.5239  11.5239  11.5258  11.5258
    11.5461  11.5461  11.6110  11.6110  11.6232  11.6232  11.7107  11.7107
    11.7649  11.7649  11.8265  11.8265  11.8280  11.8280  12.0373  12.0373
    12.1593  12.1593  12.1696  12.1696  12.2262  12.2262  13.5282  13.5282
    13.5490  13.5490  13.5949  13.5949  13.7740  13.7740  13.7812  13.7812
    14.3248  14.3248  16.1258  16.1258  16.1277  16.1277  16.2732  16.2732
    16.5306  16.5306  16.5309  16.5309  17.0461  17.0461  17.1550  17.1550
    17.1560  17.1560  17.1875  17.1875  17.1955  17.1955  17.4688  17.4688
    17.6433  17.6433  17.9908  17.9908  18.1109  18.1109  18.1249  18.1249
    18.8744  18.8744  18.8770  18.8770  19.1090  19.1090  19.1227  19.1227
    19.2383  19.2383  19.7959  19.7959  21.2209  21.2209  21.2290  21.2290
    21.4080  21.4080

     the Fermi energy is    11.8922 ev

!    total energy              =   -7950.02693664 Ry
     total all-electron energy =    -51823.879020 Ry
     estimated scf accuracy    <          1.1E-10 Ry
     smearing contrib. (-TS)   =       0.11924658 Ry
     internal energy E=F+TS    =   -7950.14618321 Ry

     The total energy is F=E-TS. E is the sum of the following terms:
     one-electron contribution =   -4622.66623809 Ry
     hartree contribution      =    2452.41455446 Ry
     xc contribution           =    -680.98815424 Ry
     ewald contribution        =   -3560.80258564 Ry
     one-center paw contrib.   =   -1538.10375971 Ry

     convergence has been achieved in  12 iterations

     Forces acting on atoms (cartesian axes, Ry/au):

     atom    1 type  1   force =    -0.00000000   -0.00000000    0.00080903
     atom    2 type  1   force =    -0.00000000   -0.00000000    0.00080903
     atom    3 type  1   force =     0.00000000    0.00000000   -0.00080903
     atom    4 type  1   force =    -0.00000000   -0.00000000   -0.00080903
     atom    5 type  1   force =    -0.00000000   -0.00000000    0.00016572
     atom    6 type  1   force =     0.00000000    0.00000000    0.00016572
     atom    7 type  1   force =    -0.00000000   -0.00000000   -0.00016572
     atom    8 type  1   force =    -0.00000000   -0.00000000   -0.00016572
     atom    9 type  2   force =     0.00000000   -0.00000000   -0.00092123
     atom   10 type  2   force =     0.00000000   -0.00000000   -0.00092123
     atom   11 type  2   force =     0.00000000    0.00000000    0.00092123
     atom   12 type  2   force =     0.00000000    0.00000000    0.00092123
     atom   13 type  2   force =     0.00000000    0.00073260    0.00000000
     atom   14 type  2   force =    -0.00063445    0.00036630    0.00000000
     atom   15 type  2   force =     0.00000000   -0.00073260    0.00000000
     atom   16 type  2   force =     0.00063445   -0.00036630   -0.00000000
     atom   17 type  2   force =    -0.00063445   -0.00036630    0.00000000
     atom   18 type  2   force =     0.00063445    0.00036630   -0.00000000
     atom   19 type  2   force =     0.00000000    0.00000000    0.00000000
     atom   20 type  2   force =    -0.00000000    0.00000000   -0.00000000
     atom   21 type  2   force =     0.00000000   -0.00000000    0.00000000
     atom   22 type  2   force =     0.00000000    0.00000000    0.00000000
     atom   23 type  2   force =     0.00000000    0.00000000    0.00000000
     atom   24 type  2   force =    -0.00000000   -0.00000000    0.00000000
     The non-local contrib.  to forces
     atom    1 type  1   force =     0.00000000    0.00000000    0.01484163
     atom    2 type  1   force =     0.00000000    0.00000000    0.01484163
     atom    3 type  1   force =    -0.00000000   -0.00000000   -0.01484163
     atom    4 type  1   force =    -0.00000000   -0.00000000   -0.01484163
     atom    5 type  1   force =     0.00000000    0.00000000   -0.00306573
     atom    6 type  1   force =     0.00000000    0.00000000   -0.00306573
     atom    7 type  1   force =     0.00000000   -0.00000000    0.00306573
     atom    8 type  1   force =     0.00000000    0.00000000    0.00306573
     atom    9 type  2   force =    -0.00000000   -0.00000000   -0.01162985
     atom   10 type  2   force =    -0.00000000   -0.00000000   -0.01162985
     atom   11 type  2   force =     0.00000000    0.00000000    0.01162985
     atom   12 type  2   force =     0.00000000    0.00000000    0.01162985
     atom   13 type  2   force =     0.00000000   -0.08821564    0.00000000
     atom   14 type  2   force =     0.07639699   -0.04410782   -0.00000000
     atom   15 type  2   force =     0.00000000    0.08821564    0.00000000
     atom   16 type  2   force =    -0.07639699    0.04410782   -0.00000000
     atom   17 type  2   force =     0.07639699    0.04410782    0.00000000
     atom   18 type  2   force =    -0.07639699   -0.04410782    0.00000000
     atom   19 type  2   force =     0.00000000   -0.00000000   -0.00000000
     atom   20 type  2   force =    -0.00000000   -0.00000000    0.00000000
     atom   21 type  2   force =     0.00000000   -0.00000000    0.00000000
     atom   22 type  2   force =     0.00000000   -0.00000000    0.00000000
     atom   23 type  2   force =     0.00000000    0.00000000    0.00000000
     atom   24 type  2   force =    -0.00000000    0.00000000    0.00000000
     The ionic contribution  to forces
     atom    1 type  1   force =    -0.00001476    0.00000972   -0.86833307
     atom    2 type  1   force =     0.00001476   -0.00000972   -0.86833307
     atom    3 type  1   force =     0.00001476   -0.00000972    0.86833307
     atom    4 type  1   force =    -0.00001476    0.00000972    0.86833307
     atom    5 type  1   force =     0.00005258   -0.00002903    0.26603345
     atom    6 type  1   force =    -0.00005258    0.00002903    0.26603345
     atom    7 type  1   force =    -0.00005258    0.00002903   -0.26603345
     atom    8 type  1   force =     0.00005258   -0.00002903   -0.26603345
     atom    9 type  2   force =     0.00005532   -0.00003183   -0.51949560
     atom   10 type  2   force =    -0.00005532    0.00003183   -0.51949560
     atom   11 type  2   force =    -0.00005532    0.00003183    0.51949560
     atom   12 type  2   force =     0.00005532   -0.00003183    0.51949560
     atom   13 type  2   force =     0.00006821  -13.89162392   -0.00000000
     atom   14 type  2   force =    12.03057819   -6.94585878    0.00000000
     atom   15 type  2   force =    -0.00006821   13.89162392    0.00000000
     atom   16 type  2   force =   -12.03057819    6.94585878   -0.00000000
     atom   17 type  2   force =    12.03053298    6.94575392   -0.00000000
     atom   18 type  2   force =   -12.03053298   -6.94575392    0.00000000
     atom   19 type  2   force =    -0.00000000   -0.00000000   -0.00000000
     atom   20 type  2   force =    -0.00000000   -0.00000000   -0.00000000
     atom   21 type  2   force =    -0.00000000   -0.00000000   -0.00000000
     atom   22 type  2   force =    -0.00000000   -0.00000000   -0.00000000
     atom   23 type  2   force =     0.00000000    0.00000000   -0.00000000
     atom   24 type  2   force =     0.00000000    0.00000000   -0.00000000
     The local contribution  to forces
     atom    1 type  1   force =     0.00000000   -0.00000112    0.85438631
     atom    2 type  1   force =    -0.00000000    0.00000112    0.85438631
     atom    3 type  1   force =     0.00000000    0.00000112   -0.85438631
     atom    4 type  1   force =     0.00000000   -0.00000112   -0.85438631
     atom    5 type  1   force =     0.00149659   -0.00086529   -0.26280715
     atom    6 type  1   force =    -0.00149659    0.00086529   -0.26280715
     atom    7 type  1   force =    -0.00149659    0.00086529    0.26280715
     atom    8 type  1   force =     0.00149659   -0.00086529    0.26280715
     atom    9 type  2   force =     0.00198582   -0.00114660    0.53202967
     atom   10 type  2   force =    -0.00198582    0.00114660    0.53202967
     atom   11 type  2   force =    -0.00198582    0.00114660   -0.53202967
     atom   12 type  2   force =     0.00198582   -0.00114660   -0.53202967
     atom   13 type  2   force =    -0.00198368   13.98084154    0.00000000
     atom   14 type  2   force =   -12.10500815    6.98883044    0.00000000
     atom   15 type  2   force =     0.00198368  -13.98084154    0.00000000
     atom   16 type  2   force =    12.10500815   -6.98883044    0.00000000
     atom   17 type  2   force =   -12.10875611   -6.98870377    0.00000000
     atom   18 type  2   force =    12.10875611    6.98870377    0.00000000
     atom   19 type  2   force =     0.00000000    0.00000000    0.00000000
     atom   20 type  2   force =     0.00000000    0.00000000   -0.00000000
     atom   21 type  2   force =     0.00000000    0.00000000    0.00000000
     atom   22 type  2   force =     0.00000000    0.00000000    0.00000000
     atom   23 type  2   force =     0.00000000    0.00000000   -0.00000000
     atom   24 type  2   force =     0.00000000    0.00000000    0.00000000
     The core correction contribution to forces
     atom    1 type  1   force =     0.00000000   -0.00000000   -0.00007626
     atom    2 type  1   force =    -0.00000000    0.00000000   -0.00007626
     atom    3 type  1   force =    -0.00000000    0.00000000    0.00007626
     atom    4 type  1   force =     0.00000000   -0.00000000    0.00007626
     atom    5 type  1   force =     0.00000324   -0.00000187    0.00000902
     atom    6 type  1   force =    -0.00000324    0.00000187    0.00000902
     atom    7 type  1   force =    -0.00000324    0.00000187   -0.00000902
     atom    8 type  1   force =     0.00000324   -0.00000187   -0.00000902
     atom    9 type  2   force =     0.00000121   -0.00000070   -0.00182648
     atom   10 type  2   force =    -0.00000121    0.00000070   -0.00182648
     atom   11 type  2   force =    -0.00000121    0.00000070    0.00182648
     atom   12 type  2   force =     0.00000121   -0.00000070    0.00182648
     atom   13 type  2   force =    -0.00000121    0.00080987    0.00000000
     atom   14 type  2   force =    -0.00069948    0.00040384    0.00000000
     atom   15 type  2   force =     0.00000121   -0.00080987    0.00000000
     atom   16 type  2   force =     0.00069948   -0.00040384    0.00000000
     atom   17 type  2   force =    -0.00070197   -0.00040389    0.00000000
     atom   18 type  2   force =     0.00070197    0.00040389    0.00000000
     atom   19 type  2   force =     0.00000000    0.00000000    0.00000000
     atom   20 type  2   force =     0.00000000    0.00000000   -0.00000000
     atom   21 type  2   force =     0.00000000    0.00000000   -0.00000000
     atom   22 type  2   force =     0.00000000    0.00000000    0.00000000
     atom   23 type  2   force =     0.00000000    0.00000000   -0.00000000
     atom   24 type  2   force =     0.00000000    0.00000000    0.00000000
     The Hubbard contrib.    to forces
     atom    1 type  1   force =     0.00000000    0.00000000    0.00000000
     atom    2 type  1   force =     0.00000000    0.00000000    0.00000000
     atom    3 type  1   force =     0.00000000    0.00000000    0.00000000
     atom    4 type  1   force =     0.00000000    0.00000000    0.00000000
     atom    5 type  1   force =     0.00000000    0.00000000    0.00000000
     atom    6 type  1   force =     0.00000000    0.00000000    0.00000000
     atom    7 type  1   force =     0.00000000    0.00000000    0.00000000
     atom    8 type  1   force =     0.00000000    0.00000000    0.00000000
     atom    9 type  2   force =     0.00000000    0.00000000    0.00000000
     atom   10 type  2   force =     0.00000000    0.00000000    0.00000000
     atom   11 type  2   force =     0.00000000    0.00000000    0.00000000
     atom   12 type  2   force =     0.00000000    0.00000000    0.00000000
     atom   13 type  2   force =     0.00000000    0.00000000    0.00000000
     atom   14 type  2   force =     0.00000000    0.00000000    0.00000000
     atom   15 type  2   force =     0.00000000    0.00000000    0.00000000
     atom   16 type  2   force =     0.00000000    0.00000000    0.00000000
     atom   17 type  2   force =     0.00000000    0.00000000    0.00000000
     atom   18 type  2   force =     0.00000000    0.00000000    0.00000000
     atom   19 type  2   force =     0.00000000    0.00000000    0.00000000
     atom   20 type  2   force =     0.00000000    0.00000000    0.00000000
     atom   21 type  2   force =     0.00000000    0.00000000    0.00000000
     atom   22 type  2   force =     0.00000000    0.00000000    0.00000000
     atom   23 type  2   force =     0.00000000    0.00000000    0.00000000
     atom   24 type  2   force =     0.00000000    0.00000000    0.00000000
     The SCF correction term to forces
     atom    1 type  1   force =    -0.00000000    0.00000000   -0.00000959
     atom    2 type  1   force =     0.00000000   -0.00000000   -0.00000959
     atom    3 type  1   force =     0.00000000   -0.00000000    0.00000959
     atom    4 type  1   force =    -0.00000000    0.00000000    0.00000959
     atom    5 type  1   force =    -0.00000000    0.00000000   -0.00000387
     atom    6 type  1   force =     0.00000000   -0.00000000   -0.00000387
     atom    7 type  1   force =     0.00000000   -0.00000000    0.00000387
     atom    8 type  1   force =    -0.00000000    0.00000000    0.00000387
     atom    9 type  2   force =     0.00000001   -0.00000001    0.00000103
     atom   10 type  2   force =    -0.00000001    0.00000001    0.00000103
     atom   11 type  2   force =    -0.00000001    0.00000001   -0.00000103
     atom   12 type  2   force =     0.00000001   -0.00000001   -0.00000103
     atom   13 type  2   force =    -0.00000001    0.00001249   -0.00000000
     atom   14 type  2   force =    -0.00001082    0.00000625    0.00000000
     atom   15 type  2   force =     0.00000001   -0.00001249    0.00000000
     atom   16 type  2   force =     0.00001082   -0.00000625   -0.00000000
     atom   17 type  2   force =    -0.00001082   -0.00000624    0.00000000
     atom   18 type  2   force =     0.00001082    0.00000624   -0.00000000
     atom   19 type  2   force =     0.00000000    0.00000000    0.00000000
     atom   20 type  2   force =    -0.00000000    0.00000000    0.00000000
     atom   21 type  2   force =    -0.00000000   -0.00000000    0.00000000
     atom   22 type  2   force =     0.00000000   -0.00000000    0.00000000
     atom   23 type  2   force =     0.00000000    0.00000000    0.00000000
     atom   24 type  2   force =    -0.00000000   -0.00000000    0.00000000

     Total force =     0.003057     Total SCF correction =     0.000037
     Energy error            =      1.2E-05 Ry
     Gradient error          =      9.2E-04 Ry/Bohr

     number of scf cycles    =   6
     number of bfgs steps    =   5

     energy             old  =   -7950.0269246379 Ry
     energy             new  =   -7950.0269366374 Ry

     CASE: energy            _new < energy            _old

     new trust radius        =       0.0024150634 bohr
     new conv_thr            =       0.0000000002 Ry


ATOMIC_POSITIONS (crystal)
Mg           -0.0000000000       -0.0000000000        0.4070645127
Mg            0.0000000000        0.0000000000        0.9070645127
Mg           -0.0000000000       -0.0000000000        0.5929354873
Mg           -0.0000000000       -0.0000000000        0.0929354873
Mg            0.3333330000        0.6666670000        0.6560286136
Mg            0.6666670000        0.3333330000        0.1560286136
Mg            0.6666670000        0.3333330000        0.3439713864
Mg            0.3333330000        0.6666670000        0.8439713864
Ni            0.3333330000        0.6666670000        0.3755347602
Ni            0.6666670000        0.3333330000        0.8755347602
Ni            0.6666670000        0.3333330000        0.6244652398
Ni            0.3333330000        0.6666670000        0.1244652398
Ni            0.1660256971        0.3320503941        0.2500000000
Ni            0.8339743031        0.1660256971        0.7500000000
Ni            0.8339743029        0.6679496059        0.7500000000
Ni            0.1660256969        0.8339743029        0.2500000000
Ni            0.6679496060        0.8339743029        0.2500000000
Ni            0.3320503940        0.1660256971        0.7500000000
Ni            0.5000000000       -0.0000000000        0.5000000000
Ni            0.5000000000        0.5000000000       -0.0000000000
Ni            0.5000000000       -0.0000000000       -0.0000000000
Ni            0.5000000000        0.5000000000        0.5000000000
Ni           -0.0000000000        0.5000000000        0.0000000000
Ni           -0.0000000000        0.5000000000        0.5000000000



     Writing config-only to output data dir ./ACOptimization/out/iso.save/
     NEW-OLD atomic charge density approx. for the potential

     Check: negative core charge=   -0.000015

     total cpu time spent up to now is     2709.3 secs

     Self-consistent Calculation

     iteration #  1     ecut=    50.00 Ry     beta= 0.10
     Davidson diagonalization with overlap
     ethr =  1.00E-06,  avg # of iterations =  3.0

     Threshold (ethr) on eigenvalues was too large:
     Diagonalizing with lowered threshold

     Davidson diagonalization with overlap
     ethr =  6.46E-09,  avg # of iterations =  5.0

     total cpu time spent up to now is     2765.7 secs

     total energy              =   -7950.02701632 Ry
     estimated scf accuracy    <       0.00001683 Ry

     iteration #  2     ecut=    50.00 Ry     beta= 0.10
     Davidson diagonalization with overlap
     ethr =  4.57E-09,  avg # of iterations =  1.0

     total cpu time spent up to now is     2785.3 secs

     total energy              =   -7950.02695606 Ry
     estimated scf accuracy    <       0.00001206 Ry

     iteration #  3     ecut=    50.00 Ry     beta= 0.10
     Davidson diagonalization with overlap
     ethr =  3.28E-09,  avg # of iterations =  2.0

     total cpu time spent up to now is     2809.6 secs

     total energy              =   -7950.02695244 Ry
     estimated scf accuracy    <       0.00000099 Ry

     iteration #  4     ecut=    50.00 Ry     beta= 0.10
     Davidson diagonalization with overlap
     ethr =  2.69E-10,  avg # of iterations =  4.0

     total cpu time spent up to now is     2837.4 secs

     total energy              =   -7950.02695184 Ry
     estimated scf accuracy    <       0.00000079 Ry

     iteration #  5     ecut=    50.00 Ry     beta= 0.10
     Davidson diagonalization with overlap
     ethr =  2.14E-10,  avg # of iterations =  1.0

     total cpu time spent up to now is     2857.1 secs

     total energy              =   -7950.02695099 Ry
     estimated scf accuracy    <       0.00000093 Ry

     iteration #  6     ecut=    50.00 Ry     beta= 0.10
     Davidson diagonalization with overlap
     ethr =  2.14E-10,  avg # of iterations =  2.0

     total cpu time spent up to now is     2881.2 secs

     total energy              =   -7950.02695174 Ry
     estimated scf accuracy    <       0.00000125 Ry

     iteration #  7     ecut=    50.00 Ry     beta= 0.10
     Davidson diagonalization with overlap
     ethr =  2.14E-10,  avg # of iterations =  2.0

     total cpu time spent up to now is     2904.5 secs

     total energy              =   -7950.02694963 Ry
     estimated scf accuracy    <       0.00000024 Ry

     iteration #  8     ecut=    50.00 Ry     beta= 0.10
     Davidson diagonalization with overlap
     ethr =  6.49E-11,  avg # of iterations =  4.0

     total cpu time spent up to now is     2933.1 secs

     total energy              =   -7950.02694959 Ry
     estimated scf accuracy    <       0.00000007 Ry

     iteration #  9     ecut=    50.00 Ry     beta= 0.10
     Davidson diagonalization with overlap
     ethr =  1.93E-11,  avg # of iterations =  1.0

     total cpu time spent up to now is     2952.1 secs

     total energy              =   -7950.02694950 Ry
     estimated scf accuracy    <       0.00000001 Ry

     iteration # 10     ecut=    50.00 Ry     beta= 0.10
     Davidson diagonalization with overlap
     ethr =  2.87E-12,  avg # of iterations =  2.7

     total cpu time spent up to now is     2978.1 secs

     total energy              =   -7950.02694942 Ry
     estimated scf accuracy    <          4.0E-09 Ry

     iteration # 11     ecut=    50.00 Ry     beta= 0.10
     Davidson diagonalization with overlap
     ethr =  1.08E-12,  avg # of iterations =  5.0

     total cpu time spent up to now is     3012.4 secs

     total energy              =   -7950.02694944 Ry
     estimated scf accuracy    <       0.00000002 Ry

     iteration # 12     ecut=    50.00 Ry     beta= 0.10
     Davidson diagonalization with overlap
     ethr =  1.08E-12,  avg # of iterations =  4.0

     total cpu time spent up to now is     3040.8 secs

     total energy              =   -7950.02694944 Ry
     estimated scf accuracy    <          6.4E-10 Ry

     iteration # 13     ecut=    50.00 Ry     beta= 0.10
     Davidson diagonalization with overlap
     ethr =  1.73E-13,  avg # of iterations =  2.7

     total cpu time spent up to now is     3064.8 secs

     total energy              =   -7950.02694944 Ry
     estimated scf accuracy    <          3.5E-10 Ry

     iteration # 14     ecut=    50.00 Ry     beta= 0.10
     Davidson diagonalization with overlap
     ethr =  1.00E-13,  avg # of iterations =  2.0

     total cpu time spent up to now is     3089.9 secs

     End of self-consistent calculation

          k = 0.0000 0.0000 0.0000 ( 13497 PWs)   bands (ev):

   -90.6457 -90.6457 -90.6446 -90.6446 -90.6443 -90.6443 -90.6431 -90.6431
   -90.5953 -90.5953 -90.5940 -90.5940 -90.5937 -90.5937 -90.5926 -90.5926
   -90.5742 -90.5742 -90.5742 -90.5742 -90.5742 -90.5742 -90.5741 -90.5741
   -90.5741 -90.5741 -90.5741 -90.5741 -90.5741 -90.5741 -90.5740 -90.5740
   -63.0540 -63.0540 -63.0540 -63.0540 -63.0530 -63.0530 -63.0529 -63.0529
   -63.0011 -63.0011 -63.0010 -63.0010 -62.9998 -62.9998 -62.9998 -62.9998
   -52.6355 -52.6355 -52.6249 -52.6249 -52.6247 -52.6247 -52.6166 -52.6166
   -52.5861 -52.5861 -52.5858 -52.5858 -52.5830 -52.5830 -52.5810 -52.5810
   -52.5784 -52.5784 -52.5778 -52.5778 -52.5745 -52.5745 -52.5735 -52.5735
   -52.5094 -52.5094 -52.5092 -52.5092 -52.5091 -52.5091 -52.5011 -52.5011
   -50.5190 -50.5190 -50.5122 -50.5122 -50.4932 -50.4932 -50.4891 -50.4891
   -50.4789 -50.4789 -50.4788 -50.4788 -50.4638 -50.4638 -50.4544 -50.4544
   -50.4175 -50.4175 -50.4083 -50.4083 -50.4063 -50.4063 -50.4052 -50.4052
   -50.4029 -50.4029 -50.3989 -50.3989 -50.3798 -50.3798 -50.3642 -50.3642
   -50.3498 -50.3498 -50.3340 -50.3340 -50.3259 -50.3259 -50.3178 -50.3178
   -50.3092 -50.3092 -50.3080 -50.3080 -50.3017 -50.3017 -50.2925 -50.2925
   -50.2830 -50.2830 -50.2810 -50.2810 -50.2761 -50.2761 -50.2740 -50.2740
   -50.2590 -50.2590 -50.2567 -50.2567 -50.2563 -50.2563 -50.2537 -50.2537
   -30.1843 -30.1843 -30.1841 -30.1841 -30.1802 -30.1802 -30.1800 -30.1800
   -30.1303 -30.1303 -30.1302 -30.1302 -30.1256 -30.1256 -30.1254 -30.1254
   -29.8992 -29.8992 -29.8989 -29.8989 -29.8970 -29.8970 -29.8969 -29.8969
   -29.8957 -29.8957 -29.8956 -29.8956 -29.8891 -29.8891 -29.8888 -29.8888
   -29.8471 -29.8471 -29.8469 -29.8469 -29.8404 -29.8404 -29.8404 -29.8404
   -29.8390 -29.8390 -29.8388 -29.8388 -29.8357 -29.8357 -29.8354 -29.8354
     3.9227   3.9227   4.5108   4.5108   4.5172   4.5172   5.9097   5.9097
     6.5389   6.5389   7.9106   7.9106   7.9622   7.9622   7.9906   7.9906
     8.5020   8.5020   8.5485   8.5485   8.6936   8.6936   8.7158   8.7158
     8.8608   8.8608   8.8678   8.8678   8.8877   8.8877   8.9017   8.9017
     8.9246   8.9246   8.9288   8.9288   9.0360   9.0360   9.0573   9.0573
     9.1019   9.1019   9.1504   9.1504   9.1575   9.1575   9.1630   9.1630
     9.1865   9.1865   9.2507   9.2507   9.3065   9.3065   9.3215   9.3215
     9.3520   9.3520   9.3851   9.3851   9.6484   9.6484   9.6485   9.6485
     9.6638   9.6638   9.6724   9.6724   9.6770   9.6770   9.7321   9.7321
     9.8875   9.8875   9.9471   9.9471  10.0049  10.0049  10.0228  10.0228
    10.0649  10.0649  10.1194  10.1194  10.1562  10.1562  10.1571  10.1571
    10.2942  10.2942  10.3130  10.3130  10.5280  10.5280  10.6815  10.6815
    10.7318  10.7318  10.7500  10.7500  10.7522  10.7522  10.7933  10.7933
    10.9071  10.9071  10.9607  10.9607  11.0374  11.0374  11.0461  11.0461
    11.1606  11.1606  11.1696  11.1696  11.2418  11.2418  11.2436  11.2436
    11.2473  11.2473  11.2539  11.2539  11.2576  11.2576  11.2661  11.2661
    11.2690  11.2690  11.2852  11.2852  11.2996  11.2996  11.3016  11.3016
    11.3244  11.3244  11.3309  11.3309  11.3457  11.3457  11.3704  11.3704
    11.3945  11.3945  11.4114  11.4114  11.4121  11.4121  11.4270  11.4270
    11.4495  11.4495  11.4804  11.4804  11.5546  11.5546  11.7678  11.7678
    11.8202  11.8202  12.0315  12.0315  12.0337  12.0337  12.2351  12.2351
    12.2370  12.2370  12.2401  12.2401  12.2403  12.2403  12.6326  12.6326
    12.7262  12.7262  12.8767  12.8767  12.9212  12.9212  12.9704  12.9704
    12.9883  12.9883  12.9993  12.9993  13.0073  13.0073  13.0510  13.0510
    13.3062  13.3062  13.3342  13.3342  13.3352  13.3352  13.3856  13.3856
    14.6414  14.6414  14.6937  14.6937  14.7164  14.7164  14.7277  14.7277
    15.0722  15.0722  15.1169  15.1169  15.5454  15.5454  15.5653  15.5653
    16.0607  16.0607  16.1491  16.1491  16.1654  16.1654  16.2069  16.2069
    16.2896  16.2896  16.5107  16.5107  16.9851  16.9851  16.9968  16.9968
    17.4739  17.4739  17.5046  17.5046  17.5241  17.5241  18.0009  18.0009
    18.0605  18.0605  18.0656  18.0656  18.2005  18.2005  19.6237  19.6237
    19.6731  19.6731

          k = 0.0000 0.3849 0.0000 ( 13496 PWs)   bands (ev):

   -90.6452 -90.6452 -90.6444 -90.6444 -90.6442 -90.6442 -90.6433 -90.6433
   -90.5908 -90.5908 -90.5900 -90.5900 -90.5897 -90.5897 -90.5889 -90.5889
   -90.5786 -90.5786 -90.5784 -90.5784 -90.5783 -90.5783 -90.5781 -90.5781
   -90.5741 -90.5741 -90.5741 -90.5741 -90.5741 -90.5741 -90.5741 -90.5741
   -63.0540 -63.0540 -63.0540 -63.0540 -63.0529 -63.0529 -63.0529 -63.0529
   -63.0012 -63.0012 -63.0011 -63.0011 -62.9999 -62.9999 -62.9999 -62.9999
   -52.6323 -52.6323 -52.6271 -52.6271 -52.6265 -52.6265 -52.6184 -52.6184
   -52.5819 -52.5819 -52.5786 -52.5786 -52.5774 -52.5774 -52.5752 -52.5752
   -52.5674 -52.5674 -52.5645 -52.5645 -52.5638 -52.5638 -52.5581 -52.5581
   -52.5298 -52.5298 -52.5253 -52.5253 -52.5238 -52.5238 -52.5194 -52.5194
   -50.5127 -50.5127 -50.5074 -50.5074 -50.5003 -50.5003 -50.4916 -50.4916
   -50.4604 -50.4604 -50.4580 -50.4580 -50.4483 -50.4483 -50.4459 -50.4459
   -50.4134 -50.4134 -50.4086 -50.4086 -50.4060 -50.4060 -50.4037 -50.4037
   -50.3944 -50.3944 -50.3921 -50.3921 -50.3778 -50.3778 -50.3675 -50.3675
   -50.3507 -50.3507 -50.3396 -50.3396 -50.3383 -50.3383 -50.3320 -50.3320
   -50.3124 -50.3124 -50.3092 -50.3092 -50.2988 -50.2988 -50.2963 -50.2963
   -50.2943 -50.2943 -50.2941 -50.2941 -50.2792 -50.2792 -50.2774 -50.2774
   -50.2732 -50.2732 -50.2716 -50.2716 -50.2582 -50.2582 -50.2560 -50.2560
   -30.1839 -30.1839 -30.1838 -30.1838 -30.1798 -30.1798 -30.1797 -30.1797
   -30.1310 -30.1310 -30.1310 -30.1310 -30.1264 -30.1264 -30.1263 -30.1263
   -29.8995 -29.8995 -29.8993 -29.8993 -29.8963 -29.8963 -29.8962 -29.8962
   -29.8949 -29.8949 -29.8946 -29.8946 -29.8894 -29.8894 -29.8892 -29.8892
   -29.8467 -29.8467 -29.8466 -29.8466 -29.8413 -29.8413 -29.8411 -29.8411
   -29.8395 -29.8395 -29.8394 -29.8394 -29.8354 -29.8354 -29.8354 -29.8354
     4.8556   4.8556   5.4220   5.4220   5.4255   5.4255   6.7832   6.7832
     7.2421   7.2421   7.4241   7.4241   7.7461   7.7461   7.7575   7.7575
     8.3462   8.3462   8.3808   8.3808   8.5310   8.5310   8.6109   8.6109
     8.6750   8.6750   8.8008   8.8008   8.8572   8.8572   8.9166   8.9166
     9.0028   9.0028   9.0498   9.0498   9.0806   9.0806   9.1252   9.1252
     9.1375   9.1375   9.1546   9.1546   9.2500   9.2500   9.3541   9.3541
     9.3979   9.3979   9.4534   9.4534   9.4941   9.4941   9.5462   9.5462
     9.5663   9.5663   9.5971   9.5971   9.6003   9.6003   9.6788   9.6788
     9.6856   9.6856   9.7212   9.7212   9.7241   9.7241   9.7889   9.7889
     9.8121   9.8121   9.8193   9.8193   9.8870   9.8870   9.9354   9.9354
     9.9964   9.9964  10.0436  10.0436  10.0659  10.0659  10.0752  10.0752
    10.1291  10.1291  10.2238  10.2238  10.2479  10.2479  10.2916  10.2916
    10.3041  10.3041  10.3959  10.3959  10.4088  10.4088  10.4619  10.4619
    10.4792  10.4792  10.5379  10.5379  10.5982  10.5982  10.6086  10.6086
    10.6281  10.6281  10.6758  10.6758  10.7579  10.7579  10.7707  10.7707
    10.8442  10.8442  10.8677  10.8677  10.8945  10.8945  10.9239  10.9239
    10.9846  10.9846  10.9995  10.9995  11.0145  11.0145  11.0629  11.0629
    11.0729  11.0729  11.1270  11.1270  11.1590  11.1590  11.2078  11.2078
    11.2171  11.2171  11.2836  11.2836  11.3001  11.3001  11.3107  11.3107
    11.3551  11.3551  11.3672  11.3672  11.3698  11.3698  11.3991  11.3991
    11.4488  11.4488  11.4752  11.4752  11.4934  11.4934  11.5775  11.5775
    11.6050  11.6050  11.6712  11.6712  11.7387  11.7387  11.8496  11.8496
    12.0949  12.0949  12.1683  12.1683  12.4893  12.4893  12.5095  12.5095
    12.6962  12.6962  12.7984  12.7984  12.8811  12.8811  13.0339  13.0339
    13.1108  13.1108  13.1381  13.1381  13.2267  13.2267  13.4486  13.4486
    14.0112  14.0112  14.4228  14.4228  14.7121  14.7121  14.7668  14.7668
    15.9439  15.9439  16.4452  16.4452  16.5018  16.5018  16.5886  16.5886
    17.3695  17.3695  17.4330  17.4330  17.4777  17.4777  17.5973  17.5973
    17.6994  17.6994  17.8482  17.8482  18.2489  18.2489  18.6245  18.6245
    18.7279  18.7279  18.8057  18.8057  19.2358  19.2358  19.3239  19.3239
    19.6449  19.6449  19.9789  19.9789  20.3260  20.3260  20.6268  20.6268
    20.6707  20.6707

          k = 0.3333 0.5774 0.0000 ( 13500 PWs)   bands (ev):

   -90.6447 -90.6447 -90.6447 -90.6447 -90.6437 -90.6437 -90.6437 -90.6437
   -90.5853 -90.5853 -90.5852 -90.5852 -90.5845 -90.5845 -90.5845 -90.5845
   -90.5841 -90.5841 -90.5840 -90.5840 -90.5827 -90.5827 -90.5827 -90.5827
   -90.5741 -90.5741 -90.5741 -90.5741 -90.5741 -90.5741 -90.5741 -90.5741
   -63.0540 -63.0540 -63.0540 -63.0540 -63.0529 -63.0529 -63.0529 -63.0529
   -63.0012 -63.0012 -63.0011 -63.0011 -62.9999 -62.9999 -62.9999 -62.9999
   -52.6289 -52.6289 -52.6288 -52.6288 -52.6245 -52.6245 -52.6243 -52.6243
   -52.5797 -52.5797 -52.5767 -52.5767 -52.5766 -52.5766 -52.5766 -52.5766
   -52.5496 -52.5496 -52.5491 -52.5491 -52.5478 -52.5478 -52.5476 -52.5476
   -52.5442 -52.5442 -52.5441 -52.5441 -52.5375 -52.5375 -52.5374 -52.5374
   -50.5069 -50.5069 -50.5060 -50.5060 -50.5023 -50.5023 -50.4985 -50.4985
   -50.4389 -50.4389 -50.4376 -50.4376 -50.4359 -50.4359 -50.4342 -50.4342
   -50.4299 -50.4299 -50.4257 -50.4257 -50.4204 -50.4204 -50.4040 -50.4040
   -50.3875 -50.3875 -50.3825 -50.3825 -50.3811 -50.3811 -50.3603 -50.3603
   -50.3496 -50.3496 -50.3467 -50.3467 -50.3411 -50.3411 -50.3408 -50.3408
   -50.3175 -50.3175 -50.3084 -50.3084 -50.2995 -50.2995 -50.2994 -50.2994
   -50.2939 -50.2939 -50.2888 -50.2888 -50.2866 -50.2866 -50.2814 -50.2814
   -50.2814 -50.2814 -50.2770 -50.2770 -50.2616 -50.2616 -50.2610 -50.2610
   -30.1838 -30.1838 -30.1835 -30.1835 -30.1797 -30.1797 -30.1795 -30.1795
   -30.1314 -30.1314 -30.1314 -30.1314 -30.1268 -30.1268 -30.1267 -30.1267
   -29.9003 -29.9003 -29.8988 -29.8988 -29.8962 -29.8962 -29.8962 -29.8962
   -29.8940 -29.8940 -29.8939 -29.8939 -29.8904 -29.8904 -29.8888 -29.8888
   -29.8466 -29.8466 -29.8465 -29.8465 -29.8418 -29.8418 -29.8417 -29.8417
   -29.8396 -29.8396 -29.8394 -29.8394 -29.8354 -29.8354 -29.8353 -29.8353
     6.4113   6.4113   6.4121   6.4121   6.8345   6.8345   6.9359   6.9359
     6.9410   6.9410   7.1448   7.1448   7.2494   7.2494   7.2539   7.2539
     7.4314   7.4314   8.2767   8.2767   8.2827   8.2827   8.2836   8.2836
     8.2843   8.2843   8.3185   8.3185   8.4030   8.4030   9.0458   9.0458
     9.0540   9.0540   9.0568   9.0568   9.1612   9.1612   9.1767   9.1767
     9.3155   9.3155   9.3489   9.3489   9.4553   9.4553   9.4702   9.4702
     9.5378   9.5378   9.5383   9.5383   9.5790   9.5790   9.5882   9.5882
     9.6043   9.6043   9.6084   9.6084   9.6837   9.6837   9.7404   9.7404
     9.7530   9.7530   9.7591   9.7591   9.7690   9.7690   9.7792   9.7792
     9.7913   9.7913   9.8418   9.8418   9.8541   9.8541   9.8707   9.8707
     9.8835   9.8835   9.8887   9.8887   9.9330   9.9330   9.9440   9.9440
     9.9950   9.9950  10.0046  10.0046  10.0251  10.0251  10.0449  10.0449
    10.0805  10.0805  10.2139  10.2139  10.2348  10.2348  10.2474  10.2474
    10.3660  10.3660  10.4635  10.4635  10.4818  10.4818  10.4936  10.4936
    10.5301  10.5301  10.5500  10.5500  10.6984  10.6984  10.7028  10.7028
    10.7778  10.7778  10.8007  10.8007  10.8185  10.8185  10.8291  10.8291
    10.8724  10.8724  10.8898  10.8898  10.9021  10.9021  10.9870  10.9870
    11.0319  11.0319  11.0580  11.0580  11.0680  11.0680  11.0681  11.0681
    11.0959  11.0959  11.1046  11.1046  11.1163  11.1163  11.1528  11.1528
    11.1681  11.1681  11.1787  11.1787  11.2363  11.2363  11.2861  11.2861
    11.4335  11.4335  11.4482  11.4482  11.5242  11.5242  11.5260  11.5260
    11.5464  11.5464  11.6111  11.6111  11.6232  11.6232  11.7106  11.7106
    11.7649  11.7649  11.8265  11.8265  11.8280  11.8280  12.0379  12.0379
    12.1594  12.1594  12.1698  12.1698  12.2263  12.2263  13.5283  13.5283
    13.5491  13.5491  13.5944  13.5944  13.7743  13.7743  13.7815  13.7815
    14.3263  14.3263  16.1263  16.1263  16.1283  16.1283  16.2730  16.2730
    16.5302  16.5302  16.5305  16.5305  17.0454  17.0454  17.1556  17.1556
    17.1567  17.1567  17.1871  17.1871  17.1951  17.1951  17.4711  17.4711
    17.6410  17.6410  17.9907  17.9907  18.1091  18.1091  18.1232  18.1232
    18.8752  18.8752  18.8779  18.8779  19.1096  19.1096  19.1233  19.1233
    19.2385  19.2385  19.7954  19.7954  21.2215  21.2215  21.2295  21.2295
    21.4083  21.4083

     the Fermi energy is    11.8924 ev

!    total energy              =   -7950.02694944 Ry
     total all-electron energy =    -51823.879033 Ry
     estimated scf accuracy    <          8.2E-12 Ry
     smearing contrib. (-TS)   =       0.11924076 Ry
     internal energy E=F+TS    =   -7950.14619020 Ry

     The total energy is F=E-TS. E is the sum of the following terms:
     one-electron contribution =   -4622.83197773 Ry
     hartree contribution      =    2452.49769227 Ry
     xc contribution           =    -680.98843216 Ry
     ewald contribution        =   -3560.71968753 Ry
     one-center paw contrib.   =   -1538.10378505 Ry

     convergence has been achieved in  14 iterations

     Forces acting on atoms (cartesian axes, Ry/au):

     atom    1 type  1   force =     0.00000000    0.00000000    0.00051981
     atom    2 type  1   force =    -0.00000000   -0.00000000    0.00051981
     atom    3 type  1   force =    -0.00000000   -0.00000000   -0.00051981
     atom    4 type  1   force =    -0.00000000   -0.00000000   -0.00051981
     atom    5 type  1   force =     0.00000000    0.00000000    0.00011120
     atom    6 type  1   force =    -0.00000000   -0.00000000    0.00011120
     atom    7 type  1   force =     0.00000000    0.00000000   -0.00011120
     atom    8 type  1   force =    -0.00000000   -0.00000000   -0.00011120
     atom    9 type  2   force =     0.00000000    0.00000000   -0.00066961
     atom   10 type  2   force =    -0.00000000   -0.00000000   -0.00066961
     atom   11 type  2   force =     0.00000000    0.00000000    0.00066961
     atom   12 type  2   force =     0.00000000    0.00000000    0.00066961
     atom   13 type  2   force =     0.00000000    0.00041079   -0.00000000
     atom   14 type  2   force =    -0.00035575    0.00020539   -0.00000000
     atom   15 type  2   force =     0.00000000   -0.00041079    0.00000000
     atom   16 type  2   force =     0.00035575   -0.00020539   -0.00000000
     atom   17 type  2   force =    -0.00035575   -0.00020539    0.00000000
     atom   18 type  2   force =     0.00035575    0.00020539    0.00000000
     atom   19 type  2   force =    -0.00000000   -0.00000000    0.00000000
     atom   20 type  2   force =    -0.00000000    0.00000000    0.00000000
     atom   21 type  2   force =     0.00000000    0.00000000    0.00000000
     atom   22 type  2   force =     0.00000000   -0.00000000    0.00000000
     atom   23 type  2   force =     0.00000000   -0.00000000   -0.00000000
     atom   24 type  2   force =    -0.00000000    0.00000000   -0.00000000
     The non-local contrib.  to forces
     atom    1 type  1   force =     0.00000000    0.00000000    0.01373507
     atom    2 type  1   force =    -0.00000000   -0.00000000    0.01373507
     atom    3 type  1   force =     0.00000000    0.00000000   -0.01373507
     atom    4 type  1   force =     0.00000000   -0.00000000   -0.01373507
     atom    5 type  1   force =     0.00000000    0.00000000   -0.00329217
     atom    6 type  1   force =     0.00000000    0.00000000   -0.00329217
     atom    7 type  1   force =    -0.00000000   -0.00000000    0.00329217
     atom    8 type  1   force =     0.00000000    0.00000000    0.00329217
     atom    9 type  2   force =    -0.00000000   -0.00000000   -0.01141009
     atom   10 type  2   force =     0.00000000   -0.00000000   -0.01141009
     atom   11 type  2   force =     0.00000000    0.00000000    0.01141009
     atom   12 type  2   force =     0.00000000    0.00000000    0.01141009
     atom   13 type  2   force =     0.00000000   -0.08848575    0.00000000
     atom   14 type  2   force =     0.07663091   -0.04424287   -0.00000000
     atom   15 type  2   force =     0.00000000    0.08848575   -0.00000000
     atom   16 type  2   force =    -0.07663091    0.04424287    0.00000000
     atom   17 type  2   force =     0.07663091    0.04424287   -0.00000000
     atom   18 type  2   force =    -0.07663091   -0.04424287    0.00000000
     atom   19 type  2   force =    -0.00000000   -0.00000000    0.00000000
     atom   20 type  2   force =     0.00000000    0.00000000    0.00000000
     atom   21 type  2   force =     0.00000000   -0.00000000    0.00000000
     atom   22 type  2   force =     0.00000000    0.00000000    0.00000000
     atom   23 type  2   force =     0.00000000    0.00000000   -0.00000000
     atom   24 type  2   force =    -0.00000000   -0.00000000   -0.00000000
     The ionic contribution  to forces
     atom    1 type  1   force =    -0.00001474    0.00000971   -0.90503727
     atom    2 type  1   force =     0.00001474   -0.00000971   -0.90503727
     atom    3 type  1   force =     0.00001474   -0.00000971    0.90503727
     atom    4 type  1   force =    -0.00001474    0.00000971    0.90503727
     atom    5 type  1   force =     0.00005258   -0.00002903    0.25777226
     atom    6 type  1   force =    -0.00005258    0.00002903    0.25777226
     atom    7 type  1   force =    -0.00005258    0.00002903   -0.25777226
     atom    8 type  1   force =     0.00005258   -0.00002903   -0.25777226
     atom    9 type  2   force =     0.00005524   -0.00003179   -0.46278819
     atom   10 type  2   force =    -0.00005524    0.00003179   -0.46278819
     atom   11 type  2   force =    -0.00005524    0.00003179    0.46278819
     atom   12 type  2   force =     0.00005524   -0.00003179    0.46278819
     atom   13 type  2   force =     0.00006827  -13.99091116   -0.00000000
     atom   14 type  2   force =    12.11656347   -6.99550240    0.00000000
     atom   15 type  2   force =    -0.00006827   13.99091116    0.00000000
     atom   16 type  2   force =   -12.11656347    6.99550240   -0.00000000
     atom   17 type  2   force =    12.11651829    6.99539748   -0.00000000
     atom   18 type  2   force =   -12.11651829   -6.99539748    0.00000000
     atom   19 type  2   force =    -0.00000000   -0.00000000   -0.00000000
     atom   20 type  2   force =    -0.00000000   -0.00000000   -0.00000000
     atom   21 type  2   force =    -0.00000000   -0.00000000   -0.00000000
     atom   22 type  2   force =    -0.00000000   -0.00000000   -0.00000000
     atom   23 type  2   force =     0.00000000    0.00000000   -0.00000000
     atom   24 type  2   force =     0.00000000    0.00000000   -0.00000000
     The local contribution  to forces
     atom    1 type  1   force =    -0.00000000   -0.00000112    0.89190139
     atom    2 type  1   force =     0.00000000    0.00000112    0.89190139
     atom    3 type  1   force =     0.00000000    0.00000112   -0.89190139
     atom    4 type  1   force =     0.00000000   -0.00000112   -0.89190139
     atom    5 type  1   force =     0.00149659   -0.00086529   -0.25437607
     atom    6 type  1   force =    -0.00149659    0.00086529   -0.25437607
     atom    7 type  1   force =    -0.00149659    0.00086529    0.25437607
     atom    8 type  1   force =     0.00149659   -0.00086529    0.25437607
     atom    9 type  2   force =     0.00198587   -0.00114663    0.47535501
     atom   10 type  2   force =    -0.00198587    0.00114663    0.47535501
     atom   11 type  2   force =    -0.00198587    0.00114663   -0.47535501
     atom   12 type  2   force =     0.00198587   -0.00114663   -0.47535501
     atom   13 type  2   force =    -0.00198369   14.08009131    0.00000000
     atom   14 type  2   force =   -12.19096091    7.03845532    0.00000000
     atom   15 type  2   force =     0.00198369  -14.08009131    0.00000000
     atom   16 type  2   force =    12.19096091   -7.03845532    0.00000000
     atom   17 type  2   force =   -12.19470889   -7.03832865    0.00000000
     atom   18 type  2   force =    12.19470889    7.03832865    0.00000000
     atom   19 type  2   force =     0.00000000    0.00000000    0.00000000
     atom   20 type  2   force =     0.00000000    0.00000000   -0.00000000
     atom   21 type  2   force =     0.00000000    0.00000000   -0.00000000
     atom   22 type  2   force =     0.00000000    0.00000000    0.00000000
     atom   23 type  2   force =     0.00000000    0.00000000   -0.00000000
     atom   24 type  2   force =     0.00000000    0.00000000    0.00000000
     The core correction contribution to forces
     atom    1 type  1   force =     0.00000000   -0.00000000   -0.00007223
     atom    2 type  1   force =    -0.00000000    0.00000000   -0.00007223
     atom    3 type  1   force =    -0.00000000    0.00000000    0.00007223
     atom    4 type  1   force =     0.00000000   -0.00000000    0.00007223
     atom    5 type  1   force =     0.00000324   -0.00000187    0.00000976
     atom    6 type  1   force =    -0.00000324    0.00000187    0.00000976
     atom    7 type  1   force =    -0.00000324    0.00000187   -0.00000976
     atom    8 type  1   force =     0.00000324   -0.00000187   -0.00000976
     atom    9 type  2   force =     0.00000121   -0.00000070   -0.00182140
     atom   10 type  2   force =    -0.00000121    0.00000070   -0.00182140
     atom   11 type  2   force =    -0.00000121    0.00000070    0.00182140
     atom   12 type  2   force =     0.00000121   -0.00000070    0.00182140
     atom   13 type  2   force =    -0.00000121    0.00080277    0.00000000
     atom   14 type  2   force =    -0.00069333    0.00040029    0.00000000
     atom   15 type  2   force =     0.00000121   -0.00080277    0.00000000
     atom   16 type  2   force =     0.00069333   -0.00040029    0.00000000
     atom   17 type  2   force =    -0.00069582   -0.00040034    0.00000000
     atom   18 type  2   force =     0.00069582    0.00040034    0.00000000
     atom   19 type  2   force =     0.00000000    0.00000000    0.00000000
     atom   20 type  2   force =     0.00000000    0.00000000   -0.00000000
     atom   21 type  2   force =     0.00000000    0.00000000   -0.00000000
     atom   22 type  2   force =     0.00000000    0.00000000    0.00000000
     atom   23 type  2   force =     0.00000000    0.00000000   -0.00000000
     atom   24 type  2   force =     0.00000000    0.00000000    0.00000000
     The Hubbard contrib.    to forces
     atom    1 type  1   force =     0.00000000    0.00000000    0.00000000
     atom    2 type  1   force =     0.00000000    0.00000000    0.00000000
     atom    3 type  1   force =     0.00000000    0.00000000    0.00000000
     atom    4 type  1   force =     0.00000000    0.00000000    0.00000000
     atom    5 type  1   force =     0.00000000    0.00000000    0.00000000
     atom    6 type  1   force =     0.00000000    0.00000000    0.00000000
     atom    7 type  1   force =     0.00000000    0.00000000    0.00000000
     atom    8 type  1   force =     0.00000000    0.00000000    0.00000000
     atom    9 type  2   force =     0.00000000    0.00000000    0.00000000
     atom   10 type  2   force =     0.00000000    0.00000000    0.00000000
     atom   11 type  2   force =     0.00000000    0.00000000    0.00000000
     atom   12 type  2   force =     0.00000000    0.00000000    0.00000000
     atom   13 type  2   force =     0.00000000    0.00000000    0.00000000
     atom   14 type  2   force =     0.00000000    0.00000000    0.00000000
     atom   15 type  2   force =     0.00000000    0.00000000    0.00000000
     atom   16 type  2   force =     0.00000000    0.00000000    0.00000000
     atom   17 type  2   force =     0.00000000    0.00000000    0.00000000
     atom   18 type  2   force =     0.00000000    0.00000000    0.00000000
     atom   19 type  2   force =     0.00000000    0.00000000    0.00000000
     atom   20 type  2   force =     0.00000000    0.00000000    0.00000000
     atom   21 type  2   force =     0.00000000    0.00000000    0.00000000
     atom   22 type  2   force =     0.00000000    0.00000000    0.00000000
     atom   23 type  2   force =     0.00000000    0.00000000    0.00000000
     atom   24 type  2   force =     0.00000000    0.00000000    0.00000000
     The SCF correction term to forces
     atom    1 type  1   force =    -0.00000001    0.00000000   -0.00000715
     atom    2 type  1   force =     0.00000001   -0.00000000   -0.00000715
     atom    3 type  1   force =     0.00000001   -0.00000000    0.00000715
     atom    4 type  1   force =    -0.00000001    0.00000000    0.00000715
     atom    5 type  1   force =    -0.00000000    0.00000000   -0.00000258
     atom    6 type  1   force =     0.00000000   -0.00000000   -0.00000258
     atom    7 type  1   force =     0.00000000   -0.00000000    0.00000258
     atom    8 type  1   force =    -0.00000000    0.00000000    0.00000258
     atom    9 type  2   force =     0.00000002   -0.00000001   -0.00000494
     atom   10 type  2   force =    -0.00000002    0.00000001   -0.00000494
     atom   11 type  2   force =    -0.00000002    0.00000001    0.00000494
     atom   12 type  2   force =     0.00000002   -0.00000001    0.00000494
     atom   13 type  2   force =    -0.00000001    0.00000539    0.00000000
     atom   14 type  2   force =    -0.00000467    0.00000270   -0.00000000
     atom   15 type  2   force =     0.00000001   -0.00000539   -0.00000000
     atom   16 type  2   force =     0.00000467   -0.00000270    0.00000000
     atom   17 type  2   force =    -0.00000467   -0.00000269    0.00000000
     atom   18 type  2   force =     0.00000467    0.00000269   -0.00000000
     atom   19 type  2   force =     0.00000000    0.00000000   -0.00000000
     atom   20 type  2   force =     0.00000000   -0.00000000    0.00000000
     atom   21 type  2   force =     0.00000000    0.00000000    0.00000000
     atom   22 type  2   force =     0.00000000   -0.00000000   -0.00000000
     atom   23 type  2   force =     0.00000000   -0.00000000    0.00000000
     atom   24 type  2   force =    -0.00000000   -0.00000000   -0.00000000

     Total force =     0.001984     Total SCF correction =     0.000022
     Energy error            =      1.3E-05 Ry
     Gradient error          =      6.7E-04 Ry/Bohr

     number of scf cycles    =   7
     number of bfgs steps    =   6

     energy             old  =   -7950.0269366374 Ry
     energy             new  =   -7950.0269494439 Ry

     CASE: energy            _new < energy            _old

     new trust radius        =       0.0036225950 bohr
     new conv_thr            =       0.0000000002 Ry


ATOMIC_POSITIONS (crystal)
Mg           -0.0000000000       -0.0000000000        0.4071836881
Mg            0.0000000000        0.0000000000        0.9071836881
Mg           -0.0000000000       -0.0000000000        0.5928163119
Mg           -0.0000000000       -0.0000000000        0.0928163119
Mg            0.3333330000        0.6666670000        0.6560538836
Mg            0.6666670000        0.3333330000        0.1560538836
Mg            0.6666670000        0.3333330000        0.3439461164
Mg            0.3333330000        0.6666670000        0.8439461164
Ni            0.3333330000        0.6666670000        0.3754792986
Ni            0.6666670000        0.3333330000        0.8754792986
Ni            0.6666670000        0.3333330000        0.6245207014
Ni            0.3333330000        0.6666670000        0.1245207014
Ni            0.1661080712        0.3322151423        0.2500000000
Ni            0.8338919290        0.1661080712        0.7500000000
Ni            0.8338919288        0.6677848577        0.7500000000
Ni            0.1661080710        0.8338919288        0.2500000000
Ni            0.6677848578        0.8338919288        0.2500000000
Ni            0.3322151422        0.1661080712        0.7500000000
Ni            0.5000000000       -0.0000000000        0.5000000000
Ni            0.5000000000        0.5000000000       -0.0000000000
Ni            0.5000000000       -0.0000000000       -0.0000000000
Ni            0.5000000000        0.5000000000        0.5000000000
Ni           -0.0000000000        0.5000000000        0.0000000000
Ni           -0.0000000000        0.5000000000        0.5000000000



     Writing config-only to output data dir ./ACOptimization/out/iso.save/
     NEW-OLD atomic charge density approx. for the potential

     Check: negative core charge=   -0.000015

     total cpu time spent up to now is     3105.4 secs

     Self-consistent Calculation

     iteration #  1     ecut=    50.00 Ry     beta= 0.10
     Davidson diagonalization with overlap
     ethr =  1.00E-06,  avg # of iterations =  4.0

     Threshold (ethr) on eigenvalues was too large:
     Diagonalizing with lowered threshold

     Davidson diagonalization with overlap
     ethr =  1.30E-08,  avg # of iterations =  5.0

     total cpu time spent up to now is     3163.3 secs

     total energy              =   -7950.02711201 Ry
     estimated scf accuracy    <       0.00004166 Ry

     iteration #  2     ecut=    50.00 Ry     beta= 0.10
     Davidson diagonalization with overlap
     ethr =  1.13E-08,  avg # of iterations =  1.0

     total cpu time spent up to now is     3182.3 secs

     total energy              =   -7950.02696301 Ry
     estimated scf accuracy    <       0.00003042 Ry

     iteration #  3     ecut=    50.00 Ry     beta= 0.10
     Davidson diagonalization with overlap
     ethr =  8.27E-09,  avg # of iterations =  3.0

     total cpu time spent up to now is     3207.0 secs

     total energy              =   -7950.02696860 Ry
     estimated scf accuracy    <       0.00000172 Ry

     iteration #  4     ecut=    50.00 Ry     beta= 0.10
     Davidson diagonalization with overlap
     ethr =  4.68E-10,  avg # of iterations =  4.0

     total cpu time spent up to now is     3231.0 secs

     total energy              =   -7950.02697232 Ry
     estimated scf accuracy    <       0.00000178 Ry

     iteration #  5     ecut=    50.00 Ry     beta= 0.10
     Davidson diagonalization with overlap
     ethr =  4.68E-10,  avg # of iterations =  1.3

     total cpu time spent up to now is     3250.7 secs

     total energy              =   -7950.02697331 Ry
     estimated scf accuracy    <       0.00000150 Ry

     iteration #  6     ecut=    50.00 Ry     beta= 0.10
     Davidson diagonalization with overlap
     ethr =  4.07E-10,  avg # of iterations =  2.0

     total cpu time spent up to now is     3274.8 secs

     total energy              =   -7950.02696940 Ry
     estimated scf accuracy    <       0.00000107 Ry

     iteration #  7     ecut=    50.00 Ry     beta= 0.10
     Davidson diagonalization with overlap
     ethr =  2.90E-10,  avg # of iterations =  2.0

     total cpu time spent up to now is     3298.7 secs

     total energy              =   -7950.02695881 Ry
     estimated scf accuracy    <       0.00000046 Ry

     iteration #  8     ecut=    50.00 Ry     beta= 0.10
     Davidson diagonalization with overlap
     ethr =  1.24E-10,  avg # of iterations =  5.0

     total cpu time spent up to now is     3328.5 secs

     total energy              =   -7950.02695876 Ry
     estimated scf accuracy    <       0.00000008 Ry

     iteration #  9     ecut=    50.00 Ry     beta= 0.10
     Davidson diagonalization with overlap
     ethr =  2.27E-11,  avg # of iterations =  2.0

     total cpu time spent up to now is     3352.8 secs

     total energy              =   -7950.02695879 Ry
     estimated scf accuracy    <          8.8E-09 Ry

     iteration # 10     ecut=    50.00 Ry     beta= 0.10
     Davidson diagonalization with overlap
     ethr =  2.39E-12,  avg # of iterations =  4.0

     total cpu time spent up to now is     3378.8 secs

     total energy              =   -7950.02695859 Ry
     estimated scf accuracy    <       0.00000004 Ry

     iteration # 11     ecut=    50.00 Ry     beta= 0.10
     Davidson diagonalization with overlap
     ethr =  2.39E-12,  avg # of iterations =  5.0

     total cpu time spent up to now is     3408.9 secs

     total energy              =   -7950.02695850 Ry
     estimated scf accuracy    <          4.8E-09 Ry

     iteration # 12     ecut=    50.00 Ry     beta= 0.10
     Davidson diagonalization with overlap
     ethr =  1.30E-12,  avg # of iterations =  5.3

     total cpu time spent up to now is     3443.4 secs

     total energy              =   -7950.02695859 Ry
     estimated scf accuracy    <          1.3E-09 Ry

     iteration # 13     ecut=    50.00 Ry     beta= 0.10
     Davidson diagonalization with overlap
     ethr =  3.51E-13,  avg # of iterations =  2.0

     total cpu time spent up to now is     3468.4 secs

     total energy              =   -7950.02695859 Ry
     estimated scf accuracy    <          6.6E-10 Ry

     iteration # 14     ecut=    50.00 Ry     beta= 0.10
     Davidson diagonalization with overlap
     ethr =  1.80E-13,  avg # of iterations =  1.3

     total cpu time spent up to now is     3488.1 secs

     End of self-consistent calculation

          k = 0.0000 0.0000 0.0000 ( 13497 PWs)   bands (ev):

   -90.6457 -90.6457 -90.6445 -90.6445 -90.6443 -90.6443 -90.6430 -90.6430
   -90.5953 -90.5953 -90.5940 -90.5940 -90.5937 -90.5937 -90.5925 -90.5925
   -90.5741 -90.5741 -90.5741 -90.5741 -90.5741 -90.5741 -90.5741 -90.5741
   -90.5741 -90.5741 -90.5740 -90.5740 -90.5740 -90.5740 -90.5740 -90.5740
   -63.0538 -63.0538 -63.0538 -63.0538 -63.0528 -63.0528 -63.0527 -63.0527
   -63.0015 -63.0015 -63.0014 -63.0014 -63.0002 -63.0002 -63.0002 -63.0002
   -52.6355 -52.6355 -52.6248 -52.6248 -52.6247 -52.6247 -52.6165 -52.6165
   -52.5860 -52.5860 -52.5858 -52.5858 -52.5829 -52.5829 -52.5809 -52.5809
   -52.5784 -52.5784 -52.5777 -52.5777 -52.5745 -52.5745 -52.5735 -52.5735
   -52.5094 -52.5094 -52.5091 -52.5091 -52.5091 -52.5091 -52.5011 -52.5011
   -50.5190 -50.5190 -50.5121 -50.5121 -50.4933 -50.4933 -50.4892 -50.4892
   -50.4787 -50.4787 -50.4787 -50.4787 -50.4636 -50.4636 -50.4543 -50.4543
   -50.4174 -50.4174 -50.4081 -50.4081 -50.4063 -50.4063 -50.4052 -50.4052
   -50.4028 -50.4028 -50.3986 -50.3986 -50.3799 -50.3799 -50.3642 -50.3642
   -50.3497 -50.3497 -50.3340 -50.3340 -50.3258 -50.3258 -50.3177 -50.3177
   -50.3092 -50.3092 -50.3081 -50.3081 -50.3019 -50.3019 -50.2925 -50.2925
   -50.2829 -50.2829 -50.2808 -50.2808 -50.2761 -50.2761 -50.2740 -50.2740
   -50.2593 -50.2593 -50.2570 -50.2570 -50.2566 -50.2566 -50.2540 -50.2540
   -30.1841 -30.1841 -30.1839 -30.1839 -30.1800 -30.1800 -30.1798 -30.1798
   -30.1308 -30.1308 -30.1306 -30.1306 -30.1260 -30.1260 -30.1257 -30.1257
   -29.8990 -29.8990 -29.8987 -29.8987 -29.8968 -29.8968 -29.8967 -29.8967
   -29.8954 -29.8954 -29.8954 -29.8954 -29.8889 -29.8889 -29.8886 -29.8886
   -29.8476 -29.8476 -29.8475 -29.8475 -29.8407 -29.8407 -29.8407 -29.8407
   -29.8392 -29.8392 -29.8390 -29.8390 -29.8361 -29.8361 -29.8358 -29.8358
     3.9227   3.9227   4.5102   4.5102   4.5176   4.5176   5.9088   5.9088
     6.5400   6.5400   7.9121   7.9121   7.9622   7.9622   7.9900   7.9900
     8.5002   8.5002   8.5477   8.5477   8.6926   8.6926   8.7155   8.7155
     8.8595   8.8595   8.8677   8.8677   8.8877   8.8877   8.9021   8.9021
     8.9248   8.9248   8.9292   8.9292   9.0354   9.0354   9.0567   9.0567
     9.1023   9.1023   9.1505   9.1505   9.1567   9.1567   9.1632   9.1632
     9.1863   9.1863   9.2503   9.2503   9.3057   9.3057   9.3216   9.3216
     9.3511   9.3511   9.3853   9.3853   9.6484   9.6484   9.6485   9.6485
     9.6635   9.6635   9.6728   9.6728   9.6774   9.6774   9.7317   9.7317
     9.8871   9.8871   9.9467   9.9467  10.0057  10.0057  10.0228  10.0228
    10.0652  10.0652  10.1198  10.1198  10.1564  10.1564  10.1570  10.1570
    10.2945  10.2945  10.3131  10.3131  10.5299  10.5299  10.6816  10.6816
    10.7313  10.7313  10.7511  10.7511  10.7527  10.7527  10.7942  10.7942
    10.9063  10.9063  10.9599  10.9599  11.0374  11.0374  11.0464  11.0464
    11.1613  11.1613  11.1703  11.1703  11.2417  11.2417  11.2437  11.2437
    11.2470  11.2470  11.2537  11.2537  11.2573  11.2573  11.2660  11.2660
    11.2701  11.2701  11.2849  11.2849  11.3000  11.3000  11.3024  11.3024
    11.3243  11.3243  11.3311  11.3311  11.3458  11.3458  11.3704  11.3704
    11.3948  11.3948  11.4109  11.4109  11.4117  11.4117  11.4271  11.4271
    11.4495  11.4495  11.4807  11.4807  11.5548  11.5548  11.7678  11.7678
    11.8201  11.8201  12.0318  12.0318  12.0340  12.0340  12.2352  12.2352
    12.2371  12.2371  12.2398  12.2398  12.2400  12.2400  12.6337  12.6337
    12.7271  12.7271  12.8785  12.8785  12.9213  12.9213  12.9689  12.9689
    12.9884  12.9884  12.9979  12.9979  13.0074  13.0074  13.0514  13.0514
    13.3068  13.3068  13.3330  13.3330  13.3348  13.3348  13.3836  13.3836
    14.6422  14.6422  14.6946  14.6946  14.7162  14.7162  14.7278  14.7278
    15.0733  15.0733  15.1180  15.1180  15.5456  15.5456  15.5654  15.5654
    16.0593  16.0593  16.1504  16.1504  16.1665  16.1665  16.2050  16.2050
    16.2873  16.2873  16.5104  16.5104  16.9845  16.9845  16.9962  16.9962
    17.4744  17.4744  17.5051  17.5051  17.5246  17.5246  17.9999  17.9999
    18.0604  18.0604  18.0656  18.0656  18.2009  18.2009  19.6183  19.6183
    19.6727  19.6727

          k = 0.0000 0.3849 0.0000 ( 13496 PWs)   bands (ev):

   -90.6452 -90.6452 -90.6444 -90.6444 -90.6441 -90.6441 -90.6433 -90.6433
   -90.5908 -90.5908 -90.5900 -90.5900 -90.5897 -90.5897 -90.5889 -90.5889
   -90.5786 -90.5786 -90.5783 -90.5783 -90.5783 -90.5783 -90.5780 -90.5780
   -90.5741 -90.5741 -90.5741 -90.5741 -90.5741 -90.5741 -90.5740 -90.5740
   -63.0538 -63.0538 -63.0538 -63.0538 -63.0527 -63.0527 -63.0526 -63.0526
   -63.0015 -63.0015 -63.0015 -63.0015 -63.0002 -63.0002 -63.0002 -63.0002
   -52.6323 -52.6323 -52.6271 -52.6271 -52.6265 -52.6265 -52.6183 -52.6183
   -52.5819 -52.5819 -52.5786 -52.5786 -52.5774 -52.5774 -52.5752 -52.5752
   -52.5673 -52.5673 -52.5645 -52.5645 -52.5638 -52.5638 -52.5581 -52.5581
   -52.5298 -52.5298 -52.5252 -52.5252 -52.5238 -52.5238 -52.5193 -52.5193
   -50.5126 -50.5126 -50.5073 -50.5073 -50.5003 -50.5003 -50.4916 -50.4916
   -50.4603 -50.4603 -50.4579 -50.4579 -50.4481 -50.4481 -50.4458 -50.4458
   -50.4133 -50.4133 -50.4085 -50.4085 -50.4059 -50.4059 -50.4035 -50.4035
   -50.3942 -50.3942 -50.3920 -50.3920 -50.3779 -50.3779 -50.3675 -50.3675
   -50.3507 -50.3507 -50.3396 -50.3396 -50.3381 -50.3381 -50.3319 -50.3319
   -50.3124 -50.3124 -50.3092 -50.3092 -50.2988 -50.2988 -50.2965 -50.2965
   -50.2944 -50.2944 -50.2940 -50.2940 -50.2791 -50.2791 -50.2774 -50.2774
   -50.2735 -50.2735 -50.2719 -50.2719 -50.2585 -50.2585 -50.2562 -50.2562
   -30.1837 -30.1837 -30.1836 -30.1836 -30.1796 -30.1796 -30.1795 -30.1795
   -30.1314 -30.1314 -30.1314 -30.1314 -30.1267 -30.1267 -30.1266 -30.1266
   -29.8993 -29.8993 -29.8992 -29.8992 -29.8961 -29.8961 -29.8959 -29.8959
   -29.8946 -29.8946 -29.8943 -29.8943 -29.8892 -29.8892 -29.8890 -29.8890
   -29.8472 -29.8472 -29.8472 -29.8472 -29.8416 -29.8416 -29.8414 -29.8414
   -29.8398 -29.8398 -29.8397 -29.8397 -29.8358 -29.8358 -29.8358 -29.8358
     4.8555   4.8555   5.4216   5.4216   5.4258   5.4258   6.7828   6.7828
     7.2429   7.2429   7.4235   7.4235   7.7460   7.7460   7.7572   7.7572
     8.3457   8.3457   8.3814   8.3814   8.5304   8.5304   8.6110   8.6110
     8.6748   8.6748   8.8002   8.8002   8.8565   8.8565   8.9166   8.9166
     9.0029   9.0029   9.0496   9.0496   9.0807   9.0807   9.1249   9.1249
     9.1374   9.1374   9.1539   9.1539   9.2497   9.2497   9.3541   9.3541
     9.3979   9.3979   9.4531   9.4531   9.4944   9.4944   9.5456   9.5456
     9.5659   9.5659   9.5970   9.5970   9.5996   9.5996   9.6790   9.6790
     9.6853   9.6853   9.7211   9.7211   9.7242   9.7242   9.7887   9.7887
     9.8127   9.8127   9.8196   9.8196   9.8874   9.8874   9.9353   9.9353
     9.9962   9.9962  10.0434  10.0434  10.0655  10.0655  10.0760  10.0760
    10.1296  10.1296  10.2238  10.2238  10.2478  10.2478  10.2923  10.2923
    10.3044  10.3044  10.3959  10.3959  10.4094  10.4094  10.4621  10.4621
    10.4794  10.4794  10.5383  10.5383  10.5984  10.5984  10.6086  10.6086
    10.6282  10.6282  10.6753  10.6753  10.7577  10.7577  10.7714  10.7714
    10.8444  10.8444  10.8670  10.8670  10.8939  10.8939  10.9235  10.9235
    10.9845  10.9845  10.9991  10.9991  11.0148  11.0148  11.0630  11.0630
    11.0724  11.0724  11.1272  11.1272  11.1590  11.1590  11.2080  11.2080
    11.2168  11.2168  11.2837  11.2837  11.3004  11.3004  11.3111  11.3111
    11.3553  11.3553  11.3673  11.3673  11.3698  11.3698  11.3992  11.3992
    11.4487  11.4487  11.4751  11.4751  11.4934  11.4934  11.5776  11.5776
    11.6050  11.6050  11.6713  11.6713  11.7389  11.7389  11.8496  11.8496
    12.0951  12.0951  12.1691  12.1691  12.4900  12.4900  12.5101  12.5101
    12.6957  12.6957  12.7989  12.7989  12.8793  12.8793  13.0340  13.0340
    13.1109  13.1109  13.1385  13.1385  13.2260  13.2260  13.4497  13.4497
    14.0118  14.0118  14.4235  14.4235  14.7110  14.7110  14.7666  14.7666
    15.9444  15.9444  16.4466  16.4466  16.4995  16.4995  16.5870  16.5870
    17.3700  17.3700  17.4330  17.4330  17.4786  17.4786  17.5972  17.5972
    17.7001  17.7001  17.8486  17.8486  18.2493  18.2493  18.6245  18.6245
    18.7271  18.7271  18.8079  18.8079  19.2334  19.2334  19.3222  19.3222
    19.6463  19.6463  19.9789  19.9789  20.3259  20.3259  20.6269  20.6269
    20.6704  20.6704

          k = 0.3333 0.5774 0.0000 ( 13500 PWs)   bands (ev):

   -90.6447 -90.6447 -90.6447 -90.6447 -90.6437 -90.6437 -90.6437 -90.6437
   -90.5851 -90.5851 -90.5851 -90.5851 -90.5845 -90.5845 -90.5845 -90.5845
   -90.5841 -90.5841 -90.5840 -90.5840 -90.5827 -90.5827 -90.5827 -90.5827
   -90.5741 -90.5741 -90.5741 -90.5741 -90.5741 -90.5741 -90.5741 -90.5741
   -63.0538 -63.0538 -63.0538 -63.0538 -63.0527 -63.0527 -63.0527 -63.0527
   -63.0016 -63.0016 -63.0015 -63.0015 -63.0003 -63.0003 -63.0002 -63.0002
   -52.6289 -52.6289 -52.6288 -52.6288 -52.6244 -52.6244 -52.6243 -52.6243
   -52.5797 -52.5797 -52.5766 -52.5766 -52.5766 -52.5766 -52.5766 -52.5766
   -52.5495 -52.5495 -52.5489 -52.5489 -52.5478 -52.5478 -52.5477 -52.5477
   -52.5443 -52.5443 -52.5442 -52.5442 -52.5373 -52.5373 -52.5373 -52.5373
   -50.5069 -50.5069 -50.5061 -50.5061 -50.5022 -50.5022 -50.4984 -50.4984
   -50.4389 -50.4389 -50.4373 -50.4373 -50.4359 -50.4359 -50.4341 -50.4341
   -50.4298 -50.4298 -50.4254 -50.4254 -50.4201 -50.4201 -50.4043 -50.4043
   -50.3873 -50.3873 -50.3823 -50.3823 -50.3811 -50.3811 -50.3604 -50.3604
   -50.3495 -50.3495 -50.3467 -50.3467 -50.3410 -50.3410 -50.3407 -50.3407
   -50.3175 -50.3175 -50.3083 -50.3083 -50.2996 -50.2996 -50.2993 -50.2993
   -50.2941 -50.2941 -50.2889 -50.2889 -50.2865 -50.2865 -50.2816 -50.2816
   -50.2814 -50.2814 -50.2772 -50.2772 -50.2619 -50.2619 -50.2613 -50.2613
   -30.1836 -30.1836 -30.1833 -30.1833 -30.1795 -30.1795 -30.1793 -30.1793
   -30.1318 -30.1318 -30.1318 -30.1318 -30.1271 -30.1271 -30.1270 -30.1270
   -29.9001 -29.9001 -29.8986 -29.8986 -29.8960 -29.8960 -29.8959 -29.8959
   -29.8937 -29.8937 -29.8936 -29.8936 -29.8902 -29.8902 -29.8886 -29.8886
   -29.8472 -29.8472 -29.8471 -29.8471 -29.8421 -29.8421 -29.8420 -29.8420
   -29.8398 -29.8398 -29.8397 -29.8397 -29.8358 -29.8358 -29.8357 -29.8357
     6.4106   6.4106   6.4113   6.4113   6.8354   6.8354   6.9360   6.9360
     6.9411   6.9411   7.1472   7.1472   7.2490   7.2490   7.2536   7.2536
     7.4298   7.4298   8.2759   8.2759   8.2827   8.2827   8.2834   8.2834
     8.2835   8.2835   8.3174   8.3174   8.4044   8.4044   9.0458   9.0458
     9.0528   9.0528   9.0558   9.0558   9.1606   9.1606   9.1758   9.1758
     9.3159   9.3159   9.3490   9.3490   9.4547   9.4547   9.4697   9.4697
     9.5378   9.5378   9.5393   9.5393   9.5794   9.5794   9.5884   9.5884
     9.6045   9.6045   9.6099   9.6099   9.6854   9.6854   9.7407   9.7407
     9.7527   9.7527   9.7593   9.7593   9.7696   9.7696   9.7790   9.7790
     9.7907   9.7907   9.8423   9.8423   9.8544   9.8544   9.8700   9.8700
     9.8830   9.8830   9.8888   9.8888   9.9327   9.9327   9.9441   9.9441
     9.9947   9.9947  10.0047  10.0047  10.0249  10.0249  10.0449  10.0449
    10.0805  10.0805  10.2133  10.2133  10.2342  10.2342  10.2466  10.2466
    10.3655  10.3655  10.4634  10.4634  10.4815  10.4815  10.4932  10.4932
    10.5300  10.5300  10.5507  10.5507  10.6992  10.6992  10.7037  10.7037
    10.7779  10.7779  10.8009  10.8009  10.8190  10.8190  10.8285  10.8285
    10.8725  10.8725  10.8893  10.8893  10.9026  10.9026  10.9870  10.9870
    11.0314  11.0314  11.0585  11.0585  11.0675  11.0675  11.0683  11.0683
    11.0960  11.0960  11.1046  11.1046  11.1163  11.1163  11.1527  11.1527
    11.1680  11.1680  11.1785  11.1785  11.2358  11.2358  11.2859  11.2859
    11.4336  11.4336  11.4481  11.4481  11.5246  11.5246  11.5263  11.5263
    11.5469  11.5469  11.6113  11.6113  11.6234  11.6234  11.7105  11.7105
    11.7648  11.7648  11.8266  11.8266  11.8280  11.8280  12.0389  12.0389
    12.1595  12.1595  12.1700  12.1700  12.2263  12.2263  13.5285  13.5285
    13.5492  13.5492  13.5936  13.5936  13.7749  13.7749  13.7821  13.7821
    14.3285  14.3285  16.1271  16.1271  16.1290  16.1290  16.2727  16.2727
    16.5295  16.5295  16.5298  16.5298  17.0443  17.0443  17.1564  17.1564
    17.1576  17.1576  17.1866  17.1866  17.1945  17.1945  17.4748  17.4748
    17.6376  17.6376  17.9906  17.9906  18.1063  18.1063  18.1204  18.1204
    18.8765  18.8765  18.8792  18.8792  19.1105  19.1105  19.1241  19.1241
    19.2385  19.2385  19.7947  19.7947  21.2223  21.2223  21.2303  21.2303
    21.4087  21.4087

     the Fermi energy is    11.8925 ev

!    total energy              =   -7950.02695860 Ry
     total all-electron energy =    -51823.879042 Ry
     estimated scf accuracy    <          4.1E-11 Ry
     smearing contrib. (-TS)   =       0.11922726 Ry
     internal energy E=F+TS    =   -7950.14618586 Ry

     The total energy is F=E-TS. E is the sum of the following terms:
     one-electron contribution =   -4623.07441576 Ry
     hartree contribution      =    2452.61902006 Ry
     xc contribution           =    -680.98879498 Ry
     ewald contribution        =   -3560.59817509 Ry
     one-center paw contrib.   =   -1538.10382008 Ry

     convergence has been achieved in  14 iterations

     Forces acting on atoms (cartesian axes, Ry/au):

     atom    1 type  1   force =     0.00000000   -0.00000000    0.00008542
     atom    2 type  1   force =     0.00000000    0.00000000    0.00008542
     atom    3 type  1   force =     0.00000000    0.00000000   -0.00008542
     atom    4 type  1   force =     0.00000000    0.00000000   -0.00008542
     atom    5 type  1   force =     0.00000000    0.00000000    0.00002742
     atom    6 type  1   force =     0.00000000    0.00000000    0.00002742
     atom    7 type  1   force =    -0.00000000   -0.00000000   -0.00002742
     atom    8 type  1   force =    -0.00000000   -0.00000000   -0.00002742
     atom    9 type  2   force =     0.00000000   -0.00000000   -0.00023824
     atom   10 type  2   force =     0.00000000    0.00000000   -0.00023824
     atom   11 type  2   force =    -0.00000000   -0.00000000    0.00023824
     atom   12 type  2   force =     0.00000000   -0.00000000    0.00023824
     atom   13 type  2   force =     0.00000000   -0.00004278    0.00000000
     atom   14 type  2   force =     0.00003705   -0.00002139    0.00000000
     atom   15 type  2   force =     0.00000000    0.00004278    0.00000000
     atom   16 type  2   force =    -0.00003705    0.00002139    0.00000000
     atom   17 type  2   force =     0.00003705    0.00002139    0.00000000
     atom   18 type  2   force =    -0.00003705   -0.00002139   -0.00000000
     atom   19 type  2   force =    -0.00000000    0.00000000    0.00000000
     atom   20 type  2   force =     0.00000000    0.00000000    0.00000000
     atom   21 type  2   force =    -0.00000000   -0.00000000   -0.00000000
     atom   22 type  2   force =     0.00000000    0.00000000    0.00000000
     atom   23 type  2   force =     0.00000000    0.00000000    0.00000000
     atom   24 type  2   force =     0.00000000    0.00000000    0.00000000
     The non-local contrib.  to forces
     atom    1 type  1   force =     0.00000000    0.00000000    0.01207919
     atom    2 type  1   force =     0.00000000   -0.00000000    0.01207919
     atom    3 type  1   force =     0.00000000    0.00000000   -0.01207919
     atom    4 type  1   force =    -0.00000000   -0.00000000   -0.01207919
     atom    5 type  1   force =     0.00000000    0.00000000   -0.00362106
     atom    6 type  1   force =    -0.00000000   -0.00000000   -0.00362106
     atom    7 type  1   force =    -0.00000000   -0.00000000    0.00362106
     atom    8 type  1   force =    -0.00000000   -0.00000000    0.00362106
     atom    9 type  2   force =     0.00000000    0.00000000   -0.01112566
     atom   10 type  2   force =    -0.00000000   -0.00000000   -0.01112566
     atom   11 type  2   force =     0.00000000    0.00000000    0.01112566
     atom   12 type  2   force =    -0.00000000   -0.00000000    0.01112566
     atom   13 type  2   force =     0.00000000   -0.08882019   -0.00000000
     atom   14 type  2   force =     0.07692055   -0.04441010    0.00000000
     atom   15 type  2   force =     0.00000000    0.08882019   -0.00000000
     atom   16 type  2   force =    -0.07692055    0.04441010    0.00000000
     atom   17 type  2   force =     0.07692055    0.04441010    0.00000000
     atom   18 type  2   force =    -0.07692055   -0.04441010    0.00000000
     atom   19 type  2   force =     0.00000000   -0.00000000    0.00000000
     atom   20 type  2   force =     0.00000000    0.00000000   -0.00000000
     atom   21 type  2   force =     0.00000000    0.00000000    0.00000000
     atom   22 type  2   force =    -0.00000000   -0.00000000   -0.00000000
     atom   23 type  2   force =     0.00000000   -0.00000000    0.00000000
     atom   24 type  2   force =     0.00000000    0.00000000    0.00000000
     The ionic contribution  to forces
     atom    1 type  1   force =    -0.00001471    0.00000969   -0.95686333
     atom    2 type  1   force =     0.00001471   -0.00000969   -0.95686333
     atom    3 type  1   force =     0.00001471   -0.00000969    0.95686333
     atom    4 type  1   force =    -0.00001471    0.00000969    0.95686333
     atom    5 type  1   force =     0.00005258   -0.00002903    0.24222569
     atom    6 type  1   force =    -0.00005258    0.00002903    0.24222569
     atom    7 type  1   force =    -0.00005258    0.00002903   -0.24222569
     atom    8 type  1   force =     0.00005258   -0.00002903   -0.24222569
     atom    9 type  2   force =     0.00005513   -0.00003173   -0.35991777
     atom   10 type  2   force =    -0.00005513    0.00003173   -0.35991777
     atom   11 type  2   force =    -0.00005513    0.00003173    0.35991777
     atom   12 type  2   force =     0.00005513   -0.00003173    0.35991777
     atom   13 type  2   force =     0.00006839  -14.14002099   -0.00000000
     atom   14 type  2   force =    12.24569640   -7.07005733    0.00000000
     atom   15 type  2   force =    -0.00006839   14.14002099    0.00000000
     atom   16 type  2   force =   -12.24569640    7.07005733   -0.00000000
     atom   17 type  2   force =    12.24565126    7.06995231   -0.00000000
     atom   18 type  2   force =   -12.24565126   -7.06995231    0.00000000
     atom   19 type  2   force =    -0.00000000   -0.00000000   -0.00000000
     atom   20 type  2   force =    -0.00000000   -0.00000000   -0.00000000
     atom   21 type  2   force =    -0.00000000   -0.00000000   -0.00000000
     atom   22 type  2   force =    -0.00000000   -0.00000000   -0.00000000
     atom   23 type  2   force =     0.00000000    0.00000000   -0.00000000
     atom   24 type  2   force =     0.00000000    0.00000000   -0.00000000
     The local contribution  to forces
     atom    1 type  1   force =     0.00000000   -0.00000112    0.94494089
     atom    2 type  1   force =    -0.00000000    0.00000112    0.94494089
     atom    3 type  1   force =     0.00000000    0.00000112   -0.94494089
     atom    4 type  1   force =     0.00000000   -0.00000112   -0.94494089
     atom    5 type  1   force =     0.00149659   -0.00086529   -0.23858432
     atom    6 type  1   force =    -0.00149659    0.00086529   -0.23858432
     atom    7 type  1   force =    -0.00149659    0.00086529    0.23858432
     atom    8 type  1   force =     0.00149659   -0.00086529    0.23858432
     atom    9 type  2   force =     0.00198594   -0.00114667    0.37261156
     atom   10 type  2   force =    -0.00198594    0.00114667    0.37261156
     atom   11 type  2   force =    -0.00198594    0.00114667   -0.37261156
     atom   12 type  2   force =     0.00198594   -0.00114667   -0.37261156
     atom   13 type  2   force =    -0.00198370   14.22909346    0.00000000
     atom   14 type  2   force =   -12.32000049    7.11295639    0.00000000
     atom   15 type  2   force =     0.00198370  -14.22909346    0.00000000
     atom   16 type  2   force =    12.32000049   -7.11295639    0.00000000
     atom   17 type  2   force =   -12.32374848   -7.11282972    0.00000000
     atom   18 type  2   force =    12.32374848    7.11282972    0.00000000
     atom   19 type  2   force =     0.00000000    0.00000000    0.00000000
     atom   20 type  2   force =     0.00000000    0.00000000   -0.00000000
     atom   21 type  2   force =     0.00000000    0.00000000   -0.00000000
     atom   22 type  2   force =     0.00000000    0.00000000    0.00000000
     atom   23 type  2   force =     0.00000000    0.00000000   -0.00000000
     atom   24 type  2   force =     0.00000000    0.00000000    0.00000000
     The core correction contribution to forces
     atom    1 type  1   force =     0.00000000   -0.00000000   -0.00006619
     atom    2 type  1   force =    -0.00000000    0.00000000   -0.00006619
     atom    3 type  1   force =    -0.00000000    0.00000000    0.00006619
     atom    4 type  1   force =     0.00000000   -0.00000000    0.00006619
     atom    5 type  1   force =     0.00000324   -0.00000187    0.00001080
     atom    6 type  1   force =    -0.00000324    0.00000187    0.00001080
     atom    7 type  1   force =    -0.00000324    0.00000187   -0.00001080
     atom    8 type  1   force =     0.00000324   -0.00000187   -0.00001080
     atom    9 type  2   force =     0.00000121   -0.00000070   -0.00181024
     atom   10 type  2   force =    -0.00000121    0.00000070   -0.00181024
     atom   11 type  2   force =    -0.00000121    0.00000070    0.00181024
     atom   12 type  2   force =     0.00000121   -0.00000070    0.00181024
     atom   13 type  2   force =    -0.00000121    0.00078933    0.00000000
     atom   14 type  2   force =    -0.00068169    0.00039357    0.00000000
     atom   15 type  2   force =     0.00000121   -0.00078933    0.00000000
     atom   16 type  2   force =     0.00068169   -0.00039357    0.00000000
     atom   17 type  2   force =    -0.00068419   -0.00039362    0.00000000
     atom   18 type  2   force =     0.00068419    0.00039362    0.00000000
     atom   19 type  2   force =     0.00000000    0.00000000    0.00000000
     atom   20 type  2   force =     0.00000000    0.00000000   -0.00000000
     atom   21 type  2   force =     0.00000000    0.00000000   -0.00000000
     atom   22 type  2   force =     0.00000000    0.00000000    0.00000000
     atom   23 type  2   force =     0.00000000    0.00000000   -0.00000000
     atom   24 type  2   force =     0.00000000    0.00000000    0.00000000
     The Hubbard contrib.    to forces
     atom    1 type  1   force =     0.00000000    0.00000000    0.00000000
     atom    2 type  1   force =     0.00000000    0.00000000    0.00000000
     atom    3 type  1   force =     0.00000000    0.00000000    0.00000000
     atom    4 type  1   force =     0.00000000    0.00000000    0.00000000
     atom    5 type  1   force =     0.00000000    0.00000000    0.00000000
     atom    6 type  1   force =     0.00000000    0.00000000    0.00000000
     atom    7 type  1   force =     0.00000000    0.00000000    0.00000000
     atom    8 type  1   force =     0.00000000    0.00000000    0.00000000
     atom    9 type  2   force =     0.00000000    0.00000000    0.00000000
     atom   10 type  2   force =     0.00000000    0.00000000    0.00000000
     atom   11 type  2   force =     0.00000000    0.00000000    0.00000000
     atom   12 type  2   force =     0.00000000    0.00000000    0.00000000
     atom   13 type  2   force =     0.00000000    0.00000000    0.00000000
     atom   14 type  2   force =     0.00000000    0.00000000    0.00000000
     atom   15 type  2   force =     0.00000000    0.00000000    0.00000000
     atom   16 type  2   force =     0.00000000    0.00000000    0.00000000
     atom   17 type  2   force =     0.00000000    0.00000000    0.00000000
     atom   18 type  2   force =     0.00000000    0.00000000    0.00000000
     atom   19 type  2   force =     0.00000000    0.00000000    0.00000000
     atom   20 type  2   force =     0.00000000    0.00000000    0.00000000
     atom   21 type  2   force =     0.00000000    0.00000000    0.00000000
     atom   22 type  2   force =     0.00000000    0.00000000    0.00000000
     atom   23 type  2   force =     0.00000000    0.00000000    0.00000000
     atom   24 type  2   force =     0.00000000    0.00000000    0.00000000
     The SCF correction term to forces
     atom    1 type  1   force =    -0.00000001    0.00000000   -0.00000515
     atom    2 type  1   force =     0.00000001   -0.00000000   -0.00000515
     atom    3 type  1   force =     0.00000001   -0.00000000    0.00000515
     atom    4 type  1   force =    -0.00000001    0.00000000    0.00000515
     atom    5 type  1   force =    -0.00000000    0.00000000   -0.00000368
     atom    6 type  1   force =     0.00000000   -0.00000000   -0.00000368
     atom    7 type  1   force =     0.00000000   -0.00000000    0.00000368
     atom    8 type  1   force =    -0.00000000    0.00000000    0.00000368
     atom    9 type  2   force =     0.00000003   -0.00000002    0.00000387
     atom   10 type  2   force =    -0.00000003    0.00000002    0.00000387
     atom   11 type  2   force =    -0.00000003    0.00000002   -0.00000387
     atom   12 type  2   force =     0.00000003   -0.00000002   -0.00000387
     atom   13 type  2   force =    -0.00000001    0.00000744    0.00000000
     atom   14 type  2   force =    -0.00000646    0.00000373    0.00000000
     atom   15 type  2   force =     0.00000001   -0.00000744   -0.00000000
     atom   16 type  2   force =     0.00000646   -0.00000373    0.00000000
     atom   17 type  2   force =    -0.00000645   -0.00000371    0.00000000
     atom   18 type  2   force =     0.00000645    0.00000371   -0.00000000
     atom   19 type  2   force =     0.00000000    0.00000000   -0.00000000
     atom   20 type  2   force =     0.00000000   -0.00000000    0.00000000
     atom   21 type  2   force =     0.00000000    0.00000000    0.00000000
     atom   22 type  2   force =     0.00000000   -0.00000000   -0.00000000
     atom   23 type  2   force =    -0.00000000   -0.00000000    0.00000000
     atom   24 type  2   force =    -0.00000000   -0.00000000   -0.00000000

     Total force =     0.000520     Total SCF correction =     0.000024
     Energy error            =      9.2E-06 Ry
     Gradient error          =      2.4E-04 Ry/Bohr

     bfgs converged in   8 scf cycles and   7 bfgs steps
     (criteria: energy <  1.0E-05 Ry, force <  1.0E-03 Ry/Bohr)

     End of BFGS Geometry Optimization

     Final energy             =   -7950.0269585973 Ry

     File ./ACOptimization/out/iso.bfgs deleted, as requested
Begin final coordinates

ATOMIC_POSITIONS (crystal)
Mg           -0.0000000000       -0.0000000000        0.4071836881
Mg            0.0000000000        0.0000000000        0.9071836881
Mg           -0.0000000000       -0.0000000000        0.5928163119
Mg           -0.0000000000       -0.0000000000        0.0928163119
Mg            0.3333330000        0.6666670000        0.6560538836
Mg            0.6666670000        0.3333330000        0.1560538836
Mg            0.6666670000        0.3333330000        0.3439461164
Mg            0.3333330000        0.6666670000        0.8439461164
Ni            0.3333330000        0.6666670000        0.3754792986
Ni            0.6666670000        0.3333330000        0.8754792986
Ni            0.6666670000        0.3333330000        0.6245207014
Ni            0.3333330000        0.6666670000        0.1245207014
Ni            0.1661080712        0.3322151423        0.2500000000
Ni            0.8338919290        0.1661080712        0.7500000000
Ni            0.8338919288        0.6677848577        0.7500000000
Ni            0.1661080710        0.8338919288        0.2500000000
Ni            0.6677848578        0.8338919288        0.2500000000
Ni            0.3322151422        0.1661080712        0.7500000000
Ni            0.5000000000       -0.0000000000        0.5000000000
Ni            0.5000000000        0.5000000000       -0.0000000000
Ni            0.5000000000       -0.0000000000       -0.0000000000
Ni            0.5000000000        0.5000000000        0.5000000000
Ni           -0.0000000000        0.5000000000        0.0000000000
Ni           -0.0000000000        0.5000000000        0.5000000000
End final coordinates



     Writing all to output data dir ./ACOptimization/out/iso.save/
 
     init_run     :      9.37s CPU      9.68s WALL (       1 calls)
     electrons    :   3367.68s CPU   3369.89s WALL (       8 calls)
     update_pot   :     20.05s CPU     20.04s WALL (       7 calls)
     forces       :     38.10s CPU     38.11s WALL (       8 calls)

     Called by init_run:
     wfcinit      :      6.08s CPU      6.24s WALL (       1 calls)
                                        6.24s GPU  (       1 calls)
     potinit      :      2.63s CPU      2.67s WALL (       1 calls)
     hinit0       :      0.38s CPU      0.39s WALL (       1 calls)

     Called by electrons:
     c_bands      :   2685.72s CPU   2686.82s WALL (     137 calls)
     sum_band     :    324.45s CPU    324.67s WALL (     137 calls)
     v_of_rho     :      4.16s CPU      4.19s WALL (     140 calls)
     newd         :     38.48s CPU     42.83s WALL (     140 calls)
                                       25.57s GPU  (     133 calls)
     PAW_pot      :    332.18s CPU    332.11s WALL (     147 calls)
     mix_rho      :     21.47s CPU     22.06s WALL (     137 calls)

     Called by c_bands:
     init_us_2    :      1.97s CPU      1.97s WALL (     870 calls)
     init_us_2:cp :      0.29s CPU      0.29s WALL (      21 calls)
     init_us_2:gp :      1.66s CPU      1.66s WALL (     849 calls)
     cegterg      :   2629.38s CPU   2630.46s WALL (     411 calls)

     Called by *egterg:
     cdiaghg      :    132.78s CPU    133.16s WALL (    1611 calls)
                                      133.15s GPU  (    1611 calls)
     h_psi        :   1152.26s CPU   1153.36s WALL (    1650 calls)
                                     1152.95s GPU  (    1650 calls)
     s_psi        :     11.38s CPU    223.42s WALL (    1650 calls)
                                      222.46s GPU  (    1650 calls)
     g_psi        :      0.01s CPU      2.21s WALL (    1236 calls)
                                        2.19s GPU  (    1236 calls)

     Called by h_psi:
     h_psi:calbec :      0.10s CPU    224.23s WALL (    1650 calls)
                                      224.22s GPU  (    1650 calls)
     vloc_psi     :    707.60s CPU    708.70s WALL (    1650 calls)
                                      708.68s GPU  (    1650 calls)
     add_vuspsi   :      6.37s CPU    218.50s WALL (    1650 calls)
                                      218.47s GPU  (    1650 calls)

     General routines
     calbec       :     39.19s CPU     19.68s WALL (    2178 calls)
     fft          :      3.96s CPU      5.55s WALL (    3503 calls)
                                        1.60s GPU  (    2943 calls)
     ffts         :      1.61s CPU      2.34s WALL (    3952 calls)
                                        0.76s GPU  (    3392 calls)
     fftw         :     12.18s CPU    475.29s WALL ( 2143364 calls)
                                      464.18s GPU  ( 2143364 calls)
     interpolate  :      6.33s CPU      6.34s WALL (     560 calls)
 
     Parallel routines
 
     PWSCF        :  58m26.15s CPU  58m14.30s WALL

 
   This run was terminated on:  22:42: 1  19Mar2026            

=------------------------------------------------------------------------------=
   JOB DONE.
=------------------------------------------------------------------------------=
