192
Lattice="9.996406608788138 -0.04737685739524765 0.06760395257620123 -4.727290654235761 8.583877192426813 -0.08088861152473607 -0.5010048331050262 -0.8980070451813555 31.40066341610239" Properties=species:S:1:pos:R:3 pbc="T T T"
Mg      -0.21196463      -0.40282003      14.20646787
Mg      -0.56694169      -0.84731829      29.89886186
Mg      -2.64693413       3.95044966      14.09573521
Mg      -2.87185440       3.45478855      29.90732584
Mg       4.71227902      -0.44567753      14.28587501
Mg       4.45947157      -0.82652337      29.95264313
Mg       2.36065949       3.80579867      14.25973967
Mg       2.26448613       3.36879310      29.85885174
Mg      -0.10898102      -0.27100003       6.43198139
Mg      -0.29791810      -0.63808352      22.16169556
Mg      -2.44077758       4.11518513       6.29180570
Mg      -2.72239460       3.63797581      22.06144144
Mg       5.00851237      -0.08217954       6.34398449
Mg       4.70106514      -0.63241474      22.15669306
Mg       2.64327913       4.03762136       6.46364155
Mg       2.32847252       3.62892805      22.05665182
Mg      -0.09186199      -0.20922639       9.32579129
Mg      -0.44291494      -0.73849401      24.97986026
Mg      -2.50329609       4.10023544       9.27579821
Mg      -2.76001642       3.61964264      25.02502574
Mg       4.81000979      -0.27105707       9.30049730
Ni       4.59559749      -0.70651220      25.10440389
Mg       2.49580741       4.00807528       9.30414201
Mg       2.20353985       3.46817816      25.06978582
Mg       0.03418849      -0.08942477       1.51542720
Ni      -0.30048306      -0.56454249      17.20380825
Mg      -2.40666872       4.35126518       1.39365676
Mg      -2.63252631       3.84168475      17.18908793
Mg       4.96110105      -0.11876417       1.55614730
Mg       4.71647462      -0.44866018      17.24356203
Mg       2.59723182       4.19595548       1.44182034
Mg       2.32309808       3.77688140      17.18052766
Mg       2.45315856       1.40028338       2.48314758
Mg       2.26951335       0.88306565      18.14713714
Ni       0.16426143       5.58682744       2.43329837
Mg      -0.09740552       5.22115940      18.03253137
Mg       7.48100933       1.32165829       2.45370568
Mg       7.28237183       0.91040923      18.20038125
Mg       5.12570375       5.68425781       2.50843034
Mg       4.87337935       5.13408787      18.15534567
Mg      -0.08772884       2.53570835      10.22547518
Mg      -0.37091779       2.12027494      26.03916498
Mg      -2.44939786       6.82721110      10.24502729
Mg      -2.71155611       6.43930866      25.97373223
Mg       4.99472467       2.57334206      10.23786933
Mg       4.72484243       2.01870910      26.00361479
Mg       2.56179979       6.81728166      10.27651734
Mg       2.33479822       6.46292863      25.94441192
Mg       2.45087434       1.29939933       5.41434202
Mg       2.15930490       0.87932386      21.18275489
Mg       0.11045509       5.58688181       5.40020479
Mg      -0.14040624       5.05382289      21.05517683
Mg       7.49233361       1.21277805       5.46944287
Mg       7.16928145       0.73473860      21.20664705
Mg       5.15861306       5.60426792       5.42762935
Mg       4.89702068       5.10756148      21.09106303
Mg      -0.17492290       2.51837070      13.20305187
Mg      -0.34620058       2.10967531      28.98180875
Mg      -2.45726198       6.81442753      13.25024965
Mg      -2.78166495       6.31658447      28.92903476
Ni       4.87670084       2.46545789      13.32722572
Mg       4.69464529       1.88956117      29.04070071
Mg       2.55080728       6.76219534      13.22465596
Mg       2.24279904       6.31864557      28.93934930
Ni       2.31716201       0.98745435      13.67041203
Ni       2.09968261       0.57096351      29.38710342
Ni       0.08484955       5.31858101      13.72391208
Ni      -0.26261553       4.92715293      29.39313683
Ni       7.32301643       0.93481347      13.77789266
Ni       7.09560180       0.48000404      29.43035183
Ni       4.87325031       5.38283573      13.73402753
Ni       4.71569793       4.80002384      29.39402056
Ni      -0.02373849       2.57622718       5.78050241
Ni      -0.28164993       2.26339088      21.56130372
Ni      -2.44630204       6.98978757       5.85028178
Ni      -2.65170449       6.56599222      21.52364588
Ni       4.93841887       2.69356283       5.87100569
Ni       4.64448260       2.19052968      21.62825545
Ni       2.60505003       6.97308476       5.76221027
Ni       2.37813871       6.47971820      21.53978032
Ni       2.41928900       1.10572305       9.94682539
Ni       2.11747860       0.67040056      25.55850044
Ni       0.05510654       5.43479532       9.70965028
Ni      -0.11686206       5.00949060      25.43711455
Ni       7.30278487       1.13833881       9.80960246
Ni       7.12287966       0.61505928      25.61912711
Ni       5.07164782       5.41893289       9.83257474
Ni       4.78787795       5.00479968      25.59394284
Ni       0.00394997       2.75847990       1.95831712
Ni      -0.17716143       2.32696378      17.73098484
Ni      -2.29257446       7.04686904       1.91124491
Ni      -2.51118269       6.51719963      17.63230743
Ni       5.04111764       2.75164320       2.07914839
Ni       4.76966846       2.22126560      17.72278950
Ni       2.64643385       7.12921597       1.96474473
Ni       2.40930687       6.63257940      17.69098502
Ni       2.48341053       2.52283926      11.74610336
Ni       2.21606126       2.14566705      27.48064349
Ni       0.12076651       6.75203175      11.72849039
Ni      -0.22343692       6.26517773      27.40181976
Ni       7.42775364       2.42630152      11.82353178
Ni       7.08637128       2.03306887      27.52994455
Ni       4.98727272       6.69304842      11.73720421
Ni       4.87757873       6.41037537      27.49611323
Ni       3.56833068       0.38146891      11.70815019
Ni       3.36906383      -0.10716469      27.45918577
Ni       1.15133177       4.65009973      11.78838524
Ni       1.01040515       4.28124485      27.46644887
Mg       8.56488985       0.32780631      11.80588990
Ni       8.27628698      -0.09414268      27.62914047
Ni       6.13760410       4.55596769      11.78378426
Ni       6.06916339       4.17470337      27.52914576
Ni       1.26279145       3.42993166       3.89523879
Ni       1.05489898       3.03524700      19.70764261
Ni      -1.06674265       7.71904986       3.91959609
Ni      -1.34943626       7.45335728      19.60669933
Ni       6.22504176       3.40860433       3.85790646
Ni       6.03135393       2.99033126      19.65719180
Ni       3.94950198       7.73234557       3.88773888
Ni       3.78747686       7.19790156      19.66928697
Ni       1.10354712       0.35395354      11.79872629
Ni       0.80763309      -0.01550164      27.43545127
Ni      -1.33914171       4.53408188      11.76576585
Ni      -1.63283568       4.29141311      27.42527074
Mg       6.11315022       0.35635023      11.74895143
Ni       5.79888705      -0.15862752      27.49204470
Ni       3.71248988       4.67448802      11.79717416
Ni       3.49056782       4.17996649      27.48737524
Ni      -0.03731888       1.31661389       3.84999718
Ni      -0.26353012       0.88718595      19.55861130
Ni      -2.32336330       5.67816882       3.98147952
Ni      -2.60635012       5.16795065      19.45135846
Ni       4.98226750       1.37071206       3.91934248
Ni       4.69314727       0.88373404      19.63533211
Ni       2.65864433       5.64766280       3.90501104
Ni       2.38347441       5.08674034      19.61373944
Mg      -1.29952699       3.47920015       3.91873077
Ni      -1.52978543       2.94411637      19.66811024
Ni      -3.53794588       7.71431877       3.90393303
Ni      -3.84980273       7.23153016      19.60350196
Ni       3.89087606       3.50144523       3.87567899
Ni       3.58703262       2.95943919      19.60935926
Ni       1.45009506       7.70580419       3.88500002
Ni       1.20418637       7.22019957      19.60831900
Mg       2.48566500      -0.06310367       0.05717562
Ni       2.31882273      -0.49825130      15.75676002
Ni       0.09167135       4.32367224      -0.08932561
Ni      -0.22348779       3.83501787      15.63714974
Ni       7.58690925      -0.09656625       0.09976243
Ni       7.33002222      -0.48629626      15.73551435
Ni       5.10677799       4.19796562       0.05202954
Ni       4.93642854       3.75775065      15.64090134
Ni       1.18859217       2.14963851      -0.01950401
Ni       1.20177878       1.72508358      15.69567772
Ni      -1.00060926       6.41174738       0.00821027
Ni      -1.27790062       5.88598474      15.68955869
Ni       6.29542389       2.01730598       0.02783189
Ni       6.16888398       1.71214455      15.69685618
Ni       4.01238840       6.38640656      -0.00661243
Ni       3.70252843       5.96600432      15.56078363
Ni      -1.30107385       1.94333138       7.79008866
Ni      -1.54688702       1.44687686      23.57238969
Ni      -3.61572975       6.22614831       7.82780134
Ni      -3.95684155       5.80486336      23.40383184
Ni       3.67132306       1.87028419       7.77579182
Ni       3.43796086       1.44913058      23.57003270
Ni       1.33108881       6.15269392       7.81006090
Ni       1.14052188       5.73479660      23.58045686
Ni       2.41032893      -0.32506002       7.85079355
Ni       2.07802404      -0.67518450      23.61566625
Ni      -0.03750567       4.00472420       7.72927265
Ni      -0.22268534       3.60998542      23.54731264
Ni       7.31973667      -0.14806287       7.96473522
Ni       7.09573780      -0.73502805      23.61151831
Ni       5.01739608       4.05713643       7.76982670
Ni       4.81563408       3.60321656      23.56368385
Ni      -1.12258299       2.13461069      -0.02663787
Ni      -1.51052759       1.69384603      15.72429737
Ni      -3.49174415       6.47850421      -0.11836350
Ni      -3.77390084       5.94418937      15.57947392
Ni       3.70945809       2.14175800      -0.02147652
Ni       3.59320289       1.69465195      15.65551779
Ni       1.42203881       6.36457587      -0.03334620
Ni       1.21071891       5.91156909      15.61422679
Ni       1.11154944       1.95625798       7.82267504
Ni       0.90659475       1.45992177      23.67206903
Ni      -1.14242337       6.23404458       7.84558081
Ni      -1.34271779       5.72872933      23.51355191
Ni       6.17707004       1.97888407       7.85554880
Ni       5.89321351       1.45958287      23.62131940
Ni       3.86323510       6.17500196       7.82720654
Ni       3.64309366       5.76821127      23.51278551
