191
Lattice="9.943243072555513 -0.1214787447788739 0.03882761607824606 -5.311515216230769 8.660365844261714 0.03436241912244657 -0.693844581376346 1.0908068938414395 32.96925050510049" Properties=species:S:1:pos:R:3 pbc="T T T"
Mg      -0.25931616       0.50362401      14.99754321
Mg      -0.67283367       1.01354547      31.42234861
Mg      -2.92644897       4.84304183      14.98212929
Mg      -3.24577096       5.34225188      31.48808315
Mg       4.70695610       0.44509794      14.97332249
Mg       4.33548370       1.01350010      31.39727219
Mg       1.97308842       4.84208477      14.97120700
Mg       1.60622067       5.25006768      31.54436993
Ni      -0.23900284       0.16971462       6.79098163
Mg      -0.53035943       0.69433768      23.23818562
Mg      -2.85498606       4.53592195       6.68822575
Mg      -3.13430155       5.06771634      23.14980207
Mg       4.81108862       0.13542635       6.66587266
Ni       4.48764707       0.70842503      23.14865147
Mg       2.13123764       4.50435835       6.73537264
Mg       1.88714712       5.06540647      23.16644477
Mg      -0.17168347       0.37436170       9.83482511
Mg      -0.53902249       0.84978126      26.36096652
Mg      -2.87297564       4.60673282       9.88562452
Mg      -3.14815328       5.26463427      26.25936440
Mg       4.71023053       0.30740869       9.86387261
Mg       4.39345504       0.84294309      26.30014151
Mg       2.12231867       4.58613658       9.74064222
Mg       1.80002188       5.12079029      26.24760864
Mg      -0.08439191       0.16202271       1.62217141
Mg      -0.32278156       0.68030662      17.98504165
Mg      -2.75886742       4.30770356       1.56433778
Ni      -3.00286248       4.84996216      18.05454479
Mg       4.92909193       0.03146215       1.52892325
Mg       4.57517514       0.55749253      18.01880177
Mg       2.28211949       4.38989733       1.61841964
Mg       1.91889481       4.92530300      18.09276765
Ni       2.40794798       1.54652967       2.57604798
Mg       2.01341964       2.05841712      18.99130087
Mg      -0.26963783       5.82382790       2.55510117
Mg      -0.59674977       6.30203280      19.11523789
Mg       7.35068808       1.34221947       2.56141031
Ni       7.00166882       2.03916258      19.09610955
Mg       4.69599274       5.66780797       2.61494386
Mg       4.40061878       6.27991527      19.17362966
Mg      -0.40819152       3.15671903      10.76184605
Mg      -0.63851583       3.87980553      27.37840688
Mg      -2.99320474       7.57971966      10.84936866
Mg      -3.35382100       8.05424180      27.34479140
Mg       4.59198851       3.14480649      10.69234629
Mg       4.31653138       3.75497516      27.31138168
Mg       1.95617587       7.52084068      10.86049750
Mg       1.57717448       8.04770799      27.32433627
Mg       2.28464893       1.67474416       5.67303119
Mg       1.94596718       2.19380004      22.17556760
Mg      -0.36209588       5.90208293       5.70099199
Mg      -0.78775546       6.50875984      22.12232330
Mg       7.40181192       1.53772667       5.67544971
Mg       4.64361206       5.79695230       5.70620588
Mg       4.33612314       6.45551888      22.25529605
Mg      -0.44772394       3.32039792      13.94891214
Mg      -0.70917677       3.80349023      30.44007969
Mg      -3.10591716       7.62863965      14.00354911
Mg      -3.41776744       8.18823155      30.35523627
Mg       4.59894400       3.22181082      14.02051565
Mg       4.16317419       3.79370534      30.43263918
Mg       1.93617537       7.54103891      14.00856292
Mg       1.57731149       8.19297995      30.36428451
Ni       2.18311044       1.86608133      14.48439710
Ni       1.72847763       2.42732615      30.86903939
Ni      -0.50017710       6.25657193      14.43715317
Ni      -0.89014099       6.82042147      30.90845567
Ni       7.20799007       1.85928550      14.39507835
Ni       6.73038715       2.37820488      30.99062029
Ni       4.45080923       6.19308918      14.51950734
Mg       4.11751453       6.58530480      31.03247451
Ni      -0.16855730       3.03789851       6.20407976
Ni      -0.60210234       3.58171776      22.67857657
Ni      -2.90629188       7.40330255       6.17494478
Ni      -3.20044135       8.00849316      22.70298880
Mg       4.69622527       3.03211085       6.18655196
Ni       4.41717788       3.55929203      22.78976970
Ni       2.13434090       7.38062290       6.24861103
Ni       1.77951168       7.89576653      22.79921921
Ni       2.22781213       1.62821367      10.22607407
Ni       1.79932333       2.24807741      26.89955122
Ni      -0.40901750       6.12444434      10.38109800
Ni      -0.70084302       6.48378824      26.81080458
Ni       7.12189358       1.64509427      10.40935275
Ni       6.78395412       2.20302523      26.80507109
Ni       4.46847222       6.09735833      10.31352313
Ni       4.21388867       6.52539958      26.90450670
Ni      -0.17789975       2.93149404       2.07108288
Ni      -0.58937789       3.47537188      18.62847505
Ni      -2.74555945       7.37461321       2.11148491
Ni      -3.10392319       7.87180277      18.57994073
Ni       4.73483880       2.88355432       2.07689488
Ni       4.44242645       3.41304200      18.59891932
Ni       2.17379363       7.17506636       2.07626154
Ni       1.74153048       7.74735932      18.59423570
Ni       2.08974263       3.20377181      12.47995117
Ni       1.84573819       3.78022674      28.87210216
Ni      -0.54480819       7.49812991      12.33886915
Ni      -0.85565848       8.10664827      28.87441221
Ni       7.13992079       3.15888657      12.38435366
Ni       6.81419352       3.61899757      28.86243924
Ni       4.46217560       7.44942587      12.51108988
Ni       3.98866164       8.04358184      28.94545556
Ni       3.36417868       1.01809798      12.43870336
Ni       3.10021147       1.63251898      28.81294352
Ni       0.79381715       5.40147674      12.30823698
Ni       0.42582228       5.95394326      28.95499643
Ni       8.39235764       0.97401692      12.37659236
Ni       8.04976304       1.50484223      28.83605738
Ni       5.80053067       5.31897675      12.46955645
Ni       5.37280869       5.94285751      28.91902795
Ni       1.06345009       3.75988841       4.23527650
Ni       0.68906788       4.27722873      20.61892902
Ni      -1.61165907       8.05324734       4.21772170
Ni      -1.95329881       8.59297826      20.65059985
Ni       6.00056513       3.63847899       4.12711588
Ni       5.67427745       4.18943553      20.69620642
Ni       3.32719290       7.97898696       4.11936366
Ni       3.05016001       8.56651456      20.61766234
Ni       0.90497386       1.02857907      12.35000036
Ni       0.52234757       1.64619154      28.87512912
Ni      -1.70788154       5.45835895      12.36434431
Ni      -2.07431593       5.95079432      28.85512716
Ni       5.85735278       0.99881132      12.30722066
Mg       5.59090361       1.63179102      28.92986793
Ni       3.20514343       5.38024086      12.42085519
Ni       2.95222181       5.81782253      28.94308872
Ni      -0.17772156       1.53390843       4.15603215
Ni      -0.55059328       2.11763158      20.68001577
Ni      -2.79987445       5.88520493       4.13791792
Ni      -3.09679319       6.43387648      20.59693753
Ni       4.82369037       1.61785187       4.01117075
Ni       4.50860929       2.12086184      20.59591069
Ni       2.24345612       5.88719188       4.10769989
Ni       1.80955719       6.41446801      20.57440183
Ni      -1.39987727       3.76830173       4.23833911
Mg      -1.84894686       4.37006536      20.61020682
Ni      -4.08205465       8.02879148       4.19724792
Ni      -4.41717563       8.64085244      20.66099842
Ni       3.56940576       3.62178176       4.17373791
Ni       3.12607085       4.27147691      20.60674494
Ni       0.90046928       7.95819282       4.15385021
Ni       0.50553706       8.61041947      20.72412536
Ni       2.44999066      -0.05548356       0.02285710
Mg       2.14499987       0.49672863      16.47102514
Ni      -0.17811790       4.29297936       0.09199852
Ni      -0.54454890       4.84063871      16.50906874
Ni       7.52255473      -0.15710891       0.02581258
Ni       7.10052347       0.50367577      16.61492051
Ni       4.76195846       4.30547118       0.12246208
Ni       4.52521139       4.69633428      16.49492467
Ni       1.10436774       2.09708426       0.05166685
Ni       0.82479348       2.60379469      16.52954302
Ni      -1.65112865       6.55209591       0.07543466
Ni      -1.84485781       7.09196714      16.53438102
Ni       6.07067046       1.91782686       0.05191242
Ni       5.75136072       2.57257909      16.52651497
Ni       3.45179719       6.47210891       0.09886048
Ni       3.12209517       6.83503911      16.57400274
Ni      -1.50476183       2.36092115       8.29868856
Ni      -1.83489737       2.89324601      24.75014945
Ni      -4.15670367       6.81963417       8.20512517
Ni      -4.38927720       7.25921473      24.68019666
Ni       3.45459386       2.32697946       8.28399972
Ni       3.11610235       2.92060284      24.67486406
Ni       0.77252315       6.65737865       8.29852687
Ni       0.45300338       7.20887410      24.76760804
Ni       2.24511606       0.22548475       8.22724871
Ni       1.89062138       0.79710240      24.76836839
Ni      -0.21312520       4.56968343       8.40599656
Ni      -0.68126041       5.19572677      24.77949318
Ni       7.30274228       0.22246823       8.28948497
Ni       6.95688228       0.75657275      24.86948758
Ni       4.60709666       4.51325763       8.35352352
Ni       4.32164342       5.11640672      24.85261600
Ni      -1.31581740       2.17473540      -0.00141843
Ni      -1.75438980       2.72613612      16.46166016
Ni      -4.07817953       6.48615640       0.02636206
Ni      -4.33362440       7.00543775      16.43496137
Ni       3.64578753       2.06080880       0.09155987
Ni       3.25775038       2.65312647      16.49742052
Ni       0.98206119       6.43673024       0.06557277
Ni       0.64400799       7.03214318      16.57446453
Ni       1.03197027       2.42438646       8.19381716
Ni       0.64737281       2.99217045      24.69650931
Ni      -1.68787180       6.77039270       8.24660333
Ni      -2.07788402       7.20213387      24.68741312
Ni       5.96718661       2.25152193       8.40410061
Ni       5.65361975       2.84621007      24.75609475
Ni       3.25156492       6.63810043       8.32166183
Ni       2.96658350       7.12950436      24.72733875
