188
Lattice="10.145425145829224 -0.3210955941178946 -0.03327111574805333 -5.213543931686762 8.560713704124929 0.05561461476231733 -0.37280754362622853 -0.16691658246630894 32.29833473798806" Properties=species:S:1:pos:R:3 pbc="T T T"
Mg      -0.13679637      -0.08501222      14.69850740
Mg      -0.31168568      -0.09966394      30.81727247
Mg      -2.71538631       4.14993054      14.63630328
Mg      -2.98158145       4.19664062      30.78858693
Mg       4.87488092      -0.24304051      14.67091746
Mg       4.77385308      -0.33559810      30.76065763
Mg       2.31305315       4.01181031      14.68085296
Mg       2.10090897       3.88963006      30.67642434
Mg      -0.00647252      -0.06471798       6.54388206
Mg      -0.26088647      -0.12222960      22.70830286
Mg      -2.70659443       4.29162584       6.67761922
Mg      -2.88845955       4.10183201      22.80130548
Mg       4.94559672      -0.21268150       6.56323796
Mg       4.80103471      -0.32750653      22.72984361
Mg       2.37976215       4.07297181       6.53892055
Mg       2.19523063       4.07963049      22.67995476
Mg      -0.00705053      -0.00634179       9.58230821
Mg      -0.26169085      -0.15677258      25.70501377
Mg      -2.72489465       4.23151112       9.63573686
Mg      -2.88862853       4.15468558      25.74362675
Mg       5.00552992      -0.20845861       9.60733942
Mg       4.77586302      -0.32487433      25.73387415
Mg       2.30934876       4.11870775       9.57137624
Mg       2.20474303       4.07272221      25.78183232
Mg      -0.05392714       0.03326780       1.54266602
Mg      -0.20088468      -0.11717802      17.59611869
Mg      -2.69715946       4.28604893       1.50988394
Mg      -2.82769041       4.17518971      17.75027408
Mg       5.16568456      -0.18337773       1.45526148
Mg       4.82696308      -0.26696911      17.61846367
Mg       2.42467948       4.10972359       1.53121122
Mg       2.15199262       3.98567031      17.61329869
Mg       2.47113807       1.37319501       2.51915886
Mg       2.27522124       1.22996660      18.64174842
Mg      -0.17084541       5.61682206       2.52655744
Mg      -0.37599891       5.59499415      18.67957738
Mg       7.57908409       1.12664706       2.54237879
Mg       4.98662943       5.43772989       2.60475209
Ni       4.71760078       5.23696285      18.60874496
Mg      -0.18754848       2.69201775      10.64524223
Mg      -0.38334679       2.70613948      26.81394176
Mg      -2.80697657       7.09420791      10.59560046
Ni      -2.95803104       6.87992748      26.73224553
Mg       4.96479524       2.60365325      10.62029052
Mg       4.64070399       2.56667605      26.82114380
Mg       2.27931802       6.82055414      10.72393097
Mg       2.07360414       6.80177950      26.79119812
Mg       2.47893986       1.23104408       5.44704191
Mg       2.30911670       1.19824862      21.66046720
Mg      -0.15575293       5.48872673       5.60524297
Mg      -0.39323750       5.46342100      21.70861269
Mg       7.50588009       1.04153135       5.53496498
Mg       7.30966614       1.09024014      21.68642237
Mg       4.93480850       5.36230820       5.58185730
Mg       4.74320259       5.25791526      21.70028319
Mg      -0.23250042       2.64333481      13.61407781
Mg      -0.46527283       2.63183546      29.83669064
Mg      -2.73194749       6.95622842      13.57855567
Mg      -3.03254122       6.87379452      29.72512990
Mg       5.00422958       2.61656736      13.63221871
Mg       4.66391121       2.51102967      29.79969478
Mg       2.30288429       6.73671841      13.63249747
Mg       2.08608581       6.73369054      29.78604384
Ni       2.44770356       1.31680870      14.15990614
Ni       2.09474811       1.16637759      30.21616821
Ni      -0.24905819       5.57414806      14.25366784
Ni      -0.34638295       5.41225532      30.24845483
Ni       7.47830046       1.07429353      14.13383428
Ni       7.19354505       0.90843959      30.23334625
Ni       4.82667277       5.34936028      14.21968156
Ni       4.67159808       5.33791907      30.27198207
Ni      -0.08665749       2.70639680       6.10139807
Ni      -0.32146966       2.69052595      22.24949232
Ni      -2.67508297       7.05007456       6.18210593
Ni      -2.98477576       6.99521137      22.23459155
Ni       4.88507060       2.67299794       5.99898340
Ni       4.72104589       2.51669966      22.18906833
Ni       2.42220196       6.84697024       6.19082486
Ni       2.15222559       6.80568263      22.25597860
Ni       2.39650771       1.31209267      10.07161141
Ni       2.23439873       1.21467961      26.27998244
Ni      -0.24047625       5.48903375      10.17592257
Ni      -0.38846598       5.49795642      26.22035730
Ni       7.47599042       1.16216089      10.00820871
Ni       7.29924109       1.04388816      26.24945040
Ni       4.81680671       5.43398133      10.21904177
Ni       4.73021321       5.25591179      26.21146571
Ni       0.00646426       2.75249161       2.06986314
Ni      -0.26099851       2.67855370      18.15953618
Ni      -2.67756231       7.12934249       2.10143187
Ni      -2.81368718       6.94371449      18.22271604
Ni       4.94532531       2.67667789       1.92458606
Ni       4.83970989       2.54463357      18.10264177
Ni       2.43807017       6.78576991       2.01305801
Ni       2.22575531       6.78023732      18.13961346
Ni       2.37467941       2.55535879      12.17815158
Ni       2.14716241       2.59153573      28.23631086
Ni      -0.28118169       6.86126305      12.09322305
Ni      -0.51237958       6.92119581      28.28263275
Ni       7.22081666       2.40424035      28.18596900
Ni       4.89414152       6.80951439      12.14529931
Ni       4.49541974       6.77045764      28.25352793
Ni       3.64383260       0.52508760      12.13903496
Ni       3.37206937       0.37154886      28.29462282
Ni       1.05697824       4.79665941      12.09158078
Ni       0.82913461       4.77577030      28.35914178
Ni       8.64081576       0.46856618      12.02268351
Ni       6.11229718       4.66215946      12.13773429
Ni       5.98241287       4.48590217      28.32868840
Ni       1.13640927       3.46300797       4.04411602
Ni       0.99678648       3.42192473      20.13818925
Ni      -1.43447301       7.69146047       4.12540582
Ni      -1.62218570       7.60169761      20.18728742
Ni       6.13512762       3.26168062       4.03431132
Ni       6.07210344       3.22151646      20.18376617
Ni       3.60669892       7.66716630       4.04454917
Ni       3.47576180       7.46840184      20.23522296
Ni       1.16348814       0.58587299      12.14768453
Ni       0.93531530       0.43360183      28.23243078
Ni      -1.47145226       4.84752919      12.11096799
Ni      -1.67252533       4.83805819      28.38874630
Ni       6.04564395       0.42499638      12.05813090
Ni       5.95582021       0.35537010      28.21151842
Ni       3.53679375       4.74299518      12.04038060
Ni       3.44165646       4.69039430      28.35526089
Ni      -0.03710341       1.37837052       4.04079431
Ni      -0.38406314       1.38960180      20.13298007
Ni      -2.71748329       5.67177288       4.12085648
Ni      -2.83369015       5.53732700      20.30761620
Ni       4.98538890       1.17467752       4.02534107
Ni       4.85874495       1.10202471      20.20589858
Ni       2.31630516       5.54008727       4.09783987
Ni       2.13753659       5.35026260      20.30790112
Ni      -1.34522172       3.49944559       4.10087933
Ni      -1.46170173       3.43310054      20.19403755
Ni      -3.93457204       7.78278423       4.14696761
Ni      -4.24942336       7.76813384      20.30027244
Ni       3.61016152       3.34652356       4.05796141
Ni       3.52361138       3.26962877      20.27741894
Ni       1.02849711       7.67099000       4.08415954
Ni       0.91100301       7.61277593      20.09955647
Ni       2.55091669      -0.12033927      -0.08834817
Ni       2.33387826      -0.20337541      16.03464924
Ni      -0.08912297       4.25970323       0.00298291
Ni      -0.22739761       4.20727198      16.12760715
Ni       7.60328819      -0.26540006      -0.04537620
Ni       7.57316774      -0.35891844      16.17301972
Ni       5.01999935       4.04728378      -0.04037812
Ni       4.87645688       3.91499580      16.19966944
Ni       1.22127052       2.01119299       0.06673010
Ni      -1.38111129       6.33212873       0.06921141
Ni      -1.56651315       6.25853745      16.20919404
Ni       6.22762050       1.96003728       0.01386546
Ni       6.05384785       1.73882487      16.11089549
Ni       3.72952534       6.08978753       0.05715950
Ni       3.51843578       6.17619700      16.15416155
Ni      -1.52724870       2.09612460       8.09288774
Ni      -1.56535193       1.97620718      24.23021842
Ni      -4.05215900       6.37540087       8.02173952
Ni      -4.12951585       6.34065748      24.18537061
Mg       3.74930197       1.95050871       8.03592513
Mg       3.49891581       1.79439543      24.27617759
Ni       1.05785345       6.17557626       8.06087757
Ni       0.84687956       6.17754324      24.19405348
Ni       2.44837490      -0.12692664       8.05678870
Ni       2.23704037      -0.19872671      24.24580444
Ni      -0.18085144       4.19296018       8.00979188
Ni      -0.38231695       4.10502388      24.24243339
Ni       7.50610627      -0.30830532       8.03632399
Ni       7.19195214      -0.31289380      24.21476302
Ni       4.93661712       3.89304015       8.10969407
Ni       4.80063424       4.08424574      24.22138928
Ni      -1.29817808       2.05089793      -0.03477802
Ni      -1.46403654       2.09242605      16.09496670
Ni      -3.91505820       6.41994328       0.04686715
Ni      -4.09373456       6.40626978      16.29082142
Ni       3.82933716       1.93356907       0.05962093
Ni       3.50801324       1.95747953      16.21001678
Ni       1.21174201       6.21272591      -0.00696996
Ni       1.02648409       6.17174774      16.17062435
Ni       1.17266817       1.96885340       8.11862575
Ni       0.96696451       1.94555331      24.18418741
Ni      -1.45772745       6.32887879       8.09280846
Ni      -1.60669916       6.30865372      24.19289025
Ni       6.27013494       1.87420054       8.08357705
Ni       5.86264267       1.81159027      24.29429548
Ni       3.57967348       6.10501706       8.10281054
Ni       3.45804510       6.04754520      24.31030979
