190
Lattice="10.038803752802684 -0.1466537853741951 -0.10735762396977994 -5.172295977955677 8.504229774265243 0.28975304584662787 -0.5141148923801354 -0.12872874406224866 31.9393170258223" Properties=species:S:1:pos:R:3 pbc="T T T"
Mg      -0.18300532      -0.05131826      14.51107551
Mg      -0.46060024      -0.16771509      30.52971664
Mg      -2.73993811       4.19654875      14.51371733
Mg      -3.02068314       4.12733351      30.64549136
Mg       4.82763015      -0.17816454      14.46309846
Mg       4.54861054      -0.18066663      30.42760698
Mg       2.14623887       4.10458849      14.59647931
Mg       1.82183900       4.09686919      30.64280313
Mg      -0.09576470      -0.05412725       6.43342138
Mg      -0.35614195      -0.09814890      22.52561742
Mg      -2.61197228       4.27963380       6.61673699
Mg      -2.89787326       4.18638530      22.54092282
Ni       4.96395893      -0.03770551       6.46730651
Ni       4.67620203      -0.18654984      22.37342092
Mg       2.29105565       4.14911246       6.57349547
Mg       2.04510785       4.22494910      22.57252668
Mg      -0.22866721      -0.05659243       9.49547224
Mg      -0.45243905      -0.13744499      25.53655863
Mg      -2.67741800       4.16225754       9.66997991
Mg      -2.99677621       4.08351370      25.62398834
Mg       4.88929874      -0.12391045       9.36114629
Mg       4.57188822      -0.15742938      25.45887099
Mg       2.19706789       4.13397890       9.60036334
Mg       1.98724025       4.11492143      25.55294612
Mg      -0.07297165      -0.01751372       1.51539529
Mg      -0.30024342      -0.07030817      17.48536719
Mg      -2.52839112       4.27438768       1.72352316
Mg      -2.88821415       4.18628878      17.76098605
Mg       4.93570811      -0.10542734       1.40703835
Mg       4.66094704      -0.18536832      17.41750490
Mg       2.37771950       4.17244295       1.60626844
Ni       2.16758608       4.07931935      17.56647128
Mg       2.48533182       1.42226794       2.43437328
Ni       2.16591926       1.27067149      18.50477253
Mg      -0.13131536       5.64202576       2.66947984
Mg      -0.46358167       5.63644903      18.61061744
Mg       7.44985615       1.21375876       2.44075771
Mg       7.19012110       1.29961498      18.46945539
Mg       4.91825315       5.52968281       2.60737666
Mg       4.54354801       5.53275113      18.55208366
Mg      -0.27627926       2.73284590      10.59109285
Mg      -0.41342328       2.74168907      26.50921501
Mg      -2.78085191       6.96887296      10.57798722
Mg      -3.05350992       6.97733981      26.60852277
Mg       4.82578435       2.73627729      10.60091561
Mg       4.55107975       2.69195189      26.48326511
Mg       2.30589814       6.91295308      10.68886084
Mg       1.98807306       6.86234146      26.68799691
Ni       2.45248109       1.26985127       5.52357717
Mg       2.14808413       1.27550132      21.56112032
Mg      -0.25051369       5.57687746       5.63241387
Ni      -0.54108080       5.60483926      21.56397199
Mg       7.40780131       1.28016158       5.38454651
Mg       7.12998463       1.19956461      21.42368790
Mg       4.85903045       5.51223208       5.61325508
Mg       4.59026517       5.45969833      21.50793092
Mg      -0.14527906       2.76270719      13.54506450
Mg      -0.58808528       2.72316598      29.56676282
Mg      -2.89832249       7.06552947      13.68476456
Mg      -3.03751610       6.90423534      29.60007023
Mg       4.76200852       2.67119593      13.55509552
Mg       4.55190134       2.64423831      29.42154170
Mg       2.19267227       6.99369046      13.67352773
Mg       1.87096425       6.85982022      29.63640629
Ni       2.23649743       1.37587923      13.98768318
Ni       2.04339204       1.23358937      29.91477540
Ni      -0.27658695       5.55823776      14.21381388
Ni      -0.52727818       5.53576927      30.08878949
Ni       7.26831205       1.29855069      13.97235948
Ni       7.04022747       1.16593845      29.90590022
Ni       4.71826945       5.57708235      14.05898414
Ni       4.38598395       5.50826077      30.11856071
Ni      -0.21090140       2.76380418       6.00628631
Ni      -0.35742755       2.72291672      22.01701276
Ni      -2.78350444       6.98338531       6.22372695
Ni      -2.96178276       6.96317014      22.20432318
Ni       4.80348159       2.70217959       6.02116688
Ni       4.66416449       2.68558444      21.86131311
Ni       2.31870800       6.86284770       6.08810633
Ni       2.15000138       6.90377961      22.13531210
Ni       2.33043503       1.40699180      10.06389298
Ni       2.15895197       1.33584716      25.98278415
Ni      -0.31930136       5.74074325      10.19274918
Ni      -0.52144597       5.49225583      26.04115188
Ni       7.33912343       1.31040542      10.02597237
Mg       7.01125815       1.20992773      25.95448510
Ni       4.73829140       5.55321876      10.07900124
Ni       4.46662177       5.37764090      26.03751049
Ni      -0.02269687       2.77418439       2.12170758
Ni      -0.28968108       2.70676100      18.04276968
Ni      -2.58910686       6.99914850       2.19104044
Ni      -2.84565303       7.00677162      18.12661964
Ni       4.66835086       2.56723418      17.99047082
Ni       2.31025293       6.96126160       2.06367669
Ni       2.02869374       6.94053032      18.06014461
Ni       2.42791624       2.80023532      12.06091114
Ni       1.96981241       2.63669662      28.03714715
Ni      -0.27514080       6.93156673      12.17101654
Ni      -0.61342608       6.79970220      28.23919534
Ni       7.26174928       2.67621734      12.00527254
Ni       7.04978152       2.55000276      27.93061789
Ni       4.73043166       6.88163809      12.08201177
Ni       4.47598532       6.82071957      28.08813685
Ni       3.56968330       0.58404358      12.00397730
Ni       3.27964485       0.55637717      27.96472089
Ni       0.98870845       4.89995701      12.03143069
Ni       0.74256340       4.83292411      27.98092517
Ni       8.55246573       0.61489340      11.88688837
Ni       8.30007233       0.44191133      27.89688976
Ni       5.97998337       4.76808008      12.01300723
Ni       5.76065407       4.70844080      28.03154245
Ni       1.12082575       3.43587820       4.02648291
Ni       0.81198586       3.43950023      20.11390815
Ni      -1.47370307       7.77570512       4.15526878
Ni      -1.73786272       7.68638375      20.28739575
Ni       6.14294454       3.56071117       4.00754898
Ni       5.93588406       3.34344045      20.02589797
Ni       3.41970573       7.60471578       4.13970135
Mg       3.39539315       7.56445234      20.13673807
Ni       1.08123745       0.68513641      12.04338607
Ni       0.72747721       0.55010879      28.00551510
Ni      -1.56984543       4.88432813      12.10438332
Mg      -1.82280268       4.83062127      28.06970187
Ni       6.01105762       0.49288404      11.97177258
Ni       5.87372021       0.41217417      27.86703895
Ni       3.48356351       4.85762595      12.09342639
Ni       3.26001421       4.75789303      27.99257819
Ni      -0.10758425       1.46746129       4.02907004
Ni      -0.46755109       1.28121812      20.05067402
Ni      -2.79708686       5.61353360       4.27505550
Mg      -2.97709613       5.53666014      20.13586958
Ni       5.03177963       1.37687767       3.93595226
Ni       4.60140815       1.18701856      19.92040432
Ni       2.27420879       5.52248805       4.08337433
Ni       2.06413565       5.49575394      20.10728570
Ni      -1.48942612       3.56111565       4.09153442
Ni      -1.55938434       3.39355064      20.04199969
Ni      -3.96495348       7.71563619       4.29549936
Ni      -4.23588873       7.78285985      20.15120649
Ni       3.62945475       3.46984273       3.99481871
Ni       3.27962389       3.35467851      20.00153223
Ni       1.09171506       7.72047342       4.13980569
Ni       0.75256599       7.55842618      20.06905255
Ni       2.50699149      -0.01574455       0.04254947
Ni       2.27005584      -0.13338477      16.04217389
Ni      -0.05663292       4.22140415       0.06924383
Ni      -0.35892925       4.13150675      16.07342802
Ni       7.49783080      -0.14339139      -0.08414772
Ni       7.22875791      -0.21639064      15.96380343
Ni       4.90645569       4.17521951       0.07183017
Ni       4.63359919       4.02124541      16.11130072
Ni       1.25074836       2.08540567       0.09923463
Ni       1.02815810       1.97136462      15.92791613
Ni      -1.29662395       6.37396403       0.22853558
Ni      -1.61807101       6.22594010      16.24360897
Ni       6.23249988       1.98483795       0.00300960
Ni       5.94374467       1.93516974      15.92678194
Ni       3.55654749       6.23976370       0.22199604
Ni       3.42528794       6.22617506      16.15581464
Ni      -1.47675479       2.09889750       8.13481563
Ni      -1.69641747       2.01799966      24.09934655
Ni      -3.96522512       6.31987023       8.27104324
Ni      -4.23719721       6.21835786      24.13888809
Ni       3.61538477       2.04664558       8.11425167
Mg       3.38623767       2.01021814      23.98901895
Ni       1.03387799       6.22889410       8.15501033
Ni       0.80331611       6.18705025      24.13705366
Ni       2.42518261      -0.11417591       7.96404633
Ni       2.04027717      -0.10440714      23.98532686
Ni      -0.18389786       4.24851869       8.12693108
Ni      -0.43802790       4.05940788      24.04346422
Ni       7.32851062      -0.16122826       8.04662953
Ni       7.08061994      -0.21377020      23.88423825
Ni       4.81712688       4.05843262       8.19835451
Ni       4.51666226       4.01532640      24.08210601
Ni      -1.23171244       2.11227305       0.12245723
Ni      -1.52295682       2.08291243      16.14694627
Ni      -3.84359883       6.47690658       0.12923820
Ni      -4.10878410       6.35710679      16.16633143
Ni       3.73536680       2.02522991       0.04061296
Ni       1.23755459       6.31589384       0.26877260
Ni       0.87644226       6.20906894      16.19081726
Ni       1.11502274       1.98601367       8.00385489
Ni       0.75942428       1.89130024      24.08056926
Ni      -1.44972321       6.23184357       8.09750791
Ni      -1.67671781       6.22812150      24.16363200
Mg       6.08987183       1.94391504       7.97525075
Ni       5.97089023       1.93649425      23.98640900
Ni       3.51443060       6.23740434       8.09993862
Ni       3.30050785       6.17951353      24.16889748
