192
Lattice="9.815106852539113 0.21405673876228823 -0.07414137411478479 -4.656039431701081 8.379655358365724 -0.09015088198104462 0.2268474751620229 1.033206342242127 32.53540281881071" Properties=species:S:1:pos:R:3 pbc="T T T"
Mg       0.10352929       0.46456760      14.73200112
Mg       0.19696430       0.95596470      31.02750676
Mg      -2.24245310       4.65323848      14.61884246
Mg      -2.12319074       5.13175183      30.99073585
Mg       5.01352615       0.64050062      14.70796627
Mg       5.17332220       1.09601113      30.95196300
Mg       2.70472699       4.73498295      14.54730194
Mg       2.74413696       5.23420187      30.90915437
Mg       0.03142271       0.21749559       6.68253838
Mg       0.17531094       0.66089854      22.83579377
Mg      -2.33127299       4.35105021       6.53270451
Mg      -2.11084751       5.01373366      22.84581690
Mg       5.00659448       0.30499404       6.57167696
Mg       5.03869341       0.73929366      22.87213817
Mg       2.55475720       4.43692122       6.54292521
Mg       2.74456848       4.98769453      22.83988292
Mg       0.08853120       0.28549475       9.62356261
Ni       0.16408374       0.87440905      26.00105098
Mg      -2.32027206       4.59243845       9.64321403
Mg      -2.12270465       5.08411808      25.92993211
Mg       4.92910995       0.37981749       9.62618455
Mg       5.13845182       0.95791834      25.84408195
Mg       2.64625914       4.61870626       9.50787785
Mg       2.73080741       5.03966779      25.87882345
Mg       0.05572027       0.01918137       1.46002584
Mg       0.13470517       0.64166424      17.78733083
Mg      -2.32449376       4.19813646       1.46083159
Mg      -2.17188686       4.70691969      17.74108144
Mg       4.91815291       0.14427816       1.49079684
Mg       5.06786034       0.65783240      17.73547107
Mg       2.46546825       4.39892714       1.45107835
Mg       2.69603048       4.86980363      17.74822768
Mg       2.42007339       1.53651376       2.47178702
Ni       2.59962504       2.06584364      18.79338520
Mg       0.21219537       5.72952435       2.48387085
Mg       0.35516915       6.23143484      18.71313252
Mg       7.45157141       1.66100941       2.39119664
Mg       7.48786081       2.09067264      18.73240168
Mg       5.00851341       5.80887062       2.37683530
Mg       5.25197498       6.41125709      18.58145549
Mg       0.18232252       3.17563342      10.56884640
Mg       0.27571607       3.64050408      26.84991515
Mg      -2.24879969       7.42154037      10.64181223
Ni      -2.08751486       7.82919482      26.86994620
Mg       5.07122704       3.33670220      10.62990267
Mg       5.10473231       3.73429892      26.92239267
Mg       2.73640673       7.52489358      10.54456418
Mg       2.92083156       8.00816102      26.84063485
Mg       2.47088719       1.65334451       5.45183663
Mg       2.59645050       2.24888695      21.89562516
Ni       0.25211908       5.84554928       5.60109974
Mg       0.33397156       6.39412307      21.77700362
Mg       7.36137949       1.82107458       5.55466795
Mg       7.56308012       2.22680191      21.82670575
Mg       5.08910578       6.02203626       5.55342727
Mg       5.25729062       6.43243334      21.72000905
Mg       0.20895107       3.33257530      13.77266045
Mg       0.34028187       3.78430021      29.95990089
Mg      -2.21580143       7.44076952      13.61254257
Mg      -2.07390487       8.04638255      29.87324791
Mg       5.13901513       3.39013137      13.59381518
Mg       5.17329432       3.95974366      29.94188252
Mg       2.72088264       7.55013982      13.62903754
Mg       2.87985302       8.10121749      29.93542490
Mg       2.64404642       1.93371204      14.23528808
Ni       2.73199970       2.42378108      30.45640137
Ni       0.28730162       6.08629393      14.23101819
Ni       0.42988368       6.66587077      30.50469625
Ni       7.48352912       1.96852009      14.15612428
Ni       7.66188720       2.56182347      30.41722484
Ni       5.25131897       6.14296364      14.07579364
Ni       5.23651371       6.69264553      30.45522855
Ni       0.07388789       3.06555103       6.00919604
Ni       0.24497061       3.55518380      22.36751446
Ni      -2.20231708       7.27209108       5.95653076
Ni      -2.07786737       7.69232045      22.39443162
Ni       5.11968641       3.18364933       6.11308704
Ni       5.18982243       3.63656147      22.27368919
Ni       2.76908293       7.36514976       5.94312287
Ni       2.83044969       7.85598036      22.25645352
Ni       2.66272606       1.69301173      10.15087789
Ni       2.72545342       2.22849129      26.39309950
Ni       0.27090368       5.98497839      10.17720923
Ni       0.33044385       6.58676737      26.22381222
Ni       7.44431280       1.85119566      10.12023346
Ni       7.68852194       2.45706501      26.47283169
Ni       5.15860969       6.05745633      10.09636546
Ni       5.25307595       6.60568671      26.23871083
Ni       0.16903678       2.86819708       2.01894254
Ni       0.18908749       3.35727931      18.30883196
Ni      -2.13436555       7.15600102       1.95016370
Ni      -2.16851079       7.60000260      18.08686163
Ni       4.94696292       3.03798966       1.97765449
Ni       5.14525123       3.56850397      18.32205669
Ni       2.59283626       7.23822830       1.91432595
Ni       2.82080776       7.68551779      18.20123688
Ni       2.56458201       3.29540298      12.17448435
Ni       2.74569715       3.75441585      28.49664301
Ni       0.31795585       7.48525644      12.12197112
Ni       0.38239053       7.95673813      28.29261635
Ni       7.52506778       3.46108302      12.10199519
Ni       7.56810628       3.87122163      28.46418531
Ni       5.25965567       7.48427429      12.10247899
Ni       5.30100972       8.01609953      28.26621246
Ni       3.85284506       1.18557936      12.15086811
Ni       3.92065151       1.66598875      28.33220526
Ni       1.49532950       5.26344702      12.13229844
Ni       1.65847171       5.91513298      28.32762695
Ni       8.73480102       1.27490818      12.13052697
Mg       8.84655860       1.83940069      28.36850919
Ni       6.38783499       5.49057137      12.04480522
Ni       6.47304990       5.88491666      28.34270046
Ni       1.44180618       3.70938201       3.94319325
Ni       1.43921100       4.21661074      20.29399700
Ni      -0.93441463       7.78999246       3.95437519
Ni      -0.83024648       8.33057841      20.21756233
Ni       6.23966221       3.79275360       4.02042409
Ni       6.34990307       4.30648311      20.23543003
Ni       3.94837339       8.07446124       3.99295981
Ni       4.03292094       8.47575126      20.11528263
Ni       1.28220949       1.08293816      12.11172397
Ni       1.49640900       1.72819066      28.43893894
Ni      -0.90001045       5.23658128      12.06420742
Ni      -0.71760350       5.85661053      28.39525073
Ni       6.25812080       1.13159531      12.09358270
Ni       6.35863897       1.78204033      28.44095925
Ni       3.97864394       5.35971960      12.09575184
Ni       4.02636705       5.91911310      28.37932819
Ni       0.05092833       1.51098009       3.99284299
Ni       0.28939712       2.09986598      20.44315139
Ni      -2.25774650       5.70830749       4.00410280
Ni      -2.16211281       6.25289397      20.23887242
Ni       4.93691063       1.71628253       3.99408482
Ni       5.07440855       2.22746534      20.21606868
Ni       2.67399484       5.84097247       3.99581382
Ni       2.68083318       6.41431241      20.20002653
Ni      -1.09452838       3.61437376       3.95945699
Ni      -0.97598033       4.19767815      20.32726583
Ni      -3.39401810       7.85011524       4.04331452
Ni      -3.33484255       8.40454113      20.20861481
Ni       3.80817660       3.79916751       3.97621292
Mg       3.96884351       4.19108440      20.26049616
Ni       1.43571047       8.02862530       3.94218096
Ni       1.66594516       8.49276882      20.18055928
Ni       2.45867621       0.06033084       0.01880753
Ni       2.52343260       0.51620564      16.26247481
Ni       0.18753184       4.26655367      -0.04625243
Ni       0.22571452       4.69639905      16.16665695
Ni       7.32576659       0.09323766      -0.06612721
Ni       7.47931732       0.68012365      16.23007334
Ni       5.01709078       4.39647180      -0.10780040
Ni       5.11989970       4.88480754      16.15846487
Ni       1.35236002       2.24308272      -0.05251953
Ni       1.45215335       2.64811411      16.21821019
Ni      -1.18573709       6.35726901      -0.08659523
Ni      -1.04406288       6.87089157      16.17765610
Ni       6.14755849       2.23503126      -0.19925468
Ni       6.35904233       2.66144207      16.22324093
Ni       3.94807625       6.38162204      -0.11852497
Ni       3.92766156       6.90275276      16.10253226
Ni      -1.08449376       2.33430538       8.17769218
Ni      -0.95577903       2.88572601      24.39725890
Ni      -3.43585578       6.54470914       8.04437251
Ni      -3.37262700       7.10068104      24.30180457
Ni       3.81342085       2.38148548       8.07387144
Ni       3.99441622       2.96840992      24.27310179
Ni       1.59962570       6.72247192       8.07207447
Ni       1.57754291       7.12727027      24.28161416
Ni       2.51081593       0.34328334       8.08032663
Ni       2.58436994       0.84294838      24.35023628
Ni       0.09412252       4.50756175       8.05153295
Ni       0.25707389       5.05999612      24.29066995
Ni       7.40025322       0.41270552       8.07954187
Ni       7.53153845       0.94096926      24.40674840
Ni       5.13810097       4.62192950       8.06253818
Ni       5.19118648       5.21694903      24.30509214
Ni      -1.14450976       2.16122489      -0.10084695
Ni      -1.04630022       2.67883740      16.29572461
Ni      -3.54215899       6.24296858      -0.06165553
Ni      -3.40507528       6.79464777      16.20564900
Ni       3.73296187       2.12287154      -0.01705897
Ni       3.89578699       2.73545176      16.26383412
Ni       1.44068666       6.33610939      -0.07589990
Ni       1.53054353       6.75967474      16.15379496
Ni       1.33137527       2.41823488       8.09146239
Ni       1.48946837       2.93002061      24.39427930
Ni      -0.92999264       6.66805273       8.06549085
Mg      -0.83901456       7.07672259      24.41153085
Ni       6.17099739       2.48240328       7.99410233
Ni       6.32597912       3.02398356      24.24340776
Ni       3.80663871       6.73899617       8.12707637
Ni       4.04405917       7.21477555      24.17623057
