191
Lattice="9.821620922615265 0.18765081247282758 0.08713231875562212 -4.955597146304072 8.116327544192787 -0.16691126161468053 -0.13014942061446136 -1.2394732285752936 32.55638372756465" Properties=species:S:1:pos:R:3 pbc="T T T"
Mg      -0.01199402      -0.53977756      14.66932288
Mg      -0.10020415      -1.16811378      31.08375782
Mg      -2.60278540       3.46274005      14.71137017
Mg      -2.60994565       2.80645194      31.01065356
Mg       4.81414685      -0.48074510      14.82745195
Mg       4.76142592      -1.07144874      31.06080694
Mg       2.46402424       3.58709060      14.66541261
Mg       2.30242158       2.91117925      31.02119148
Mg       0.03882347      -0.24328994       6.62491054
Mg      -0.13671415      -0.90013491      22.81633944
Mg      -2.51771012       3.80327254       6.63441502
Mg      -2.60646669       3.20887520      22.84794237
Mg       4.86634886      -0.14662614       6.63521939
Mg       4.86381031      -0.83646565      22.94069164
Mg       2.37277229       3.87193116       6.57807772
Mg       2.20975850       3.29242379      22.91687931
Mg      -0.05694661      -0.46087411       9.61137053
Mg      -0.11740267      -1.02491739      25.93021241
Mg      -2.55262516       3.70160954       9.53440047
Mg      -2.56379329       3.07931555      25.90733271
Mg       4.88294730      -0.30813232       9.74961895
Mg       4.76568664      -0.87449791      25.97415394
Mg       2.39028018       3.74071004       9.58221912
Mg       2.35343631       3.17430334      25.99074956
Ni       0.04727320      -0.07537419       1.50821477
Mg      -0.06557335      -0.68477325      17.86872841
Mg      -2.49686857       4.05454970       1.43243621
Mg      -2.59831906       3.29060413      17.55832431
Mg       4.92702383       0.01412271       1.55293473
Mg       4.88746061      -0.55377780      17.76904615
Mg       2.46185167       4.12201017       1.42504406
Mg       2.33654858       3.53792439      17.84353465
Mg       2.51010736       1.43425338       2.51138921
Mg       2.44381888       0.66953629      18.76694256
Mg       0.01585214       5.36753871       2.50734439
Mg      -0.09377104       4.72051747      18.77416820
Mg       7.34811952       1.51630973       2.62222419
Mg       7.29737045       0.81814079      18.83139341
Mg       4.89965420       5.46777191       2.62913946
Mg       4.79161014       4.82663808      18.85471828
Mg       0.03108977       2.27316651      10.59364233
Mg      -0.00688727       1.75991459      26.87660700
Mg      -2.56578050       6.42889218      10.59666462
Mg       4.89396270       2.53295496      10.64821571
Mg       4.81027354       1.81736375      26.98572475
Mg       2.39446300       6.53501496      10.62229510
Mg       2.34119870       5.87094317      26.89149247
Mg       2.45485782       1.29157030       5.53697014
Mg       2.39739796       0.58933726      21.83707748
Mg      -0.12428332       5.25193408       5.57497288
Mg      -0.13797963       4.58488924      21.82457276
Mg       7.38438534       1.31201094       5.64432002
Mg       7.27200717       0.70690426      21.92700331
Ni       4.95455629       5.50178699       5.55277479
Ni       4.86606218       4.72889563      21.82824270
Mg      -0.16621835       2.18973445      13.65274796
Mg      -0.09511554       1.62960966      30.00695415
Mg      -2.52354725       6.29199760      13.52762078
Mg      -2.56904841       5.67253297      29.93732721
Mg       4.84088109       2.28710403      13.80676766
Mg       4.77945403       1.80364321      30.00185649
Mg       2.29324818       6.33635926      13.65921921
Mg       2.28469309       5.72722672      29.89779398
Ni       2.35729646       0.91586757      14.24896600
Ni       2.31369581       0.20717198      30.56503413
Ni      -0.07851289       5.01376881      14.21590668
Ni      -0.25582008       4.22900025      30.43121488
Ni       7.30852150       0.94506196      14.22378010
Ni       7.19772332       0.31078335      30.54079951
Ni       4.87482703       4.97856725      14.19574625
Ni       4.77866341       4.46351397      30.59072095
Ni       0.00069673       2.53591478       6.05538627
Ni      -0.09125511       1.81690746      22.35974266
Ni      -2.49743894       6.66552214       5.99481694
Ni      -2.67313424       5.87796234      22.17078674
Ni       4.90753222       2.58352062       6.12380895
Ni       4.84815820       1.92411758      22.37537823
Ni       2.40052249       6.56503921       5.88444077
Ni       2.30319573       6.09913784      22.31530564
Ni       2.37760288       0.97155785      10.18255749
Ni       2.37696399       0.40389153      26.44766982
Ni      -0.08964942       5.07535297      10.17887598
Ni      -0.11186399       4.49514385      26.41300299
Ni       7.25905233       1.14108530      10.19973621
Ni       7.29072976       0.51724586      26.47836586
Ni       4.79098462       5.08447941      10.11850003
Ni       4.71929522       4.54929978      26.41540536
Ni      -0.03104187       2.63925552       2.04469471
Ni      -0.16916484       2.02426432      18.25561243
Ni      -2.42938918       6.61345567       1.89944228
Ni      -2.74286660       6.14242689      18.16917014
Ni       4.97001031       2.71434814       1.93114212
Ni       4.88781708       2.17391577      18.33543996
Ni       2.35110228       6.78396016       1.88865981
Ni       2.27996552       6.14536096      18.24717886
Ni       2.43309268       2.36043337      12.16603755
Ni       2.25879902       1.67665789      28.51600633
Ni      -0.07989013       6.44445600      12.12042033
Ni      -0.17217331       5.80611037      28.42645669
Ni       7.19462206       2.38522949      12.24990095
Ni       7.19648721       1.78729363      28.48396592
Ni       4.84410316       6.53975086      12.12193681
Ni       4.80053833       5.84255930      28.35543673
Ni       3.66114177       0.29729766      12.18440400
Ni       3.51608855      -0.23608611      28.54083999
Ni       1.18069475       4.37196164      12.10242651
Ni       1.11240010       3.73402874      28.36971950
Ni       8.57485361       0.38348414      12.18497889
Ni       8.44392377      -0.22355778      28.48617346
Ni       6.03817646       4.44142965      12.33859843
Ni       6.03027698       3.81462538      28.48627494
Ni       1.19277537       3.40049364       3.96435912
Ni       1.15595986       2.67615409      20.22534262
Ni      -1.33687917       7.28505577       3.97825100
Ni      -1.38943069       6.73227650      20.21532006
Ni       6.12653954       3.38390032       4.14139043
Ni       6.05734961       2.73994799      20.35075906
Ni       3.62573667       7.43483678       3.96397623
Ni       3.52042193       6.73658476      20.24701625
Ni       1.13970876       0.20855550      12.31436546
Ni       1.09196414      -0.40879257      28.44973310
Ni      -1.27750882       4.31245060      12.17997786
Ni      -1.45500901       3.63203294      28.33224678
Ni       6.14804062       0.37275195      12.23037428
Ni       5.98018097      -0.17390073      28.51442697
Ni       3.65205416       4.38492580      12.20014175
Ni       3.43333763       3.77248828      28.42506315
Ni      -0.09767645       1.18799255       4.02784299
Ni       0.00831365       0.71197603      20.31330324
Ni      -2.49483711       5.15513318       3.97062812
Ni      -2.61928074       4.75284011      20.27477154
Ni       4.84291560       1.23183133       4.03751274
Ni       4.88866537       0.68179005      20.26059956
Ni       2.36897665       5.24232928       4.02057616
Ni       2.37403968       4.75289987      20.29777062
Ni      -1.23672368       3.34132954       3.96679048
Ni      -1.35853499       2.52344087      20.27861145
Ni      -3.75728700       7.30564852       3.82407056
Ni      -3.80758450       6.68389908      20.20750416
Ni       3.57640868       3.40021568       4.02217065
Ni       3.62530906       2.65787301      20.29524281
Ni       1.22455963       7.40885608       3.99316152
Ni       1.06039894       6.69442066      20.16009554
Ni       2.46353522       0.11654021       0.01616799
Ni       2.42746440      -0.61602973      16.22562289
Ni      -0.09210052       4.15418192      -0.07116509
Ni      -0.08206603       3.44785570      16.24161636
Ni       7.30672790       0.16843580       0.16177298
Ni       7.25802295      -0.34309972      16.31920983
Ni       4.96648821       4.17797975      -0.01510744
Ni       4.76000025       3.65686529      16.20908914
Ni       1.27771941       2.05572933      -0.03593107
Ni       1.18962327       1.52305414      16.25209477
Ni      -1.34367810       6.06940695      -0.13882746
Mg      -1.37030941       5.47093784      16.05611990
Ni       6.07498435       2.14438949      -0.06903960
Ni       5.99122271       1.56014795      16.32824392
Ni       3.65007710       6.22651405      -0.08190392
Ni       3.55477468       5.59570578      16.22233106
Ni      -1.29556736       1.69480616       8.04474981
Ni      -1.36289753       1.07941247      24.47350612
Mg      -3.76386856       5.75643906       7.98735967
Ni      -3.82332461       5.29593662      24.33389751
Ni       3.64451255       1.78488753       8.13888307
Ni       3.55625654       1.20281895      24.42729322
Ni       1.18544754       5.84894083       8.05549433
Ni       1.12791356       5.26418753      24.34950514
Ni       2.49144921      -0.17761253       8.21447866
Ni       2.33684696      -0.95663984      24.49944911
Ni      -0.01190547       3.77432433       8.05504395
Ni      -0.19222432       3.19645761      24.31189356
Mg       7.36702287      -0.07287375       8.06109751
Ni       7.30012965      -0.81454269      24.52705356
Ni       4.78871474       3.97942494       8.09500316
Ni       4.73428902       3.30177427      24.39107899
Ni      -1.31565738       1.99158415      -0.05827866
Ni      -1.29335202       1.31447495      16.23675828
Ni      -3.65717968       6.06485098      -0.03937902
Ni      -3.76850800       5.41199795      16.12755970
Ni       3.71347803       2.08916456       0.04108224
Ni       3.60257735       1.50635392      16.34897367
Ni       1.26205637       6.20560232      -0.02318118
Ni       1.10942914       5.48702447      16.32609117
Ni       1.16632085       1.73307515       8.03573421
Ni       1.13258846       1.18252013      24.37668255
Ni      -1.29711972       5.84486632       8.00689060
Ni      -1.43136284       5.25263682      24.28442225
Ni       6.08779743       1.84628606       8.19377306
Ni       6.00401640       1.31468859      24.34594749
Ni       3.57884121       6.00773041       8.08429167
Ni       3.64838260       5.29159490      24.39423275
