192
Lattice="9.595783815075945 0.4221819527338059 0.18641639575570296 -4.583738709595976 7.943001124538866 -0.013734057726332355 0.16024784720244142 -0.26942850414110103 30.941468558075627" Properties=species:S:1:pos:R:3 pbc="T T T"
Mg       0.01477448      -0.09810700      13.98107795
Mg       0.17434346      -0.28626651      29.49555588
Mg      -2.23524909       3.87627899      13.96865105
Mg      -2.12126521       3.67878823      29.56628584
Mg       4.77488103       0.04883675      14.09244837
Mg       4.97210945      -0.06795315      29.56007332
Mg       2.65384167       4.00467515      14.16664371
Mg       2.66832744       3.94061620      29.62960425
Mg       0.11143526      -0.08630872       6.31895333
Mg       0.18786552      -0.22251182      21.78882650
Mg      -2.24006832       4.03014907       6.26361323
Mg      -2.23635890       3.81716725      21.78391821
Mg       4.90938175       0.22381328       6.32494171
Mg       4.90687846       0.10171713      21.79827002
Mg       2.62163912       4.13086959       6.47298025
Mg       2.54042768       4.02780396      21.85874711
Mg       0.06292186      -0.09790813       9.13588760
Ni       0.14682817      -0.20404249      24.63568891
Mg      -2.18396400       3.92048911       9.15067438
Mg      -2.09885148       3.67768351      24.61188355
Mg       4.89733427       0.09143006       9.22200105
Mg       4.97906120      -0.02080382      24.76704779
Mg       2.53363179       4.13692570       9.31797808
Mg       2.57133779       4.05968772      24.80985751
Mg      -0.02977292       0.03225143       1.45292242
Mg       0.07732165      -0.15614891      16.96216648
Mg      -2.31215982       3.87863930       1.47864836
Mg      -2.09947252       3.85628692      16.87268725
Mg       4.85256965       0.18161615       1.61741954
Mg       4.88295494       0.04434836      17.00011636
Mg       2.55143037       4.17361143       1.49719974
Mg       2.59263517       3.99374774      16.98332653
Mg       2.36937187       1.42807675       2.47493876
Mg       2.53531164       1.26585611      17.96446457
Mg       0.16913006       5.36135006       2.45132635
Mg       0.24657597       5.23842373      17.94736521
Mg       7.24991349       1.62740405       2.60776006
Mg       7.31704483       1.53280293      17.95838232
Mg       4.94822393       5.59035648       2.54088994
Mg       4.93208314       5.45272263      18.01425073
Mg       0.12189367       2.63424265      10.16080641
Mg       0.22979157       2.43740978      25.68565842
Mg      -2.14016008       6.51735304      10.23604781
Mg      -2.13962832       6.41372383      25.59797070
Mg       4.97258850       2.84235776      10.24368186
Mg       5.00350554       2.58921039      25.66263108
Ni       2.62175502       6.86728530      10.27911292
Mg       2.70433936       6.59862344      25.78149068
Mg       2.51951909       1.37040027       5.33459182
Mg       2.56568543       1.23225469      20.73625273
Ni       0.12932330       5.35467733       5.28293389
Mg       0.25711142       5.31790552      20.89318927
Mg       7.29044813       1.58452655       5.49108767
Mg       7.37441421       1.52889380      20.99881147
Mg       4.93948175       5.58949786       5.55981966
Mg       5.00773554       5.45363357      20.97039604
Mg       0.18276495       2.70065191      13.01613969
Mg       0.25099644       2.51423751      28.49207291
Mg      -2.10891309       6.56754735      13.00274296
Mg      -2.02836350       6.36983531      28.58197738
Mg       4.96162119       2.82924755      13.20255021
Mg       4.91866183       2.73462440      28.60540093
Mg       2.65790491       6.71447249      13.17273249
Ni       2.72608691       6.59361210      28.59140621
Ni       2.51616250       1.35970428      13.60598951
Ni       2.63135927       1.22226576      29.07335394
Ni       0.30419133       5.32918764      13.65420692
Ni       0.23995871       5.18244138      29.08449601
Ni       7.35479448       1.54448374      13.62644087
Ni       7.37904616       1.43066039      29.13596423
Ni       5.02931327       5.54251707      13.68048753
Ni       5.09070314       5.36689388      29.11213491
Ni       0.02275695       2.68495260       5.87868672
Mg       0.18323893       2.44067252      21.26550999
Ni      -2.17754489       6.68495154       5.91078172
Ni      -2.09789794       6.50594435      21.25207937
Ni       4.98503159       2.88687235       5.92432505
Ni       4.94262677       2.77565926      21.36606257
Ni       2.63096711       6.84331735       5.93229676
Ni       2.68335290       6.78654422      21.37040508
Ni       2.41666891       1.39063064       9.66908722
Ni       2.42813874       1.31635892      25.21438856
Ni       0.22209946       5.26203520       9.72442792
Ni       0.19955651       5.19052845      25.25978830
Ni       7.25100413       1.60524816       9.73456399
Ni       7.33778641       1.49987333      25.32087479
Ni       5.05526769       5.61873718       9.81738339
Ni       5.03059134       5.44723067      25.24791695
Ni       0.08636000       2.59826884       1.95966338
Ni       0.10291922       2.56989863      17.41195937
Ni      -2.15826515       6.71665672       2.01623698
Ni      -2.17950068       6.51812401      17.41770194
Ni       4.89056550       2.91482844       2.04823276
Ni       4.92791547       2.78906688      17.59025137
Ni       2.67648461       6.88752939       1.99806457
Ni       2.64627097       6.72142205      17.55869331
Ni       2.56586016       2.65170664      11.67839831
Ni       2.59351795       2.57708834      27.16090552
Ni       0.26804058       6.67005096      11.69134290
Ni       0.22910481       6.53330809      27.17105488
Ni       7.32236732       2.98314668      11.73597455
Ni       7.37621027       2.77314542      27.17201156
Ni       5.04893307       6.96513399      11.80020900
Ni       5.08558649       6.75256029      27.15517199
Ni       3.65268685       0.70541099      11.76403024
Ni       3.79188618       0.66205262      27.11062600
Ni       1.39850245       4.71719510      11.74683924
Ni       1.38758787       4.53215886      27.17999705
Ni       8.47045705       1.03995948      11.74398292
Ni       8.54150219       0.87979291      27.27179244
Ni       6.12239521       4.89127690      11.78041929
Ni       6.18645555       4.72845221      27.25419349
Ni       1.29805459       3.36921392       3.88854564
Ni       1.40546740       3.29866595      19.40925012
Ni      -0.93321412       7.37289395       3.82580904
Ni      -0.96111926       7.20059074      19.41069154
Ni       6.12386921       3.60410221       4.02245969
Ni       6.21426738       3.44187357      19.56573775
Ni       3.79787954       7.69071899       3.98088929
Ni       3.88652429       7.50958056      19.52305762
Ni       1.26431416       0.61870413      11.55913642
Ni       1.31936681       0.50076899      27.10907108
Ni      -1.09247829       4.60916641      11.61368368
Ni      -0.90635309       4.46410442      27.06518300
Ni       6.10501562       0.84478049      11.64267606
Ni       6.18417654       0.75751560      27.17591615
Ni       3.83527371       4.87331240      11.75132387
Ni       3.91020828       4.67811250      27.24011510
Ni       0.03685005       1.37125989       3.89452909
Ni       0.14835888       1.22709988      19.42082626
Ni      -2.23855765       5.30682464       3.86142680
Ni      -2.17706968       5.16442308      19.33011843
Ni       4.77316358       1.50784405       3.97381625
Ni       4.90429539       1.45143510      19.36909672
Ni       2.61922166       5.49647509       3.90108325
Ni       2.59521067       5.42884963      19.44339146
Ni      -1.09846769       3.32930617       3.83858174
Ni      -0.95613312       3.18832159      19.34419775
Ni      -3.32375165       7.30671914       3.83728568
Ni      -3.33495005       7.14126517      19.24695061
Ni       3.74768557       3.55341403       4.02763180
Ni       3.86569676       3.47223176      19.37658892
Ni       1.35834986       7.55590683       3.95121044
Ni       1.44648109       7.35528112      19.46151688
Ni       2.44528828       0.23394730       0.07725224
Ni       2.41556928      -0.07083065      15.55412247
Ni       0.17799110       4.10695263       0.07611084
Ni       0.21200103       3.93528633      15.47539991
Ni       7.14675010       0.27919787       0.16465148
Ni       7.30926286       0.11491427      15.60985174
Ni       4.82722778       4.29882596       0.10452474
Ni       5.00734637       4.20185114      15.61747334
Ni       1.24728796       2.11272293       0.09868963
Ni       1.33678484       1.93994568      15.50685040
Ni      -1.03196178       6.11745803       0.04083872
Ni      -0.98161622       5.90270722      15.54651507
Ni       6.05613948       2.34254056       0.11927119
Ni       6.21903195       2.19669310      15.61704567
Ni       3.77146072       6.28345699       0.17153037
Ni       3.88178696       6.10819619      15.59817103
Ni      -1.10587954       1.95588590       7.75266034
Ni      -1.02017959       1.74357409      23.19755287
Ni      -3.36333069       5.98678037       7.80954648
Ni      -3.29197312       5.74269625      23.22302968
Ni       3.72547399       2.07093359       7.80504807
Ni       3.72976634       2.10235136      23.34381644
Ni       1.38075451       6.04360158       7.86674519
Ni       1.47044439       5.95910373      23.34858128
Ni       2.54701907       0.15566780       7.80462046
Ni       2.55579138      -0.00937607      23.22758184
Ni       0.13504614       3.89728640       7.79412510
Ni       0.16742272       3.88186394      23.19589509
Ni       7.25470035       0.22661483       7.86836757
Ni       7.32205775       0.14482006      23.39515657
Mg       4.86558594       4.13922317       7.93881453
Ni       5.05868753       4.00553947      23.35717630
Ni      -1.19847803       2.03045089      -0.00205968
Ni      -1.08061740       1.84822228      15.46975035
Ni      -3.46756381       5.94168361       0.01320250
Ni      -3.47369930       5.86839595      15.58477135
Ni       3.71920699       2.19086684       0.06606793
Ni       3.71677422       2.09567267      15.53506578
Mg       1.41891435       6.13775928       0.07977085
Ni       1.40326828       5.95206668      15.48646485
Ni       1.34980296       2.04288948       7.74060376
Ni       1.41444317       1.85271891      23.31281286
Ni      -1.02338920       6.07412974       7.75248535
Ni      -0.98923767       5.88989684      23.25273797
Ni       6.09040841       2.11518861       7.90368435
Mg       6.09685035       2.03532645      23.35982738
Ni       3.78959903       6.25642402       7.78826618
Ni       4.05217836       6.07474235      23.36869012
