191
Lattice="9.465540038993977 0.23373128133478982 0.030958269799701954 -4.764221426919829 8.150495495571555 -0.13929493470088247 0.22978758571907262 -0.32219644323278623 31.725058551061938" Properties=species:S:1:pos:R:3 pbc="T T T"
Mg       0.11788450      -0.16109959      14.29799179
Mg       0.17690107      -0.32766102      30.18993890
Mg      -2.29791270       4.00047407      14.34922716
Mg      -2.15826082       3.72793898      30.18572517
Mg       4.85070139      -0.04064237      14.38086770
Mg       4.98279372      -0.26171043      30.31795656
Mg       2.45020695       4.00896412      14.35312958
Mg       2.58887589       3.93510781      30.18982948
Mg       0.06192536      -0.11258967       6.46273989
Mg       0.00840463      -0.23205797      22.22110463
Mg      -2.36833961       4.01959333       6.39259389
Mg      -2.24301731       3.89660023      22.34073430
Mg       4.79609355       0.10564309       6.46366735
Mg       4.81425971      -0.14638432      22.22002009
Mg       2.48731456       4.10447963       6.32405934
Mg       2.59333952       3.99093352      22.24735818
Mg       0.02501287      -0.08737294       9.42178085
Mg       0.17031593      -0.24538242      25.27142854
Mg      -2.27986004       3.97480156       9.37742004
Mg      -2.19419183       3.85413882      25.20316574
Mg       4.95783315       0.05903088       9.47031291
Mg       4.91975743      -0.25859290      25.25499872
Mg       2.39463443       4.14510228       9.30459848
Mg       2.45721187       3.94118679      25.18815719
Mg       0.06583291      -0.05999815       1.50447667
Mg       0.14512852      -0.18330767      17.29101080
Mg      -2.30207383       4.06898908       1.37636887
Mg      -2.19004441       3.98080996      17.26821567
Mg       4.81254813       0.13585471       1.56743535
Mg       4.88496626      -0.04638274      17.43087873
Mg       2.31725734       4.17231027       1.45923374
Mg       2.52181031       3.99083200      17.29461713
Mg       2.30719614       1.38268872       2.48033475
Mg       2.44520235       1.20880161      18.34719735
Mg      -0.05461189       5.47815174       2.42581159
Mg       0.11183022       5.31189324      18.28051563
Mg       7.10770577       1.58967162       2.44604522
Mg       7.17040159       1.34113680      18.30536429
Mg       4.72924405       5.61660301       2.40578149
Mg       4.81134743       5.36073470      18.22309821
Mg       0.11156237       2.66617265      10.40974934
Mg       0.20877548       2.48816543      26.33345682
Ni      -2.26204788       6.76857906      10.30302162
Mg      -2.31205579       6.57513621      26.15860774
Mg       4.84735457       2.76332954      10.40410061
Ni       4.84833929       2.57817915      26.29814521
Mg       2.48125945       6.89352071      10.32987148
Mg       2.50223835       6.74153260      26.06259888
Mg       2.38909844       1.39379923       5.35166275
Mg       2.49190605       1.22413883      21.25690111
Ni       0.01525840       5.48122195       5.45456674
Mg       0.15458199       5.31669422      21.25569806
Mg       7.09174769       1.43003757       5.46486335
Mg       7.29518196       1.34927175      21.27956095
Mg       4.81917681       5.56856313       5.27935429
Mg       4.91670120       5.41887924      21.26885189
Mg       0.11955229       2.62079259      13.39786889
Mg       0.12902515       2.50109472      29.18606348
Mg      -2.27109918       6.73716289      13.23519210
Mg      -2.16065670       6.46633838      29.18333565
Mg       4.80545230       2.79348110      13.40660018
Mg       5.01147800       2.55224210      29.21824245
Mg       2.51306127       6.60167495      29.18137000
Ni       2.45315975       1.24715392      13.78885940
Ni       2.65389464       1.19039278      29.72006152
Ni       0.06469045       5.37298569      13.91845466
Ni       0.27908721       5.17991383      29.63441260
Ni       7.16932157       1.39358390      13.83979175
Ni       7.31079633       1.22692146      29.73798013
Ni       4.78742123       5.56902282      13.83070344
Ni       4.81034860       5.34384596      29.74785553
Ni      -0.01412305       2.64528767       5.89273633
Ni       0.04808339       2.51372185      21.76885279
Ni      -2.38043777       6.74224716       5.88120255
Ni      -2.17516368       6.65509175      21.67784410
Ni       4.73015768       2.73266278       5.93301017
Mg       4.88161914       2.72358508      21.84111894
Ni       2.33422844       6.90903550       5.84070194
Ni       2.40724964       6.68010707      21.65317496
Ni       2.41042048       1.35268590       9.88799676
Ni       2.60577137       1.21570235      25.73142844
Ni       0.05600133       5.44519127       9.75202752
Ni       0.21338348       5.23335100      25.60174297
Ni       7.18313727       1.41338330       9.94196917
Ni       7.24085248       1.20508558      25.74779851
Ni       4.82982159       5.51295803       9.89316092
Ni       4.87793581       5.43659793      25.77223418
Ni      -0.01040817       2.74449968       1.86998070
Ni       0.12254903       2.59768374      17.82756462
Ni      -2.41110982       6.81044133       1.89795553
Ni      -2.32078745       6.67672951      17.74795859
Ni       4.75258913       2.89068787       1.94151315
Ni       4.83291438       2.65224464      17.86448863
Ni       2.32532439       6.89499369       1.92066221
Ni       2.55006553       6.73023496      17.78045138
Ni       2.35428907       2.64517772      11.81418744
Ni       2.46915942       2.52488045      27.65958327
Ni       0.02506272       6.70903964      11.83459207
Ni       0.22247037       6.51213468      27.65552531
Ni       7.13478182       2.80092434      11.77662127
Ni       7.27042381       2.64245377      27.78263986
Ni       4.80070992       6.93241870      11.83098118
Ni       4.85564561       6.67373166      27.65981822
Ni       3.58253840       0.74521556      11.89292949
Ni       3.73417079       0.48563900      27.78120288
Ni       1.23630971       4.75079273      11.79153922
Ni       1.31019836       4.50452599      27.67826930
Ni       8.40496560       0.85006930      11.89006917
Ni       8.44323986       0.59758358      27.77346570
Ni       5.95046112       4.83311413      11.81651619
Ni       6.08515075       4.63904724      27.69833221
Ni       1.18449982       3.39841165       3.90442975
Ni       1.30157797       3.30449903      19.76781450
Ni      -1.19828189       7.51817397       3.84780076
Ni      -1.04790904       7.33892088      19.80622648
Ni       5.94961447       3.52744907       3.89177847
Ni       5.92818494       3.35141831      19.71739800
Ni       3.49197577       7.58700601       3.81711640
Ni       3.65762557       7.47916491      19.69007571
Ni       1.23458819       0.61562038      11.81635419
Ni       1.38171681       0.42762439      27.77882815
Ni      -1.17075196       4.73526140      11.80955542
Ni      -0.95989907       4.55768502      27.67961730
Ni       5.99663035       0.64318812      11.93528637
Ni       6.16566295       0.55763828      27.77855470
Ni       3.57873844       4.81636949      11.87862549
Ni       3.72517375       4.64523804      27.72906114
Ni       0.04375313       1.34166072       3.94365534
Ni       0.11594458       1.17124299      19.82045796
Ni      -2.33706194       5.55449672       3.99923694
Ni      -2.24364412       5.28600678      19.69475898
Ni       4.75293779       1.39794202       3.92179599
Ni       4.82648961       1.23613303      19.84157768
Ni       2.35459065       5.57102996       3.93331651
Ni       2.48168184       5.35686961      19.74068360
Ni      -1.22551157       3.34488684       3.85537843
Ni      -1.06406943       3.17443751      19.83425135
Ni      -3.52116868       7.50341858       3.78390151
Ni      -3.33756700       7.25755712      19.64605308
Ni       3.57561338       3.50619146       3.95589783
Ni       3.62251297       3.33612837      19.65035448
Ni       1.25783291       7.67111637       3.82071697
Ni       1.34480088       7.36898325      19.74116571
Ni       2.29781041       0.05684196       0.04367694
Ni       2.52206913      -0.14705952      15.79913028
Ni      -0.07222688       4.20181922      -0.10135506
Ni       0.07135866       3.91452075      15.82427987
Ni       7.11963100       0.15583769       0.01457991
Ni       7.17646394      -0.02331382      15.95095299
Ni       4.76184828       4.18034131      -0.05104358
Ni       4.84256607       4.04571564      15.91508991
Ni       1.22045983       1.98147300      -0.06355648
Mg       1.30318898       1.95265189      15.81428042
Ni      -1.24778586       6.13005985      -0.12297646
Ni      -1.18060477       6.03590359      15.79105010
Ni       5.88513581       2.29833036      -0.04805559
Ni       5.97936779       2.00315230      15.74552120
Ni       3.54240627       6.29212703      -0.08622166
Ni       3.68111236       6.19374743      15.80236639
Ni      -1.18252732       2.04865701       7.88689917
Ni      -0.99431479       1.80034643      23.79438682
Ni      -3.53505361       6.01127855       7.88604720
Ni      -3.35382192       5.92873541      23.66890607
Ni       3.58775178       2.04435172       7.94496034
Ni       3.72668977       1.91475425      23.76418597
Ni       1.19808695       6.21210231       7.87089167
Ni       1.29832534       5.96259914      23.77674108
Mg       2.47659249      -0.07331913       7.89002232
Ni       2.50614607      -0.13755416      23.77736844
Ni      -0.01250957       4.00510109       7.83213681
Ni       0.16593898       3.87067848      23.70774495
Ni       7.14743556       0.08885084       7.92096619
Ni       7.26775679      -0.07590446      23.72264353
Ni       4.77197180       4.15361253       7.97269015
Ni       4.79668551       4.01302342      23.71895952
Ni      -1.23310979       1.94643748       0.04716327
Ni      -1.11320537       1.85481271      15.77544299
Ni      -3.53747898       6.09256406      -0.08517685
Ni      -3.49504861       6.02028474      15.81058764
Ni       3.53700718       2.17933370       0.07294228
Ni       3.63563513       1.96732082      15.86241758
Ni       1.15375915       6.25001539      -0.08495828
Ni       1.20333060       6.04966975      15.71192110
Ni       1.15292011       2.00438736       7.98397624
Ni       1.36790966       1.86029757      23.70509845
Ni      -1.17923322       6.02199441       7.78052341
Ni      -1.04234717       5.97949420      23.73308334
Ni       5.98429115       2.04055185       7.82893863
Ni       6.01097686       1.96337389      23.74018588
Ni       3.58634617       6.20059068       7.84258492
Ni       3.73883739       5.96381736      23.78267099
