189
Lattice="9.77346058589624 0.20099001502959657 -0.1359168705441392 -4.952467563260462 8.27038791411917 0.11837182968770076 0.20397235311145132 0.23941413135067113 30.709240931358025" Properties=species:S:1:pos:R:3 pbc="T T T"
Mg      -0.03771367       0.16780627      13.90047197
Mg       0.11326538       0.28044894      29.17852393
Mg      -2.37994273       4.29346915      13.99494100
Mg      -2.30882262       4.36341771      29.32451205
Mg       4.97928605       0.22713836      13.90611969
Ni       5.10619462       0.44479866      29.30587193
Ni       2.50438434       4.25434975      13.89929919
Mg       2.67394612       4.37692955      29.23578958
Ni       0.07790373       0.11184206       6.23927528
Mg       0.12169978       0.18065584      21.62926023
Mg      -2.40542670       4.16889582       6.26640738
Mg      -2.36306805       4.26577538      21.64500459
Mg       4.90467743       0.16629554       6.11091434
Mg       4.99887653       0.27037227      21.54351046
Mg       2.51033361       4.27210592       6.18602489
Mg       2.48035707       4.36756794      21.60086159
Mg       0.04831173       0.06021028       9.17857455
Mg       0.18215571       0.23735940      24.53395535
Mg      -2.33666474       4.19768026       9.18548250
Mg      -2.30932007       4.37941449      24.55133392
Mg       4.99202487       0.13002958       9.15326986
Mg       4.99621053       0.35044691      24.46326988
Mg       2.44032205       4.33744343       9.09472964
Mg       2.63357434       4.36043563      24.36913645
Mg       0.00699903       0.06571723       1.41526558
Mg       0.15044291       0.11824953      16.73743572
Mg      -2.43518403       4.13503830       1.47096887
Mg      -2.38487544       4.29661384      16.87806874
Mg       4.90624450       0.15349060       1.41483602
Mg       4.94986885       0.22432347      16.71694891
Mg       2.40009679       4.21153996       1.49873858
Mg       2.47861896       4.38098590      16.74478367
Mg       2.47324583       1.47928992       2.39730968
Mg       2.55532362       1.61784908      17.69192784
Mg      -0.02868998       5.53189900       2.43854882
Mg       0.13357333       5.73236729      17.73316139
Mg       7.31816736       1.61235454       2.34348673
Mg       7.45448354       1.64156773      17.67267170
Mg       4.81225408       5.75439638       2.38296989
Ni       4.94640824       5.87053449      17.74127354
Mg       0.05535937       2.76564765      10.07801308
Mg       0.16919092       3.00252367      25.45528047
Ni      -2.45510801       7.03752003      10.13036572
Mg      -2.22304912       7.03521478      25.51051784
Mg       4.95748549       2.99965118      10.00153506
Mg       5.03333897       3.06933165      25.36166139
Mg       2.41949656       7.03832257      10.06047858
Mg       2.63908085       7.27889356      25.49131898
Mg       2.48566999       1.50741410       5.33211886
Mg       2.56724385       1.59987766      20.64006701
Mg      -0.05294926       5.51771717       5.31648157
Mg       0.09189557       5.73189122      20.66533674
Ni       7.42204518       1.51346918       5.21297413
Mg       7.42965023       1.72141694      20.50023539
Mg       4.81857981       5.82097471       5.18429591
Mg       4.92621153       5.84673194      20.61899479
Mg       0.08483010       2.94005854      13.00144866
Mg       0.17384343       2.96286238      28.30611024
Mg      -2.43235419       7.03277699      13.00528541
Mg      -2.23746502       7.17497233      28.47226101
Mg       4.94803128       3.00381752      12.88025664
Mg       4.97455522       3.08380971      28.25612579
Mg       2.48123435       7.06391223      12.95999592
Mg       2.54726280       7.25245608      28.30607482
Ni       2.58206572       1.63424991      13.39437445
Ni       2.65516481       1.61485536      28.69611164
Ni       0.00812528       5.63405568      13.52189615
Ni       0.07504701       5.87300768      28.79084264
Ni       7.39336910       1.62511227      13.28371173
Ni       7.47528038       1.73948522      28.71097066
Ni       4.97984056       5.83579540      13.38617199
Ni       5.03798813       5.85317483      28.74988175
Ni       0.04049348       2.82212217       5.68197643
Ni       0.00602743       2.99857116      21.06971288
Ni      -2.43690515       7.07648450       5.80132410
Ni      -2.35955358       7.08156151      21.11793512
Ni       4.88356599       3.04519139       5.75919354
Ni       5.05036184       3.16637370      21.05777365
Ni       2.43981135       7.01095240       5.82018360
Ni       2.59216185       7.22399114      21.08315337
Ni       2.49699865       1.54295419       9.60151061
Ni       2.57314803       1.66268869      24.91415908
Ni       0.02968299       5.73620491       9.66876129
Ni       0.07702627       5.80546393      24.99135750
Ni       7.43577187       1.62812014       9.60169866
Ni       7.47489790       1.72755434      24.79968203
Ni       4.85449254       5.80329992       9.57247416
Ni       5.02736704       5.86490596      24.94515493
Ni      -0.03756134       2.90978222       1.98924416
Ni       0.21674016       2.98112298      17.19455402
Ni      -2.48090969       6.97664906       2.11390057
Ni      -2.34925157       7.03774702      17.31678725
Ni       4.90911112       2.94030623       1.86485152
Ni       5.02730160       2.99812002      17.21741240
Mg       2.39569029       6.97453210       1.92061847
Ni       2.53258817       7.12159737      17.29502643
Ni       2.48621934       2.94917869      11.54143292
Ni       2.63706158       3.03425428      26.90833748
Ni       0.04309974       7.03122448      11.58886230
Ni       0.20564740       7.17269027      26.90631235
Ni       7.34199893       3.01019273      11.41535158
Ni       7.45343899       3.11291955      26.78446313
Ni       4.89639619       7.24462069      11.47199423
Ni       4.96111895       7.24304129      26.95315114
Ni       3.78227592       0.75879778      11.43217202
Ni       1.38826921       4.94381693      11.56191618
Ni       1.42158316       5.13063961      26.93008514
Ni       8.57931042       1.01088564      11.41913770
Ni       8.70743575       1.14352101      26.69604962
Ni       6.16506338       5.08334262      11.47040905
Ni       6.20086428       5.25306151      26.86293376
Ni       1.23861460       3.53934606       3.76274595
Ni       1.31465870       3.71350253      19.15641366
Ni      -1.27540376       7.57294350       3.90323027
Mg      -1.20203777       7.90299685      19.23752085
Ni       6.13727297       3.63624300       3.70351374
Mg       6.18806109       3.89053667      19.20614163
Mg       3.51609710       7.84691343       3.84628951
Ni       3.75087626       7.84935164      19.17186931
Ni       1.38551413       0.89519102      11.43401572
Ni       1.41841212       0.95016035      26.88306283
Ni      -1.18903972       4.89024349      11.61229918
Ni      -1.14794752       5.04753222      27.01941985
Ni       6.16838685       0.92569634      11.43947465
Ni       6.31031160       1.07302773      26.81626256
Ni       3.74389992       4.95649564      11.45328145
Ni       3.82625956       5.25870308      26.84781820
Ni       0.01836961       1.35836840       3.94677626
Ni       0.12441743       1.60374936      19.18647808
Ni      -2.39471952       5.61747709       3.86378991
Ni      -2.30079907       5.73587807      19.27744190
Ni       4.91276863       1.58862485       3.77672618
Mg       4.98314682       1.60066193      19.13340884
Ni       2.38405435       5.67406726       3.82901414
Ni       2.53001493       5.67631389      19.16742004
Ni      -1.19322120       3.47060103       3.88721255
Ni      -1.10104376       3.58461374      19.13356172
Ni      -3.62160567       7.63047895       3.92161653
Ni      -3.61228661       7.65862318      19.27484021
Ni       3.70371140       3.59666639       3.81294315
Ni       3.81380866       3.80256478      19.18770180
Ni       1.25992432       7.68428767       3.77353774
Ni       1.38341193       7.91998520      19.24394736
Ni       2.47312452       0.11334527      15.34529091
Ni      -0.05401128       4.16333517       0.04314724
Ni       0.00677357       4.32963810      15.37175165
Ni       7.19572148       0.17077883      -0.10936412
Ni       7.58633014       0.21134290      15.19385673
Ni       4.87369092       4.22644896      -0.06915188
Ni       4.97358273       4.40835261      15.31467344
Ni       1.25255326       2.05984539       0.02223570
Ni       1.20309894       2.23074325      15.41117444
Ni      -1.33663562       6.28317572       0.11959720
Ni      -1.14170934       6.32612521      15.39156258
Ni       6.08692782       2.20278341      -0.07196648
Ni       6.20479016       2.33866446      15.27501642
Ni       3.58473821       6.38980164       0.08211798
Ni       3.72711729       6.46600867      15.31995890
Ni      -1.07334691       2.23117366      22.95322929
Ni      -3.70936932       6.26966215       7.75833410
Ni      -3.63907196       6.33863399      23.07210801
Ni       3.69349129       2.22424038       7.63934756
Ni       3.67644029       2.36022596      23.00592929
Ni       1.19035288       6.32723860       7.68382097
Ni       1.31560937       6.46422271      23.06762270
Ni       2.53031751       0.09306244       7.61379037
Ni       2.67228616       0.22110028      23.05024403
Ni       0.03726585       4.32958213       7.75742410
Mg       0.16956552       4.38093905      23.06048349
Ni       7.36914966       0.18756118       7.61814682
Ni       7.47827189       0.22534243      22.92670807
Ni       4.86640380       4.36119032       7.66015249
Ni       4.96343003       4.38167293      22.97812023
Ni      -1.20818787       2.11319819       0.10347729
Ni      -1.06887495       2.11538523      15.35966658
Ni      -3.76104928       6.23596554       0.08010179
Ni      -3.63364368       6.25767233      15.45958160
Ni       3.69293521       2.15783224       0.02310088
Ni       3.68323287       2.31008741      15.26606812
Ni       1.25813518       6.35209053       0.05129413
Ni       1.25296763       6.35607662      15.32941106
Ni       1.25749583       2.08547193       7.62003009
Ni       1.35671634       2.37024345      23.08875985
Ni      -1.22639566       6.37929518       7.67651693
Ni      -1.11316066       6.41852970      23.03532774
Ni       6.16891502       2.29022309       7.58376707
Ni       6.27522510       2.42428404      22.87876892
Ni       3.63728409       6.41135336       7.77024943
Ni       3.78291662       6.53927687      23.09372884
