188
Lattice="10.000028636061757 0.5774141702378615 0.24361725759040612 -4.775825775149314 8.105511373043356 -0.29844957488973717 -0.1234461079416659 -0.7017749465331727 32.710469625962986" Properties=species:S:1:pos:R:3 pbc="T T T"
Mg      -0.11681907      -0.63183941      31.07791789
Mg      -2.45824023       3.74143834      14.70716696
Mg      -2.53813449       3.49376227      31.07887590
Mg       4.91988930      -0.05267624      14.87941626
Mg       4.90345599      -0.37014106      31.33661467
Mg       2.59890724       3.98452906      14.81418664
Mg      -0.10205242      -0.19042094       6.70775360
Mg      -0.12055715      -0.54349117      22.92643077
Mg      -2.46393303       3.94412362       6.45453125
Mg      -2.47446586       3.59268608      22.83429871
Mg       5.01712757       0.13313348       6.70879775
Mg       4.92416606      -0.14821205      23.08193507
Mg       2.63604393       4.25164061       6.68074260
Mg       2.51332505       3.89872391      23.03948054
Mg       0.05006217      -0.19284392       9.69655656
Mg      -0.11211285      -0.60669224      26.02703532
Mg      -2.44048622       3.79246121       9.55684394
Mg      -2.52760312       3.50120145      25.92121349
Mg       5.03702394       0.05582938       9.75511656
Mg       4.89987392      -0.25112712      26.25907513
Mg       2.64080612       4.11564470       9.58345563
Mg       2.43260563       3.85054467      26.06782260
Mg       0.00230948      -0.07337579       1.50361356
Mg       0.05601933      -0.34909364      17.94738516
Mg      -2.31190738       4.05867974       1.40377371
Mg      -2.41643943       3.62936717      17.71392784
Mg       4.95320480       0.30869355       1.69081102
Mg       4.96981338      -0.07085442      18.04664399
Mg       2.59549693       4.28436051       1.62186235
Mg       2.54171401       3.91749467      17.91343715
Mg       2.48837443       1.47356851       2.66701252
Mg       2.35902982       1.16836180      19.06877800
Mg       0.05041450       5.56121023       2.42376961
Mg       0.07218796       5.17031260      18.78286163
Mg       7.53875745       1.85994754       2.66076748
Mg       7.38834739       1.42970749      19.01806745
Mg       5.16816662       5.90047247       2.51595003
Mg       5.07566629       5.55844205      18.92198544
Mg       0.03330581       2.16950114      27.10303040
Mg      -2.36262627       6.66166321      10.49642168
Mg      -2.45143549       6.23728627      26.80830387
Mg       5.05095445       2.92331399      10.81376048
Mg       4.98860542       2.53416589      27.09984383
Mg       2.57008360       6.93992944      10.60328939
Mg       2.62464443       6.53605238      26.91267827
Mg       2.50473587       1.41319151       5.59842317
Mg       2.40526310       1.04158804      22.03122190
Mg       0.12102899       5.43203921       5.52147653
Mg       0.06918569       5.08161831      21.86738358
Mg       7.43842463       1.77289564       5.87261484
Ni       7.50765645       1.27742464      22.12551327
Mg       5.18303160       5.75857812       5.59791345
Mg       5.02631957       5.40868047      21.98607229
Mg       0.08117470       2.45759749      13.74993980
Mg      -0.06184423       2.08663582      30.12798589
Mg      -2.43735731       6.56661712      13.63403712
Mg      -2.41795314       6.24784878      29.89710373
Mg       5.10321004       2.73085184      13.82404699
Mg       4.88651375       2.46506450      30.16674521
Mg       2.57996961       6.73981369      13.65576780
Mg       2.58581942       6.53583857      30.05720553
Ni       2.48046486       1.23029994      14.37278747
Ni       2.37727802       0.91004765      30.67333471
Ni       0.10293255       5.25398150      14.24371678
Ni       0.00365321       4.96236429      30.55031392
Ni       7.54951967       1.49064791      14.42793844
Ni       7.39435010       1.10283204      30.78430180
Ni       5.12683643       5.48930737      14.30076350
Ni       5.03504712       5.32417885      30.81440859
Ni      -0.01227765       2.65276424       6.07749103
Ni      -0.03883653       2.21403386      22.40828342
Ni      -2.27287213       6.78987741       5.90727329
Ni      -2.43225616       6.36034602      22.24738252
Ni       5.05916684       3.03769797       6.16161139
Ni       5.17126346       2.56855898      22.48949128
Ni       2.70196056       6.87676188       6.02216520
Ni       2.57801571       6.60011648      22.37157159
Ni       2.57272911       1.27887674      10.27683894
Ni       2.54983722       1.01120193      26.59718138
Ni       0.03451585       5.34421730      10.13877041
Ni       0.03847936       4.97371885      26.45464403
Ni       7.58562489       1.69459611      10.25387058
Ni       7.47478430       1.30014021      26.76646228
Ni       5.03321640       5.72969836      10.25761835
Ni       5.03460691       5.27736508      26.58360676
Ni       0.12229500       2.81380205       1.98873197
Ni       0.06903481       2.40810785      18.34594347
Ni      -2.34340993       6.82219912       1.88765778
Ni      -2.34840016       6.55369897      18.16327725
Ni       5.12786698       3.02271511       2.11955552
Mg       4.99711937       2.66557961      18.40503182
Ni       2.72538146       7.08060813       1.95722302
Ni       2.62085175       6.71608386      18.19614242
Ni       2.46747367       2.72345213      12.16117515
Ni       2.49746643       2.31914471      28.55116416
Ni       0.12454344       6.68828723      12.12069559
Ni       0.11328692       6.26377384      28.40331345
Ni       7.53185929       2.61778839      28.78365515
Ni       5.13115674       7.00902353      12.23796295
Ni       5.00840048       6.67938483      28.60730584
Ni       3.72827029       0.76279750      12.31886862
Ni       3.69241849       0.28144593      28.74409336
Ni       1.32795765       4.71166453      12.21164844
Ni       1.30623135       4.33579940      28.54027951
Ni       8.68399543       1.03166011      12.42739115
Ni       8.68418901       0.61084019      28.80243941
Ni       6.25138910       4.95587945      12.36191130
Ni       6.21788991       4.60883255      28.60802318
Ni       1.36087977       3.43474699       4.11887647
Ni       1.26794769       3.16574197      20.42389411
Ni      -1.03266897       7.55736047       3.95194142
Ni      -1.15227947       7.23251431      20.33270393
Ni       6.29709854       3.72653076       4.19674876
Ni       6.27924169       3.37694081      20.53666183
Ni       4.01146681       7.83693392       4.03658185
Ni       3.81634099       7.37032314      20.39686508
Ni       1.16667131       0.49124519      12.29157847
Ni       1.09303627       0.21297260      28.63496272
Ni      -1.20824870       4.57181649      12.15034738
Ni      -1.25129208       4.21076301      28.49940662
Ni       6.26613260       0.85416484      12.39816590
Ni       6.25156245       0.52694255      28.76068209
Ni       3.83073917       4.90362394      12.30280219
Ni       3.81585161       4.39778586      28.59528629
Ni      -0.01167871       1.35806953       4.07743253
Ni       0.02946485       0.98563252      20.39285210
Ni      -2.33840432       5.37376015       3.93007596
Ni      -2.43636808       5.04336791      20.31419811
Ni       5.03095859       1.66706866       4.20081137
Ni       4.78606141       1.27565909      20.46485833
Ni       2.72735592       5.58554099       4.05518008
Ni       2.54171694       5.27935844      20.39222631
Ni      -1.17323522       3.32111507       3.89230576
Ni      -1.28912707       3.01071131      20.45387709
Ni      -3.53203461       7.34330251       3.81435601
Ni      -3.76135660       7.05343660      20.17723553
Ni       3.84376775       3.62085022       4.18193684
Ni       3.71848865       3.20193231      20.46140817
Ni       1.35356124       7.67759334       3.95680591
Ni       1.41773871       7.39312911      20.33009142
Ni       2.56969681       0.17474810       0.13765324
Ni       2.43905857      -0.26396962      16.40356666
Ni       0.09859436       4.18180673      -0.06316006
Ni       0.02364657       3.84574544      16.22094638
Ni       7.55762415       0.48329370       0.24303309
Ni       7.50875695       0.17649105      16.54808768
Ni       5.03553227       4.45417594       0.09245340
Ni       5.06861667       4.11230976      16.28603238
Ni       1.35850068       2.16549773      -0.03610136
Ni       1.15246421       1.81072240      16.47638485
Ni      -0.97600915       6.22623992      -0.11127120
Ni      -1.13435069       5.78261862      16.12972129
Ni       6.34445236       2.51691493       0.14966470
Ni       6.32026944       2.10246524      16.49164531
Ni       3.93806408       6.38356338      -0.01465615
Ni       3.90893514       6.20651282      16.31979420
Ni      -1.14811942       1.97484982       8.11472316
Ni      -1.28527852       1.45453467      24.49749017
Ni      -3.65801211       5.93247826       7.93758956
Ni      -3.66846108       5.58377502      24.28851175
Ni       3.73035214       2.16869118       8.18992441
Ni       3.71077961       1.71192242      24.54775437
Ni       1.40363851       6.16969883       8.01392312
Ni       1.27237773       5.90370692      24.41463467
Ni       2.41146335      -0.00446889       8.23757169
Ni       2.37171775      -0.31365767      24.56912507
Ni       0.18213622       4.00056592       8.06223631
Ni       0.05697185       3.73250044      24.49149137
Ni       7.40864999       0.21670397       8.42130351
Ni       7.32525029      -0.05014763      24.66500747
Ni       5.08793773       4.29301197       8.24103861
Ni       5.01248783       3.96278498      24.58209698
Ni      -1.15318776       2.04369823      -0.03481705
Ni      -1.23633542       1.69601766      16.24218473
Ni      -3.52542360       6.06615648      -0.21079133
Ni      -3.50783218       5.75772903      16.10869441
Ni       3.75225908       2.42667385       0.09295755
Ni       3.76851861       1.91708492      16.31705075
Ni       1.44623005       6.40065324      -0.06375133
Ni       1.29523920       6.02836461      16.32634646
Ni       1.26340879       1.92860107       8.19002643
Ni       1.27171242       1.71896679      24.48598159
Ni      -1.18396122       5.97265021       8.03549090
Ni      -1.13041858       5.68183581      24.40610412
Ni       6.24363392       2.25586702       8.24447815
Ni       6.17981464       1.95153695      24.63092023
Ni       3.86843786       6.31004218       8.17063902
Ni       3.82880626       5.97637464      24.52834227
