190
Lattice="9.560654211456658 -0.0017125769097996665 -0.1129599107233982 -4.661694305912835 8.315459294261489 0.2573445942995216 -0.44321982444829927 -0.12542707251940177 32.65898638286533" Properties=species:S:1:pos:R:3 pbc="T T T"
Mg      -0.18887766      -0.04420452      14.77103564
Mg      -0.37341523      -0.09674983      31.13388850
Mg      -2.50454275       4.13307777      14.91853790
Ni      -2.81680878       4.07973355      31.19761769
Mg       4.56660189      -0.05011087      14.74222291
Mg       4.42953860      -0.09281565      31.11333557
Mg       2.26670111       4.09374693      14.86917718
Mg       2.06487950       4.06251063      31.22577119
Mg      -0.08820817      -0.10649872       6.56760292
Mg      -0.31061386      -0.14263835      22.88961239
Mg      -2.43363957       4.21664421       6.73752858
Mg      -2.59934099       4.11575762      23.08948954
Mg       4.70484726       0.01073908       6.59537602
Mg       4.44475638      -0.14082748      22.93158716
Mg       2.34138705       4.13092366       6.74449802
Mg       2.12635223       4.12158560      23.05273566
Mg      -0.11253646      -0.10475807       9.74710865
Mg      -0.43748999      -0.17086350      26.06747085
Mg      -2.46950552       4.11012172       9.93716001
Mg       4.70183435       0.00470361       9.54324462
Mg       4.35286938      -0.18208567      25.97911463
Mg       2.37892395       4.20206799       9.79568834
Mg       2.11354177       4.13315326      26.12997593
Mg      -0.05138440      -0.04477904       1.58350651
Mg      -0.24307888      -0.07597675      17.77748572
Mg      -2.33475449       4.18606655       1.69145191
Mg      -2.59339559       4.08581496      17.89786554
Mg       4.78846758       0.02836703       1.48402005
Mg       4.54680657      -0.15625591      17.84258425
Mg       2.41601457       4.08807330       1.61919969
Mg       2.21096479       4.12022979      17.92547942
Mg       2.33574021       1.41202827       2.50559203
Mg       2.17024681       1.29064813      18.91307013
Mg       0.07505908       5.43378587       2.64980562
Mg      -0.22775430       5.41083611      18.98314805
Mg       7.15391615       1.45474293       2.44799350
Ni       6.99550411       1.31510281      18.78544840
Mg       4.83955752       5.54353819       2.61554087
Mg       4.61022205       5.41381249      18.93551267
Mg      -0.09595917       2.76901326      10.79143924
Mg      -0.31069929       2.69056167      27.04674257
Ni      -2.52465611       6.91381750      10.95776917
Mg      -2.65444212       6.93051271      27.17728652
Mg       4.73619090       2.80708608      10.80711067
Mg       4.46562008       2.61720580      27.02073355
Mg       2.36218190       6.83326656      10.85024194
Mg       2.19392080       6.90436782      27.17394773
Mg       2.25039400       1.32478692       5.55850624
Mg       2.06565598       1.32755094      21.90007037
Mg      -0.07034181       5.52932055       5.70174826
Mg      -0.22515436       5.59821505      22.11217988
Mg       7.18574583       1.42467479       5.47563295
Mg       6.91260696       1.26686802      21.89316721
Mg       4.80014966       5.47977669       5.76527912
Mg       4.62512000       5.45307829      22.06569040
Mg      -0.15292310       2.83809250      13.86081590
Mg      -0.35000257       2.64632080      30.19580054
Mg      -2.52723016       6.96320354      13.95748153
Mg      -2.69900465       6.85039648      30.41375369
Mg       4.65052091       2.70661183      13.82271366
Mg       4.41783394       2.60361095      30.12745024
Mg       2.33315748       6.76151436      13.84833819
Mg       2.12501862       6.84187621      30.22908750
Ni       2.20526340       1.31078306      14.29298862
Ni       1.92788544       1.26563793      30.54824113
Ni      -0.03182210       5.51531387      14.52797995
Ni      -0.23198269       5.51592933      30.80342096
Ni       6.99340551       1.37715657      14.19577221
Ni       6.78939622       1.29574015      30.50632683
Ni       4.66759671       5.52617870      14.31257786
Ni       4.50267951       5.46765735      30.72909547
Ni      -0.02413607       2.67640789       6.23549184
Ni      -0.44495737       2.70116675      22.55197534
Ni      -2.29826131       6.89092310       6.28055448
Ni      -2.53929215       6.82622451      22.57260517
Ni       4.71345224       2.80333981       6.02734832
Ni       4.54796989       2.66548787      22.41418729
Ni       2.39374771       6.90389329       6.23982690
Ni       2.16123718       6.93436071      22.53429620
Ni       2.25902794       1.42085866      10.26801981
Ni       2.04983128       1.27770815      26.54138418
Ni      -0.09543767       5.47689606      10.29138634
Ni      -0.27770790       5.46206483      26.57609517
Ni       7.02757888       1.38665370      10.06943033
Ni       6.80603940       1.25849434      26.46597355
Ni       4.66987267       5.48908138      10.29976089
Ni       4.54822730       5.41684712      26.72925344
Mg      -0.00266301       2.84700904       2.21348716
Ni      -0.25181497       2.75990928      18.47483564
Ni      -2.31507733       6.91067176       2.21635972
Ni      -2.53839388       6.91135965      18.55223081
Mg       4.76608863       2.69593131       2.07745131
Ni       4.54337559       2.78595654      18.37913509
Ni       2.52069287       6.92318051       2.14691673
Ni       2.30884084       6.87722961      18.55159423
Ni       2.25606245       2.60443852      12.36695231
Ni       2.07417617       2.59085105      28.64681863
Ni      -0.02843066       6.86365349      12.40437281
Ni      -0.27698728       6.79063412      28.72142170
Ni       7.10627409       2.74563571      12.18843638
Ni       6.69024318       2.69561422      28.55812087
Ni       4.72711045       6.95527905      12.34002730
Ni       4.45859406       6.79865834      28.64467214
Ni       3.43016116       0.66052422      12.22208969
Ni       3.17028465       0.59590786      28.55421230
Ni       1.12699090       4.76312437      12.45041604
Ni       0.83637016       4.70655357      28.71018848
Ni       8.20695212       0.68827842      12.20463286
Ni       7.89563162       0.59454485      28.46950352
Ni       5.82803902       4.82034747      12.30309870
Ni       5.75130664       4.79295511      28.55496306
Ni       1.18825762       3.35929976       4.15554226
Ni       0.95349518       3.43121469      20.52809910
Ni      -1.12791366       7.59644949       4.28721357
Ni      -1.34379021       7.56732954      20.65973934
Ni       5.96099103       3.43728671       4.12988461
Ni       5.73420535       3.39589653      20.38151597
Ni       3.63547446       7.61096150       4.19907176
Ni       3.45611370       7.55243386      20.47137574
Ni       0.98230989       0.64592979      12.18687972
Ni       0.85117339       0.47028080      28.52655176
Ni      -1.28194699       4.89705307      12.36845313
Ni      -1.57589349       4.72673980      28.74143658
Ni       5.88514366       0.66427525      12.36435056
Ni       5.67552332       0.57675142      28.54473397
Ni       3.58604816       4.83709282      12.29376713
Ni       3.34071407       4.68481765      28.70492654
Ni       0.04862997       1.38979611       4.20291472
Ni      -0.23779326       1.30420684      20.44616529
Ni      -2.43404653       5.55885619       4.25657165
Ni      -2.62073487       5.36809140      20.58866342
Ni       4.72594205       1.34405426       4.10840046
Ni       4.51530222       1.37975694      20.35163782
Ni       2.35634880       5.58024134       4.12532303
Ni       2.17008781       5.42111070      20.47221946
Ni      -1.24270534       3.45532901       4.18652044
Ni      -1.39494696       3.35536135      20.48678450
Ni      -3.51192490       7.55774644       4.24183103
Ni      -3.79293023       7.53537066      20.69354779
Ni       3.59977207       3.46101247       4.16272815
Ni       3.42910281       3.50178658      20.42309405
Ni       1.21405044       7.63941165       4.39914145
Ni       1.01774561       7.53196927      20.56201536
Ni       2.33625437      -0.00532403       0.04941017
Ni       2.20533022      -0.04560294      16.23748275
Ni       0.04604199       4.18538133       0.19542984
Ni      -0.18819747       4.14875461      16.42024901
Ni       7.14479550      -0.06083499      -0.05189144
Ni       6.92329907      -0.05371570      16.19844109
Ni       4.79119238       4.21929589      -0.03588420
Ni       4.69514391       4.12001210      16.43334271
Ni       1.26555709       2.10308286       0.04591406
Ni       1.03918773       2.00245641      16.33315022
Ni      -1.11935990       6.19213664       0.13063189
Ni      -1.37195548       6.17374771      16.41819168
Ni       6.06108395       2.05123175       0.02617807
Ni       5.81513538       2.03921492      16.28351418
Ni       3.61167427       6.34289008       0.08376751
Ni       3.39822302       6.15002100      16.46677244
Ni      -1.31648352       2.11169178       8.21031125
Ni      -1.44895867       1.99148665      24.51483381
Ni      -3.51230689       6.21556640       8.37408335
Ni      -3.86012104       6.13978943      24.76414793
Ni       3.51898411       2.08662109       8.12240291
Ni       3.33715956       1.94692177      24.55694456
Ni       1.21321864       6.18100709       8.31591940
Ni       0.93303765       6.17004846      24.54798455
Ni       2.29732091       0.02465742       8.10936401
Ni       2.01630294      -0.07037847      24.53320034
Ni      -0.06497107       4.03612205       8.20887678
Ni      -0.28646331       4.13832538      24.60922052
Ni       7.04002440      -0.06955353       8.08661973
Ni       6.81960090      -0.07233194      24.39292641
Ni       4.78999594       4.03705971       8.19098341
Ni       4.46704217       4.21419643      24.56813060
Ni      -1.29064734       2.03027369       0.14186636
Ni      -1.28067027       1.97819706      16.37718916
Ni      -3.56856737       6.24735096       0.12422950
Ni      -3.76326346       6.20442264      16.43574139
Ni       3.57709796       2.12438082      -0.02943099
Ni       3.39905569       2.11772910      16.37844485
Ni       1.33810700       6.22905575       0.07148539
Ni       1.04551549       2.09225688       8.18563477
Ni       0.86689791       1.97516493      24.52263154
Ni      -1.30842397       6.25338481       8.34892201
Ni      -1.35151404       6.10606306      24.76413393
Ni       5.92802990       2.02714815       8.16382920
Mg       5.67906535       1.99518157      24.53069921
Ni       3.57973815       6.24857872       8.24055490
Ni       3.26672518       6.13761102      24.64109667
