189
Lattice="9.46896505560299 0.3351385021560122 -0.1643618785194713 -5.295722466484092 8.587870322102063 -0.04648928953634656 -0.41111099776006604 -0.20886682145640445 31.31568243931312" Properties=species:S:1:pos:R:3 pbc="T T T"
Mg      -0.21676612      -0.04518670      14.21814190
Mg      -0.41629496      -0.18738759      29.85218802
Mg      -2.80932502       4.19329235      14.18368855
Mg      -2.99219418       4.06135909      29.79733999
Mg       4.49521768       0.09426567      14.16473582
Mg       4.35448020      -0.04004934      29.70093775
Mg       1.94269621       4.32717915      14.10303718
Mg      -0.05946267      -0.02028139       6.30431659
Mg      -0.34664951      -0.13515184      22.08737864
Mg      -2.74784493       4.16127057       6.34197668
Mg      -2.88813779       4.10319175      21.98964666
Mg       4.69515967       0.09969684       6.24205126
Mg       4.48616472       0.06622720      21.88639747
Mg       1.97183242       4.39806082       6.19657328
Mg       1.90428406       4.28128266      21.94438795
Ni      -0.15359689      -0.06737477       9.28381621
Mg      -0.23404245      -0.12964241      25.00162197
Mg      -2.68804993       4.23618239       9.19787348
Mg      -2.93943046       4.07730465      24.86865806
Mg       4.58619279       0.23292293       9.25889620
Mg       4.32049419      -0.02230071      24.91909088
Mg       1.90004785       4.36543598       9.25102771
Mg       1.70431006       4.19926358      24.92984131
Mg      -0.01649821       0.02729318       1.47777788
Mg      -0.22652544      -0.10490193      17.21959400
Mg      -2.74424090       4.23018943       1.48283182
Ni       4.71510401       0.10415641       1.47163289
Mg       4.47127685       0.04537079      17.07127547
Mg       2.01291186       4.39868909       1.34363274
Mg       1.93017766       4.32696570      17.03325958
Mg       2.17811279       1.45651695       2.45215770
Mg       1.99296343       1.48588386      17.99058846
Mg      -0.39337163       5.91589639       2.38519773
Mg      -0.54994679       5.69441755      18.04707327
Mg       6.88232846       1.72282371       2.26875714
Mg       6.79139014       1.54092945      17.97502374
Mg       4.35063897       5.96821041       2.31372551
Mg       4.10489205       5.94018882      17.98909539
Mg      -0.37798179       2.78998112      10.19146177
Mg      -0.53370836       2.76828048      25.94428216
Mg      -2.99594486       7.12952817      10.29299791
Mg      -3.13002815       7.11169438      25.90875282
Mg       4.32526511       3.00714844      10.15521099
Mg       4.25368316       2.92710537      25.90903348
Mg       1.68286212       7.32736269      10.08577889
Mg       1.48008259       7.25915853      25.65634049
Mg       2.19889418       1.52502387       5.31243303
Mg       2.07700918       1.36747326      20.94155111
Mg      -0.42842313       5.82839005       5.25324860
Mg      -0.64958819       5.65164251      21.01011547
Mg       6.98769012       1.64012890       5.19483114
Mg       6.83403797       1.58030933      20.85476408
Mg       4.31311107       5.95724552       5.15478639
Mg       4.05697572       5.83706460      20.91348644
Mg      -0.37610324       2.88696201      13.12587463
Mg      -0.61411149       2.73339200      28.91425952
Mg      -3.06573623       7.10599256      13.16411838
Mg      -3.25938568       7.08730313      28.81236780
Mg       4.48664621       2.99608031      13.10829422
Mg       4.18564464       2.84986185      28.80876218
Mg       1.68358698       7.21855830      13.09899113
Mg       1.45857496       7.12740263      28.67272037
Ni       2.05234288       1.47041293      13.63295552
Ni       1.88902286       1.31958215      29.36385727
Ni      -0.53894122       5.73774510      13.63749876
Ni      -0.81878895       5.60097498      29.21529819
Ni       6.79794511       1.65674713      13.52263584
Ni       6.63754486       1.52038974      29.20178134
Ni       4.19436078       5.93515742      13.52387822
Ni       3.90700629       5.86443664      29.21215178
Ni      -0.34039571       2.96433004       5.71485541
Ni      -0.48067325       2.74846363      21.52630179
Ni      -2.98723414       7.18963367       5.80306224
Ni      -3.16961055       7.07786858      21.58380228
Ni       4.48603475       2.97474065       5.71792366
Ni       4.27696951       2.93800268      21.30294252
Ni       1.81886469       7.35887749       5.75782640
Ni       1.72059715       7.15942841      21.41367185
Ni       2.12153181       1.48884528       9.67021326
Ni       1.86735168       1.39273159      25.40002444
Ni      -0.49782688       5.70149527       9.68409510
Ni      -0.63507716       5.62554090      25.40865157
Ni       6.91853313       1.69416908       9.68876895
Ni       6.60999861       1.57192901      25.33993850
Ni       4.23432172       6.00784701       9.59505456
Ni       4.07158034       5.83595993      25.28182196
Ni      -0.23572928       2.95759451       2.01640628
Ni      -0.39326064       2.88345303      17.58996470
Ni      -2.83143671       7.14142495       1.89498987
Ni      -3.14405486       7.08721670      17.52418471
Ni       4.54610436       3.03689701       1.81127062
Ni       4.23042203       3.04571893      17.52729993
Ni       1.95489369       7.41033786       1.71661086
Ni       1.68991307       7.27149174      17.47681144
Ni       2.00925515       2.83718578      11.63618450
Ni       1.84108329       2.74360073      27.40784702
Ni      -0.75880108       7.18627822      11.64736942
Ni       6.80391193       3.03927489      11.65589455
Ni       6.53187526       3.01264628      27.18118177
Ni       4.10299629       7.41829009      11.62973592
Ni       3.95976421       7.29942877      27.15637124
Ni       3.34261098       0.79656213      11.64948739
Ni       3.07060666       0.72341346      27.37439067
Ni       0.62275078       5.09179042      11.66329278
Ni       0.49715498       4.96461834      27.25478070
Ni       8.11609646       0.87019494      11.76934145
Ni       7.85165199       0.90916080      27.28582485
Ni       5.37796701       5.17918634      11.55324574
Ni       5.28503345       5.08175598      27.22156373
Ni       0.86380369       3.63518464       3.77812692
Ni       0.76068301       3.50595955      19.52134566
Ni      -1.70621924       8.04926452       3.78645594
Ni      -1.95542131       7.82533468      19.48795699
Ni       5.61057887       3.90307658       3.77730397
Ni       5.48164609       3.71399409      19.28118970
Ni       2.99271833       8.09520844       3.61749610
Ni       2.82952230       7.93265226      19.48823450
Ni       1.00855295       0.60035799      11.68800907
Ni       0.80938940       0.54647103      27.41157346
Ni      -1.69119869       4.96853762      11.80824909
Ni      -1.78791101       4.98166703      27.32260896
Ni       5.69471858       0.91551077      11.64734646
Ni       5.46413738       0.69153234      27.27893820
Ni       3.03206718       5.21151768      11.54825788
Ni       2.81987809       4.99716390      27.27310554
Ni      -0.06771506       1.46060639       3.90766687
Ni      -0.35230043       1.36642794      19.59149494
Ni      -2.75982896       5.77431063       3.84384201
Ni      -3.01664430       5.55739291      19.50910426
Ni       4.60661302       1.55535270       3.76639417
Ni       4.36376732       1.51449556      19.45300969
Ni       2.02475844       5.89352789       3.73363458
Ni       1.77065450       5.87326721      19.50088295
Ni      -1.39476365       3.54548863       3.83465352
Ni      -1.65311154       3.56383907      19.50658361
Ni      -4.12189085       7.82763861       3.77225648
Ni      -4.28514724       7.71025912      19.45976034
Ni       3.32791660       3.78191317       3.77833428
Ni       3.05896618       3.62716980      19.41180117
Ni       0.60517697       8.00464051       3.68893612
Ni       0.44419995       7.93971073      19.45603568
Ni       2.39830249       0.10245156       0.01685047
Ni       2.18694744      -0.00473617      15.61148546
Ni      -0.36812652       4.35342687      -0.02970723
Mg      -0.53660868       4.26582700      15.52368579
Ni       7.15420255       0.30399953      -0.12042661
Ni       6.87345268       0.12176688      15.62503884
Ni       4.52068860       4.54870097      -0.20150909
Ni       4.23972338       4.38032632      15.42896303
Ni       1.00966837       2.21171062      -0.05984688
Ni       0.82230733       2.15623574      15.56712473
Ni      -1.58071988       6.53836340      -0.05663786
Ni      -1.81983189       6.42588456      15.56000698
Ni       5.71603916       2.39761523      -0.06650566
Ni       5.65442418       2.27757196      15.50093208
Ni       3.21505723       6.66043863      -0.15159256
Ni       2.90125477       6.61606251      15.55097745
Ni      -1.37401416       2.12234518       7.75362274
Ni      -1.67301508       2.01698350      23.52774684
Mg      -3.99956502       6.43557349       7.87215657
Ni      -4.32837529       6.39880706      23.48980214
Ni       3.32069381       2.28875863       7.81737026
Ni       3.07944597       2.22419402      23.37851136
Ni       0.63177335       6.59987126       7.69558913
Ni       0.48211751       6.37234234      23.32889961
Ni       2.31365461       0.01426300       7.85370473
Ni       2.01233491      -0.05207872      23.42371267
Ni      -0.37739384       4.34898043       7.73503610
Ni      -0.57181018       4.17544926      23.39502177
Ni       6.93864646       0.29182210       7.68907532
Ni       6.83420581       0.08379957      23.45062069
Ni       4.32814367       4.50250268       7.65096977
Ni       4.16853113       4.32480411      23.39091248
Ni      -1.24296133       2.10829919      -0.08725116
Ni      -1.47185661       2.09663065      15.66169868
Ni      -4.06755512       6.39464357      -0.12524083
Ni      -4.19296850       6.42029052      15.65318594
Ni       3.39200847       2.23729940      -0.08818286
Ni       3.19268145       2.23504852      15.60060253
Ni       0.79887216       6.61960290       0.03873046
Ni       0.48509718       6.50365065      15.58680265
Ni       0.93227157       2.18138075       7.75349712
Ni       0.74597801       2.10457068      23.41127035
Ni      -1.69461204       6.46471764       7.75698290
Ni      -1.88527362       6.43017286      23.44289991
Ni       5.70211357       2.29114686       7.70024214
Ni       5.55606790       2.23133800      23.32372823
Ni       3.06053786       6.73384268       7.73291425
Ni       2.86567271       6.57464337      23.36362466
