190
Lattice="9.782270427145992 0.07115913121441182 -0.2728853580113326 -4.9978293628981785 7.94193835626174 0.07935778596477909 -0.4164323110954147 -0.8354810300024047 30.86000148058102" Properties=species:S:1:pos:R:3 pbc="T T T"
Mg      -0.23094156      -0.41669860      13.96212893
Mg      -0.39177991      -0.82403656      29.38596769
Mg      -2.74990709       3.49663102      13.98342203
Mg      -2.83876629       3.17256130      29.55002557
Mg       4.70811030      -0.27905092      13.81463438
Mg       4.44629641      -0.69385057      29.26955381
Mg       2.16721090       3.66697296      13.90736023
Mg       1.92602440       3.25903796      29.30106015
Mg      -0.07579892      -0.18476857       6.21681079
Mg      -0.28645887      -0.56019042      21.60809892
Mg      -2.59229747       3.83328218       6.26202448
Mg      -2.85341153       3.41959775      21.81446284
Mg       4.76074243      -0.16862127       6.15591920
Mg       4.58271940      -0.52277094      21.53241662
Mg       2.36081741       3.83008352       6.30508883
Mg       2.07005884       3.41827925      21.68725558
Mg      -0.15272032      -0.15760994       9.18357254
Mg      -0.37286723      -0.68631753      24.55416283
Mg      -2.52332000       3.81884413       9.21025491
Mg      -2.83905114       3.29223974      24.67088006
Mg       4.76167703      -0.23428907       8.98300400
Mg       4.53409860      -0.55619229      24.48916647
Mg       2.27274530       3.74101366       9.13329018
Mg       2.10705372       3.36216268      24.52837541
Mg       0.04667033      -0.00778564       1.43554340
Mg      -0.17810415      -0.41500839      16.87636924
Mg      -2.52041975       3.87467366       1.54335170
Mg      -2.72535758       3.55144342      16.93618616
Mg       4.97238809      -0.03419278       1.29329518
Mg       4.77598332      -0.42783149      16.84047767
Mg       2.27318084       3.93421416       1.39437772
Ni       2.14783492       3.47529556      16.79063027
Mg       2.38285107       1.28324734       2.39380650
Mg       2.15880080       0.85612804      17.78150172
Mg      -0.07329158       5.23727274       2.38193365
Mg      -0.22656471       4.83177606      17.76327223
Mg       7.37940601       1.32950337       2.22821897
Mg       7.17139399       0.86097006      17.56178166
Mg       4.85562765       5.25725739       2.23786241
Mg       4.56541069       4.89207318      17.68281689
Mg      -0.10968431       2.40540889      10.10109596
Mg      -0.30035098       2.00475436      25.55371634
Mg      -2.71432326       6.39866657      10.17311876
Mg      -2.81045500       5.87451899      25.40426929
Mg       4.70969388       2.44577944       9.99142465
Mg       4.60689311       1.92735699      25.29917165
Mg       2.06565094       6.35617935       9.99457085
Mg       1.94898678       5.98918370      25.42797289
Mg       2.34491376       1.26282959       5.29681742
Mg       2.08004519       0.71349619      20.61384470
Mg      -0.17413306       5.16790699       5.29628721
Mg       7.23040717       1.27308022       5.02735953
Mg       7.04066882       0.84503392      20.56655846
Mg       4.85365278       5.13521279       5.11453241
Mg       4.56682721       4.76540430      20.66281239
Mg      -0.22520650       2.34994089      12.94882805
Mg      -0.44933936       1.84269007      28.56565441
Mg      -2.71506716       6.36037322      12.98511160
Mg      -2.96137504       5.85886838      28.46199017
Mg       4.70619947       2.42003771      12.82847481
Mg       4.47887471       1.92827641      28.35666775
Ni       2.36224600       6.30518766      12.89142647
Mg       1.99683335       5.85020429      28.40850502
Ni       2.28486085       1.02973481      13.42593745
Ni       1.98299930       0.56041921      28.91354524
Ni      -0.27065016       4.90619260      13.49247768
Ni      -0.41497699       4.50738123      28.94032620
Ni       7.18996089       0.96756592      13.26334265
Ni       6.94014158       0.55465720      28.73499302
Ni       4.72461129       5.00956235      13.33876399
Ni       4.35941656       4.56419434      28.78352017
Ni      -0.08198382       2.47871645       5.82930602
Ni      -0.31101495       2.05943913      21.17545952
Ni      -2.68435956       6.47870023       5.84634106
Ni      -2.78463547       6.08593238      21.20848166
Mg       4.79093869       2.48043681       5.56690334
Ni       4.63179614       2.12234083      21.02500519
Ni       2.20674795       6.48583337       5.65957848
Ni       2.06065138       6.03271502      21.08345317
Ni       2.29864307       1.07976344       9.52201619
Ni       2.10921565       0.69363996      24.88998404
Ni      -0.11958502       5.07315464       9.57966634
Ni      -0.35205053       4.66295368      25.09815169
Ni       7.14603126       1.12606233       9.52596685
Ni       6.98981452       0.76833546      24.78489581
Ni       4.75244972       5.06788874       9.52357924
Ni       4.38957131       4.64539023      24.94436313
Ni       0.03162287       2.63498746       1.93651018
Ni      -0.24868235       2.22729136      17.29016184
Ni      -2.60108373       6.60097435       2.03274179
Ni      -2.78261293       6.14323122      17.42913339
Ni       4.86963712       2.58593031       1.73246440
Ni       4.60526231       2.20492800      17.19217642
Ni       2.37405366       6.60524018       1.85741485
Ni       2.03964423       6.21795159      17.21632630
Ni       2.27817329       2.44911509      11.50838117
Ni       2.06519366       1.89492732      26.94550548
Ni      -0.21739989       6.27177694      11.54767739
Ni      -0.57156372       5.90170875      26.90615755
Ni       7.21715822       2.44073352      11.33495171
Ni       6.94088557       1.99562256      26.79589151
Ni       4.68425136       6.28949826      11.38374088
Ni       4.45694975       6.03704678      26.74550161
Ni       3.56887592       0.37914695      11.38479926
Ni       3.34796906      -0.02658028      26.85437209
Ni       0.99243704       4.28873679      11.55150460
Ni       0.81361880       4.01964818      26.95020709
Ni       8.40909089       0.41575727      11.34447615
Ni       8.23409023      -0.00485206      26.74102099
Ni       5.69826343       3.97440400      26.82065025
Ni       1.16359142       3.28555702       3.84170468
Ni       0.87887519       2.79756093      19.24700493
Ni      -1.31372682       7.20489910       3.80131752
Ni      -1.53287427       6.88835448      19.24312244
Ni       5.99855015       3.35839209       3.66374504
Ni       5.77822248       2.73947806      19.16004384
Ni       3.55715810       7.31077276       3.69059046
Ni       3.28650012       6.85219758      19.11050176
Ni       1.04284973       0.29294982      11.51522054
Mg       0.83978292      -0.08321733      26.96485923
Ni      -1.49414728       4.35059537      11.59495160
Ni      -1.70021180       3.97300102      27.03249808
Ni       6.01061277       0.39223515      11.49115197
Ni       5.77967829       0.00128684      26.80575755
Ni       3.54533082       4.32842829      11.33130522
Ni       3.35420110       3.98721499      26.80764418
Ni      -0.13987725       1.21398596       3.91059793
Ni      -0.24061140       0.85209563      19.19529276
Ni      -2.48601425       5.17606973       3.88940143
Ni      -2.75550268       4.75051830      19.42581191
Ni       4.84340922       1.17848451       3.76132746
Ni       4.64630794       0.82543144      19.11171953
Ni       2.41481366       5.21889730       3.77191720
Ni       2.12486151       4.85053209      19.20220563
Ni      -1.26664231       3.21754569       3.95561849
Ni      -1.56734668       2.88325748      19.22808143
Ni      -3.84999728       7.14715240       3.95496361
Ni      -3.95502132       6.75330643      19.40925650
Ni       3.47406082       3.30502843       3.61169797
Ni       3.40111180       2.80822690      19.22580600
Ni       1.03606634       7.24775010       3.80178283
Ni       0.86620769       6.77315573      19.22732673
Ni       2.46475960       0.05078165      -0.09782263
Ni       2.20779914      -0.43727638      15.28942467
Ni       0.00074191       3.92071137      -0.07247887
Ni      -0.19675655       3.57710263      15.37211865
Ni       7.33462072       0.05183776      -0.30059432
Ni       7.15678700      -0.30821630      15.23383557
Ni       4.83836883       3.95231486      -0.16246819
Ni       4.61077989       3.61129369      15.25721053
Ni       1.19591471       2.03560312      -0.04984391
Ni       1.03039340       1.55225370      15.40376568
Ni      -1.37129082       5.91587896       0.03948158
Ni      -1.60461183       5.53742899      15.42099993
Ni       6.14498662       1.92868811      -0.13472191
Ni       5.87621712       1.54157397      15.25547248
Ni       3.62166089       6.09544414      -0.12626443
Ni       3.39302582       5.58726551      15.21552739
Ni      -1.35876722       1.77288999       7.70557365
Ni      -1.59868544       1.38736041      23.22883733
Ni      -3.75517928       5.71921743       7.79481833
Ni      -4.03566814       5.29169155      23.23944355
Ni       3.55865355       1.80441861       7.56954210
Ni       3.38114673       1.34891518      23.05465322
Ni       1.01742655       5.89687415       7.64176411
Ni       0.83679427       5.39842162      23.08969953
Ni       2.32803816      -0.09768693       7.64718252
Ni       2.02805946      -0.62262289      23.13968887
Ni      -0.11769482       3.79432592       7.73577378
Ni      -0.40198944       3.39355168      23.05908324
Ni       7.23141187      -0.16725537       7.50489972
Ni       6.96587857      -0.59134115      22.99386816
Ni       4.64589403       3.86185325       7.60544040
Ni       4.55177875       3.39763850      22.98972590
Ni      -1.22539176       2.03747734      -0.05760554
Ni      -1.59952461       1.52006655      15.47314760
Ni      -3.70765864       5.89352955       0.10181565
Ni      -3.97226428       5.57197887      15.53793528
Ni       3.54844261       2.08124458      -0.11996006
Ni       3.51724341       1.59913072      15.31799589
Ni       1.09378337       6.00338832      -0.12520564
Ni       0.91007221       5.60038903      15.33600864
Ni       1.13080677       1.85296782       7.61822169
Ni       0.80440332       1.34737139      23.08692280
Ni      -1.42507442       5.78114193       7.79685296
Ni      -1.63205396       5.38886522      23.10487897
Ni       6.00718947       1.81957922       7.48967038
Ni       5.67565432       1.43715646      22.96059389
Ni       3.42308645       5.76147797       7.51676994
Ni       3.26123051       5.35020576      23.04707408
