190
Lattice="9.72393666164313 0.0710367967164627 -0.4403335651921833 -5.006983437780365 8.413599223564965 0.5204506153425357 0.6547290563338086 -0.13192159683040525 31.80962825004305" Properties=species:S:1:pos:R:3 pbc="T T T"
Mg       0.32455552      -0.12394966      14.43665810
Mg       0.70630484      -0.10247508      30.36399100
Ni      -2.30640195       4.09257110      14.70237542
Mg      -1.92961512       4.03175034      30.51534818
Mg       5.21493722      -0.02026316      14.04249317
Mg       5.53898087      -0.08966308      30.09737575
Mg       2.69159358       4.13600768      14.50260972
Mg       2.93466940       4.16566824      30.33455589
Mg       0.05060189       0.02048524       6.44876817
Mg       0.45113087      -0.11793778      22.38800349
Mg      -2.34429982       4.27081696       6.76072908
Mg      -2.14161980       4.10113844      22.61639639
Mg       5.04079513       0.01501280       6.18860045
Mg       5.33935872      -0.10313771      22.20608104
Mg       2.46228508       4.13706895       6.53700600
Ni       2.77275704       4.12603563      22.32293926
Mg       0.22007925       0.03533284       9.35270701
Ni       0.55678384      -0.10129236      25.40745676
Mg      -2.34097740       4.08178748       9.65528138
Mg      -1.99475579       4.07509778      25.63099656
Mg       5.06821610       0.07738349       9.19962760
Mg       5.30003818      -0.01150519      25.18381501
Mg       2.53207471       4.11004668       9.45625160
Mg       2.92067594       4.12009447      25.42436623
Mg      -0.00293513      -0.07136415       1.54977521
Mg       0.35734086      -0.13672191      17.33881874
Mg      -2.49879115       4.23942308       1.84385202
Mg      -2.13790870       4.17589462      17.64653985
Mg       4.92875601       0.06899788       1.26085482
Mg       5.25210756      -0.00694694      17.13622953
Mg       2.43744039       4.25239210       1.57079586
Mg       2.72304094       4.20376846      17.52018218
Mg       2.34740288       1.36720704       2.41614936
Mg       2.78227582       1.37231741      18.32765394
Mg      -0.08741609       5.64186740       2.69807584
Ni       0.27531602       5.63559083      18.57006693
Mg       7.25565171       1.43501229       2.14726250
Mg       7.60008300       1.39960855      18.15782054
Mg       4.81652020       5.65983365       2.51128103
Mg       5.16310993       5.73596671      18.33574305
Ni       0.17175984       2.68474693      10.64080627
Mg       0.49475473       2.70833829      26.45187835
Mg      -2.37736468       6.91820528      10.89145809
Mg      -2.02117842       6.94495933      26.65693222
Mg       5.04977783       2.85101702      10.38197036
Mg       5.36578830       2.71058409      26.21829819
Mg       2.54379768       6.99850954      10.55813376
Mg       2.87154409       6.90574374      26.38445008
Mg       2.48807664       1.34020771       5.29079373
Mg       2.79139008       1.30845352      21.33526000
Mg      -0.02609024       5.61401818       5.72226187
Mg       0.36478849       5.59760162      21.61296311
Mg       7.37567282       1.39770767       5.17549075
Mg       7.75209223       1.41012375      21.09256411
Mg       4.90648871       5.65932061       5.38136845
Mg       5.28223487       5.57673126      21.22448999
Mg       0.25552631       2.76234378      13.55703319
Mg       0.60997414       2.76450991      29.42781737
Mg      -2.36961587       6.95171168      13.84720312
Mg      -1.89105817       6.86941021      29.74366222
Mg       5.05184752       2.79796517      13.38289133
Mg       5.41457420       2.66484029      29.27740152
Mg       2.57643223       6.96724894      13.61117984
Mg       2.89793563       7.01501469      29.43391987
Ni       2.64079535       1.37056229      13.85514858
Ni       2.99264876       1.29121374      29.68618218
Ni       0.22491585       5.59073513      13.98491564
Ni       0.48533796       5.49112525      30.06725554
Ni       7.57670162       1.43281709      13.60049318
Ni       7.81973469       1.37640199      29.44584083
Ni       5.08953254       5.58520103      13.98831893
Ni       5.41815662       5.64998259      29.87193368
Ni       0.15068259       2.76265145       6.01916583
Ni       0.49896649       2.75422414      21.99467580
Mg      -2.40364635       7.05134509       6.32598510
Ni      -2.24122430       7.00839172      22.34656570
Ni       4.86967905       2.78734222       5.77140942
Ni       5.21901502       2.71223462      21.79809375
Ni       2.32245597       7.03453365       6.16586836
Ni       2.76699539       7.03136576      21.95211390
Ni       2.68761911       1.41595314       9.79843994
Ni       2.92629868       1.32923519      25.81007640
Ni       0.10589436       5.61795622      10.10703728
Ni       0.53953932       5.59970384      26.11600128
Ni       7.86093924       1.27765367      25.53806194
Ni       5.02584282       5.70572814       9.96663840
Ni       5.31778597       5.58392706      25.80896165
Ni      -0.03331727       2.79970254       2.04619207
Ni       0.31783381       2.74235880      18.04439725
Ni      -2.52709959       7.03565284       2.37620755
Ni      -2.21981693       6.89782010      18.12145876
Ni       4.89046218       2.90152515       1.84824018
Ni       5.11383006       2.82863630      17.78546777
Ni       2.30577688       7.03434368       2.12250691
Ni       2.68888944       6.93378365      18.08220142
Ni       2.60946744       2.76468389      11.96268669
Ni       2.90298833       2.68856040      27.85401612
Ni       0.30146405       6.93152819      12.22277867
Ni       0.41146394       6.92511134      28.16358129
Ni       7.59465425       2.82697880      11.61874050
Ni       7.75347806       2.68152819      27.70658433
Ni       5.11462884       6.99903276      11.93079762
Ni       5.22141660       6.94155459      27.76976021
Ni       3.89305805       0.62547436      11.73755040
Ni       4.24183417       0.55995703      27.75003842
Ni       1.44133167       4.93473560      12.03439128
Ni       1.75249456       4.85614696      28.05448777
Ni       8.71659439       0.69427330      11.47246003
Ni       9.10105429       0.66957456      27.52393144
Ni       6.26225322       4.89588171      11.79164130
Ni       6.54706950       4.87187681      27.79327725
Ni       1.25283686       3.50927005       4.01414762
Ni       1.51504816       3.49368491      19.89066984
Ni      -1.17863679       7.70285708       4.36782000
Ni      -0.97249346       7.59279753      20.15398564
Ni       6.08810624       3.57101582       3.88445192
Ni       6.48198817       3.38249340      19.80686598
Ni       3.54044156       7.73613390       4.06448718
Ni       3.91612973       7.70881920      19.97622826
Ni       1.55121731       0.69596627      11.86284872
Mg       1.73096057       0.60000945      27.76640902
Ni      -0.62180543       4.85619236      28.07843897
Ni       6.25840401       0.67546612      11.62290070
Ni       6.67314819       0.62515315      27.59996566
Ni       3.77828938       4.94757099      11.89452182
Ni       4.07930970       4.91923558      27.84333968
Ni       0.10045624       1.45204239       4.06805415
Ni       0.44405991       1.31345132      19.92888333
Ni      -2.40313774       5.57139051       4.31434117
Ni      -2.13141925       5.55816074      20.13126890
Ni       4.82930421       1.37915366       3.79876747
Ni       5.30703026       1.31849268      19.64020261
Ni       2.39363650       5.64953254       4.10334756
Ni       2.75525210       5.60708987      20.02432325
Ni      -1.23257801       3.43249834       4.09843239
Ni      -0.80245276       3.47330952      19.97710207
Ni      -3.67571375       7.69046778       4.37104896
Ni      -3.36197168       7.60702703      20.23585727
Ni       3.78975538       3.55364255       3.94169345
Ni       4.01070385       3.33190574      19.82208157
Ni       1.11608280       7.72894507       4.20425358
Ni       1.41704676       7.64771513      20.12932570
Ni       2.41004537       0.01866954      -0.10643856
Ni       2.66518078       0.01870290      15.77538860
Ni      -0.09008365       4.23726072       0.14542385
Ni       0.32032319       4.22325991      16.04836948
Ni       7.31911515       0.01220007      -0.30725648
Ni       7.53690200       0.04975635      15.61110431
Ni       4.79891859       4.28693926      -0.15477322
Ni       5.12508954       4.17349351      15.97224301
Ni       1.21510904       2.02994133      -0.02112445
Ni       1.57714112       2.02003656      15.91048551
Ni      -1.42802276       6.20948938       0.25930226
Ni      -0.96915566       6.23856553      16.20549950
Ni       6.01980636       2.13025847      -0.18650842
Ni       6.32820675       2.11730416      15.73676717
Ni       3.57210308       6.40121208       0.05228445
Ni       3.86565830       6.29764849      16.01700231
Ni      -1.14632492       2.08975474       8.07367639
Ni      -0.72097802       1.97652808      24.02685019
Ni      -3.62769307       6.24143124       8.42710357
Ni      -3.24537657       6.23091406      24.29816319
Ni       3.78111313       2.18382286       7.86568512
Ni       4.10880969       2.07184124      23.78844469
Ni       1.26980427       6.31239485       8.18577691
Ni       1.61695907       6.28452393      23.99989065
Ni       2.61761345      -0.08245195       7.90841391
Mg       3.03054917      -0.05071708      23.79886652
Ni       0.08580963       4.28246934       8.10298954
Ni       0.44834628       4.15819458      24.03731621
Ni       7.39752060       0.07956441       7.68005766
Ni       7.82428762      -0.05725414      23.36727504
Ni       4.97255705       4.20435068       7.86127109
Ni       5.30999727       4.11125491      23.90319919
Ni      -1.19188646       2.13032119       0.11670580
Ni      -0.88783139       2.07042297      15.98168217
Ni      -3.79956878       6.35991245       0.36787540
Ni      -3.34131899       6.21393828      16.31437750
Ni       3.61637850       2.10447633      -0.02225840
Ni       3.98687048       2.11303654      15.81802066
Ni       1.05378138       6.41854238       0.10983138
Ni       1.47610157       6.28622693      16.04864630
Ni       1.34807186       2.09938964       8.03498799
Ni       1.67789966       2.02733979      23.93476811
Ni      -1.10037420       6.32366186       8.27501978
Mg      -0.87518937       6.19730710      24.12946458
Ni       6.24153667       2.12585632       7.73710448
Ni       6.49242107       2.04944046      23.68047407
Mg       3.69435790       6.34889030       7.93946622
Ni       4.11507571       6.25704740      23.90282476
