191
Lattice="9.717788346718216 -0.17961308565241949 0.2386868304160962 -4.601269111537567 8.600371905008135 -0.28205847421731306 0.008005635865045742 -0.7206792165336736 31.473411203951752" Properties=species:S:1:pos:R:3 pbc="T T T"
Ni       0.02161130      -0.39047143      14.23025766
Mg      -0.02106785      -0.74544047      30.10456050
Mg      -2.34997472       4.02071182      14.14563058
Mg      -2.28476634       3.66858160      29.75102228
Mg       4.90930550      -0.39798560      14.41652046
Mg       4.97442029      -0.83345663      30.13308506
Mg       2.56201206       3.84626780      14.25829404
Mg       2.58605386       3.51131795      29.92660475
Mg       0.03511681      -0.17489706       6.30759155
Mg       0.01485309      -0.50287529      22.21506454
Mg      -2.34213085       4.21964679       6.34509366
Mg      -2.34229231       3.79364265      21.98237499
Mg       4.93647271      -0.19642695       6.61146980
Mg       4.88970904      -0.62610568      22.21481828
Mg       2.52355738       4.03589788       6.38503281
Mg       2.57536769       3.71447196      22.09290232
Mg      -0.00828072      -0.24580713       9.40127566
Mg       0.05654428      -0.55891966      25.12915061
Mg      -2.28118688       4.07588128       9.22247156
Mg      -2.21853196       3.67851873      25.00095940
Mg       4.76784019      -0.29012769       9.48797458
Mg       4.89062957      -0.61148926      25.23125758
Mg       2.51248421       3.92626044       9.27020532
Ni       2.51475370       3.68304527      25.09185507
Mg       0.03297736       0.01661140       1.47324672
Mg       0.02063764      -0.47203323      17.22090798
Mg      -2.24900531       4.30728147       1.28938174
Mg      -2.28391703       3.97524028      17.09717292
Mg       4.85069977      -0.19373667       1.61978019
Mg       4.95062864      -0.51678448      17.30347278
Mg       2.55332818       4.22702123       1.44468111
Mg       2.59509147       3.68584123      17.19971707
Mg       2.38135767       1.35745458       2.49567210
Mg       2.48645660       0.93583796      18.25001881
Mg       0.15206190       5.62331022       2.32024701
Mg       0.16749817       5.37288045      18.02029423
Mg       7.27414282       1.22537405       2.67034668
Mg       7.35013722       0.89857122      18.30417803
Mg       4.97464311       5.55696827       2.41305595
Mg       5.06517264       5.13470930      18.18216449
Mg       0.05118210       2.59292365      10.21111026
Mg       0.17839342       2.32194300      25.97651903
Mg      -2.25707299       6.91854957      10.11658260
Mg      -2.24348150       6.52031641      25.89533486
Mg       4.92596374       2.42401813      10.38287195
Mg       4.98655951       2.14717759      26.06184607
Mg       2.64370954       6.87297819      10.22635764
Mg       2.60354226       6.42814019      26.00426104
Mg       2.43254712       1.29050810       5.58187036
Mg       2.57346834       0.82538359      21.22561258
Mg       0.16517879       5.52388871       5.20120914
Ni       0.21852900       5.15294781      21.04463667
Mg       7.27561885       1.15449842       5.53739855
Mg       7.31492596       0.84363941      21.33515136
Mg       4.98849101       5.55572452       5.51696344
Mg       5.04430422       5.10502546      21.19141084
Mg       0.01367591       2.46556162      13.27567685
Mg       0.07618340       2.27386912      28.95913920
Mg      -2.19886278       6.83846225      12.99311731
Mg      -2.21251259       6.45792206      28.84345525
Ni       4.91326556       2.52252454      13.33401080
Mg       4.89201163       2.17320991      29.19944711
Mg       2.68398888       6.69058168      13.21828450
Mg       2.62247195       6.45144976      28.92634316
Mg       2.51626189       1.09884619      13.82859557
Ni       2.55278155       0.55995380      29.48551889
Ni       0.22535251       5.32524230      13.66604574
Ni       0.10446000       4.99170484      29.33321120
Ni       7.34876593       0.99553486      13.93093691
Ni       7.36722121       0.71967778      29.62291996
Ni       5.03063955       5.23189446      13.85945853
Ni       5.12012523       4.80568719      29.53184843
Ni       0.14399071       2.72433142       5.85306118
Ni       0.06545052       2.42463063      21.62189322
Ni      -2.24316960       7.07858744       5.74582288
Ni      -2.27389783       6.65321152      21.48857138
Ni       4.85457462       2.61168765       5.96958892
Ni       4.91263435       2.27527626      21.65485200
Ni       2.74063866       6.90226105       5.86567656
Ni       2.58608549       6.58546147      21.58020049
Ni       2.52234588       1.15970590       9.83414075
Ni       2.50257178       0.79718783      25.54985428
Ni       0.08927304       5.38071981       9.74861255
Ni       0.17387852       5.01517725      25.50634187
Ni       7.28475476       1.06211254       9.90361778
Ni       7.32477880       0.81521325      25.73443247
Ni       5.01692878       5.40923174       9.88378845
Ni       4.99458426       4.98168099      25.60353900
Ni       0.13253031       2.73164753       1.85263595
Ni       0.00658440       2.34268954      17.65226010
Ni      -2.14188707       7.06336496       1.76414911
Ni      -2.22588602       6.78228666      17.52532996
Ni       5.00714270       2.73837397       2.00446390
Ni       4.91983400       2.37302237      17.65639568
Ni       2.64473710       7.02936439       1.87895234
Ni       2.61925650       6.69338607      17.59992907
Ni       2.52295239       2.42735905      11.76217971
Ni       2.52746716       2.20460486      27.56812549
Ni       0.20028466       6.83028120      11.70675661
Ni       0.18899050       6.47580463      27.50965119
Ni       7.38332736       2.52428030      11.93914253
Ni       7.37897071       2.09235948      27.66363796
Ni       5.02315104       6.72418467      11.78472949
Ni       5.09906070       6.39525140      27.57235636
Ni       3.59151205       0.43111112      11.83136995
Ni       3.70485918      -0.00173244      27.65820927
Ni       1.35498139       4.68240674      11.79466103
Ni       1.39365194       4.29361309      27.38418114
Ni       8.37806460       0.25416672      11.99718204
Ni       8.55243313      -0.03364835      27.81763513
Ni       6.19163512       4.54512638      11.89124041
Ni       1.34275040       3.41633110       3.97358083
Ni       1.32250836       3.04893312      19.63463695
Ni      -0.89597905       7.79575198       3.74224985
Ni      -1.03164803       7.35070422      19.48464750
Ni       6.15374999       3.34678688       4.07655422
Ni       6.25212325       3.01631380      19.74247538
Ni       3.90881729       7.66262038       3.81397792
Ni       3.82499614       7.31192478      19.64659241
Ni       1.23432976       0.44345812      11.76131695
Ni       1.26788925       0.04972009      27.55052757
Ni      -1.06465481       4.74730065      11.71980750
Ni      -1.06262890       4.29892188      27.40890965
Ni       6.12255717       0.29966412      11.96998276
Ni       6.10911663      -0.03067478      27.70846532
Ni       3.83405420       4.60649592      11.74746683
Ni       3.71922621       4.26661306      27.54258978
Ni       0.01013065       1.37372972       3.91149059
Ni       0.09946533       0.93976477      19.71364432
Ni      -2.21564977       5.66574934       3.78795579
Ni      -2.32023818       5.25746746      19.51552997
Ni       4.98134970       1.29140167       4.02153546
Ni       4.87098086       0.89267533      19.85359870
Ni       2.57413121       5.51541124       3.87822620
Ni       2.69298984       5.15029330      19.64607754
Ni      -1.10461997       3.51822940       3.95459532
Mg      -1.10289035       3.14485222      19.50582958
Ni      -3.33801952       7.78528497       3.63549199
Ni      -3.47709085       7.44593572      19.47368793
Ni       3.73360931       3.41984290       4.05257831
Ni       3.77955477       2.99790354      19.63845801
Ni       1.40011887       7.65957727       3.88506800
Ni       1.37598417       7.39599269      19.52399023
Ni       2.41837661      -0.00434902       0.06027124
Ni       2.31175467      -0.48154632      15.76422252
Ni       0.11205206       4.31162950      -0.14202838
Ni       0.14244521       3.81973644      15.60938882
Ni       7.26678984      -0.10656808       0.16061827
Ni       7.23393110      -0.54281737      15.88249931
Ni       5.04302745       4.22154582       0.04435194
Ni       4.96303727       3.82327164      15.81145398
Ni       1.29108329       2.07317541      -0.08540627
Ni       1.26808065       1.75271565      15.73749701
Ni      -1.08222989       6.32488716      -0.11274582
Ni      -0.98366181       5.91943502      15.55213816
Ni       6.12254960       2.05036880       0.14557364
Ni       6.06227724       1.59355165      15.82455545
Ni       3.87425612       6.25082401      -0.05253189
Ni       3.75414656       5.96612627      15.65828862
Ni      -1.14099072       1.98514796       7.81800710
Ni      -1.15306595       1.59560691      23.45066265
Ni      -3.49634626       6.18815234       7.62883174
Ni      -3.51923552       5.91888590      23.35237093
Ni       3.73057101       1.94292926       7.89508029
Ni       3.71320370       1.49544017      23.67929384
Ni       1.35203433       6.18468733       7.75016613
Ni       1.37197048       5.88053808      23.49160862
Mg       2.47378734      -0.24413874       7.95876479
Ni       2.44041426      -0.58503541      23.67977314
Ni       0.03428903       4.09256931       7.81410620
Ni       0.03843462       3.75471048      23.46481066
Ni       7.26085670      -0.31000686       7.91423782
Ni       7.23668072      -0.74303321      23.79956963
Ni       4.92801070       4.01709112       7.84874307
Ni       4.99936111       3.64274457      23.70188104
Ni      -1.18630410       2.17214803      -0.21400748
Mg      -1.08752205       1.84754151      15.65632656
Ni      -3.52052134       6.53647907      -0.16477312
Ni      -3.44948985       5.98506447      15.60335637
Ni       3.72282888       2.02268481      -0.00750850
Ni       3.76339908       1.64128082      15.90913754
Ni       1.39226465       6.34195851      -0.19653253
Ni       1.39876097       6.03677999      15.63782009
Ni       1.23488232       1.92312897       7.85431747
Ni       1.23240569       1.54201042      23.63383820
Ni      -1.01434692       6.28530715       7.59188828
Ni      -0.99617158       5.79361915      23.49448129
Ni       6.04593376       1.79273552       8.00539364
Ni       6.08554327       1.51722423      23.59493987
Ni       3.85616486       6.13638210       7.80465748
Ni       3.97423627       5.82112240      23.58476332
