191
Lattice="9.755563547393363 0.08051059718485454 0.13249600807343861 -4.915467914960589 8.6215216307447 -0.1388773189167495 0.10214941170938202 0.11871115656152438 33.41873632083107" Properties=species:S:1:pos:R:3 pbc="T T T"
Mg       0.05649696      -0.00429689      15.20396093
Ni       0.07320278       0.14811459      31.85475896
Mg      -2.47124135       4.30293475      15.08192281
Mg      -2.31711612       4.40445908      31.69902730
Mg       4.92753109       0.06099913      15.31485456
Mg       5.00956812       0.09880335      31.98235689
Mg       2.46620457       4.44329896      15.05933198
Mg       2.43052665       4.51412084      31.83917660
Mg       0.03378666       0.04323786       6.75806625
Mg       0.06841684       0.00864912      23.47224968
Mg      -2.37123226       4.28639708       6.66516857
Ni      -2.42070064       4.27330017      23.41479859
Mg       4.94567924       0.03207078       6.86117299
Mg       4.96306542       0.17058954      23.63833503
Mg       2.45478623       4.43158198       6.77288514
Mg       2.53884977       4.37181760      23.47365564
Mg       0.07283171       0.04147469       9.91690273
Mg       0.09330516       0.08534162      26.67338338
Mg      -2.43283084       4.30868133       9.89635628
Mg      -2.40330183       4.37943798      26.56950809
Mg       4.92052299       0.01104391       9.97346466
Mg       4.94275323       0.20465866      26.65840193
Mg       2.47422843       4.44264970       9.94243086
Mg       2.53007851       4.39131490      26.62310563
Mg       0.01163933      -0.02353906       1.54889374
Mg       0.02308318       0.10607584      18.21337848
Mg      -2.41452555       4.26760327       1.47410622
Mg      -2.44638757       4.40992795      18.15873922
Mg       4.86274200       0.07448220       1.60939046
Mg       4.98035426       0.05937538      18.33359374
Mg       2.41244329       4.37357072       1.59447354
Mg       2.49372150       4.32367149      18.36310287
Mg       2.39535623       1.37133211       2.67835028
Mg       2.53563992       1.48685306      19.36956819
Mg      -0.06762652       5.75983458       2.52245655
Mg       0.10587258       5.83854387      19.22885754
Mg       7.25471619       1.57065429       2.72313452
Ni       7.38898473       1.62710851      19.46826919
Mg       4.84423912       5.88506992       2.58934668
Mg       4.88555084       5.85071156      19.29764042
Mg      -0.00055487       2.94666344      10.95492911
Mg       0.02981423       2.91893532      27.67134992
Mg      -2.45948200       7.28394452      10.82141020
Mg      -2.34920104       7.28787412      27.56654020
Mg       4.78381656       2.92101693      10.97925065
Mg       4.95646882       3.07983261      27.67498585
Mg       2.44811715       7.18613797      10.84851604
Mg       2.49717041       7.28146112      27.65417744
Mg       2.45169832       1.50589305       5.82838811
Mg       2.48170057       1.56485371      22.47226061
Mg      -0.03783099       5.72571810       5.72514929
Mg       0.03515629       5.79824528      22.37724772
Mg       7.36697645       1.50141244       5.86593296
Mg       7.34536417       1.55165218      22.62042702
Mg       4.90263783       5.80980509       5.73330096
Ni       4.92815872       5.88295982      22.49949228
Mg       0.04294373       2.95702250      14.11031674
Mg       0.02959823       2.93368242      30.72574992
Mg      -2.39159776       7.30405432      14.03928476
Mg      -2.35866884       7.29314616      30.69343758
Mg       4.91728331       2.94361412      14.11656147
Mg       4.89127713       2.99677175      30.82665637
Mg       2.52270771       7.29068682      14.04430506
Mg       2.46977196       7.39293919      30.80342806
Ni       2.46259542       1.50034967      14.64276079
Ni       2.45502828       1.55250242      31.35734272
Mg      -0.03268114       5.82352989      14.64281258
Ni       0.10865913       5.85632893      31.30926203
Ni       7.36659065       1.54254229      14.74123739
Ni       7.26896874       1.60065648      31.42791869
Ni       4.86073761       5.83566867      14.63490630
Ni       4.98397372       5.93581450      31.28050216
Ni       0.01617617       2.98428624       6.25980074
Ni       0.00870774       3.04785100      22.95358232
Ni      -2.43707532       7.15170359       6.24266526
Ni      -2.37665712       7.33283656      22.86227430
Ni       4.93455797       2.96875193       6.30881302
Ni       4.86579018       2.98238180      22.94949858
Ni       2.42973994       7.27114540       6.16356161
Ni       2.48513599       7.29560138      23.00622339
Ni       2.52072919       1.45367246      10.42666979
Ni       2.53585347       1.50600998      27.16650907
Ni       0.02431949       5.87351758      10.31063730
Ni      -0.06405080       5.87778829      27.17811183
Ni       7.36615853       1.55575753      10.56729238
Ni       7.39332890       1.55201875      27.16787507
Ni       4.88282075       5.81058049      10.46521448
Ni       4.92820575       5.88249110      27.14134047
Ni      -0.03331522       2.88531081       2.06296445
Ni       0.01290048       2.92026104      18.85700310
Ni      -2.46995603       7.13243711       1.99764865
Ni      -2.49574584       7.18012421      18.81923407
Ni       4.85046554       2.91610267       2.16069654
Ni       4.87899452       2.94755848      18.76213397
Ni       2.46401929       7.17789406       1.98851954
Ni       2.50601295       7.26834189      18.81231391
Ni       2.43304759       2.99955537      12.59141290
Ni       2.45192205       3.02600168      29.23921510
Ni      -0.09571027       7.21470771      12.56921615
Ni       0.12550754       7.35937894      29.22373119
Ni       7.29859171       2.98901359      12.63159501
Ni       7.38443697       3.06353566      29.30825963
Ni       4.89585958       7.37516424      12.47027418
Ni       4.96910144       7.34628562      29.26146503
Ni       3.62015325       0.74141016      12.52768791
Ni       3.76056640       0.82345878      29.28583655
Ni       1.22574382       5.08431167      12.55456985
Ni       1.31988786       5.13975951      29.35293962
Ni       8.51611225       0.82871634      12.65109112
Ni       8.64769357       0.83878425      29.37046054
Ni       6.15533870       5.18419131      12.69291800
Ni       6.22737910       5.25704111      29.31570383
Ni       1.21845208       3.57476949       4.07111808
Ni       1.33915336       3.69267908      20.93469063
Ni      -1.25151050       7.99848830       4.03726226
Ni      -1.19307333       8.00575659      20.81406267
Ni       6.01438022       3.61947711       4.21221541
Ni       6.19147583       3.77136060      21.00540899
Ni       3.66414637       7.92187589       4.17453628
Ni       3.70903823       8.20697132      20.83422842
Ni       1.30488683       0.81922974      12.62115043
Ni       1.32564013       0.88068754      29.34844861
Ni      -1.20827802       5.04319795      12.45008523
Ni      -1.22414154       5.11184590      29.18642629
Ni       6.14514330       0.87762587      12.67582417
Ni       6.20637532       0.91880526      29.24036173
Ni       3.66809805       5.11538872      12.57529209
Ni       3.72367958       5.11162535      29.24891575
Ni      -0.00136117       1.43174040       4.10673731
Ni       0.06977554       1.52711590      20.94116230
Ni      -2.47324386       5.84478144       4.12049398
Ni      -2.46116165       5.75841470      20.86761709
Mg       4.80750930       1.44348578       4.26073585
Ni       4.99111294       1.56926166      20.90783711
Ni       2.44929279       5.77979334       4.19105821
Ni       2.46807971       5.84504308      20.78169788
Ni      -1.23940804       3.61260791       4.13917204
Ni      -1.14971815       3.68271545      20.78418244
Ni      -3.69062582       7.89442430       4.03421494
Ni      -3.65161313       8.03549194      20.81592185
Ni       3.71880520       3.58250676       4.18192019
Mg       3.71065008       3.67989458      21.08065773
Ni       1.17695044       7.95217865       4.25329587
Ni       1.24407115       8.11326555      20.77869915
Mg       2.41683804       0.03731413       0.00491163
Ni       2.48277430       0.06381114      16.77582671
Ni       0.00167899       4.28290777       0.13234790
Ni       0.01957608       4.35590078      16.73032232
Ni       7.40859332       0.06557157       0.10530425
Ni       7.33335183       0.11694670      16.80349528
Ni       4.89946884       4.40389729       0.01168822
Ni       4.92747945       4.34317399      16.71172830
Ni       1.17408227       2.16772825      -0.00424458
Ni       1.29976817       2.28789229      16.66589738
Ni      -1.17011796       6.44805551      -0.19120977
Ni      -1.13845112       6.52059672      16.73284961
Ni       6.10895551       2.26960915       0.04700635
Ni       6.17272071       2.22119112      16.79916796
Ni       3.58853076       6.50423799      -0.16868831
Ni       3.53596226       6.65199755      16.73735632
Ni      -1.22353720       2.14674123       8.29795694
Ni      -1.13889239       2.22958463      25.03442981
Ni      -3.66462213       6.53771428       8.22100798
Ni      -3.59415889       6.53575463      25.00198824
Ni       3.75214851       2.21108803       8.38772297
Ni       3.78641583       2.33192748      25.23828807
Ni       1.31233634       6.49368734       8.24853954
Ni       1.23588911       6.50140667      25.02554466
Ni       2.39043590       0.05741103       8.42029206
Ni       2.50413683       0.06392874      25.05613910
Ni      -0.01655786       4.34406354       8.21322652
Ni       0.02290510       4.39588114      24.89606708
Ni       7.31842584       0.14058732       8.60450826
Ni       7.48238183       0.12840418      25.20248358
Ni       4.94377625       4.47147349       8.40522864
Ni       4.97522691       4.40936865      25.03546916
Ni      -1.26903119       2.10728042       0.00512521
Ni      -1.21620316       2.25179296      16.63176912
Ni      -3.75655719       6.54890165      16.54587838
Ni       3.63591802       2.12296239       0.01201650
Ni       3.65056479       2.24773604      16.66344433
Ni       1.19435568       6.46748652      -0.03940819
Ni       1.22517118       6.55114662      16.78738994
Ni       1.26701250       2.19247498       8.37742404
Ni       1.26534870       2.33664358      25.06422876
Ni      -1.23917161       6.52588869       8.34690054
Ni      -1.11906255       6.57102384      25.06512159
Ni       6.17667823       2.21016327       8.42454328
Ni       6.13605644       2.38301231      25.12721099
Ni       3.70900634       6.58970216       8.26658623
Ni       3.68172750       6.75022480      25.05269962
