190
Lattice="9.621714900033902 0.0752768983474676 -0.2798347627186443 -4.784487233321201 8.322352036484663 0.13732097219347647 -0.45650164409627336 0.16883643877791424 32.939268506873766" Properties=species:S:1:pos:R:3 pbc="T T T"
Mg      -0.24398669       0.11974646      14.99814175
Mg      -2.53216242       4.21486227      15.00380108
Mg      -2.86320988       4.30898676      31.57425081
Mg       4.57243152       0.12410928      14.78460377
Ni       4.41938622       0.21866294      31.26011014
Mg       2.18750482       4.19734698      14.82681049
Mg       1.96349266       4.32209516      31.27293668
Mg      -0.03388118       0.05161380       6.74346760
Mg      -0.31513082       0.06359560      23.16795612
Mg      -2.49917197       4.09880710       6.90172567
Mg      -2.66203785       4.25203136      23.26235999
Mg       4.65808860       0.09193321       6.48615059
Mg       4.43750246       0.16031144      22.99733022
Mg       2.32271824       4.29712862       6.64567037
Mg       2.07331246       4.30643838      23.12451657
Mg      -0.18067540       0.03019387       9.78659119
Mg      -0.30093964       0.08470307      26.13411039
Mg      -2.53515204       4.11759475       9.83131373
Mg      -2.63029010       4.32787193      26.29405574
Mg       4.67395688       0.07381852       9.60407694
Mg       4.43773275       0.16496942      26.12385616
Mg       2.21000576       4.21252912       9.72492656
Mg       1.96424240       4.34686915      26.20560373
Mg       0.05087856      -0.03348287       1.50064344
Mg      -0.29034351       0.13298870      18.13023699
Mg      -2.36548850       4.16307674       1.61382585
Mg      -2.74505458       4.25951502      18.16445880
Mg       4.84114658       0.02651178       1.45474457
Mg       4.64952607       0.09699566      17.81867783
Mg       2.39134415       4.19799840       1.46801280
Mg       2.17033057       4.36462748      17.97345391
Mg       2.28591858       1.43549268       2.51154868
Mg       2.11230602       1.41679155      18.93752122
Ni      -0.08078932       5.56784328       2.47964526
Mg      -0.27027125       5.68340651      19.11901812
Mg       7.19357925       1.46647855       2.36550303
Mg       6.99432331       1.55393267      18.90739976
Mg       4.76413677       5.63912987       2.33049138
Mg       4.55866169       5.60185805      18.92719126
Mg      -0.06945300       2.80351404      10.75956513
Mg      -0.31250543       2.93960434      27.36034236
Mg      -2.54636871       6.93362285      10.81883314
Mg      -2.74676313       7.11847998      27.39112917
Mg       4.67153909       2.90471286      10.73370244
Mg       4.47629298       3.00462290      27.13931054
Mg       2.25605756       7.09716017      10.67077290
Mg       2.10414154       7.11612002      27.17447345
Mg       2.40673427       1.36298934       5.57525328
Mg       2.10828011       1.45158637      22.05102303
Mg       0.00337219       5.65748277       5.75605852
Ni      -0.22923229       5.71163661      22.14121882
Mg       7.13800636       1.49414220       5.47403364
Mg       6.99724668       1.66454124      21.92518308
Mg       4.74442155       5.66803672       5.54152209
Mg       4.63650432       5.81020821      22.03700343
Mg      -0.23706737       2.84659741      13.88343089
Mg      -0.43853341       2.87308010      30.37740444
Mg      -2.58998194       7.04525022      13.99751058
Mg      -2.77039891       7.11349930      30.44140969
Mg       4.58841119       2.90757170      13.79810642
Mg       4.42265294       2.99692690      30.13626179
Mg       2.17848452       7.00673231      13.91786774
Mg       1.86957599       7.16933567      30.28364888
Ni       2.19859704       1.52389878      14.25606645
Ni       2.03327410       1.60699616      30.82512127
Ni      -0.14676488       5.63140394      14.46385950
Ni      -0.41266672       5.67321252      30.91275466
Ni       6.92736587       1.55549029      14.18494170
Ni       6.78294298       1.53648461      30.62779158
Ni       4.61659682       5.66787742      14.29186547
Ni       4.42714035       5.77453555      30.77944937
Ni      -0.10593453       2.80960398       6.16883857
Ni      -0.28628595       2.96502842      22.68690800
Ni      -2.43200792       7.00732095       6.28137299
Ni      -2.58655083       7.03775117      22.69498477
Ni       4.75660034       2.91974290       6.03412356
Ni       4.42526732       2.91469124      22.53906061
Ni       2.36686391       7.05754128       6.11672467
Ni       2.13939266       7.05392652      22.45918610
Ni       2.25933798       1.45838631      10.28613917
Ni       1.98029185       1.60592808      26.77151944
Ni      -0.13805302       5.65595273      10.28346985
Ni      -0.40319151       5.65911877      26.77867225
Ni       7.07365363       1.47355741      10.16123779
Ni       6.87259688       1.59718515      26.58045744
Ni       4.68785186       5.62213009      10.11790789
Ni       4.47752646       5.73899994      26.54908045
Ni      -0.03805047       2.85143529       2.13817759
Mg      -0.18494779       2.86180628      18.55409308
Ni      -2.38144774       6.99077661       2.10189058
Ni      -2.64602393       7.01401576      18.63024225
Ni       4.85580549       2.83909730       1.93691347
Ni       4.50142961       3.01156652      18.36944657
Ni       2.42558381       6.95517286       1.95389411
Ni       2.21374501       7.08501899      18.45607612
Ni       2.18040261       2.84969416      12.26403677
Ni       1.99247879       2.95550622      28.71007362
Ni      -0.18952992       6.98126284      12.35215269
Ni      -0.35861323       7.19681874      28.74849707
Ni       7.06981042       2.86736187      12.10300100
Ni       6.81616463       3.00862565      28.65867371
Ni       4.67342996       7.11408542      12.24516949
Ni       4.48117740       7.07952991      28.64392742
Ni       3.42979486       0.81028661      12.25487699
Ni       3.19725834       0.87376867      28.78918708
Ni       1.11113301       5.02703319      12.28291073
Ni       0.72573652       5.07050430      28.70145941
Ni       8.27454586       0.82262573      12.11453770
Ni       8.08384784       0.89476408      28.61159288
Mg       5.85987796       4.94908380      12.18535179
Ni       5.55552800       5.07310703      28.71919405
Ni       1.13246389       3.48243869       4.07938597
Ni       0.88116308       3.59347648      20.54163506
Ni      -1.29719635       7.63572264       4.21368118
Ni      -1.45560593       7.84568615      20.61105726
Ni       5.89441803       3.46531274       4.03004922
Ni       5.72894840       3.63592015      20.37988838
Ni       3.53424591       7.71154508       4.03353151
Ni       3.33001704       7.69772404      20.44375747
Ni       1.04056398       0.67918036      12.27289507
Ni       0.79756194       0.90324432      28.80984348
Ni      -1.41741179       4.95087452      12.39900038
Ni      -1.59034272       4.92394784      28.89623808
Ni       5.75779920       0.84781383      12.25779146
Ni       5.64827510       0.85376187      28.71829806
Ni       3.43678130       4.86519766      12.26457057
Ni       3.24711608       5.09850794      28.69916511
Ni      -0.08753743       1.53615241       4.14555986
Ni      -0.37577299       1.47870446      20.60361947
Ni      -2.42237301       5.61768949       4.26451316
Ni      -2.64897175       5.62815567      20.57273346
Ni       4.73892035       1.54525182       4.02130947
Ni       4.45260876       1.55390189      20.52218523
Ni       2.33494921       5.67882482       4.04897869
Ni       2.13731930       5.69859593      20.50224521
Ni      -1.20904301       3.44669133       4.15999034
Ni      -1.40828453       3.62455921      20.64219695
Ni      -3.66199869       7.65276759       4.30158738
Ni      -3.87731027       7.77671479      20.75654191
Ni       3.58189022       3.56151163       3.99208170
Ni       3.41209405       3.67626713      20.52124218
Ni       1.22875218       7.74974782       4.11696709
Ni       0.94159820       7.82766819      20.61029929
Ni       2.44861366       0.05988542      -0.05380198
Ni       2.14509784       0.04451856      16.40956497
Ni      -0.00347008       4.19707693      -0.12959762
Ni      -0.21143206       4.18286005      16.46813450
Ni       7.19207314       0.06109360      -0.19126674
Ni       7.02645743       0.07644556      16.26036753
Ni       4.85977219       4.23792293      -0.17922407
Ni       4.56012563       4.28808607      16.29419699
Ni       1.25673233       2.02674260      -0.08513780
Ni       0.88231257       2.14499049      16.42795573
Mg      -1.13603115       6.23404933       0.04495746
Ni      -1.50924206       6.34149150      16.52557212
Ni       6.02404735       2.11235139      -0.21465410
Ni       5.77297718       2.25486340      16.23134636
Ni       3.53660634       6.37868646      -0.08561091
Ni       3.35074821       6.34441019      16.35103071
Ni      -1.34084819       2.15443956       8.16846282
Ni      -1.45702574       2.24545996      24.78639059
Ni      -3.65006476       6.27903846       8.31591667
Ni      -3.93837627       6.30775707      24.77735266
Ni       3.43305670       2.15738207       8.09716443
Ni       3.34643655       2.17736640      24.60359642
Ni       1.06992543       6.25836093       8.21514435
Ni       0.83565341       6.46484990      24.72184099
Ni       2.29764029       0.11551417       8.21144940
Ni       2.08874390       0.14135698      24.62667521
Ni      -0.13866977       4.28487163       8.25451581
Ni      -0.33161326       4.25420917      24.64775180
Ni       7.12248739       0.07382100       8.00341729
Ni       6.93439878       0.23150664      24.51741956
Ni       4.71779174       4.21221500       8.12791176
Ni       4.50722372       4.30548002      24.60790542
Ni      -1.25893386       1.98790552       0.05541444
Ni      -1.33896175       2.16321575      16.47895904
Ni      -3.44599075       6.20309172       0.05097595
Ni      -3.81184925       6.26877694      16.61390737
Ni       3.54810128       2.19444333      -0.08248896
Ni       3.44907020       2.24097211      16.34144180
Ni       1.16560346       6.37739903      -0.05041880
Ni       1.01362125       6.44220863      16.44109455
Ni       0.87887122       2.14154849      24.66511161
Ni      -1.32270222       6.30147798       8.22880261
Ni      -1.46433818       6.42096571      24.68617691
Ni       5.93124018       2.10769853       8.06974606
Ni       5.56505835       2.37345325      24.59379218
Ni       3.48476509       6.37910851       8.20766871
Ni       3.18723994       6.33919013      24.54042626
