190
Lattice="9.705587629968825 0.23204023376067295 0.36285381768842184 -4.64472022623741 8.765739855293498 -0.01998490451086088 -0.07173712796918129 -1.3835004559343445 32.45076799266177" Properties=species:S:1:pos:R:3 pbc="T T T"
Mg      -0.10385760      -0.62594398      14.76015464
Mg      -0.03564228      -1.31079190      30.95907983
Mg      -2.29655071       3.80812924      14.70095800
Mg      -2.43586337       3.03514485      30.87947849
Mg       4.85685713      -0.48699536      14.83124284
Mg       4.71887729      -1.27627166      31.15770933
Mg       2.51286351       3.90766151      14.85559038
Mg       2.47322620       3.25314053      31.03888187
Mg      -0.13733287      -0.33087388       6.59502821
Mg       0.01733706      -0.81419816      22.84776985
Mg      -2.22466174       4.09921617       6.57717241
Mg      -2.40404430       3.44923141      22.85057566
Mg       4.75325871      -0.13328867       6.78255285
Mg       4.80085547      -0.81951727      23.02290835
Mg       2.52481982       4.24540158       6.75257919
Mg       2.49057632       3.47068597      22.97691851
Mg      -0.00026645      -0.41608058       9.72795663
Mg      -0.07254905      -1.18238937      25.80359545
Mg      -2.37257758       4.03855869       9.55105915
Ni      -2.44007211       3.25470532      25.77254912
Mg       4.78123658      -0.24820470       9.85106598
Mg       4.73237440      -1.02387778      26.09998516
Ni       2.41498360       4.13459761       9.72026283
Mg       2.44504484       3.46153137      26.08451433
Mg       0.02175066      -0.06570553       1.49043172
Mg       0.01381007      -0.76384006      17.76602724
Mg      -2.27104336       4.36789375       1.55919762
Mg      -2.31575096       3.64951141      17.70653209
Mg       4.89679304       0.09322872       1.66705860
Mg       4.82647549      -0.72133332      17.98079247
Mg       2.53996492       4.47866289       1.69901959
Mg       2.47820609       3.74127498      17.92381252
Mg       2.54212769       1.43324905       2.65305668
Mg       2.39123297       0.72733769      18.97630344
Ni       0.17281287       5.82360611       2.60890113
Mg       0.12306127       5.14009679      18.92798858
Mg       7.35209591       1.64727557       2.80039475
Mg       7.30915210       0.78021276      19.04765557
Mg       5.07727740       5.27384124      19.00822765
Ni       0.07115367       2.57109076      10.70413617
Mg      -0.02684351       1.79675378      26.89297454
Ni      -2.30553107       6.86474827      10.74777129
Mg      -2.32014323       6.23588838      26.95639155
Mg       4.87709396       2.62578553      10.86012063
Mg       4.91857465       1.87916488      27.04960605
Mg       2.55517772       6.96492098      10.87094939
Mg       2.53878958       6.35434654      27.14141714
Mg       2.42505154       1.23943288       5.72905027
Mg       2.34939380       0.66380485      21.85416669
Mg       0.08409027       5.72607072       5.70715701
Mg       0.10904285       5.05237797      22.02838216
Mg       7.24824787       1.52636133       5.79589413
Mg       7.34603258       0.69615416      22.14828571
Mg       4.97700968       5.89769073       5.93709137
Mg       5.01661890       5.07134930      22.05640402
Mg       0.07602580       2.49504944      13.69771064
Mg      -0.04267579       1.71841394      29.99379129
Mg      -2.33577824       6.85694051      13.74562763
Mg      -2.28144166       6.07003882      29.98368491
Mg       4.87861928       2.51894852      14.05543681
Mg       4.75624981       1.71456708      30.12060291
Mg       2.57117518       6.89151352      13.91023861
Mg       2.48707102       6.18201826      30.10100813
Ni       2.41540731       0.92443361      14.32448531
Ni       2.40694608       0.24342662      30.47660597
Ni       0.04664077       5.26729364      14.29427684
Ni       0.07095219       4.64498469      30.55029297
Ni       7.25292174       1.10003954      14.51802126
Ni       7.27497912       0.39983879      30.70904364
Mg       4.93741948       5.43665295      14.42025238
Ni       4.96056335       4.74104446      30.72166057
Ni       0.04322265       2.71283748       6.11129440
Ni       0.05139694       2.08000125      22.46358796
Ni      -2.17939688       6.96956855       6.07568467
Ni      -2.32430425       6.38944416      22.40602484
Ni       4.88548260       2.81120621       6.30577191
Ni       4.88882106       2.21030077      22.59482366
Ni       2.55047183       7.14023693       6.18978187
Ni       2.57506865       6.47472488      22.52920172
Ni       2.44861680       1.07657599      10.30053935
Ni       2.41677117       0.41736147      26.51934174
Ni       0.16940053       5.42449778      10.28602167
Ni       0.02681373       4.76425396      26.48377650
Ni       7.23607569       1.23616451      10.41298047
Ni       7.24271666       0.46757749      26.74709167
Ni       4.92228621       5.65332230      10.45733665
Ni       4.90748089       4.90177492      26.59331107
Ni       0.05764875       2.85426639       2.06981540
Ni       0.07305839       2.24502096      18.29401367
Ni      -2.27889181       7.25960451       2.00627568
Ni      -2.32413893       6.61130717      18.18799435
Ni       4.93376102       2.98069362       2.23345066
Ni       4.87355571       2.34759268      18.55086082
Ni       2.61104594       7.32709718       2.22257541
Ni       2.68629012       6.73953104      18.53373702
Ni       2.38799156       2.51780256      12.23392701
Ni       2.46074174       1.90213722      28.52623597
Ni       0.09616933       6.88213992      12.28645295
Ni       0.07265077       6.14094789      28.44972915
Ni       7.34812671       2.62636143      12.45753666
Ni       7.33342922       1.90503382      28.74075029
Ni       5.02165885       6.93590156      12.51919583
Ni       4.92743304       6.35126256      28.59784596
Ni       3.63464032       0.32500756      12.31066143
Ni       3.53896127      -0.46562861      28.54195467
Ni       1.28770139       4.70561163      12.24997900
Ni       1.22244240       4.00029026      28.54772869
Ni       8.48607705       0.44943528      12.57174239
Ni       8.45237901      -0.27910731      28.69239412
Ni       6.14175500       4.80045392      12.45752708
Ni       6.12298481       4.08608580      28.71829085
Ni       1.35785779       3.42568354       4.21890813
Ni       1.21302171       2.81246917      20.34265775
Ni      -0.96381868       7.91157369       4.26134684
Ni      -1.04243377       7.27784151      20.44662570
Ni       6.16842982       3.70789377       4.37581020
Ni       6.09402280       2.93892650      20.55894594
Ni       3.73447601       8.01419030       4.37373429
Ni       3.71700724       7.27056797      20.50085818
Ni       1.19354941      -0.50894761      28.49833431
Ni      -1.11157048       4.56852146      12.32027589
Ni      -1.09999316       3.99169563      28.45050256
Ni       6.10568258       0.33923143      12.48944345
Ni       6.06812176      -0.35427668      28.64168953
Ni       3.81182597       4.80823020      12.41276405
Ni       3.60261654       4.02816576      28.63314421
Ni       0.00084366       1.25499762       4.03274410
Ni      -0.04909190       0.64080087      20.33882666
Ni      -2.25470476       5.76017639       4.06639025
Ni      -2.29901740       5.01402130      20.36880514
Ni       4.87058247       1.43136192       4.24817842
Ni       4.78521969       0.76295967      20.40229108
Ni       2.55948524       5.78113730       4.31558234
Ni       2.53825182       5.04639764      20.42369475
Ni      -1.11543967       3.46382222       4.11223271
Ni      -1.22994567       2.78764260      20.36081200
Ni      -3.49496668       7.79114189       4.06138843
Ni      -3.45964276       7.16117028      20.36584237
Mg       3.66836789       3.63577227       4.30030953
Ni       3.70000613       2.99779037      20.55981687
Mg       1.39352595       8.01185646       4.27020095
Ni       1.38035449       7.28217839      20.44691115
Ni       2.44809816       0.12612789       0.09019546
Ni       2.37408681      -0.68159041      16.29520847
Ni       0.11274490       4.45683136       0.13482731
Ni       0.02836290       3.76164930      16.31906513
Ni       7.20746937       0.09479064       0.27320254
Mg       7.26111550      -0.51385993      16.47943615
Ni       4.97169919       4.55766857       0.18230517
Ni       4.92088820       3.78726334      16.49545986
Ni       1.32143915       2.21133250       0.10283213
Ni       1.23740061       1.57811562      16.23121568
Ni      -1.19958658       6.72004141      -0.00071881
Ni      -1.07862220       5.86399661      16.37500142
Ni       6.16778462       2.40475980       0.29091471
Ni       6.06839616       1.56699158      16.44217318
Ni       3.86041694       6.68653281       0.18445464
Ni       3.81562402       6.03092153      16.41684347
Ni      -1.26527398       1.93252035       8.13547467
Ni      -1.28061190       1.13186841      24.30640681
Ni      -3.47760402       6.22086583       8.06923112
Ni      -3.54116183       5.47550816      24.31020969
Ni       3.64135381       1.93562664       8.24985306
Ni       3.62864076       1.34064188      24.53536745
Ni       1.43207597       6.33173748       8.29900647
Ni       1.32345758       5.61244906      24.47978102
Ni       2.33762404      -0.34541971       8.16541479
Ni       2.33516493      -0.98430243      24.43497066
Ni       0.01590463       3.96996002       8.12321621
Ni       0.05608160       3.45929959      24.39402929
Ni       7.28756340      -0.13994484       8.22252324
Ni       7.24256884      -0.84576078      24.67434761
Ni       4.92769089       4.14203542       8.34918377
Ni       4.99454311       3.46466575      24.58883455
Ni      -1.18356446       2.09269014      -0.04109071
Ni      -1.16965583       1.45404116      16.19964909
Ni      -3.56167785       6.51837543       0.00689659
Ni      -3.50121361       5.91258232      16.27615093
Ni       3.75847391       2.28046681       0.19024161
Ni       3.69759538       1.61541679      16.38762773
Ni       1.39553601       6.79074654       0.20035566
Ni       1.27201724       5.96877380      16.42031181
Ni       1.36973465       1.96304776       8.12124431
Mg       1.20416060       1.24219796      24.48113453
Ni      -1.06711661       6.36576934       8.19985420
Ni      -1.14221385       5.59548389      24.51199177
Ni       6.13205450       2.03963419       8.33467878
Ni       6.08563684       1.41583613      24.57091318
Ni       3.71090771       6.42109848       8.36599322
Ni       3.73612837       5.69626023      24.67166779
