189
Lattice="9.85234984809468 0.14852828529818737 -0.20083834349638366 -5.023754098483969 8.351302278454876 0.32395726562091337 -0.21730220975146974 0.6502886370516481 32.278389981090555" Properties=species:S:1:pos:R:3 pbc="T T T"
Mg      -0.06004252       0.31763366      14.60434632
Mg      -0.12723956       0.70283458      30.72448507
Mg      -2.65818301       4.50888818      14.66929091
Mg      -2.72342069       4.82037731      30.97783882
Mg       4.77493040       0.38542769      14.48826048
Mg       4.69206124       0.73463591      30.72355422
Mg       2.36698233       4.59828144      14.71137368
Mg       2.23055983       4.91185663      30.80579530
Mg      -0.00190161       0.13136540       6.55438402
Mg      -0.10473343       0.47302827      22.68082595
Mg      -2.58630266       4.25572078       6.75866349
Mg      -2.59933625       4.61811830      22.85359809
Mg       4.91621971       0.20208173       6.45131062
Mg       4.71495612       0.54735500      22.55897774
Mg       2.32045639       4.40943177       6.55723029
Mg       2.39635726       4.79264572      22.77915224
Mg      -0.08387391       0.21145300       9.63361317
Mg      -0.15458640       0.52884612      25.66849111
Mg      -2.51363423       4.32994753       9.79541853
Ni      -2.57962052       4.70528215      25.90795835
Mg       4.87797280       0.23986834       9.44629786
Mg       4.81130755       0.58733265      25.61290458
Mg       2.25462479       4.69382978      25.83633669
Mg      -0.01150034      -0.04770629       1.54453708
Mg      -0.07286450       0.31928649      17.72809561
Mg      -2.50507875       4.21175148       1.65682320
Mg      -2.60779633       4.58869217      17.75212799
Mg       4.91047343       0.13075679       1.43454021
Mg       4.85383066       0.46828724      17.51971777
Mg       2.45406635       4.25922972       1.55582124
Mg       2.28872747       4.54744930      17.66787364
Mg       2.49274198       1.47537984       2.53161470
Mg       2.29311551       1.87967172      18.66111867
Mg      -0.07980600       5.64420644       2.70802796
Mg      -0.17121366       6.00011033      18.78966881
Mg       7.29509385       1.59201011       2.41993984
Mg       7.24520471       1.81745370      18.53294725
Mg       4.84005401       5.83341644       2.49845240
Mg       4.75487881       6.08621988      18.73988826
Mg      -0.12479839       2.97931773      10.76298260
Mg      -0.15699033       3.37599129      26.82831781
Mg      -2.61439169       7.09662065      10.91027230
Mg      -2.77801279       7.48842256      26.96977660
Mg       4.87493630       3.13843156      10.49052739
Mg       4.69871141       3.38645324      26.80072724
Mg       2.38862292       7.31342340      10.81344091
Mg       2.13580203       7.61406350      26.86943571
Mg       2.48789634       1.47547534       5.59644527
Mg       2.32193312       1.90247736      21.72628430
Mg      -0.10235407       5.77589454       5.73772545
Ni       7.26158368       1.63186732       5.43924816
Mg       7.21060486       1.88522548      21.54993613
Mg       4.80591297       5.79587632       5.69786017
Mg       4.70146570       6.19097586      21.70568691
Mg      -0.12226139       3.05119559      13.71273618
Mg      -0.27333747       3.49810872      29.79726459
Mg      -2.60512056       7.23755600      13.89194119
Mg      -2.71882035       7.60664802      29.98134772
Mg       4.79820083       3.10013984      13.55575760
Mg       4.69737409       3.43960872      29.84064587
Mg       2.38615167       7.32887767      13.76383239
Mg       2.18839686       7.67602135      29.92028871
Ni       2.32116697       1.77814964      14.11552845
Ni       2.13333746       2.04172679      30.27652725
Ni      -0.10119744       5.88841627      14.33742322
Ni      -0.32738576       6.28697622      30.42328695
Ni       7.26867284       1.80987823      13.91200485
Ni       7.17925244       2.06222040      30.19751710
Ni       4.70706193       6.03044416      14.17464519
Ni       4.66753788       6.27178375      30.31755566
Ni       0.01632522       2.87820576       6.13624855
Ni      -0.18547226       3.25256963      22.18316733
Ni      -2.56948484       7.07347318       6.25294771
Ni      -2.80056311       7.51896250      22.41335111
Ni       4.74438211       3.03204157       6.01837466
Ni       4.78718367       3.38561541      22.11913216
Ni       2.37005510       7.14745245       6.18822042
Ni       2.27600873       7.55969789      22.25085183
Ni       2.28003444       1.67337838      10.12323684
Ni       2.29264334       1.97064376      26.22496981
Ni      -0.05555295       5.81515156      10.22844817
Ni       7.36365513       1.76752034      10.04473339
Ni       7.17840521       1.98130652      26.09507330
Ni       4.76950780       5.86430293      10.21168031
Ni       4.71177908       6.24631168      26.33592136
Mg      -0.01843594       2.78678786       2.06146443
Ni      -0.17784380       3.20909571      18.15369848
Ni      -2.53057554       7.03786175       2.24909907
Ni      -2.59179155       7.46665947      18.43453519
Ni       4.87308782       2.86698611       1.97646221
Ni       4.77335155       3.15733709      18.19152500
Mg       2.33709292       7.06708151       2.15131260
Ni       2.23489780       7.45637478      18.23564978
Ni       2.34757955       3.16517674      12.10997078
Ni       2.30748299       3.39413821      28.30315166
Ni      -0.14602834       7.30212412      12.27081931
Ni      -0.27889267       7.52849383      28.42012812
Ni       7.28030559       3.16051267      12.06294377
Ni       7.12172146       3.49462648      28.15099057
Ni       4.83310057       7.28075209      12.19718470
Ni       4.68112853       7.64220694      28.28969289
Ni       3.65200313       1.00515324      12.05027998
Ni       3.43589433       1.47738709      28.24139734
Ni       1.01129680       5.13660015      12.17286415
Ni       1.07729847       5.41408462      28.35568213
Ni       8.55840653       1.03779820      11.92750579
Ni       8.35588190       1.38910205      28.09800095
Ni       6.02207226       5.26961405      12.10310312
Ni       6.03122539       5.65607284      28.26168687
Ni       1.19486909       3.58793538       4.14724107
Ni       1.08827523       3.89671836      20.25978450
Ni      -1.27561936       7.76931163       4.30211410
Ni      -1.44377520       8.03119841      20.47278295
Ni       6.03099935       3.72836336       4.06995950
Ni       5.99760163       3.92786781      20.10702923
Ni       3.62063451       7.87188698       4.11163487
Ni       3.49062043       8.16382204      20.28781018
Ni       1.16037683       0.90343670      12.07556501
Ni       1.02609123       1.28168678      28.21712767
Ni      -1.40427161       5.07157717      12.26468690
Ni      -1.52864539       5.52748132      28.35756060
Ni       6.05553513       0.98625961      12.14970870
Ni       5.97405895       1.26345035      28.13154444
Ni       3.52964903       5.18179949      12.16718306
Ni       3.49765867       5.57367494      28.23301654
Ni      -0.04362311       1.44059218       3.97430984
Ni      -0.20560358       1.72468415      20.16065472
Ni      -2.59262619       5.67121525       4.15561092
Ni      -2.61737960       5.90689281      20.39581083
Ni       4.80885127       1.56091248       3.82745374
Ni       4.73503132       1.83332800      20.10253515
Ni       2.40830783       5.80273037       4.15738577
Ni       2.31237931       5.96602843      20.30712043
Ni      -1.47130639       3.63331793       4.06108478
Ni      -1.48546480       3.94485568      20.29079977
Ni      -3.78329309       7.76717808       4.23818982
Ni      -3.93876240       8.06050201      20.40765248
Ni       3.65051705       3.69734561       4.01281019
Ni       3.53670259       4.03512069      20.20218104
Ni       1.07952417       7.82447174       4.23425951
Ni       0.96162919       8.12285274      20.29466194
Ni       2.48954129       0.08517634      -0.06761361
Ni       2.26257326       0.40944080      16.12916434
Ni      -0.03586398       4.20028706       0.04885718
Ni      -0.09924447       4.50609414      16.21366722
Ni       7.42432642       0.10272503      -0.22543419
Ni       7.21603505       0.37796129      15.95244695
Ni       4.82178343       4.33403501      -0.01729528
Ni       4.84661075       4.56587371      16.21994959
Ni       1.18665190       2.11215355       0.06141844
Ni       1.09555418       2.47500849      16.14698509
Ni      -1.30860434       6.33300219       0.10921853
Ni      -1.42927182       6.55719064      16.29418728
Ni       6.14850381       2.18657983      -0.11405577
Ni       6.03348583       2.39910928      16.06754526
Ni       3.59040042       6.44967517       0.11454813
Ni       3.57840820       6.71468611      16.16224170
Ni      -1.29358379       2.29510823       8.22288459
Ni      -1.48337441       2.58953883      24.20216270
Ni      -3.78180010       6.44447779       8.28888726
Ni      -3.90963724       6.80740926      24.48497592
Ni       3.62008496       2.45779365       8.06936727
Ni       3.49640012       2.61170362      24.17999865
Ni       1.10392077       6.47229456       8.19934038
Ni       0.99696322       6.85055362      24.34574426
Ni       2.41141357       0.23420330       7.90442994
Mg       2.28198043       0.59025526      24.17088860
Ni      -0.13093598       4.35066496       8.23276736
Ni      -0.16725025       4.70486807      24.41387395
Ni       7.31228704       0.19499048       7.95102016
Ni       7.21394697       0.57563443      24.06612183
Ni       4.78378904       4.36869155       8.07804286
Ni       4.76737497       4.79241786      24.22502539
Ni      -1.27973134       2.04306380       0.10332252
Ni      -1.38096904       2.38031290      16.22110122
Ni      -3.78211593       6.33331578       0.22585946
Ni      -3.90560586       6.61789392      16.36058050
Ni       3.61213483       2.10616546      -0.01931293
Ni       3.52741525       2.60593509      16.12820907
Ni       1.16115110       6.39029920       0.11994879
Ni       1.04412388       6.58965484      16.24525097
Ni       1.17715056       2.25225507       8.08391396
Ni       1.05812392       2.54480629      24.22592015
Ni      -1.37215889       6.53416720       8.16479477
Ni      -1.53935406       6.67965527      24.45788844
Ni       6.09330948       2.35042152       7.98028563
Ni       5.96105999       2.63182463      24.08880363
Ni       3.48882580       6.47668171       8.15872058
Ni       3.43693278       6.91739998      24.24259277
