192
Lattice="9.837733588332952 -0.05119680173690004 -0.1352540825803413 -4.784579962293305 8.582815900270075 0.21145280633808217 -0.19002370451774608 0.029877905914381747 31.305373578292404" Properties=species:S:1:pos:R:3 pbc="T T T"
Mg      -0.09387584       0.04055277      14.10459648
Mg      -0.21125482       0.07588605      29.86627181
Mg      -2.54973192       4.36020012      14.31556380
Mg      -2.65968795       4.38262003      29.94427371
Mg       4.82764134      -0.11227541      14.18101660
Mg       4.69555520      -0.04271074      29.69234640
Mg       2.47421403       4.20421828      14.27847462
Mg       2.36890971       4.41619221      29.89127112
Mg       0.01781898      -0.05820062       6.38228789
Mg      -0.12592926       0.00378787      22.03803811
Mg      -2.49569555       4.24326782       6.51738035
Mg      -2.58450822       4.26358070      22.11577443
Mg       4.86060049      -0.04760641       6.27108280
Mg       4.71834603      -0.01343601      21.95649188
Mg       2.52435038       4.27263952       6.50584388
Mg       2.39316958       4.27599366      22.12206592
Mg      -0.08162087       0.09702103       9.25915482
Mg      -0.13644905       0.12678997      24.91240075
Mg      -2.37943172       4.32190588       9.33510290
Mg      -2.51970189       4.21497722      25.12820856
Mg       4.74136636       0.03493113       9.27013283
Mg       4.76381358       0.02368327      24.88828675
Mg       2.40110158       4.24204855       9.37297273
Mg       2.36603813       4.31609076      25.00179597
Mg      -0.00585341      -0.01999802       1.42542594
Mg      -0.10012590       0.02294154      17.10125863
Mg      -2.48658001       4.30858981       1.50876342
Mg      -2.49250078       4.35633522      17.28245701
Mg       4.93583699      -0.00451195       1.40880048
Mg       4.77927236       0.01295557      17.09054352
Ni       2.56871218       4.29230434       1.53756728
Ni       2.51053374       4.27496551      17.15692983
Mg       2.45092620       1.50801995       2.47648910
Mg       2.37111321       1.36008398      18.05410583
Mg       0.03166706       5.73040607       2.50244502
Mg      -0.07111319       5.80603737      18.09275396
Mg       7.38812750       1.31302573       2.37209182
Mg       7.28063364       1.47012501      17.99231656
Mg       5.07714318       5.70204507       2.53431386
Ni       4.94875285       5.73814438      18.08743373
Mg      -0.04417070       2.78155234      10.31184255
Mg      -0.10092763       2.84073396      25.89232462
Mg      -2.40275195       7.16319600      10.45819535
Mg      -2.48568163       7.17231516      26.03148764
Mg       4.91866017       2.79454849      10.16056783
Mg       4.85579583       2.80692682      25.91093199
Mg       2.54704973       7.06043947      10.33174211
Mg       2.45981305       7.16857496      26.04685326
Mg       2.45020336       1.48485579       5.42107117
Mg       2.44959113       1.43237162      21.11562957
Mg       0.04447646       5.66440736       5.47088207
Mg      -0.01486266       5.70434315      21.15285824
Mg       7.35386864       1.41113830       5.23341000
Mg       7.30020507       1.42162694      20.87993564
Mg       5.05904448       5.62793101       5.50735043
Mg       4.99467977       5.66789335      20.95736472
Mg      -0.04423571       2.84070045      13.28834550
Mg      -0.11894631       2.90668395      28.94794076
Mg      -2.37925631       7.18554214      13.28032147
Mg      -2.51938164       7.15972012      29.04086013
Mg       4.81838731       2.88045012      13.18604701
Mg       4.83380763       2.80596295      28.86611297
Mg       2.51325183       7.06278011      13.25390303
Mg       2.39730811       7.16013555      28.97425137
Ni       2.34655393       1.49074060      13.65617744
Ni       2.33736159       1.44501438      29.29761456
Ni      -0.03361179       5.75893492      13.79616394
Ni      -0.10004035       5.67620575      29.50242328
Ni       7.24978370       1.45609671      13.58158410
Ni       7.30954254       1.47951607      29.30302681
Ni       4.85602533       5.69390148      13.69612509
Ni       4.82249446       5.73431641      29.34453703
Ni       0.06449103       2.90310556       5.90870579
Ni      -0.19496255       2.90594453      21.57417037
Ni      -2.37504601       7.18249124       6.02129607
Ni      -2.47774983       7.20721123      21.69642866
Ni       4.97472495       2.83748040       5.80850000
Ni       4.80146209       2.86302970      21.45372515
Ni       2.57776488       7.03580833       6.02509878
Ni       2.44410558       7.14476292      21.71186259
Ni       2.42920083       1.42649197       9.86418169
Ni       2.40586661       1.41570375      25.37754882
Ni       0.06557093       5.75471880       9.85605042
Ni      -0.07895935       5.67360737      25.50103439
Ni       7.38778749       1.44586616       9.71063753
Ni       7.11805678       1.24715239      25.39768433
Ni       4.96169266       5.65101580       9.81047015
Ni       4.88133229       5.76733843      25.51405606
Ni       0.04099799       2.92080718       2.00889097
Ni      -0.07957196       2.89073396      17.66868499
Ni      -2.32542662       7.17691548       2.04228779
Ni      -2.44617407       7.18870304      17.64657296
Ni       5.04885807       2.75223737       2.01374888
Ni       4.93151511       2.91701317      17.64231792
Ni       2.61128666       7.13699961       2.09969899
Ni       2.44465078       7.26048878      17.70389541
Ni       2.48424049       2.78208432      11.77534079
Ni       2.37102294       2.87603748      27.24071588
Ni      -0.01712439       7.19849720      11.84171149
Ni      -0.11144906       7.04604629      27.45206444
Ni       7.43398452       2.87515078      11.73003626
Ni       7.30903994       2.89348322      27.33014405
Ni       4.96753215       7.19724354      11.77392883
Ni       4.85338211       7.07090090      27.43411759
Ni       3.61875349       0.66842975      11.65208826
Ni       3.54613366       0.58658223      27.26368901
Ni       1.23109465       5.06359826      11.79557352
Ni       1.12915511       5.08526721      27.44551700
Ni       8.55553136       0.63222531      11.63230600
Ni       8.45178844       0.69293852      27.24188715
Ni       6.21116791       4.93596546      11.73911371
Ni       6.08722859       5.07036598      27.37544105
Ni       1.27432596       3.56332251       3.91709370
Ni       1.18701861       3.57015977      19.57394256
Ni      -1.03644581       7.83968862       4.02229585
Ni      -1.19373102       7.84480104      19.69706965
Ni       6.18134174       3.54481555       3.84898665
Ni       6.02011415       3.46806215      19.58292199
Ni       3.85193910       7.84176717       3.96227435
Ni       3.75776931       7.80893610      19.70364908
Ni       1.21106111       0.71720238      11.77919716
Ni       1.11270375       0.77784541      27.39229004
Ni      -1.15505343       5.02115499      11.87047319
Ni      -1.35295628       5.03587843      27.44542988
Ni       6.05051533       0.67125612      11.71709375
Ni       5.92208505       0.68594893      27.35450456
Ni       3.72321360       5.06513436      11.78737841
Ni       3.66168372       4.98790762      27.46572626
Ni       0.09818896       1.37993464       3.91878755
Ni      -0.19020689       1.40170956      19.58153796
Ni      -2.42069926       5.76272903       4.04158975
Ni      -2.51432967       5.68849609      19.69459076
Ni       5.02124478       1.44091492       3.87928931
Ni       4.80907919       1.48079015      19.52356733
Ni       2.51914635       5.69625843       3.97252429
Mg       2.41056111       5.84523865      19.60318658
Ni      -1.12664398       3.52565283       4.00288061
Ni      -1.32474118       3.51917571      19.60108879
Ni      -3.52686356       7.81107099       4.08642010
Ni      -3.59750316       7.85445594      19.76536352
Ni       3.71558931       3.51488794       3.95647457
Ni       3.67473612       3.54414822      19.59045369
Ni       1.39208841       7.85452508       3.97690482
Ni       1.18962481       7.77697030      19.74150523
Ni       2.46604417      -0.05338682      -0.01891390
Ni       2.32429325       0.05404115      15.56757265
Ni       0.09091975       4.32717439       0.11224342
Ni      -0.01588117       4.32068719      15.66301250
Ni       7.40019747      -0.04354246      -0.05063437
Ni       7.36373171       0.05579112      15.49726063
Ni       4.94810601       4.19464398       0.04489046
Ni       4.93081156       4.21462675      15.59980691
Ni       1.28780287       2.11835668       0.08140808
Ni       1.27218142       2.13762611      15.61688724
Ni      -1.05086795       6.32939427       0.06341457
Ni      -1.26086351       6.50307136      15.80519613
Ni       6.23443951       2.11641454       0.04878534
Ni       6.13630226       2.03746503      15.57277481
Ni       3.82073815       6.28473525       0.11000492
Ni       3.81567505       6.43491968      15.74319457
Ni      -1.28866174       2.11983960       7.85889907
Ni      -1.40188701       2.20519711      23.48590005
Ni      -3.60552328       6.46372244       7.98789731
Ni      -3.81035257       6.49137995      23.61016054
Ni       3.68829106       2.14491765       7.86828495
Ni       3.54366676       2.07303912      23.49718740
Ni       1.22789500       6.44049260       7.88306882
Ni       1.08260773       6.41314243      23.59583199
Mg       2.28645385      -0.03451150       7.70133221
Ni       2.32983198       0.00219541      23.38530140
Ni      -0.03591145       4.28535786       7.90288011
Ni      -0.09653886       4.30546128      23.51825270
Ni       7.37053974      -0.04595142       7.78192998
Ni       7.27294909      -0.00275700      23.43092801
Ni       4.89443642       4.20920133       7.88388213
Ni       4.81887438       4.28596918      23.46939508
Ni      -1.11345604       2.13536054       0.14936586
Ni      -1.27419969       2.13528421      15.71850784
Ni      -3.56924497       6.44801073       0.24107537
Ni      -3.64939742       6.39311876      16.00728024
Ni       3.66737605       2.10694899      -0.01892623
Ni       3.59935548       2.17699604      15.66890127
Ni       1.34443849       6.44428285       0.10799747
Ni       1.20642538       6.46117944      15.66596219
Ni       1.24840907       2.14631979       7.74942074
Ni       1.22263837       2.10722946      23.45581319
Ni      -1.15271616       6.41820237       7.88987291
Ni      -1.27681560       6.44118296      23.61578597
Mg       6.12721495       2.09169309       7.78182660
Ni       5.94440626       2.12433442      23.46993897
Ni       3.81787223       6.34140386       7.86853131
Ni       3.62855501       6.46449241      23.54755799
