191
Lattice="9.503359819167608 0.016624905107353042 0.06578777087289844 -4.58710397776754 8.34879712018618 0.20535218210506517 -0.1766786671376955 0.7506819124068627 32.018900849575004" Properties=species:S:1:pos:R:3 pbc="T T T"
Mg      -0.01844790       0.37509264      14.54287679
Mg      -0.22202571       0.63425750      30.51220124
Mg      -2.28588552       4.56349702      14.66671756
Mg      -2.49733984       4.96378033      30.64203002
Mg       4.64169979       0.41880775      14.55252349
Mg       4.56117509       0.64932822      30.52046533
Mg       2.41639562       4.56412381      14.65153574
Mg       2.38942482       4.92149611      30.73986646
Mg       0.01892818       0.14793964       6.44853202
Mg      -0.17131452       0.49955695      22.55401959
Mg      -2.28077217       4.30798403       6.58576409
Mg      -2.40778813       4.77231819      22.56558255
Mg       4.69246228       0.12360354       6.49612597
Mg       4.54460680       0.51450954      22.54562593
Mg       2.43485042       4.29797281       6.73922876
Mg       2.33168091       4.72134183      22.64668387
Mg      -0.05702498       0.23238506       9.54109358
Mg      -0.19304875       0.57262235      25.52896608
Mg      -2.29232839       4.45579694       9.66953499
Mg      -2.38072980       4.78390471      25.63292328
Mg       4.70874688       0.28101337       9.55584617
Mg       4.53654237       0.59077204      25.52843579
Mg       2.41331442       4.45363988       9.67090805
Mg       2.24777143       4.81989262      25.61994725
Mg      -0.01151021       0.13623998       1.47485368
Mg      -0.08097007       0.46440208      17.45825295
Mg      -2.27657903       4.20111965       1.61806870
Mg      -2.40362967       4.65060383      17.73770451
Mg       4.77472417       0.02636972       1.50955482
Mg       4.68070496       0.48563799      17.50023423
Mg       2.49302742       4.24094644       1.77922935
Mg       2.47439067       4.64531103      17.66551422
Mg       2.38381547       1.46657001       2.56404743
Mg       2.24162701       1.90702456      18.53377046
Mg       0.03332611       5.63665183       2.58666284
Mg      -0.04610971       5.99166924      18.70559042
Mg       7.09035396       1.49570914       2.67326020
Mg       7.11390035       1.88741132      18.62189811
Mg       4.88994674       5.63247067       2.68314040
Mg       4.89972615       6.04897506      18.68842870
Mg       0.10201305       3.02805137      10.60972765
Mg      -0.07200833       3.34343937      26.66132944
Ni      -2.29411878       7.23839969      10.75096387
Ni      -2.38863654       7.54415841      26.73934140
Mg       4.77469530       3.01795215      10.59074692
Mg       4.69009506       3.35973469      26.51262560
Mg       2.44768313       7.14839132      10.67917647
Mg       2.38950272       7.63094475      26.64208521
Mg       2.33090499       1.48561596       5.52377322
Mg       2.22676202       1.93274046      21.51077996
Mg       0.01176873       5.77965695       5.63139388
Mg       0.00967629       6.03774537      21.73017009
Mg       7.12369005       1.51956116       5.62935274
Ni       7.00276754       1.87826653      21.64559977
Mg       4.88681915       5.72351202       5.75072717
Mg       4.72568513       6.11445227      21.67711759
Mg       0.01861902       3.11326207      13.60903396
Mg      -0.14332152       3.45515309      29.70272151
Mg      -2.32825213       7.32144423      13.70951153
Mg      -2.37558332       7.68173228      29.63901828
Mg       4.72663102       3.11791398      13.56860797
Mg       4.69489113       3.47533138      29.75104915
Mg       2.47870657       7.31000330      13.69051182
Mg       2.31260028       7.61554437      29.77240246
Ni       2.30964171       1.65662601      13.99558843
Ni       2.24595044       2.03643620      30.10397976
Ni       0.02473505       5.91133336      14.17527006
Ni      -0.06779426       6.37133400      30.26487090
Ni       7.08074836       1.71009591      14.02648145
Ni       6.94121481       2.07577376      30.03803953
Ni       4.80824497       5.94631854      14.18804055
Ni       4.76542851       6.17041186      30.18319577
Ni       0.07130165       2.96927401       6.09333709
Ni      -0.10700793       3.39246079      22.03128321
Ni      -2.27732076       7.15235596       6.26820525
Ni      -2.36099827       7.59959302      22.15276172
Ni       4.77396786       2.99496336       6.09863547
Ni       4.72581890       3.33299587      22.20113515
Ni       2.42998487       7.08292837       6.20915226
Ni       2.42503160       7.44355805      22.17846811
Ni       2.27076313       1.74366114       9.99780517
Ni       2.25957167       2.03507432      26.06993231
Ni       0.05151285       5.73563764      10.15294705
Ni       0.05126849       6.18956130      26.14010858
Ni       7.02810339       1.62155842      10.13760677
Ni       7.03335253       2.07528328      26.04807756
Ni       4.71254131       5.83625523      10.17805414
Ni       4.70608983       6.23854417      26.27732773
Ni      -0.01326680       2.77505451       2.09628071
Ni      -0.04280250       3.21432452      18.06156908
Ni      -2.26026461       6.97218303       2.14525848
Ni      -2.31642906       7.28708212      18.16984885
Ni       4.74931674       2.83066216       2.10184045
Ni       4.71405196       3.26919164      18.07854733
Ni       2.49278543       7.03326702       2.12197323
Ni       2.47128525       7.43562286      18.25993371
Ni       2.38396814       3.07800696      12.12125126
Ni       2.28458553       3.45226481      28.08369915
Ni       0.06229786       7.24838345      12.18624454
Ni      -0.00470538       7.71343608      28.15204103
Ni       7.00656572       3.08817359      12.14733389
Ni       7.00628662       3.58774580      28.12140981
Ni       4.79737411       7.21187269      12.22637568
Ni       4.68674705       7.59315055      28.20381942
Ni       3.51942688       1.00182764      12.04500973
Ni       3.42052757       1.34063157      28.10966243
Ni       1.22185544       5.16207345      12.19997295
Ni       1.17703038       5.53833526      28.10351352
Ni       8.17220243       0.95011048      12.09478469
Ni       8.18621721       1.30553163      28.09833424
Ni       5.96660522       5.19039213      12.17281449
Ni       5.93531763       5.50265860      28.19811915
Mg       1.28001730       3.56363021       4.12836029
Ni       1.07749877       3.92038589      20.10597233
Ni      -1.07179706       7.73648124       4.26239194
Ni      -1.26000047       8.19144036      20.24984529
Ni       5.89260237       3.92277004      20.23271468
Ni       3.68581933       7.72315281       4.20575736
Ni       3.69724551       8.21092435      20.22939319
Ni       1.08440515       0.90967205      12.01224749
Ni       1.02999580       1.42297957      27.96503854
Ni      -1.16851650       5.16635091      12.15107683
Ni      -1.17194315       5.55080471      28.15853244
Ni       5.81775803       0.96096906      12.08007685
Ni       5.89582420       1.43270411      28.06497706
Ni       3.60414415       5.19291365      12.13086785
Ni       3.57109481       5.51992308      28.18618101
Ni       0.00521762       1.57036595       4.09198185
Ni      -0.10872044       1.84276444      19.94093228
Ni      -2.31061030       5.75486675       4.14245471
Ni      -2.46210763       5.98281593      20.18706655
Ni       4.81625324       1.44537341       4.03959294
Ni       4.68676363       1.82077887      20.02506286
Ni       2.36165192       5.54387615       4.20119246
Ni       2.36321337       5.93323286      20.14747898
Ni      -1.08975609       3.55353963       4.14271341
Ni      -1.22853074       3.92531244      20.08121911
Ni      -3.44736034       7.72349721       4.15539267
Ni      -3.53775748       8.08646195      20.24491851
Ni       3.50988968       3.61309785       4.24920022
Ni       3.48176486       3.94867086      20.16759508
Ni       1.33050692       7.76221399       4.23526423
Ni       1.15179719       8.11887145      20.23104328
Ni       2.42943250       0.02216106       0.09821231
Ni       2.23442844       0.36846828      16.02659571
Mg       0.02995204       4.10509718       0.16370385
Ni      -0.09415206       4.48718637      16.09032192
Ni       7.04862312      -0.01842809       0.07651423
Ni       6.91851970       0.42442776      16.01914235
Ni       4.85413231       4.17166734       0.15679475
Ni       4.81309967       4.48966189      16.22284429
Ni       1.27425971       2.05136415       0.06735308
Ni       1.16626878       2.58047452      16.03635110
Ni      -1.06284549       6.34398695       0.16241057
Ni      -1.18261159       6.60182367      16.18516928
Ni       5.92088199       2.15068936      -0.00902056
Ni       5.93191499       2.36347204      16.08943771
Ni       3.74190617       6.24388396       0.23859678
Ni       3.62324604       6.59668727      16.23045886
Mg      -1.20849618       2.17710445       8.01821381
Ni      -1.19663406       2.54418460      24.03720797
Ni      -3.53211244       6.47907441       8.13574115
Ni      -3.58907844       6.80385620      24.17206291
Ni       3.55548938       2.34366700       8.09096395
Ni       3.39504698       2.66434054      24.06854333
Ni       1.28952978       6.48046788       8.20625280
Ni       1.28759356       6.81214732      24.16346863
Ni       2.30650331       0.14243392       8.02704884
Ni       2.26428024       0.56425423      24.00455030
Ni       0.02060156       4.39783857       8.26498164
Ni      -0.06870078       4.69343453      24.13634384
Ni       7.06240331       0.25617171       8.05441029
Ni       6.95788014       0.54239798      24.00654960
Ni       4.73467008       4.31512301       8.14958868
Ni       4.60914530       4.74915862      24.03836280
Ni      -1.16981513       2.19791378       0.02308586
Ni      -1.22337768       2.52131612      16.03193759
Ni      -3.43588466       6.30915008       0.16692842
Ni      -3.46656070       6.70001455      16.12516203
Ni       3.62257321       2.21206895       0.05355654
Ni       3.49425568       2.48696656      16.13957403
Ni       1.34865258       6.31426801       0.19450926
Ni       1.20394988       6.64891557      16.16197004
Ni       1.24884606       2.28726714       8.12017615
Ni       1.09575841       2.68227715      24.02726180
Ni      -1.09284843       6.42656654       8.22988644
Ni      -1.16602695       6.80757329      24.17020546
Ni       5.96582701       2.24641963       8.10387845
Ni       5.79596399       2.65463621      24.08664787
Ni       3.68302344       6.46303708       8.16141469
Ni       3.61704455       6.93105453      24.26787410
