192
Lattice="9.468926549309511 -0.25497421303488 0.16901205640404857 -5.028884324037872 8.73476047990477 -0.49411766943296603 -0.5934151491152762 0.1878145495407298 31.957612511301587" Properties=species:S:1:pos:R:3 pbc="T T T"
Ni      -0.23541728       0.03625148      14.44518442
Mg      -0.57336707       0.25262989      30.59322813
Mg      -2.82657069       4.43321688      14.18666988
Mg      -3.05452947       4.51750671      30.23266779
Mg       4.40809233       0.04536206      14.52347727
Mg       4.10739088       0.04713842      30.55341598
Mg       1.94469762       4.31229329      14.29871633
Mg       1.61040912       4.44193987      30.29939156
Mg      -0.11991653       0.02183349       6.52401112
Mg      -0.41243564       0.17963223      22.52055561
Mg      -2.60364306       4.41367649       6.24759248
Mg      -2.99736192       4.58641352      22.19834940
Mg       4.71618537      -0.05981444       6.60324138
Mg       4.22439640       0.06796969      22.64026936
Mg       2.06577126       4.23598956       6.37893089
Mg       1.85651159       4.34689643      22.24842256
Mg      -0.20033991      -0.02859106       9.50458598
Mg      -0.45210509       0.21399612      25.43122236
Ni      -2.65529110       4.46885824       9.24403466
Mg      -2.97505176       4.44770993      25.20088221
Mg       4.49617946      -0.05387292       9.61296605
Mg       4.22104350       0.01528977      25.52682438
Mg       2.01558413       4.25331230       9.28982680
Mg       1.65356508       4.33632221      25.25436800
Mg      -0.01409368       0.06149654       1.57806500
Mg      -0.28555965       0.06089730      17.39525837
Mg      -2.45725558       4.41027399       1.34891130
Mg      -2.88671498       4.45324755      17.30681812
Mg       4.72841834      -0.04976217       1.62164337
Mg       4.34696430      -0.07047351      17.53865829
Mg       2.14764381       4.22976979       1.28389353
Mg       1.89989270       4.41103781      17.30422581
Mg       2.33057862       1.39337321       2.41611136
Mg       1.86598096       1.36721038      18.48051214
Mg      -0.22704652       5.63337310       2.24502470
Mg      -0.61340731       5.94243662      18.19565425
Mg       7.00444957       1.16184598       2.58787448
Mg       6.74726942       1.36238531      18.53402237
Mg       4.52473133       5.65275543       2.28782365
Mg       4.14416753       5.80257985      18.36371362
Mg      -0.24756790       2.96228573      10.41527774
Mg      -0.64580410       3.01768306      26.37577265
Mg      -2.76069631       7.25020323      10.03019356
Mg      -3.10749789       7.39261645      26.00777168
Mg       4.40366342       2.84860262      10.36451064
Mg       4.21694735       2.93195629      26.33561602
Ni       1.87431946       7.18184309      10.19025677
Mg       1.55900458       7.27832373      26.16999339
Mg       2.20117011       1.40422320       5.38935616
Mg       1.86367509       1.56074094      21.44704560
Ni      -0.30203713       5.78425062       5.23668123
Mg      -0.58893460       5.86016512      21.27258976
Mg       6.91196676       1.26794890       5.59610735
Mg       6.59501078       1.37881480      21.60723743
Mg       4.48709678       5.62759487       5.30847764
Mg       4.13768846       5.71451910      21.26224586
Mg      -0.36416736       2.95634663      13.33256008
Mg      -0.60542479       3.07552376      29.26499635
Mg      -2.85956607       7.36103424      13.07529113
Mg      -3.06581294       7.38215568      28.96492299
Mg       4.38951570       2.95211195      13.39889822
Mg       4.12436415       2.94794871      29.33583360
Mg       1.84187863       7.10098479      13.20513543
Mg       1.63030739       7.26986210      29.21508239
Ni       2.05610452       1.46349359      13.96021351
Ni       1.75834020       1.47708212      29.95832962
Ni      -0.46134512       5.83145456      13.67893267
Ni      -0.77606251       5.87628723      29.67827239
Mg       6.73741230       1.27438270      13.99769039
Ni       6.56238241       1.44461044      30.00167983
Ni       4.24352881       5.69125918      13.76568814
Ni       3.94243773       5.78608857      29.82171976
Ni      -0.20013983       2.86877453       5.88320782
Ni      -0.48876331       2.98184694      21.83405505
Ni      -2.66391369       7.32503485       5.57172116
Ni      -2.93795509       7.34017480      21.54260740
Ni       4.48786276       2.80559474       5.94238123
Ni       4.15706576       2.85957232      21.90613282
Ni       2.01796527       7.06719857       5.67254874
Ni       1.71275078       7.21762989      21.58418170
Ni       2.07916127       1.38317908       9.87094936
Ni       1.96969594       1.35009288      25.98966322
Ni      -0.42419347       5.85957973       9.70963962
Ni      -0.74110440       5.81835110      25.67247482
Ni       6.89885981       1.25204927      10.02153052
Ni       6.58283738       1.46570128      26.05404935
Ni       4.43079011       5.66193756       9.79789242
Ni       4.06128634       5.79941601      25.78821768
Ni      -0.15581836       2.81088761       1.89826231
Ni      -0.32934687       2.93822289      17.83919497
Ni      -2.64040263       7.28167828       1.61073573
Ni      -3.02362899       7.39661276      17.66277516
Ni       4.70209409       2.70432572       1.86008861
Ni       4.24466512       2.78381386      17.86743498
Ni       2.03066875       7.09005165       1.70311342
Ni       1.85896400       7.21474277      17.64489301
Ni       2.00246365       2.98186160      11.99882266
Ni       1.80521377       2.99988187      27.78174414
Ni      -0.53974221       7.25297491      11.58464839
Ni      -0.67476152       7.33997295      27.65497218
Ni       6.71456632       2.72688649      11.99604118
Ni       6.57590882       2.87478550      27.96582863
Ni       4.22880530       7.08682008      11.69228550
Ni       3.98893859       7.22846294      27.69015063
Ni       3.35191380       0.83363603      12.01726549
Ni       3.03628287       0.82521294      27.93702416
Mg       0.82091121       5.12719474      11.67365189
Ni       0.51997521       5.10938162      27.72658656
Ni       8.09730213       0.56639424      12.06338464
Ni       7.70660302       0.68690072      28.15564199
Ni       5.53055844       4.89274857      11.81352800
Ni       5.17042511       4.97272500      27.73665173
Ni       0.99685158       3.63459771       3.80259521
Ni       0.72569929       3.72869957      19.87788843
Ni      -1.54765215       7.93336092       3.58751724
Ni      -1.85037560       8.04987527      19.42765306
Ni       5.63215299       3.56524961       3.93264977
Ni       5.47490683       3.55202204      19.90719748
Ni       3.19850559       7.84995971       3.65697494
Ni       2.91567140       7.95293528      19.59366805
Ni       0.92338023       0.75823768      11.96337477
Ni       0.65211915       0.92847984      27.94853492
Ni      -1.51650917       5.06633316      11.67107634
Ni      -1.85280553       5.20084135      27.68399030
Ni       5.65992034       0.67741344      12.06236623
Ni       5.36595392       0.65527860      27.96878284
Ni       3.03954149       5.05667683      11.91125465
Ni       2.89333313       5.07566992      27.78525287
Mg      -0.11201308       1.40990535       3.88180583
Ni      -0.38550967       1.52012588      19.89762437
Ni      -2.61353409       5.78668918       3.68191251
Ni      -3.00761451       5.93513030      19.70931103
Ni       4.66727986       1.25148679       4.05190857
Ni       4.35129529       1.47323481      19.90592942
Ni       2.10817824       5.63956429       3.84544740
Ni       1.85162128       5.86557574      19.64642326
Ni      -1.30351793       3.57584400       3.81005457
Ni      -1.65035583       3.74630041      19.74996496
Ni      -3.83281798       7.99215968       3.63726818
Ni      -4.17295377       8.07671801      19.53399855
Ni       3.40557870       3.53788749       3.89108018
Ni       3.09251701       3.63728107      19.84818116
Ni       0.80393635       7.93340709       3.72812148
Ni       0.55835070       7.98249148      19.69568280
Ni       2.42000973      -0.08038213       0.05817108
Ni       2.07485959       0.05269284      15.94379991
Ni      -0.24055273       4.24808466      -0.16215308
Ni      -0.43052612       4.41152866      15.76057361
Ni       7.13309894      -0.22625104       0.15129379
Ni       6.78407560      -0.14640585      16.09480606
Ni       4.51942240       4.20965288      -0.12975643
Ni       4.25818578       4.24761442      15.91965251
Ni       1.07212464       2.16328287      -0.16665840
Ni       0.86276844       2.20114768      15.89410003
Ni      -1.36165744       6.45764638      -0.35419864
Ni      -1.67166054       6.61932578      15.60832922
Ni       5.89423909       2.01174414      -0.02787189
Ni       5.44114555       2.05515088      15.96529876
Ni       3.26731399       6.39047959      -0.27364106
Ni       2.97968017       6.53566524      15.80886603
Ni      -1.40435093       2.31974743       7.88958187
Ni      -1.68714753       2.34022354      23.96117976
Ni      -3.92397334       6.64615625       7.60165348
Mg      -4.21231019       6.69115060      23.57328048
Ni       3.34207282       2.06780301       7.89168685
Ni       3.04884125       2.15100407      23.90413798
Ni       0.91196884       6.44340381       7.81507883
Ni       0.49373987       6.56342927      23.71238766
Ni       2.22259046       0.02620234       8.05435382
Ni       1.86162578       0.00554313      24.02030501
Ni      -0.31190263       4.29160575       7.82909129
Ni      -0.57984285       4.41070020      23.72965196
Ni       6.94206518      -0.20410209       8.07232771
Ni       6.75499715      -0.07840130      24.11099002
Ni       4.42453636       4.25557212       7.86467960
Ni       4.13887520       4.33703111      23.88566010
Ni      -1.23114587       2.19340556      -0.08596419
Ni      -1.55310256       2.27898779      15.85366050
Ni      -3.72714481       6.58082321      -0.42729675
Ni      -3.98301487       6.67684707      15.60773834
Ni       3.45480120       2.05726379      -0.05419411
Ni       3.23363011       2.08409415      15.97695627
Ni       0.93063956       6.55500314      -0.18956360
Ni       0.70534884       6.52883200      15.61937272
Ni       0.94069488       2.12543759       7.95989530
Ni       0.66326486       2.26690982      23.90935173
Ni      -1.54828076       6.56529407       7.73528498
Ni      -1.86036319       6.68095741      23.61786576
Ni       5.66897227       2.04970005       8.01963278
Ni       5.32710450       2.14756298      23.88805160
Ni       3.14345063       6.42837346       7.75202294
Ni       2.92408360       6.50160341      23.70189709
