189
Lattice="10.026986587525935 -0.02428334237706824 -0.27121978365917376 -4.722341251902099 8.476582295030576 0.2054802212394109 -0.7501586547334763 -0.2258329696463308 31.503436828298916" Properties=species:S:1:pos:R:3 pbc="T T T"
Mg      -0.36926181      -0.10554836      14.24918729
Mg      -0.66226312      -0.30913332      30.03751625
Mg      -2.71395661       4.03784778      14.36695466
Mg      -2.97900253       4.03874850      30.10181647
Mg       4.72279979      -0.17863775      14.15668211
Mg       4.34932761      -0.24443874      29.82545629
Mg       2.35794530       4.08333105      14.12749144
Mg       1.97840435       4.00983012      29.97774781
Mg      -0.09873613       0.05209436       6.41234251
Mg      -0.45533878      -0.11178994      22.07187132
Ni      -2.52401360       4.16054310       6.52455973
Mg      -2.93717633       3.94269773      22.16491819
Mg       4.92156329       0.07606632       6.28349631
Mg       4.44569719      -0.17829080      21.98757566
Mg       2.50105551       4.19111625       6.35371435
Mg       2.13319957       4.01637074      22.11705331
Ni      -0.26382673      -0.04502351       9.37115267
Mg      -0.58587898      -0.25290336      25.06144005
Mg      -2.55663165       4.16387104       9.47016583
Mg      -2.83696715       4.09019460      25.14788468
Mg       4.70960169       0.03994503       9.25575552
Mg       4.43457372      -0.14620482      24.99502217
Mg       2.43658625       4.10166168       9.33418954
Mg       1.99687588       4.00927433      25.11248624
Mg      -0.07877943      -0.03787686       1.40655324
Mg      -0.46057598      -0.16616020      17.21653500
Mg      -2.43698811       4.29490703       1.59082439
Mg      -2.75725974       4.05803206      17.31142075
Mg       5.07426660      -0.06862440       1.34104011
Mg       4.65700445      -0.14253470      17.14098620
Mg       2.73744171       4.20862614       1.43979664
Mg       2.28206965       4.08482571      17.18141047
Mg       2.48205383       1.39050366       2.40485554
Mg       2.05604573       1.23188992      18.20892967
Mg       0.15344397       5.58496695       2.46510775
Mg      -0.23078843       5.54745434      18.25958811
Mg       7.43611418       1.42679493       2.29714711
Mg       7.13243818       1.33369702      17.94247924
Mg       5.23573897       5.63491221       2.40976622
Mg       4.73754883       5.45045734      18.11115052
Mg      -0.12172300       2.76568589      10.36459538
Ni      -0.53989643       2.60852616      26.12427745
Mg      -2.56292204       6.87627635      10.44001645
Mg      -2.95274098       6.85149043      26.13944890
Mg       4.44626762       2.67124178      26.04570728
Mg       2.50244773       6.97873243      10.29973366
Mg       2.07552236       6.93231683      26.04097011
Ni       2.50935220       1.42457405       5.30204280
Mg       2.06086819       1.21514630      21.16053960
Mg       0.06960186       5.60457994       5.46794790
Mg      -0.32787165       5.49841234      21.18477349
Mg       7.34968355       1.37813578       5.24258143
Mg       7.02979572       1.25503764      21.02104259
Mg       5.13576901       5.64432147       5.29445016
Mg       4.67682447       5.46928139      21.08044652
Mg      -0.27178785       2.59754961      13.28635945
Mg      -0.57079868       2.57055625      29.13166475
Mg      -2.63984978       6.96627656      13.42381540
Mg      -2.89477840       6.91793926      29.22833648
Mg       4.81414114       2.76042317      13.11941384
Ni       4.47615848       2.61351639      28.87768764
Ni       2.41160788       6.94069893      13.31189650
Mg       2.09438071       6.75141421      29.05285343
Ni       2.23513015       1.29731841      13.71718132
Ni       1.85175239       1.18653818      29.48353444
Ni      -0.12180204       5.51204138      13.74694946
Ni      -0.54975871       5.41355664      29.51783882
Ni       7.25005444       1.34172999      13.60178222
Ni       6.82469151       1.12143752      29.30287808
Ni       4.91367851       5.49839813      13.67971193
Ni       4.48183875       5.44344226      29.45897260
Ni      -0.03557718       2.71438141       5.92682944
Ni      -0.38282372       2.63389708      21.59874122
Ni      -2.41037672       6.99974703       5.99656322
Ni      -2.78879696       6.84907360      21.77080626
Ni       4.94775273       2.74022811       5.87917927
Ni       4.56971530       2.56633235      21.51581865
Ni       2.61273428       7.00072641       5.91022934
Ni       2.27070008       6.91969034      21.64920672
Ni       2.26038499       1.32263984       9.82624963
Ni       1.94478584       1.19463481      25.50138991
Mg      -0.02409673       5.58328732       9.80678525
Ni      -0.50493716       5.46105763      25.68813582
Ni       7.35120319       1.38956629       9.67119384
Ni       6.92213992       1.20927650      25.46291240
Ni       4.86794553       5.63628935       9.75745996
Ni       4.57259902       5.43243250      25.56252837
Ni       0.06183108       2.82400543       1.97897441
Ni      -0.31861799       2.65777238      17.81098447
Ni      -2.32212108       7.05082241       2.04577083
Ni      -2.72384804       6.92964877      17.91680323
Ni       5.08091053       2.79492770       1.82337666
Ni       4.66365917       2.65188686      17.68030613
Ni       2.55591011       7.00285521       1.99544591
Ni       2.31116000       6.99429318      17.71311916
Ni       2.22119881       2.74567483      11.81478118
Ni       1.93227374       2.68503856      27.45691818
Ni      -0.01778841       6.85952723      11.87213951
Ni      -0.40312571       6.82470324      27.56695969
Ni       7.29547446       2.85445382      11.60644474
Ni       6.92304499       2.54582290      27.34999633
Ni       4.95434818       6.97609667      11.76685861
Ni       4.58944340       6.80937440      27.52025477
Ni       3.48035390       0.62984721      11.64705347
Ni       1.12388220       4.85248431      11.81444964
Ni       0.73980143       4.73421378      27.49110240
Ni       8.49577902       0.62829841      11.52475951
Ni       8.12225855       0.48902012      27.31452052
Ni       6.21059234       4.80692807      11.65045636
Ni       5.79327401       4.73663989      27.44194788
Ni       1.28161631       3.43250581       3.87313446
Ni       0.92107362       3.37002031      19.70282393
Ni      -0.98913531       7.74798412       4.00547704
Ni      -1.40715623       7.66402216      19.81833610
Ni       6.23650186       3.47211282       3.74692888
Ni       5.94482787       3.44398347      19.48983726
Ni       3.92704267       7.68938117       3.93219363
Ni       3.57387266       7.63207541      19.65316962
Ni       0.98882036       0.54328334      11.84870284
Ni       0.64337961       0.45028856      27.53173422
Ni      -1.27798799       4.81856941      11.81599113
Ni      -1.77640666       4.72905435      27.68425103
Ni       6.00111098       0.65407622      11.67329442
Ni       5.64167857       0.49722693      27.40392663
Ni       3.69384427       4.77407848      11.73076753
Ni       3.35815609       4.73402513      27.48324568
Ni      -0.08536063       1.33317798       3.90989564
Ni      -0.32263221       1.26459872      19.60630282
Ni      -2.37134287       5.74075837       4.00311487
Ni      -2.76030833       5.43464552      19.81341389
Ni       4.99928420       1.35169646       3.88288034
Ni       4.62379891       1.36215882      19.48671178
Ni       2.67102400       5.67546907       3.90927150
Ni       2.33967332       5.58236269      19.73026676
Ni      -1.22437263       3.53303457       3.98623233
Ni      -1.60010946       3.43757781      19.71974215
Ni      -3.58132239       7.74171910       4.15795085
Ni      -4.01922237       7.63354423      19.96628494
Ni       3.79229703       3.54956292       3.89441368
Mg       3.40254564       3.45095681      19.59059104
Ni       1.40453291       7.68891817       4.00586693
Ni       1.08936618       7.58747181      19.72468444
Ni       2.54305256       0.02087919      -0.07277089
Mg       2.14747661      -0.10277293      15.66642962
Ni       0.09325957       4.27246041       0.03209409
Ni      -0.22217455       4.11956855      15.79763624
Mg       7.48732740      -0.01195699      -0.18621403
Ni       7.11148273      -0.11697109      15.60597830
Ni       5.16299224       4.26100841      -0.06428050
Ni       4.76078102       4.20120703      15.66598932
Ni       1.45674160       2.15217919       0.06829705
Ni       0.97022178       1.92310443      15.75805113
Ni      -0.98614168       6.31820291       0.01702116
Ni      -1.37005213       6.18138515      15.83836277
Ni       6.31490201       2.08432210      -0.10649809
Ni       6.01258066       2.04748758      15.58309273
Ni       4.01005549       6.35850441      -0.02623898
Ni       3.70519252       6.28246637      15.70838509
Mg      -1.39806407       1.97593554       7.90904765
Ni      -1.73057213       2.00798015      23.54146010
Ni      -3.76711075       6.21701676       8.04807224
Ni      -4.06441451       6.15203753      23.84834281
Ni       3.20974623       1.87138377      23.52913531
Ni       1.27820969       6.23987721       7.95374353
Ni       0.91647745       6.11311164      23.72334518
Ni       2.32475213      -0.07611727       7.80299204
Mg       1.94638457      -0.25475423      23.64396738
Ni       0.01136451       4.12438222       7.93906013
Ni      -0.39080499       4.06082249      23.68678471
Ni       7.24338270      -0.03394945       7.69902451
Ni       6.83732540      -0.20568811      23.32119406
Ni       4.97786542       4.15386195       7.78348890
Ni       4.62304994       4.10112772      23.54407147
Ni      -1.21791562       2.13073350       0.01752457
Ni      -1.55568680       2.08796728      15.74620941
Ni      -3.50257805       6.37939057       0.11387760
Ni      -3.82497697       6.24868145      15.99759150
Ni       3.81789856       1.99418189      -0.14067299
Ni       3.42120982       2.06550947      15.62466098
Ni       1.53440895       6.32957272       0.00241077
Ni       1.08362552       6.23474429      15.76706197
Ni       1.10184770       2.05373771       7.99118731
Ni       0.79803069       1.91899550      23.60774581
Ni      -1.25698258       6.29386313       7.94302246
Ni      -1.62549474       6.25770701      23.73112009
Ni       6.25765431       2.07061549       7.68114304
Ni       5.75746344       1.89291930      23.39932354
Ni       3.84011426       6.24622664       7.85406634
Ni       3.47081679       6.12381069      23.56629376
