192
Lattice="9.911214889412179 0.252004417137966 -0.09467873670739367 -4.74019101494341 8.391186579298507 0.1348129495596872 -0.9863680663724921 0.6069687450112 31.548259232544606" Properties=species:S:1:pos:R:3 pbc="T T T"
Mg      -0.37930795       0.23949113      14.27701082
Mg      -0.84850638       0.55784319      30.04560616
Mg      -2.83459426       4.42120309      14.33025380
Mg      -3.30976913       4.75548721      30.18924132
Mg       4.44246740       0.38175122      14.23231505
Mg       3.92779034       0.69125261      30.12461025
Ni       2.14926728       4.70612806      14.31791857
Mg       1.65063927       4.86832488      30.00163524
Mg      -0.30643940       0.09761754       6.48690243
Mg      -0.75258183       0.43122159      22.14237525
Mg      -2.59888433       4.26937089       6.44539120
Mg      -3.05204771       4.66458307      22.24577055
Mg       4.77129439       0.31759974       6.32403457
Ni       4.24129744       0.50517445      22.10624892
Mg       2.49639038       4.50805751       6.47923983
Mg       1.88600568       4.72411904      22.16474152
Mg      -0.34738712       0.23826967       9.41535719
Mg      -0.86570840       0.52147715      25.13833707
Mg      -2.59667221       4.36465513       9.39502676
Mg      -3.16309152       4.52158416      25.15604876
Mg       4.66035780       0.37069225       9.30219136
Mg       4.11635988       0.59633151      25.06581753
Mg       2.27013871       4.48222306       9.42633903
Mg       1.78192488       4.76451467      25.19827216
Mg      -0.01588519       0.06558555       1.46480921
Mg      -0.55822703       0.31036592      17.21192575
Mg      -2.38923040       4.30650029       1.62575171
Mg      -2.90561747       4.43775742      17.23998037
Mg       4.90770309       0.15332811       1.39296584
Mg       4.41612949       0.54180206      17.20114128
Mg       2.43990864       4.37246044       1.51397444
Mg       2.09180536       4.69345222      17.29328390
Mg       2.47941356       1.54841109       2.46205333
Mg       1.87581161       1.81809345      18.26069046
Mg       0.07637444       5.70575528       2.54398894
Mg      -0.45411642       6.04019926      18.29919077
Mg       7.43707350       1.70707861       2.36336438
Mg       6.93882843       2.00239383      18.18760278
Mg       5.05987186       5.92222165       2.47968489
Mg       4.52423131       6.01301570      18.18901864
Mg      -0.24220914       3.04707109      10.36210508
Mg      -0.84299829       3.41421637      26.06628132
Mg      -2.60914397       7.27744055      10.44763851
Mg      -3.15969505       7.51184968      26.21366579
Mg       4.71485432       3.12543091      10.31978911
Mg       4.19392852       3.46316260      26.07834119
Mg       2.24164544       7.40105979      10.39899446
Mg       1.84033847       7.66219458      26.09811094
Mg       2.43541848       1.56093004       5.49055892
Mg       1.86637439       1.92323801      21.22673470
Ni      -0.07606630       5.83533861       5.54662288
Mg      -0.55047723       6.21487821      21.30392210
Ni       7.26425404       1.65891603       5.39298463
Mg       6.87893333       1.93596731      21.14142621
Mg       4.95637312       5.86682572       5.41787563
Mg       4.54055909       6.10769018      21.24656435
Mg      -0.34665725       3.12133061      13.36085683
Mg      -0.83303957       3.39760714      29.10916620
Mg      -2.65546716       7.23530427      13.47484755
Mg      -3.18509414       7.60822311      29.14785313
Mg       4.70127195       3.22971863      13.33724718
Mg       4.10619468       3.50292123      29.14395758
Mg       2.24890984       7.37285321      13.36056771
Mg       1.76816551       7.72944908      29.10133373
Ni       2.03453351       1.78063780      13.81662865
Mg       1.54620779       2.12262467      29.59067384
Ni      -0.34142104       5.92098422      13.78964732
Ni      -0.84208288       6.27302193      29.66689768
Ni       7.09927546       1.89159048      13.77548048
Ni       6.54164002       2.28144636      29.43631103
Ni       4.63302337       6.01003186      13.77079396
Ni       4.14572489       6.30490690      29.55900381
Ni      -0.20053545       2.91883453       5.97267794
Ni      -0.59176402       3.27769969      21.74314447
Ni      -2.39830030       7.08713339       5.95543157
Ni      -3.05174334       7.41791378      21.87094218
Ni       4.83827141       3.05969644       5.82700402
Ni       4.29783770       3.37619267      21.75760912
Ni       2.44409018       7.25982717       5.95553741
Ni       1.89954502       7.66658220      21.78784220
Ni       2.08280153       1.67009336       9.79217779
Ni       1.71253800       1.91492412      25.57088943
Ni      -0.20740481       5.86249091       9.86644618
Ni      -0.65788815       6.19135179      25.67874219
Ni       7.14623038       1.83510774       9.94193806
Ni       6.69908526       2.10242156      25.54328090
Ni       4.79220074       6.00597871       9.80360960
Ni       4.29816304       6.33301293      25.66523136
Ni       0.05258652       2.91162709       1.94912782
Ni      -0.44416726       3.07371551      17.82635733
Ni      -2.40215887       7.12202996       2.11710490
Ni      -2.84704064       7.34462716      17.82462797
Ni       4.90932201       3.07872830       1.88560491
Ni       4.44337129       3.37624966      17.72802724
Ni       2.57995162       7.14770547       1.99750917
Ni       2.12567854       7.49708348      17.86445865
Ni       2.22066281       3.08273711      11.95289564
Ni       1.67255571       3.43306592      27.55051875
Ni      -0.19958884       7.27618037      11.94489032
Ni      -0.68823360       7.58545892      27.69764369
Ni       7.11848710       3.26619975      11.87228280
Ni       6.64802631       3.53834254      27.63852314
Ni       4.70112547       7.46381467      11.82078284
Ni       4.40084207       7.69921692      27.63128107
Ni       3.31747934       1.04364811      11.85462547
Ni       2.88177927       1.27862016      27.52944583
Ni       0.98247726       5.23921585      11.85954731
Ni       0.47932453       5.56999427      27.56137528
Ni       8.40074663       1.15748030      11.63869382
Ni       7.81625581       1.44731496      27.58892319
Ni       6.05470720       5.31560390      11.81889868
Ni       5.50158925       5.58265450      27.57692498
Ni       1.20717281       3.66141408       4.01630356
Ni       0.74541237       3.94697891      19.72462050
Ni      -1.22623770       7.86755462       4.06346926
Ni      -1.63681141       8.16189588      19.71250429
Ni       6.21130250       3.74231805       3.92441964
Ni       5.65525312       4.10094039      19.72767994
Ni       3.81995591       7.90091352       4.02694001
Ni       3.27628415       8.28282290      19.79820574
Ni       0.90742620       0.85363659      11.81913824
Ni       0.47568184       1.26248238      27.55066598
Ni      -1.52220976       5.22247723      11.86949353
Ni      -1.95413851       5.37932077      27.63925224
Ni       5.86627533       1.06973966      11.74654914
Ni       5.34098232       1.26304374      27.54787125
Ni       3.50371508       5.31433589      11.88513890
Ni       2.97016732       5.53187700      27.65566502
Ni      -0.12529765       1.47477441       3.90471109
Ni      -0.62585285       1.80034624      19.75958585
Ni      -2.48493389       5.71191812       4.01183621
Ni      -2.94385176       5.96169563      19.84634256
Ni       4.78740587       1.60649426       3.92300034
Ni       4.33789383       1.97424313      19.67897405
Ni       2.55937132       5.84792960       3.93482139
Ni       2.04300353       6.10774859      19.69608434
Ni      -1.27196883       3.71609332       3.89360326
Ni      -1.70935041       3.86197973      19.81466407
Mg      -3.57474407       7.87383406       4.07535742
Ni      -4.16023618       8.03621479      19.82155783
Ni       3.68038270       3.63400680       3.97253108
Ni       3.18557634       3.96312072      19.70909226
Ni       1.22120537       7.93745299       4.03267487
Ni       0.86453486       8.22005386      19.79224164
Ni       2.53124664       0.03292192      -0.10375474
Ni       2.02663021       0.34273896      15.73762697
Ni       0.08407398       4.32390113       0.11441119
Ni      -0.29057628       4.64357059      15.76811065
Ni       7.45665490       0.16942432      -0.09101329
Ni       7.01373399       0.46502143      15.64859048
Ni       5.01569408       4.36788051      -0.04986818
Ni       4.49880528       4.66329043      15.74784482
Ni       1.28911624       2.05273977      -0.05280358
Ni       0.75305312       2.49200269      15.76483635
Ni      -1.12654426       6.28399350       0.01827272
Ni      -1.59374464       6.68492126      15.90693856
Ni       6.16845510       2.26656990       0.01154897
Ni       5.75915841       2.60339012      15.69735713
Ni       3.98577985       6.60530720       0.05959764
Ni       3.50410956       6.84205810      15.76687043
Ni      -1.50984677       2.27469313       7.89892116
Ni      -1.90314342       2.55602548      23.72524795
Ni      -3.76423607       6.39734199       8.04480996
Ni      -4.24745315       6.72982592      23.71840369
Ni       3.53482684       2.33699257       7.86148529
Ni       3.02091357       2.72675714      23.58199757
Ni       1.20915753       6.62736354       7.97956040
Ni       0.67110217       6.82512007      23.69978391
Ni       2.29430457       0.27007877       7.86251104
Ni       1.67163497       0.53887008      23.63976254
Ni      -0.20751968       4.39729720       7.90060043
Ni      -0.74276217       4.72803790      23.69021154
Ni       7.17510355       0.26267441       7.76268448
Ni       6.70576508       0.69432977      23.63822581
Ni       4.86965971       4.44770131       7.85264638
Mg       4.29686685       4.88988960      23.75133268
Ni      -1.25501353       2.15040512       0.00434965
Ni      -1.64352213       2.42425158      15.78181569
Ni      -3.49887448       6.37973849       0.13176818
Ni      -4.09841546       6.61037892      15.85391127
Ni       3.79562751       2.27251789       0.00716499
Ni       3.30984561       2.55332597      15.84605591
Ni       1.44969723       6.35776002       0.04068523
Ni       0.98778408       6.84291761      15.87560564
Ni       1.04093604       2.28734039       7.91378342
Ni       0.53202092       2.55798341      23.67114845
Ni      -1.33612049       6.51990737       7.99876808
Ni      -1.83242104       6.81684278      23.71889744
Mg       5.96019862       2.41933939       7.89180930
Ni       5.62127946       2.86489641      23.60617800
Ni       3.60822445       6.68117935       7.90141527
Ni       3.17657549       6.89508865      23.66350666
