188
Lattice="9.785228452672705 -0.0475493054736047 0.07237264694226725 -4.925844203959548 8.67276260221959 -0.08814645973339869 -0.08657651283998521 1.5896385659865306 30.47650050687698" Properties=species:S:1:pos:R:3 pbc="T T T"
Mg       0.00891784       0.59049640      13.76503377
Ni      -0.01533368       1.50234844      29.03450146
Mg      -2.50891162       5.04338266      13.73970728
Mg      -2.64630952       5.92586702      28.98313018
Mg       4.91225023       0.73995913      13.85637719
Mg       4.83602214       1.58273689      29.06156065
Mg       2.39377575       4.98732826      13.71977021
Mg       2.38254330       5.83901483      29.02215698
Mg      -0.11973493       0.37224548       6.16031424
Mg      -0.09731062       1.03723968      21.40305785
Mg      -2.48208813       4.63962441       6.19588445
Mg      -2.59331683       5.42986940      21.34798638
Mg       4.88251110       0.29873845       6.15355404
Mg       2.46639360       4.71682038       6.23684477
Mg       2.38620119       5.44466090      21.46854156
Mg      -0.02679343       0.45068097       9.12760074
Mg       0.00320546       1.23610807      24.27890385
Mg      -2.47623953       4.73287742       8.91606674
Mg      -2.54535444       5.60860798      24.17853815
Mg       4.88925460       0.48780962       9.10985952
Mg       4.81517869       1.27942254      24.35027579
Mg       2.37646185       4.85731875       9.10157263
Mg       2.42105508       5.57810294      24.25994915
Mg       0.05870260       0.07644293       1.45896003
Mg      -0.01830759       0.86733021      16.63445175
Mg      -2.47620172       4.37997790       1.44075957
Mg      -2.54204009       5.14891481      16.56970167
Mg       4.95264809       0.11787948       1.42843740
Mg       4.93718716       0.92126836      16.78870601
Mg       2.34313050       4.38222310       1.33798598
Mg       2.31236206       5.16426859      16.77108267
Mg       2.46419080       1.49078145       2.42448603
Mg       2.41707378       2.24841405      17.66124869
Mg      -0.06370486       5.94656706       2.32351562
Mg      -0.08055600       6.68440092      17.57939322
Mg       7.31665966       2.27780995      17.60509905
Mg       4.86995463       5.91222532       2.37734627
Mg       4.79930358       6.68149179      17.65539845
Mg      -0.08772571       3.37042765      10.06915920
Ni      -0.05978520       4.24751040      25.22527527
Mg      -2.52138937       7.80160400      10.00049746
Mg      -2.58744808       8.53682907      25.19219767
Mg       4.85547319       3.45368463       9.94673233
Mg       4.78143054       4.15271419      25.29990820
Mg       2.34333661       7.71149371       9.88480169
Mg       2.31226527       8.48815775      25.22356338
Mg       2.46108794       1.69421645       5.29481886
Mg       2.41859651       2.44825387      20.52130023
Mg      -0.11860621       6.01725299       5.29322730
Mg      -0.05504170       6.71407508      20.45643697
Mg       7.34912044       1.69167601       5.27821619
Mg       7.26883598       2.53724463      20.54477836
Mg       4.85859890       6.10743558       5.21651720
Mg       4.81543147       6.78723257      20.55831158
Ni      -0.02780959       3.59488190      12.82771583
Mg      -0.05778645       4.36858713      28.08044681
Mg      -2.53045773       7.95239433      12.81380328
Mg      -2.48377015       8.61710212      28.01972913
Mg       4.81589807       3.57577146      12.88643012
Mg       4.88080296       4.31361081      28.10130888
Mg       2.34055507       7.97409160      12.80752084
Mg       2.36579087       8.64894247      28.10854055
Ni       2.52183783       2.12779032      13.33892275
Ni       2.32771229       2.89739488      28.55979590
Ni      -0.00836089       6.48697510      13.32125559
Ni      -0.04204892       7.24368022      28.54790797
Ni       7.20565662       1.98488211      13.32374903
Ni       7.22207176       2.87801632      28.66249803
Ni       4.92557698       6.43033359      13.32844082
Ni       4.81646452       7.28360951      28.46375250
Mg      -0.06159975       3.17657184       5.75108006
Ni       0.02917789       4.05254569      20.91691905
Ni      -2.65662908       7.52562265       5.64177505
Ni      -2.57311955       8.29573175      20.97895001
Ni       4.92460149       3.18052425       5.73138943
Ni       4.80553998       4.01823140      20.95061953
Ni       2.43246182       7.52362422       5.69843542
Ni       2.35049495       8.25476903      20.89276753
Ni       2.36511781       1.93409541       9.45495500
Ni       2.31483611       2.64704166      24.75725801
Ni       0.02095749       6.31819489       9.54520566
Ni      -0.06201519       7.03020527      24.77572089
Ni       7.34536783       1.80599164       9.65817425
Ni       7.28139228       2.65989951      24.86825320
Ni       4.84484491       6.24595489       9.57384015
Ni       4.87929612       7.10537132      24.71077387
Ni      -0.00846118       2.95624922       1.95933014
Ni      -0.09152576       3.77098975      17.12934250
Ni      -2.47804070       7.30498012       1.89090846
Ni      -2.48605967       8.20624816      17.07628387
Ni       4.84283318       3.02784324       1.93128951
Ni       4.94686869       3.71026483      17.15703361
Mg       2.31366556       8.02980975      17.27293571
Ni       2.44731832       3.52891613      11.38994730
Ni       2.33173373       4.20219019      26.73299277
Ni      -0.01406535       7.79891087      11.34590536
Ni      -0.10002353       8.59721861      26.59263190
Ni       7.28016435       3.44749599      11.56076825
Ni       7.29492603       4.26248871      26.70061860
Ni       4.82713405       7.79432932      11.41239937
Ni       4.79622919       8.54967358      26.65178875
Ni       3.71448674       1.32046162      11.41766924
Ni       3.65591025       2.17209407      26.77183770
Ni       1.21044192       5.57795750      11.32876053
Ni       1.15934363       6.44152351      26.62136101
Ni       8.54730140       1.27641086      11.51717965
Ni       8.46750981       2.09485236      26.75622397
Ni       6.06623025       5.65912115      11.41735937
Ni       6.06030410       6.33920230      26.68693585
Ni       1.25730578       3.72582621       3.74363693
Ni       1.24482988       4.67135204      19.09898400
Mg      -1.24461209       8.10372729       3.67729206
Ni      -1.35296624       8.96141659      19.07918907
Ni       5.97851141       3.87548720       3.78226057
Ni       6.18054043       4.54231660      19.10835436
Ni       3.67429363       8.13384262       3.85879906
Ni       3.68162453       8.91847499      18.98916224
Ni       1.24154041       1.33662726      11.42061527
Ni       1.10470022       2.19865696      26.55757294
Ni      -1.40368191       5.68154866      11.37441566
Ni      -1.30694840       6.45508643      26.70085131
Ni       6.08436658       1.28998476      11.44169066
Ni       5.96446081       2.08319207      26.72564108
Ni       3.58652410       5.59052910      11.50046519
Ni       3.52646368       6.36334525      26.71839309
Ni       0.00819481       1.72029937       3.80659896
Ni      -0.08897318       2.44910671      19.10288506
Ni      -2.44526749       6.03721450       3.76586100
Ni      -2.51881812       6.78563893      19.08270044
Ni       4.82591868       1.56821836       3.77911513
Ni       4.89880339       2.40491517      19.15658725
Ni       2.38016550       6.00311692       3.78750682
Ni       2.40258386       6.79275539      19.05555135
Ni      -1.37163614       3.82209997       3.73585480
Ni      -1.22212064       4.57314990      18.97216864
Ni      -3.74545608       8.15933141       3.74790313
Ni      -3.78514158       8.93629887      18.95276150
Ni       3.64747263       3.80220386       3.79553035
Ni       3.55767877       4.54614021      19.04172275
Ni       1.21180747       8.08410452       3.75694577
Ni       1.22923358       8.92503322      18.98982248
Ni       2.41996413      -0.06422581      -0.02339869
Ni       2.38734463       0.74267461      15.25493437
Ni      -0.10669762       4.38297929      -0.07022454
Ni      -0.05391831       5.16444873      15.19803628
Ni       7.36104095       0.05072065       0.00312258
Ni       7.30479781       0.76996530      15.24932232
Ni       4.93804349       4.29886530      -0.00612009
Ni       4.70526995       5.24391937      15.20459255
Ni       1.21452324       2.22450605       0.10914023
Ni       1.15999205       2.96156316      15.17986405
Ni      -1.26876868       6.54067619      -0.09980936
Ni      -1.24922474       7.23583931      15.15259317
Ni       6.08236127       2.10890885      -0.00624274
Ni       6.14169866       2.97726075      15.22436818
Ni       3.68672748       6.43692023      -0.04721119
Ni       3.62623450       7.25986738      15.24576206
Ni      -1.23145348       2.56489932       7.52471066
Ni      -1.31010450       3.32478817      22.78058098
Ni      -3.70676080       6.84469323       7.55509347
Ni      -3.72314041       7.65408839      22.85766019
Ni       3.63429624       2.53201479       7.53531999
Ni       1.15398353       6.85478860       7.57470853
Ni       1.09139582       7.66873765      22.86975032
Ni       2.39150025       0.33520790       7.64077035
Ni       2.39204290       1.19710176      22.91730870
Ni       0.03340413       4.69128624       7.62453251
Ni      -0.16279635       5.51700194      22.86538194
Ni       7.33082104       0.36137399       7.72017200
Ni       7.31347764       1.19564038      22.97359999
Ni       4.82321790       4.69663183       7.65191124
Ni       4.87916429       5.57428515      22.84977843
Ni      -1.18298262       2.10003262      -0.04383102
Ni      -1.31361129       2.97003233      15.19020516
Ni      -3.67987301       6.57632921      -0.09847913
Ni      -3.81813446       7.29965706      15.16318598
Ni       3.69011179       2.06088870      -0.09048820
Ni       3.66094405       2.93412528      15.18303347
Ni       1.26038494       6.39604616       0.02177623
Ni       1.20498485       7.25643837      15.23832156
Ni       1.13712117       2.41745959       7.62199140
Ni       1.15630534       3.29861517      22.83449220
Ni      -1.26309385       6.80584969       7.58017198
Ni      -1.37552659       7.73105862      22.86271642
Ni       6.10212542       2.49742812       7.64870058
Ni       5.99313110       3.35472478      22.86676338
Ni       3.66806388       6.87514910       7.65636192
Ni       3.59678897       7.69519364      22.90345793
