187
Lattice="10.016550421369052 0.02320759740829264 0.23336740875143958 -4.969811226747989 8.323934625705077 -0.1875709334795731 0.18032190817057484 -0.42220952346577606 31.575733960391627" Properties=species:S:1:pos:R:3 pbc="T T T"
Ni       0.09287322      -0.18180785      14.23725934
Mg       0.08197573      -0.48094425      30.11017977
Mg      -2.37809816       4.01208485      14.21614598
Ni      -2.29355984       3.79244770      29.89136552
Mg       5.10365440      -0.18945758      14.43534309
Mg       5.16039526      -0.39217079      30.27435568
Mg       2.55030738       3.95370406      14.32372298
Ni       2.58305412       3.76134096      30.11387596
Mg       0.09517988      -0.08437348       6.32937599
Mg       0.20056283      -0.34259371      22.15340464
Mg      -2.52785343       4.09812740       6.35070717
Mg      -2.41342138       3.85282725      22.09333567
Mg       4.97246166      -0.06179429       6.56962283
Mg       5.14241005      -0.35972222      22.31615567
Mg       2.64014314       4.13723942       6.40377244
Ni       2.64034544       3.85884400      22.10908924
Mg       0.08158812      -0.13773786       9.43190336
Mg       0.21929838      -0.26548977      25.21876147
Mg      -2.47264327       4.04312987       9.32839351
Mg      -2.23326140       3.89686075      25.05947006
Mg       5.07347971      -0.17711583       9.49194224
Mg       5.21503010      -0.38832753      25.35012972
Mg       2.50195518       4.07517641       9.43842463
Mg       2.60257291       3.88626388      25.18938012
Mg       0.03846174       0.01131102       1.55040872
Mg       0.17200109      -0.21444921      17.27739927
Mg      -2.54048800       4.13491600       1.40062856
Mg      -2.36033394       3.87417346      17.11410320
Mg       5.01456853       0.00242538       1.59345759
Mg       5.14859635      -0.29033740      17.38849374
Mg       2.61539873       4.17916001       1.47080109
Mg       2.62011146       3.95137402      17.39146427
Mg       2.55339844       1.32633356       2.46633951
Mg       2.61728210       1.19709777      18.32572395
Mg       0.05272421       5.51847551       2.40508092
Mg       0.13618551       5.32308303      18.12445404
Mg       7.56644926       1.33493491       2.68988964
Mg       7.62106966       1.13000354      18.32868383
Mg       5.04448621       5.49672974       2.62192371
Mg       5.13601842       5.31862345      18.32372485
Mg       0.13537072       2.69455595      10.29513611
Mg       0.19286277       2.41028095      26.11990317
Mg      -2.38971256       6.82693758      10.19600497
Mg      -2.30227952       6.62169510      26.02049747
Mg       5.04674895       2.63215351      10.43220220
Mg       5.15117282       2.40274553      26.33234014
Mg       2.60638212       6.86452065      10.37217231
Mg       2.71663444       6.57074410      26.14434159
Mg       2.49312718       1.34688371       5.43749521
Mg       2.62332241       1.03171216      21.32876988
Mg       0.04681056       5.50997933       5.38478767
Mg       0.14988392       5.31694512      21.26249648
Mg       7.55288275       1.36301562       5.60481391
Ni       7.59531078       1.08736431      21.27635719
Mg       5.01618963       5.52728077       5.51548705
Mg       0.07345217       2.68879178      13.27220943
Mg       0.07135166       2.44099355      29.04290102
Mg      -2.36666614       6.78194064      13.17843523
Mg      -2.28394367       6.61119374      28.99192821
Mg       5.01311239       2.56345975      13.41462831
Mg       5.24874606       2.44580829      29.21415702
Mg       2.61208943       6.83799222      13.39776747
Mg       2.74860553       6.56493429      29.11586993
Ni       2.50722298       1.15605948      13.77780707
Ni       2.64796914       0.97409003      29.71876059
Ni       0.21715433       5.22791572      29.54979253
Mg       7.56388224       1.32466128      14.00569936
Ni       7.64873451       1.11561369      29.71467056
Ni       5.05636895       5.34317496      13.91325501
Ni       5.24697772       5.19337788      29.70419969
Ni       0.02260850       2.77082137       5.90723756
Ni       0.09915153       2.51083890      21.72292679
Ni      -2.44970255       6.87456728       5.77896969
Ni      -2.34744685       6.57370455      21.74168440
Ni       5.12357704       2.68712385       5.98321190
Ni       5.16143131       2.61728048      21.76616766
Ni       2.64817151       6.95555984       5.96650410
Ni       2.66214423       6.58501166      21.69783546
Ni       2.56967630       1.32009414       9.86666045
Ni       2.58540713       1.08697209      25.69958409
Ni       0.04604436       5.35006846       9.92127994
Ni       0.11515552       5.18388214      25.67306896
Ni       7.56278960       1.24175210      10.05044244
Ni       7.65071361       1.08091037      25.77062602
Ni       5.08441807       5.41476356       9.98201748
Ni       5.20803241       5.31511908      25.72412651
Ni      -0.03721868       2.74218661       1.91211184
Ni       0.11327579       2.54996884      17.70506377
Ni      -2.49239828       6.79966994       1.92593092
Ni      -2.37062872       6.63683206      17.60109964
Ni       5.00410251       2.81582551       2.03438095
Ni       5.07836403       2.51244755      17.91318291
Ni       2.50018849       7.01584530       1.90814949
Ni       2.59959847       2.62484601      11.86435844
Ni       2.65327913       2.42140639      27.71614962
Ni       0.13005670       6.82695913      11.80429083
Ni       0.08806508       6.48380589      27.57770846
Ni       7.66061546       2.56859326      12.00824797
Ni       7.66713722       2.44319214      27.75022377
Ni       5.05368417       6.84140670      11.95150172
Ni       5.12654530       6.52473567      27.68888934
Ni       3.87105825       0.53459963      11.86667894
Ni       3.87802559       0.22497046      27.71450639
Ni       1.34347030       4.66157375      11.78580074
Ni       1.43123108       4.46371601      27.62122671
Ni       8.89418704       0.51714294      11.98764907
Ni       8.81497327       0.34207322      27.80513203
Ni       6.39104998       4.63708451      12.01014741
Ni       6.46108657       4.51338196      27.80185178
Ni       1.22483149       3.33759829       3.91512029
Ni       1.42179697       3.24613533      19.72914159
Ni      -1.19431395       7.60266916       3.90288168
Ni      -1.07308276       7.40798459      19.57339515
Ni       6.31772262       3.31086017       4.02087981
Ni       6.32587799       3.25211803      19.89269970
Ni       3.83612122       7.58684375       4.02526791
Ni       3.92183385       7.35636948      19.76835268
Ni       1.32658433       0.46599070      11.90286970
Ni      -1.23426758       4.65453876      11.82388906
Ni      -1.09151024       4.52208943      27.51088317
Ni       6.30475649       0.49361147      11.91460933
Ni       6.45274966       0.29593304      27.68578261
Ni       3.84081425       4.76426625      11.75901859
Ni       3.94658757       4.51681520      27.69183513
Ni       0.01030801       1.38829961       3.93539484
Ni       0.17074576       1.11392665      19.76769835
Ni      -2.48395498       5.52023897       3.82553220
Ni      -2.36044696       5.25415084      19.59035132
Ni       4.95243947       1.43754905       3.90854315
Ni       5.22880006       1.12949709      19.80336353
Ni       2.53934620       5.44741271       3.92985203
Mg       2.61171930       5.27721298      19.78066154
Ni      -1.20686870       3.43599540       3.83908221
Ni      -1.18556195       3.23190137      19.69397089
Mg      -3.67532275       7.58608530       3.80895157
Ni      -3.55561605       7.37910454      19.54202163
Ni       3.79077863       3.36799544       4.08130155
Ni       3.81178886       3.24572253      19.78182770
Ni       1.27942087       7.55677444       3.98456625
Ni       1.43411693       7.33793523      19.75662576
Ni       2.55367284      -0.02433864       0.06952403
Ni       2.56358532      -0.17035707      15.85745091
Ni      -0.00835047       4.18084889      -0.02805346
Ni       0.19365344       3.97766231      15.78146777
Ni       7.50815440       0.09777047       0.16507038
Ni       7.64875750      -0.17052332      15.97502861
Ni       5.07220127       4.12523890       0.10709520
Ni       5.07204810       3.85677423      15.87675389
Ni       1.26040586       2.08225579       0.01169038
Ni       1.31762130       1.91468049      15.82024105
Ni      -1.27572815       6.32596957      -0.16540569
Ni      -1.11019247       6.04812537      15.73235343
Ni       6.29195191       2.13705930       0.15543306
Ni       6.30941341       1.87280221      15.94169556
Ni       3.77175584       6.25182378       0.05750515
Ni       3.93127104       6.06797619      15.80556173
Ni      -1.12981194       2.03475625       7.80292332
Ni      -1.15391232       1.76085864      23.63195782
Ni      -3.71230194       6.13850592       7.72278010
Ni      -3.57431669       5.87782321      23.53785253
Ni       3.79899555       1.94479064       7.99215638
Ni       3.88802089       1.70615089      23.80436488
Ni       1.35636648       6.20617175       7.84592258
Mg       1.46613213       5.93372531      23.69340381
Ni       2.61013306      -0.15566972       7.90635428
Ni       2.73675923      -0.25154543      23.69698668
Ni      -0.02104076       4.05490646       7.78877794
Mg       0.09305575       3.85000374      23.60111884
Ni       7.59010322      -0.04514479       8.14652429
Ni       7.65191786      -0.33925030      23.84805268
Ni       5.09514181       4.01392416       8.00347683
Ni       5.04859720       3.84037904      23.68926006
Ni      -1.18843817       2.11364119      -0.07233255
Ni      -1.16322875       1.80305024      15.79231300
Ni      -3.60788578       6.06145105      15.58324095
Ni       3.74639608       2.03316368       0.07737282
Ni       3.84674003       1.95418909      15.89315227
Ni       1.27690333       6.29990552       0.01064505
Ni       1.39206734       6.06885677      15.70093915
Ni       1.35356988       2.02390134       7.82091694
Ni       1.39178480       1.75034249      23.69312838
Ni      -1.09825464       6.18699249       7.79050748
Ni      -1.09110336       5.92511797      23.56318217
Ni       6.33298689       1.97278436       8.12719861
Ni       6.41046590       1.74638630      23.81389866
Ni       3.79461680       6.20462371       7.90051264
Ni       3.92368115       5.93444962      23.72616741
