190
Lattice="9.504097394456105 -0.014767931173382324 -0.09368121461936112 -4.7560494950001955 8.644069574214315 0.2289600512047467 0.01873641032555141 -0.04438626569921869 32.09987419421336" Properties=species:S:1:pos:R:3 pbc="T T T"
Mg       0.00869727      -0.03188291      14.50926235
Mg       0.00523896      -0.07592896      30.61332229
Mg      -2.36042503       4.30060350      14.60443371
Mg      -2.34283258       4.35681738      30.64920498
Mg       4.70460902      -0.01087261      14.44723479
Mg       4.80508206       0.00142726      30.50668686
Mg       2.38010021       4.38010951      14.63009650
Mg       0.03530680      -0.05051538       6.48770102
Mg       0.01990546       0.03475664      22.58081833
Mg      -2.34745178       4.31131739       6.69511636
Mg      -2.30826508       4.29906580      22.80480888
Mg       4.74606323      -0.07372796       6.39288960
Mg       4.71219108      -0.04197508      22.56673926
Mg       2.33233666       4.34496388       6.48426158
Mg       2.37356930       4.36697204      22.64411227
Mg      -0.02251419      -0.08747238       9.57531338
Mg       0.10732548      -0.01547183      25.58703870
Mg      -2.44213058       4.35132194       9.66810994
Mg      -2.35171793       4.29313289      25.70189632
Mg       4.74584123      -0.01746028       9.46141104
Mg       4.78265316      -0.02926963      25.52016178
Mg       2.41098685       4.40930255       9.70116873
Mg       2.37898291       4.30826011      25.76654750
Mg      -0.08357156      -0.04024211       1.63950767
Mg      -0.04339759       0.04468289      17.55415425
Mg      -2.36199561       4.35506744       1.64951442
Mg      -2.33780525       4.29363820      17.68338337
Ni       4.76925251       0.00402208       1.42301159
Mg       4.73823869      -0.00122558      17.49670372
Mg       2.26545536       4.35734887       1.54572003
Mg       2.39361393       4.20529210      17.61562754
Mg       2.44994348       1.32890368       2.56637211
Mg       2.38027954       1.42578910      18.51059650
Mg       0.07628466       5.68751668       2.59184575
Ni       0.06900966       5.74572794      18.67579357
Mg       7.11528183       1.46951452       2.50996775
Mg       7.08193153       1.47066020      18.55137813
Mg       4.72580938       5.77091873       2.56427975
Mg       4.73548412       5.68408514      18.65861616
Mg       0.00407479       2.84387979      10.58216736
Mg       0.00187037       2.82621454      26.50407584
Mg      -2.41350098       7.20237836      10.70687380
Ni      -2.37693094       7.14779980      26.75967088
Mg       4.76933030       2.83731607      10.50392243
Mg       4.74995162       2.86112061      26.64789334
Ni       2.35590899       7.12258262      10.66455288
Mg       2.41027861       7.18238003      26.65496138
Mg       2.41992290       1.43497688       5.50933141
Mg       2.45508072       1.41011186      21.64337917
Ni       0.10027592       5.68046858       5.64082874
Mg      -0.01581199       5.71834164      21.71140610
Ni       7.12102765       1.28075323       5.52094043
Mg       7.08967666       1.46117568      21.59628181
Mg       4.78959172       5.83535372       5.55706077
Mg       4.79424143       5.72484672      21.65378892
Mg      -0.03338088       2.91864803      13.65917916
Mg       0.03357238       2.86194153      29.67626373
Mg      -2.42638238       7.12234222      13.74848233
Mg      -2.36761966       7.15107695      29.83937840
Mg       4.80231651       2.79031853      13.55666788
Mg       4.79876046       2.82511546      29.60944968
Mg       2.38263415       7.18698877      13.63222196
Mg       2.40955296       7.16106953      29.73455671
Mg       2.30703956       1.50143008      14.03358242
Ni       2.43369507       1.36821278      30.16314926
Ni       0.07201976       5.78826909      14.20198550
Ni      -0.00413876       5.65821201      30.20325381
Ni       7.18704744       1.49913548      13.98752197
Ni       7.13130760       1.42840707      30.03678002
Ni       4.71735826       5.77684091      14.09900838
Ni       4.73027490       5.81294159      30.18342166
Ni       0.02448489       2.79824710       6.17862939
Ni       0.01824612       2.83115425      22.18253345
Ni      -2.27658510       7.15846320       6.18655408
Mg      -2.33192202       7.07302774      22.21470161
Ni       4.75652012       2.80024287       5.90883349
Ni       4.72358117       2.76876633      22.04075091
Ni       2.39609190       7.12272376       6.15490101
Ni       2.38343647       7.09696534      22.17134036
Ni       2.32419248       1.42835693      10.05091069
Ni       2.37224336       1.44608225      26.06184077
Ni       0.06891703       5.73387745      10.23251793
Ni       0.00810193       5.76643105      26.19478891
Ni       7.02039777       1.39907602       9.95228907
Ni       7.08363862       1.37249158      26.02909969
Ni       4.80802743       5.75257888      10.12997948
Ni       4.76759372       5.70384892      26.17118841
Ni       0.02705255       2.85351924       2.07372614
Ni      -0.02424973       2.75433470      18.05820487
Ni      -2.39266999       7.22664165       2.18257239
Ni      -2.41202826       7.22639948      18.24385539
Ni       4.76639307       2.84513258       2.09022588
Ni       4.76825255       2.93741974      18.11597241
Ni       2.36952519       7.10331200       2.12535679
Ni       2.36137472       7.21375887      18.19746552
Ni       2.45485443       2.83095382      12.04640642
Ni       2.37485984       2.83283569      28.09941066
Ni       0.12187371       7.14923531      12.14574547
Ni      -0.00413937       7.06762710      28.29638534
Ni       7.13423185       2.84750022      11.99931846
Ni       7.19445135       2.76633140      28.08190764
Ni       4.79598499       7.13295331      12.10507600
Ni       4.74109603       7.15221487      28.15401259
Ni       3.51835627       0.65008856      12.07415399
Ni       3.57652996       0.62575679      28.11822729
Ni       1.14425704       4.98412347      12.05658430
Ni       1.23328301       4.96575035      28.15582474
Ni       8.28230773       0.77739436      12.01177427
Mg       8.33866670       0.59809106      28.03185992
Ni       5.99741578       5.00840526      12.01642151
Ni       5.93440746       4.96415740      28.13825382
Ni       1.08497906       3.58960188       4.07730890
Ni       1.20612100       3.55020810      20.25764532
Ni      -1.12971905       7.89030049       4.17990955
Ni      -1.13711865       7.92095484      20.12681398
Ni       5.97891414       3.62767432       4.01787352
Ni       5.84224852       3.54709731      20.06645749
Ni       3.60337649       7.86666944       4.13685365
Ni       3.57376196       7.91472549      20.22280428
Ni       1.25629790       0.70338329      12.04393380
Ni       1.20708327       0.64646652      28.11240692
Ni      -1.18898046       4.94329960      12.11279418
Ni      -1.20436883       4.95414377      28.28991850
Ni       6.00945685       0.70244468      12.01671360
Mg       5.94663665       0.61763476      28.11719384
Ni       3.50279830       5.00934943      12.19540492
Ni       3.54531807       4.98867761      28.20261901
Ni       0.01435025       1.46566294       3.99469619
Ni       0.02094527       1.29178545      20.11239902
Ni      -2.31447880       5.78117170       4.20115011
Ni      -2.33193597       5.68789913      20.13657547
Ni       4.77689934       1.42972599       3.96853465
Ni       4.79004316       1.35326131      20.04810012
Ni       2.30128087       5.74175547       4.18665295
Ni       2.41339804       5.72856004      20.25951112
Ni      -1.13948050       3.63486463       4.12421592
Ni      -1.20081992       3.55234155      20.19573326
Ni      -3.57392796       7.88664889       4.16126708
Ni      -3.55430848       7.90743072      20.19024470
Ni       3.65439478       3.71805065       3.99208796
Ni       3.67229776       3.53835880      20.16994712
Ni       1.26141358       7.92416110       4.13702228
Ni       1.10492310       7.92667695      20.22003506
Ni       2.34994119       0.01770280       0.02984425
Ni       2.32957915      -0.11224336      15.98697001
Ni      -0.00066543       4.36279880       0.15120401
Ni       0.00209010       4.25878593      16.10131661
Ni       7.22507217      -0.00137043      -0.04407302
Ni       7.13485714      -0.08671354      15.96079455
Ni       4.70495572       4.24932704       0.05645563
Ni       4.77389942       4.34791856      16.16008703
Ni       1.16696536       2.09168871      -0.04901804
Ni       1.19677539       2.11502200      16.05703476
Ni      -1.17396902       6.49062326       0.20697811
Ni      -1.28381483       6.44773942      16.22233466
Ni       5.93850725       2.11935041      -0.05832501
Ni       6.04234767       2.14373195      16.06338472
Mg       3.46040656       6.47869838       0.08624471
Ni       3.62456058       6.47693443      16.11404030
Ni      -1.11188390       2.10907265       8.11904294
Ni      -1.13349878       2.07861627      24.13699251
Ni      -3.59121660       6.42263511       8.17597147
Ni      -3.53299854       6.43332323      24.15273258
Ni       3.55481919       2.14882081       8.06678903
Ni       3.54941231       2.13720110      24.13726978
Ni       1.18124214       6.44031901       8.19680922
Ni       1.26123973       6.45562246      24.27669222
Ni       2.37257089      -0.05523836       7.94579596
Ni       2.38335815      -0.14796577      24.00259432
Ni      -0.06520609       4.37786500       8.11470347
Mg       0.04400603       4.26266930      24.10854476
Ni       7.10544472       0.03452731       7.89354876
Ni       7.13358310      -0.09867735      24.03018776
Ni       4.80984815       4.26024755       8.08129303
Ni       4.77048792       4.26967315      24.07626725
Ni      -1.19256640       2.23124940       0.02829492
Ni      -1.19521487       2.10061118      16.10748114
Ni      -3.65417697       6.50305422       0.17835200
Ni       3.60658971       2.19041485      -0.05003671
Ni       3.52685960       2.12687039      15.99405715
Ni       1.24429182       6.50045348       0.17410885
Ni       1.29025502       6.45956522      16.15902153
Ni       1.15640691       2.25405618       8.03478555
Ni       1.19017825       2.07729921      24.10991286
Ni      -1.13757728       6.48662727       8.15044348
Ni      -1.23582426       6.48146719      24.22215892
Ni       5.90967049       2.09134600       8.05711416
Ni       6.00806453       2.08446872      24.10932137
Ni       3.59130983       6.36870496       8.06988271
Ni       3.60181242       6.42359503      24.22422700
