191
Lattice="9.976654491955237 -0.059255243106669984 0.057651426468479934 -4.815353710675122 8.481444079094352 -0.38222573934662446 0.27120494359438824 -0.16189317785246993 30.686665953158645" Properties=species:S:1:pos:R:3 pbc="T T T"
Mg       0.13418884      -0.09212049      13.86324217
Mg       0.25379739      -0.12819009      29.29433634
Mg      -2.25522902       4.12672733      13.76823675
Ni      -2.16061235       4.12485535      29.08250820
Mg       5.12584502      -0.11066354      13.89535633
Mg       5.28283695      -0.14616192      29.29604979
Mg       2.72147731       4.17291344      13.73885855
Mg       2.82022777       4.02112044      29.13809279
Mg       0.04367121       0.04303454       6.21643515
Mg       0.18391415      -0.05388103      21.56812339
Mg      -2.34441797       4.21879601       6.06196380
Mg      -2.28240616       4.08562430      21.40476098
Mg       5.09520996      -0.07113306       6.23440336
Mg       5.16853960      -0.22677033      21.60287374
Mg       2.65529088       4.15110556       6.01304841
Mg       2.75022597       4.00944489      21.44175812
Mg       0.03735543      -0.01546196       9.08542214
Mg       0.27252418      -0.14920012      24.45391678
Mg      -2.31992242       4.15070343       8.93052975
Mg      -2.20887576       4.05269649      24.26680581
Mg       5.09161014      -0.05993449       9.17193654
Mg       5.16438681      -0.22288487      24.50633855
Mg       2.62835626       4.16341560       8.92567921
Mg       2.74590705       4.04060687      24.26445982
Mg       0.04088326       0.06939060       1.41415030
Mg       0.17192233      -0.06237234      16.72781621
Mg      -2.29713135       4.20651503       1.22284229
Mg      -2.14279999       4.18221709      16.62371792
Ni       4.97942600      -0.13441695       1.49396030
Mg       5.10975682      -0.16022988      16.74890426
Mg       2.51834220       4.25737036       1.28328977
Mg       2.66666723       4.12866533      16.64389676
Mg       2.54698018       1.34720017       2.38125977
Mg       2.66571850       1.20990092      17.67798046
Mg       0.08082401       5.56594883       2.20012727
Mg       0.26910795       5.51261279      17.48306278
Mg       7.59431275       1.26868366       2.41263057
Mg       7.64489805       1.22356191      17.69705974
Mg       5.03608668       5.64767308       2.15430500
Mg       5.25936107       5.44833543      17.53814214
Mg       0.21211810       2.74658062       9.91952874
Mg       0.24760410       2.71579534      25.28836996
Mg      -2.27970800       7.03633940       9.77780972
Mg      -2.07802915       6.96005223      25.16853231
Mg       5.18363769       2.79370002       9.96691210
Mg       5.31313960       2.60260671      25.26769381
Mg       2.80404012       7.00493377       9.85605897
Ni       2.85329273       6.85137457      25.19450122
Mg       2.47877177       1.37409717       5.08641957
Mg       2.70193421       1.33229622      20.54073177
Mg       0.16202052       5.57502488       5.02007636
Mg       0.30122599       5.41343205      20.38579934
Mg       7.56000029       1.38344228       5.20380971
Mg       7.71509703       1.27380498      20.63553597
Mg       5.29298928       5.57811495       5.01393388
Mg       5.29767607       5.52338028      20.37647789
Mg       0.25999702       2.78754434      12.89964305
Mg       0.34984780       2.65377351      28.19832379
Mg      -2.15599836       6.94401689      12.62210898
Mg      -1.97214448       6.92617471      27.96955354
Mg       5.13435010       2.63128166      12.97624656
Mg       5.35201245       2.59187895      28.27481035
Mg       2.80594008       7.00873190      12.68582797
Mg       2.88633633       6.92328375      27.95624235
Ni       2.63912534       1.39125157      13.35921384
Ni       2.77251119       1.13311838      28.65735260
Ni       0.22339204       5.53248382      13.23886879
Ni       0.39652862       5.48257766      28.60363306
Ni       7.72133424       1.23427268      13.41713074
Ni       7.81770801       1.16203005      28.77772733
Ni       5.24284799       5.59891434      13.21898991
Ni       5.30862917       5.38773616      28.42822213
Ni       0.18585191       2.87243304       5.62051574
Ni       0.18447105       2.73893552      20.95641200
Ni      -2.14361100       7.00005817      20.89813780
Ni       5.09372647       2.78699247       5.73593922
Ni       5.20982856       2.66518489      20.91316735
Ni       2.70668236       7.00872747       5.51502289
Ni       2.73953896       6.89674868      20.83933594
Ni       2.66573049       1.40576276       9.50206380
Ni       2.71408705       1.17268293      24.86147614
Ni       0.21512137       5.48014996       9.39424082
Ni       0.43739405       5.55104720      24.71024509
Ni       7.52417476       1.27755281       9.48131524
Ni       7.76128269       1.20787564      24.88938369
Ni       5.20281856       5.55339719       9.27150054
Ni       5.31643611       5.47965145      24.85738192
Ni       0.04533166       2.83570867       1.85632944
Ni       0.26204986       2.74516816      17.08762911
Ni      -2.41807568       7.06072441       1.63996140
Ni      -2.26569238       6.94159229      17.00212903
Ni       5.07183448       2.85157048       1.83718190
Ni       5.32199403       2.73368039      17.14867283
Ni       2.75116113       7.00250779       1.68186963
Mg       2.71349774       7.02686920      16.99008935
Ni       2.67612655       2.82370363      11.45232490
Ni       2.85762670       2.67484392      26.74266013
Ni       0.21661574       6.96832059      11.21639023
Ni       0.33653864       6.93806342      26.53070999
Ni       7.63670204       2.62355122      11.38837173
Ni       7.64833181       2.67560941      26.78668521
Ni       5.23606737       7.01148918      11.27662813
Ni       5.48755565       6.77848016      26.67006510
Ni       3.88057997       0.59632208      11.49530614
Ni       3.90506822       0.53578232      26.81830666
Ni       1.49813467       4.91626698      11.31845291
Ni       1.65145501       4.84286867      26.73282994
Ni       8.91525529       0.68291571      11.58368987
Ni       8.98838481       0.45381952      26.84749006
Ni       6.45063841       4.77619729      11.31066405
Ni       6.59419478       4.71307129      26.72149515
Ni       1.33488758       3.46170120       3.66836594
Ni       1.44146765       3.42353269      19.08486759
Ni      -1.11503664       7.64604784       3.51673228
Ni      -0.95549131       7.58877797      18.89023784
Ni       6.39962412       3.48901141       3.67885545
Ni       6.35123779       3.51659004      19.11911399
Ni       3.89847092       7.66703708       3.55512174
Ni       4.03180929       7.53181512      18.87293246
Ni       1.38796626       0.59532873      11.47836678
Ni       1.48696427       0.53490929      26.85413072
Ni      -1.00139612       4.93475402      11.32171130
Ni      -0.84120555       4.88355952      26.67404305
Ni       6.35165906       0.56400042      11.51064082
Ni       6.53328669       0.51915427      26.85730548
Ni       3.86964954       4.89198706      11.37984536
Ni       4.14176071       4.84155829      26.62747343
Ni       0.08670784       1.48380165       3.84849697
Ni       0.26379533       1.32537830      19.19434365
Ni      -2.33095124       5.61891280       3.72079512
Ni      -2.27650174       5.58751592      18.93027182
Ni       5.09421414       1.33592977       3.82997902
Ni       5.16587739       1.34663307      19.05865174
Ni       2.56244630       5.63255117       3.62351266
Ni       2.82438107       5.54467217      18.96151759
Ni      -1.13112701       3.51415124       3.72683657
Ni      -0.96163733       3.38890475      18.99276623
Ni      -3.53127199       7.74733877       3.50282806
Ni      -3.43199740       7.58435056      18.84922947
Ni       3.77982678       3.47961852       3.81789832
Ni       3.93969789       3.40427655      18.97230215
Ni       1.50029577       7.74561708       3.52729251
Ni       1.57741063       7.56551012      18.84480077
Ni       2.50861088       0.01917557      -0.05044471
Ni       2.56860863      -0.03129210      15.34705150
Ni       0.07566686       4.21868248      -0.19712039
Ni       0.20478771       4.19849031      15.13868035
Ni       7.41813725      -0.00673420       0.01254829
Ni       7.60371608      -0.17229813      15.33342223
Mg       5.07893412       4.19797759      -0.19016502
Ni       5.18267303       4.14054717      15.24398885
Ni       1.26782910       2.10592670      -0.04727845
Ni       1.52627356       2.11201661      15.29079561
Ni      -1.13669314       6.29395186      -0.23577747
Ni      -1.04694255       6.16135551      15.11546054
Ni       6.21716739       2.08088992       0.00548823
Ni       6.49882502       2.07637806      15.26805004
Ni       3.87281509       6.35413337      -0.16454946
Mg       4.00410589       6.13765314      15.11808588
Ni      -1.05755096       2.05375965       7.57181530
Ni      -0.94577600       2.04931651      22.95960365
Ni      -3.48109293       6.28224837       7.41391477
Ni      -3.39886033       6.24550895      22.70552842
Ni       3.85141927       2.08118318       7.59430524
Ni       4.02823085       1.92540213      22.98479880
Ni       1.40447498       6.29950691       7.46748968
Ni       1.61678207       6.31042233      22.73200826
Ni       2.58201927      -0.06461024       7.69141829
Ni       2.75776405      -0.13295597      22.98886733
Ni       0.14870618       4.14066021       7.50745764
Ni       0.24677023       4.07025581      22.81434191
Ni       7.54623559      -0.16573934       7.66028221
Ni       7.76207980      -0.25680531      23.06533843
Ni       5.15375207       4.16331806       7.45800078
Ni       5.27408878       4.14002095      22.80673033
Ni      -1.24809001       2.02809701      -0.13288438
Ni      -1.14434130       2.06052370      15.26246608
Ni      -3.62492798       6.46930528      -0.28535377
Ni      -3.43118914       6.24351977      15.01913463
Ni       3.75748277       2.08337939      -0.13432964
Ni       3.87228194       1.95130928      15.29197060
Ni       1.23960585       6.31334833      -0.25338885
Ni       1.50666711       6.20985698      15.11848348
Ni       1.37811591       2.15392994       7.60719903
Ni       1.55863093       1.91220028      22.92937509
Ni      -1.06477310       6.23359517       7.38777115
Ni      -0.87838482       6.23975705      22.69262289
Ni       6.35382164       2.06258995       7.59407014
Ni       6.45648686       1.92387775      22.91187278
Ni       3.97459182       6.22084430       7.34060274
Ni       4.06831121       6.23038378      22.84037322
