190
Lattice="9.546734314344443 0.08940975561379662 0.0005243482912436784 -4.970774646246173 8.441674633946974 -0.0368837252070289 0.7560934952480651 0.6273927459576869 30.93351511983938" Properties=species:S:1:pos:R:3 pbc="T T T"
Mg       0.32596479       0.28685982      13.99980053
Mg      -2.10896078       4.48927466      14.10423307
Ni      -1.80329543       4.82111256      29.49433984
Mg       5.05961650       0.23038317      14.03333742
Mg       5.51685438       0.65915280      29.48704095
Mg       2.59543853       4.55310542      13.97011180
Mg       2.97678610       4.89679802      29.33164472
Mg       0.02694843       0.17209668       6.36150271
Mg       0.53775268       0.34022481      21.83976204
Mg      -2.28772444       4.34868260       6.30749893
Mg      -1.99436679       4.68733464      21.70426392
Ni       4.91039573       0.19318127       6.28270921
Mg       5.25414048       0.43812498      21.70214278
Mg       2.48282987       4.42900058       6.25960088
Mg       2.80391560       4.67629498      21.74111954
Mg       0.15525655       0.17660374       9.19491902
Mg       0.62195403       0.58537863      24.71270773
Mg      -2.31292390       4.40519182       9.04318497
Mg      -1.88975447       4.79486361      24.60788988
Mg       5.06766744       0.26751338       9.17842369
Mg       5.35929556       0.54953925      24.70690926
Mg       2.48058444       4.50605224       9.16992044
Mg       2.96331183       4.72072725      24.63491671
Mg       0.11431557       0.02451742       1.41123050
Mg       0.39047274       0.31531223      16.81971952
Mg      -2.42817819       4.26888318       1.38626734
Mg      -2.13603415       4.53806473      16.97811593
Mg       4.76168626       0.11066929       1.35074789
Mg       5.16693220       0.40555024      16.90785914
Mg       2.35305364       4.36534585       1.48915770
Mg       2.75033237       4.61485358      16.92804504
Mg       2.36492911       1.44277580       2.44948183
Mg       2.84104475       1.88755172      17.93921500
Mg      -0.06051223       5.76047444       2.35038206
Mg       0.34638075       5.99485941      17.84454746
Mg       7.17924875       1.55363784       2.32629704
Mg       7.63844090       1.90008069      17.88066564
Mg       4.66556157       5.79520666       2.34343146
Mg       5.15217711       6.16092459      17.78104735
Mg       0.16071666       2.99516641      10.15423870
Mg       0.44473947       3.30962164      25.55369822
Mg      -2.20569547       7.19969910      10.15058015
Mg      -1.97855753       7.57713050      25.59464915
Mg       4.92132894       3.07404013      10.15837618
Ni       5.43321301       3.37456993      25.53184085
Mg       2.38977720       7.35615957      10.13441781
Mg       2.81818441       7.64252292      25.61200907
Mg       2.54202569       1.61953337       5.34279925
Mg       2.89764329       1.84228363      20.79397630
Mg      -0.00249522       5.80682532       5.34949036
Mg       0.48332312       6.06731975      20.72206919
Mg       7.22001519       1.63153524       5.18510447
Mg       7.67417136       1.80331876      20.74950766
Mg       4.75592445       5.80624336       5.28611387
Mg       5.12972327       6.08731388      20.75017858
Mg       0.27293424       3.09267334      13.00618994
Ni       0.59442678       3.35084597      28.58564752
Mg      -2.20293143       7.35423326      12.99032769
Mg      -1.78034356       7.54981620      28.48567432
Mg       4.93013612       3.17457565      13.01406545
Mg       5.48171907       3.46529348      28.53652056
Mg       2.59943937       7.36280421      13.06560660
Mg       2.92067679       7.72590439      28.52443733
Ni       2.69516233       1.62082132      13.53635352
Ni       3.06687520       1.90642132      29.03453680
Ni       0.17052353       5.89540504      13.49924006
Ni       0.57482271       6.19009708      28.94869326
Ni       7.43810536       1.74679376      13.43694978
Mg       7.76834905       2.06339631      28.94644156
Ni       4.95151235       5.98939655      13.51954175
Ni       5.31791747       6.25609033      28.97782264
Ni       0.02946043       2.92647935       5.77720350
Ni       0.42425151       3.22602350      21.33003106
Ni      -2.41421794       7.22410504       5.77430497
Ni      -2.02648469       7.44844934      21.15671096
Ni       4.83841894       3.00205966       5.76522275
Ni       5.24457556       3.29837634      21.22210136
Ni       2.40236501       7.18549513       5.76019915
Ni       2.75253317       7.45214577      21.27706902
Ni       2.61249247       1.69400883       9.65221929
Ni       3.03515316       1.89665458      25.12304618
Ni       0.15132696       5.84219095       9.62919211
Ni       0.51597677       6.16468137      25.11965578
Ni       7.33185978       1.65912295       9.66414417
Ni       7.71594789       2.00738215      25.13566974
Ni       4.88947466       5.90968989       9.69547273
Ni       5.20122658       6.19108087      25.15430450
Ni      -0.01026964       2.86712051       1.88701767
Ni       0.31578832       3.23440003      17.44475028
Ni      -2.47042097       7.10535818       1.98482095
Ni      -2.19061363       7.51014439      17.31547434
Ni       4.67811255       2.94018965       1.99890073
Ni       5.14867495       3.20029158      17.37490955
Ni       2.31120371       7.20010390       1.90812096
Ni       2.57651473       7.46577905      17.31305880
Ni       2.61554120       3.00803455      11.55035314
Ni       2.94272739       3.35979322      27.08265897
Ni       0.10081485       7.29333547      11.51558640
Ni       0.43797044       7.60423274      26.98588193
Ni       7.29522094       3.16405434      11.57920824
Ni       7.79393124       3.40819546      27.02460825
Ni       4.84725494       7.35428837      11.54460939
Ni       5.23834203       7.73917825      27.04389290
Ni       3.80171580       0.99544483      11.54877208
Ni       4.33051006       1.22562218      27.16333781
Ni       1.31243902       5.25875674      11.63065772
Ni       1.68287091       5.52680325      27.04564197
Ni       8.64073446       1.03195841      11.57083081
Ni       8.97271846       1.39667136      27.10561764
Ni       6.02218658       5.30481567      11.60774693
Ni       6.52357581       5.65421427      27.05985905
Ni       1.18465912       3.66858351       3.91146853
Ni       1.48875380       3.94241573      19.34930623
Ni      -1.21190289       7.94620646       3.87494892
Ni      -0.91139157       8.24298932      19.24903571
Ni       6.02050030       3.69022531       3.86368383
Ni       6.31309893       3.93113331      19.32263045
Ni       3.51914080       7.86117367       3.73064776
Ni       3.93603702       8.19665575      19.32320302
Ni       1.46376979       0.96368826      11.50129291
Ni       1.83105627       1.24984361      27.07872160
Ni      -0.99208801       5.10859048      11.61293947
Ni      -0.66384956       5.47572632      27.07826564
Ni       6.20414120       0.94292953      11.54013178
Ni       6.56568977       1.21910469      26.98712755
Ni       3.76456369       5.28066101      11.67527651
Ni       4.12220855       5.44807254      27.02438566
Ni       0.01413953       1.56693001       3.87265150
Ni       0.50765550       1.88324348      19.35107255
Ni      -2.43266376       5.73596342       3.78578473
Ni      -2.09206713       6.06169215      19.34612285
Ni       4.84297284       1.55749231       3.79864092
Ni       5.14694124       1.85369559      19.30469491
Ni       2.30586286       5.83202710       3.80641313
Ni       2.83179138       6.12592607      19.29240514
Ni      -1.19785660       3.62012520       3.84148502
Ni      -0.86955822       3.93113241      19.36148219
Ni      -3.67724271       7.83285029       3.82607385
Ni      -3.29263817       8.10478952      19.33297573
Ni       3.57811070       3.69078607       3.77065408
Ni       3.98285756       3.94606577      19.32702678
Ni       1.05803468       7.92015767       3.83712311
Ni       1.54024877       8.22581893      19.21116464
Ni       2.32711811       0.02492019      -0.03161760
Ni       2.79973756       0.40792429      15.51421786
Ni      -0.11555633       4.26342862      -0.03304908
Ni       0.27113627       4.59901766      15.47949881
Mg       7.14213333       0.13878159      -0.11277388
Mg       7.58341695       0.33306297      15.44862014
Ni       4.68491826       4.32093640      -0.06690846
Ni       5.04777225       4.55797200      15.49078358
Ni       1.10980161       2.14230590       0.04065013
Ni       1.49340951       2.45001740      15.43691433
Ni      -1.37378319       6.37852919       0.00686850
Ni      -1.01820479       6.58648227      15.45078040
Ni       5.84666697       2.26377893      -0.04511668
Ni       6.28676727       2.46755197      15.48406245
Ni       3.46298130       6.37530575       0.01372952
Ni       3.79548295       6.69950925      15.44144523
Ni      -1.13182549       2.30824036       7.69301294
Ni      -0.60681902       2.61818248      23.18072639
Ni      -3.61938597       6.61015895       7.61437948
Mg      -3.13016464       6.80229167      23.23183282
Ni       3.73325285       2.25570178       7.69264498
Ni       4.09770033       2.63087401      23.17779667
Ni       1.22280005       6.47361195       7.67350631
Ni       1.63716179       6.80148942      23.11451928
Ni       2.56659704       0.19851599       7.66325458
Ni       2.89885911       0.55077110      23.16459218
Ni       0.10741570       4.36827667       7.69329785
Ni       0.53358850       4.76574754      23.19877237
Ni       7.32678730       0.21491375       7.69697300
Ni       7.62754854       0.47940926      23.31146921
Ni       4.87823614       4.46826876       7.70435215
Ni       5.22724622       4.69694557      23.14957459
Ni      -1.18428665       2.03377882      -0.10434819
Ni      -0.90063041       2.40551336      15.40928004
Ni      -3.68271606       6.23481684      -0.07814089
Ni      -3.40910636       6.71737274      15.40152982
Ni       3.50963526       2.10651871      -0.01938035
Ni       3.88734065       2.51411874      15.39943579
Ni       1.12354431       6.31315497       0.03801326
Ni       1.40502111       6.66598481      15.45116734
Ni       1.26087481       2.30490326       7.77951817
Ni       1.71431667       2.70935479      23.16233416
Ni      -1.18448503       6.49700827       7.70249285
Ni      -0.80775696       6.87309379      23.11862555
Ni       6.07835600       2.35293065       7.69056294
Ni       3.63775698       6.56001584       7.66788878
Ni       4.01286183       6.75802219      23.24178441
