190
Lattice="9.856333912531252 0.31768841681388843 0.36839141190637625 -4.754982182711902 8.29541534546437 -0.22946187346168864 -0.5957960739777627 -0.8263318512372786 32.08764949978556" Properties=species:S:1:pos:R:3 pbc="T T T"
Mg      -0.29041842      -0.39312775      14.49654838
Mg      -0.58831003      -0.82215715      30.50256104
Mg      -2.61216515       3.75997307      14.36985559
Mg      -2.93650453       3.39429005      30.39508505
Mg       4.62558253      -0.20626785      14.67045394
Mg       4.45229838      -0.77190290      30.66805622
Mg       2.33685815       3.96715420      14.59987630
Mg       2.03257673       3.57830607      30.63728166
Mg      -0.17056382      -0.10041721       6.50595971
Mg      -0.50712460      -0.61369140      22.56792851
Mg      -2.48229952       3.89504935       6.34253807
Mg      -2.83399102       3.56294508      22.51529946
Mg       4.85792074      -0.03349247       6.66170983
Mg       4.62922256      -0.42262655      22.78803787
Mg       2.38638689       4.18495268       6.56022230
Mg       2.16823656       3.68481677      22.67786564
Mg      -0.10639531      -0.24294177       9.58270471
Mg      -0.46304484      -0.57991276      25.58365015
Mg      -2.60395437       3.94204439       9.45038568
Mg      -2.88032025       3.56265339      25.44558214
Mg       4.65786782      -0.03770661       9.63244934
Mg       4.49731310      -0.46247747      25.72883678
Mg       2.41246011       4.15009586       9.52359806
Mg       2.12464730       3.64749954      25.61587719
Mg      -0.07669953      -0.06025290       1.53013926
Mg      -0.29083409      -0.45263099      17.51053821
Mg      -2.37227726       4.15281216       1.38994402
Mg      -2.71703815       3.69948094      17.45529601
Mg       4.83923811       0.08482252       1.62158220
Mg       4.48499896      -0.27436006      17.74450430
Mg       2.54209937       4.33638158       1.53314386
Mg       2.26996891       3.87652738      17.60095735
Mg       2.55472160       1.45470450       2.72052525
Mg       2.09576529       1.05837102      18.64145780
Mg       0.08643561       5.58239346       2.39024157
Mg      -0.16568349       5.17348095      18.51953032
Mg       7.32044158       1.57407959       2.64566079
Mg       7.08801428       1.21610005      18.85240377
Mg       4.92136720       5.69926736       2.71055090
Mg       4.72523675       5.37731735      18.67258814
Mg      -0.17868304       2.44797563      10.59739121
Mg      -0.54500233       2.16709971      26.57461412
Mg      -2.56605412       6.67779232      10.33693769
Mg      -2.78903874       6.22419739      26.45689843
Mg       4.80587847       2.68642003      10.63778278
Mg       4.43773064       2.26189708      26.63523648
Mg       2.43302355       6.82125565      10.52443194
Mg       2.13664297       6.43637850      26.57163965
Mg       2.37105574       1.30218410       5.67535506
Mg       2.06462033       0.90789830      21.61466661
Mg       0.06523245       5.54070007       5.62438243
Mg      -0.24981762       5.09991909      21.56718714
Mg       7.34727516       1.48237680       5.80666849
Mg       7.04061923       1.09832856      21.81684794
Ni       4.92601167       5.66795943       5.68625785
Mg       4.59193286       5.25877023      21.69450816
Mg      -0.12828124       2.44768145      13.46340657
Mg      -0.43263071       2.03932075      29.60833934
Mg      -2.58287479       6.59535366      13.42865872
Mg      -2.79786285       6.15801580      29.49222065
Mg       4.72142597       2.65390401      13.79205232
Mg       4.50084317       2.15034287      29.70907429
Mg       2.38767448       6.82159901      13.59519821
Ni       2.16301667       1.16591627      14.16312780
Ni       1.91959634       0.72838073      30.26461496
Ni      -0.18524176       5.25735772      13.95881937
Ni      -0.39629048       4.95953286      29.98649683
Ni       7.16532927       1.23005698      14.25951701
Ni       6.85857126       0.81062553      30.41928669
Ni       4.76323567       5.40166059      14.22457761
Ni       4.48383991       4.93171304      30.18351936
Ni      -0.09733050       2.63509172       5.99960416
Ni      -0.28619596       2.22730572      22.11902017
Ni      -2.48043081       6.82697819       5.95448478
Ni      -2.64641926       6.38453019      21.95957372
Ni       4.89523214       2.83579553       6.21703386
Ni       4.64069770       2.35306650      22.21778390
Ni       2.47188440       6.93905033       5.97675029
Ni       2.13110384       6.57478694      22.11516573
Ni       2.23472246       1.26517684      10.20661639
Ni       1.99787361       0.85391237      26.20347421
Ni      -0.10698127       5.41884117      10.00447038
Ni      -0.39696849       4.89715710      26.19560208
Ni       7.28522301       1.41196170      10.34196528
Ni       6.97420368       0.96681742      26.41110011
Ni       4.85646380       5.45041200      10.09376775
Ni       4.61391876       5.22206936      26.21230247
Ni       0.02196919       2.78127663       1.96888587
Ni      -0.25743808       2.33957816      18.09100126
Ni      -2.32866608       6.91414227       1.95839210
Ni      -2.68221486       6.50182344      17.95437506
Ni       4.95802284       2.94043830       2.18787067
Ni       4.56759547       2.63136363      18.17820327
Ni       2.54422761       7.02466940       2.04685176
Ni       2.25470430       6.65848892      18.14435135
Ni       2.35506864       2.57971774      12.11711534
Ni       1.98226251       2.26353129      28.15548442
Ni      -0.03900181       6.77387709      11.99120225
Ni      -0.41261105       6.34166107      28.04399331
Ni       7.21414776       2.78190103      12.31300119
Ni       6.91318524       2.30692624      28.34111150
Ni       4.89108983       6.92490560      12.14277677
Ni       4.51371612       6.42252132      28.18389634
Ni       3.53275810       0.45209068      12.15288192
Ni       3.22640705       0.14674671      28.27268830
Ni       1.11297950       4.62019008      12.05078841
Ni       0.85464955       4.22980060      28.03185713
Ni       8.47817018       0.73374783      12.42613583
Ni       8.09952584       0.24578418      28.38709132
Ni       6.04798463       4.76072575      12.27829807
Ni       5.66669650       4.32095872      28.30299123
Ni       1.21138003       3.44014302       4.17056922
Ni       0.88850424       2.98541852      20.12848924
Ni      -1.17617380       7.51350537       3.93404792
Ni      -1.51197283       7.13442771      19.95353222
Ni       6.14848705       3.55869230       4.26192151
Ni       5.81588710       3.22576429      20.20541809
Ni       3.86415219       7.80559239       4.13695071
Ni       3.47496085       7.34760155      20.20062893
Ni       1.07508824       0.41569928      12.12447000
Ni       0.73454524      -0.04441644      28.10951111
Ni      -1.33113017       4.61772452      11.97174652
Ni      -1.77043523       4.13122208      28.00194362
Ni       5.96271238       0.60298846      12.29938842
Ni       5.72913948       0.13742593      28.34074069
Ni       3.61365308       4.81154844      12.12416500
Ni       3.28824532       4.33175789      28.13786849
Ni      -0.07316883       1.36475766       4.07589896
Ni      -0.27970352       0.93451517      20.02712072
Ni      -2.33714024       5.56991830       3.92517394
Ni      -2.72018843       4.98040006      19.94020339
Ni       4.91386298       1.40653365       4.24786780
Ni       4.55134361       1.07847198      20.26351547
Ni       2.56262741       5.60943347       4.07333704
Ni       2.25075612       5.13449540      20.09236330
Ni      -1.22546768       3.40271855       3.91717462
Ni      -1.63329906       2.99906759      20.01603569
Ni      -3.50125135       7.65826201       3.76698108
Ni      -3.85702652       7.17227947      19.86604040
Ni       3.72065829       3.59270602       4.10354732
Ni       3.36034958       3.14496786      20.14136914
Ni       1.28944974       7.73724145       4.07342522
Ni       0.95602244       7.17349234      20.07581853
Ni       2.52409526       0.07347248       0.04769738
Ni       2.18977973      -0.32932595      16.11523160
Ni       0.02639834       4.21778341      -0.02895247
Ni      -0.27930153       3.77318377      15.97979999
Ni       7.36672917       0.11726415       0.23686622
Ni       7.18355296      -0.22037085      16.26186578
Ni       5.02328790       4.35571491       0.16190919
Ni       4.71655377       3.95710361      16.16730764
Ni       1.32196194       2.10415374       0.06946573
Ni       0.94553230       1.68296845      16.06918721
Ni      -1.04861019       6.29308980      -0.06332493
Ni      -1.39089205       5.95339614      15.95076706
Ni       6.18988740       2.29800560       0.22783082
Ni       5.89072235       1.92217449      16.30026698
Ni       3.52824777       6.10004347      16.11059315
Mg      -1.22144613       1.84926360       8.07704009
Ni      -1.63703553       1.47863362      23.98014303
Ni      -3.69771805       5.99499236       7.81743154
Ni      -3.97736865       5.57260338      23.94318623
Ni       3.59019848       2.00519229       8.17005584
Ni       3.39168469       1.59070798      24.20522633
Ni       1.20018537       6.11670564       8.01082146
Ni       0.91170122       5.73268200      24.08219663
Ni       2.24470722      -0.21232491       8.09802417
Ni       2.03403145      -0.52307846      24.14665738
Ni      -0.01071243       3.99341198       8.04078141
Ni      -0.34400726       3.68124240      24.06390222
Ni       7.25355349       0.02596218       8.28873745
Ni       6.90783035      -0.45442959      24.36082995
Ni       4.91235186       4.21432062       8.18993856
Ni       4.56554771       3.87216111      24.26028542
Ni      -1.07988876       2.07857348      -0.07885696
Ni      -1.51938924       1.58869767      15.96194836
Ni      -3.49934756       6.25729005      -0.18412642
Ni      -3.80540244       5.90682428      15.85912246
Ni       3.71883421       2.22356080       0.11560907
Ni       3.46289268       1.77066473      16.19557771
Ni       1.30715479       6.33245851       0.04693752
Ni       1.04588912       5.87768300      16.00525593
Ni       1.12036874       1.96834890       8.05802009
Ni       0.85490546       1.53590566      24.12507554
Ni      -1.27541701       6.10894916       7.93875365
Ni      -1.58931980       5.75502654      23.94332867
Ni       6.06248990       2.20854553       8.22622736
Ni       5.70880614       1.65765646      24.12508508
Ni       3.62177689       6.32700697       8.06924836
Ni       3.45150254       5.87382632      24.12893189
