192
Lattice="9.741893543025194 -0.08783908581743978 -0.2623975570599277 -4.929070355548477 8.49026077573814 -0.007623228425015862 0.5846852493036931 0.7809354411905133 31.475666114722433" Properties=species:S:1:pos:R:3 pbc="T T T"
Mg       0.27073266       0.31812677      14.21345184
Mg       0.47628235       0.84952478      30.03201116
Mg      -2.21100969       4.63800128      14.27074385
Ni      -1.97198284       5.11398072      30.02438145
Mg       5.13706231       0.37507678      14.05646293
Ni       5.42420026       0.72011119      29.92753544
Mg       2.65990293       4.46630258      14.09968555
Mg       2.99583651       4.95961182      29.84632212
Mg       0.23298247       0.21953361       6.42371432
Mg       0.39324210       0.53862365      22.11052621
Mg      -2.35263878       4.45085860       6.38176910
Mg      -2.09106111       4.77475264      22.08319239
Mg       4.91182343       0.14661174       6.28111559
Mg       5.24802927       0.44465686      22.04711336
Mg       2.53914113       4.35906474       6.28507602
Mg       2.78807868       4.73073146      22.00249160
Mg       0.25229972       0.27868248       9.39838498
Mg       0.54414254       0.60993858      25.04978665
Mg      -2.29276004       4.49692865       9.34225813
Ni      -2.03338395       4.87030922      25.10987434
Mg       4.90747546       0.15197848       9.28457574
Mg       5.28828672       0.62068944      24.85093919
Mg       2.52848470       4.42129241       9.22640081
Mg       2.87225410       4.83961723      24.89905192
Mg       0.01933581      -0.02692946       1.40578002
Mg       0.34330651       0.33896689      17.20008452
Mg      -2.43517553       4.26043262       1.46262717
Mg      -2.14236322       4.67346926      17.26293590
Mg       4.90937382      -0.08155344       1.29874918
Mg       5.15601083       0.32468067      17.05335851
Mg       2.47905588       4.25558834       1.27160733
Mg       2.67034605       4.68078686      17.01844357
Mg       2.49861955       1.53449496       2.43509396
Mg       2.66485429       1.84665938      18.13556488
Mg       0.02404391       5.62015359       2.39434094
Mg       0.30093321       6.07760512      18.12229158
Ni       7.34172615       1.36007484       2.29006000
Mg       7.71108343       1.81421165      17.93373492
Mg       4.90347401       5.64256771       2.20115574
Mg       5.16779807       6.00698549      17.95108237
Mg       0.22303320       3.06193523      10.30744709
Mg       0.45865944       3.46417827      25.95851671
Mg      -2.29836928       7.41152625      10.30860460
Mg      -1.96539228       7.70166091      26.00607444
Mg       5.00396367       3.07061694      10.22964144
Mg       5.37668373       3.37356238      25.93727081
Mg       2.59128400       7.33335532      10.15055062
Mg       2.97529099       7.68884245      25.95633075
Mg       2.52417341       1.47607422       5.35808159
Mg       2.73898182       1.92100009      21.01947085
Mg       0.07490168       5.80923551       5.36540960
Mg       0.27822347       6.11805215      21.03011871
Mg       7.41184632       1.42604680       5.23018889
Mg       7.78665055       1.85338595      20.97095906
Mg       4.96260609       5.67032903       5.21755589
Mg       5.25495199       6.06913353      21.00440896
Mg       0.20109680       3.13434839      13.26093698
Mg       0.57968830       3.48183958      28.97267835
Mg      -2.31207693       7.29757113      13.17598564
Mg      -1.89525923       7.77707991      28.93803339
Mg       5.16434199       3.04589677      13.10094694
Mg       5.38899671       3.52896570      28.89200629
Mg       2.67506070       7.40382668      13.13321109
Mg       2.87330611       7.77021381      28.83771885
Ni       2.67885429       1.68616083      13.68192571
Ni       3.02044943       2.06980682      29.51199694
Ni       0.20530042       6.04226918      13.58283519
Ni       0.60997425       6.32313084      29.32345740
Ni       7.63900565       1.74686251      13.48710599
Ni       7.87427913       2.03219517      29.27260038
Ni       5.10828011       5.89767940      13.50825274
Ni       5.45664653       6.31534852      29.22228537
Ni       0.08923855       2.95817099       5.83027479
Ni       0.38711532       3.30613977      21.61464610
Ni      -2.40135635       7.18202756       5.85151322
Ni      -2.14999637       7.55750885      21.56382019
Ni       4.84357214       2.88391803       5.78592215
Ni       5.20211242       3.33797500      21.49310548
Ni       2.39909362       7.24034451       5.65502427
Ni       2.61428331       7.52999054      21.39288738
Ni       2.58598528       1.69668089       9.68785356
Ni       2.95476354       2.01305526      25.55446535
Ni       0.16196359       5.87666821       9.81438772
Ni       0.47661313       6.25502933      25.52767797
Ni       7.52917823       1.55819479       9.60547842
Ni       7.79136315       2.00593851      25.43151376
Ni       5.04673629       5.77834026       9.53370195
Ni       5.42784251       6.29805605      25.35403359
Ni       0.05992884       2.87845064       1.95865171
Ni       0.25664065       3.33533432      17.67229707
Ni      -2.47621653       7.22287120       1.89766585
Ni      -2.11222355       7.61329601      17.67506452
Ni       4.88423284       2.91744470       1.79849436
Ni       5.05704863       3.22451179      17.62527497
Ni       2.34569832       7.08806658       1.79284974
Ni       2.73866495       7.52481670      17.56633770
Ni       2.70337978       3.14841759      11.77384132
Ni       2.92345753       3.46980574      27.45237044
Ni       0.20658037       7.27878369      11.66144162
Ni       0.42956143       7.78278012      27.41677411
Ni       7.49493869       2.97754806      11.55586143
Ni       7.74849896       3.30773847      27.29702640
Ni       5.06033293       7.23083304      11.53479217
Ni       5.32385926       7.69678306      27.36702641
Ni       3.83726957       0.96562946      11.76924530
Ni       4.11376539       1.39753865      27.49482013
Ni       1.49550136       5.13606635      11.79389791
Ni       1.71334645       5.54842992      27.44011806
Ni       8.76424180       0.86588996      11.55790264
Ni       9.05516475       1.34146570      27.32241982
Ni       6.15764600       5.20119811      11.65085804
Mg       6.48285341       5.55690500      27.32119424
Ni       1.29149981       3.65058269       3.87770577
Ni       1.42602694       4.09907719      19.54022586
Ni      -1.22500009       7.77123969       3.73585827
Ni      -0.87045388       8.19577590      19.51047902
Ni       6.14139073       3.56831937       3.68512091
Ni       6.34291335       3.98016285      19.41926628
Ni       3.74084478       7.75082442       3.79342863
Ni       3.98006932       8.17775906      19.55192848
Ni       1.43087997       1.01083927      11.77300828
Ni       1.76333484       1.31681456      27.48689533
Ni      -1.05859358       5.23499654      11.74978390
Ni      -0.68742231       5.66413710      27.51792406
Ni       6.30180413       0.90300027      11.67788750
Ni       6.58421227       1.34146656      27.38314372
Ni       3.83725014       5.14403136      11.59992711
Ni       4.08779463       5.57914806      27.42167769
Ni       0.06544979       1.47705708       3.83404797
Ni       0.41662319       1.92306360      19.65281780
Ni      -2.42538207       5.84698414       3.95760762
Ni      -2.20818601       6.14659415      19.73093297
Ni       4.98922602       1.43669130       3.77799373
Ni       5.22521670       1.87347163      19.46695769
Ni       2.46634695       5.70347153       3.75745902
Ni       2.73896434       6.03383034      19.56189387
Ni      -1.19733129       3.55555864       3.85855852
Ni      -0.87184226       3.97644495      19.62493680
Ni      -3.70947512       8.00990381       3.87214882
Ni      -3.28379219       8.28394147      19.65532628
Ni       3.74775646       3.60099010       3.71514856
Ni       3.99295633       4.02850881      19.48946582
Ni       1.19712225       7.80828250       3.70147255
Ni       1.42088831       8.22615939      19.53368836
Ni       2.39426849       0.03434314      -0.12492897
Ni       2.70450603       0.45193898      15.75295950
Ni       0.01262307       4.21179514      -0.05178405
Ni       0.22212724       4.65227335      15.69342704
Ni       7.24970676       0.01057173      -0.27028201
Ni       7.47316272       0.30334622      15.53692383
Ni       4.84374261       4.14279846      -0.18152124
Ni       5.07716232       4.51939663      15.50681298
Ni       1.24387644       2.05318855      -0.10131239
Ni       1.45204439       2.43392475      15.70701788
Ni      -1.25937731       6.49487933      -0.16087073
Ni      -1.06372643       6.78326584      15.56324429
Ni       6.10016150       2.11779347      -0.19575972
Ni       6.45330215       2.43568282      15.51988622
Ni       3.64743502       6.38348540      -0.15329948
Ni       3.95042017       6.79835562      15.51796606
Ni      -1.06845776       2.28899803       7.84675337
Mg      -0.70446046       2.71892175      23.57657743
Ni      -3.59762955       6.55396311       7.85476647
Ni      -3.22985248       6.87685128      23.62940027
Ni       3.83393500       2.37347138       7.78572253
Ni       4.04475409       2.61439714      23.54223918
Ni       1.31796767       6.48822796       7.75440328
Ni       1.62130582       6.92396883      23.51159507
Ni       2.65483969       0.20685629       7.84442226
Ni       2.92136770       0.63672673      23.56948687
Ni       0.17022789       4.45508964       7.88590940
Ni       0.29441211       4.78036244      23.54646359
Ni       7.34118558       0.14670804       7.69601907
Ni       7.76361745       0.47776694      23.43128275
Ni       4.97636445       4.38574994       7.66192484
Ni       5.22448803       4.92941601      23.35732309
Ni      -1.24767036       2.12444281       0.02046961
Ni      -0.91012484       2.57208195      15.72384949
Ni      -3.62149939       6.39243621       0.00086323
Mg      -3.40679507       6.70459983      15.70594026
Ni       3.66865329       2.04773433      -0.16548995
Ni       3.86659501       2.34149792      15.59141734
Ni       1.17859324       6.33791353      -0.12452934
Mg       1.49916645       6.71245970      15.55276488
Ni       1.37127714       2.27124281       7.85721026
Ni       1.63486597       2.64358402      23.58399502
Ni      -1.09066849       6.53645996       7.78178237
Ni      -0.78705658       6.87840068      23.56311221
Ni       6.14027787       2.18434648       7.71570287
Ni       6.51852701       2.60252464      23.41176601
Ni       3.77547947       6.56805585       7.71754716
Ni       4.04805275       6.78633529      23.37033783
