190
Lattice="9.878907162623443 -0.04510093403026251 -0.2024726409693218 -4.9151009879754035 8.530056844854919 0.01835640640506886 -0.718670978635369 -0.06349559255079748 32.677262875894584" Properties=species:S:1:pos:R:3 pbc="T T T"
Mg      -0.30748854      -0.02038710      14.77210585
Mg      -0.68393230      -0.13377677      31.17433520
Mg      -2.77282095       4.26629926      14.77931915
Mg      -3.05257716       4.09210242      31.07128572
Mg       4.61253950       0.00452725      14.73998568
Ni       4.26561993      -0.05607259      31.05166026
Ni       2.15894219       4.19959703      14.67118719
Mg       1.85536415       4.23324531      30.99958286
Mg      -0.18566668      -0.03053287       6.59180748
Mg      -0.59008569      -0.09887825      22.95472066
Mg      -2.52575175       4.25477811       6.61063083
Mg      -2.90517075       4.15827430      22.94318527
Mg       4.77525501       0.00279253       6.56280528
Mg       4.42794333      -0.16296534      22.90587497
Mg       2.39126219       4.17317287       6.47943845
Mg       1.90852610       4.10078021      22.89432341
Mg      -0.22901293       0.00769172       9.64623965
Mg      -0.51706363      -0.10884996      26.16770645
Mg      -2.70785528       4.23715333       9.66593576
Mg      -2.96379997       4.27565050      26.06073048
Ni       4.84565053       0.01401905       9.63259916
Mg       4.37491053      -0.04612049      26.00938577
Mg       2.32892476       4.24010649       9.61715954
Mg       1.82071946       4.14763063      25.95197272
Mg      -0.09521646       0.01256466       1.56973125
Mg      -0.35591092      -0.05271762      17.91021639
Mg      -2.51267146       4.24218322       1.57009564
Mg      -2.84046222       4.30623460      17.88804573
Mg       4.88083794       0.01066900       1.38712719
Mg       4.46261764      -0.10485714      17.82505146
Mg       2.49990252       4.35805521       1.47257963
Mg       2.09799721       4.22713961      17.76678058
Mg       2.42840399       1.38501701       2.51501021
Mg       2.05423529       1.38481234      18.89946286
Mg      -0.06115363       5.69097816       2.51163110
Mg      -0.35706723       5.67271051      18.88471451
Mg       7.29372882       1.36310268       2.36697346
Mg       7.02197771       1.25058553      18.72024137
Mg       4.86307922       5.64296334       2.36607978
Mg       4.59978552       5.58100578      18.68334592
Mg      -0.25700731       2.87731095      10.66995199
Ni      -0.57421870       2.77321758      27.04976737
Mg      -2.69590410       7.09173370      10.68023144
Mg      -3.02852653       7.02767508      26.97551079
Mg       4.80497559       2.84437947      10.56595668
Mg       4.35567824       2.73906196      26.87242692
Mg       2.22650183       7.10730769      10.60827039
Mg       1.95552763       7.04319881      26.92233421
Mg       2.36967318       1.30488737       5.54682794
Mg       1.99171973       1.41155852      21.84377020
Mg      -0.05982843       5.62792186       5.64929459
Mg      -0.40735155       5.61630393      21.92223278
Ni       7.13962110       1.40856785       5.54902664
Mg       6.91614774       1.32951820      21.76373790
Mg       4.81943695       5.70502894       5.42459727
Mg       4.41659942       5.61379227      21.91175063
Mg      -0.29027282       2.84280509      13.77487374
Ni      -0.66010079       2.85385630      30.07867909
Mg      -2.72674054       7.01604503      13.77211777
Mg      -3.07675805       6.97874478      30.14137831
Ni       4.71159644       2.75667261      13.67399720
Mg       4.17499859       2.69999505      29.98012398
Mg       2.29407791       7.03966104      13.64973601
Mg       1.78673290       6.99539835      30.01642708
Ni       2.20021783       1.39495817      14.18865585
Ni       1.81599588       1.31576161      30.50877778
Ni      -0.36621768       5.67650496      14.33168495
Ni      -0.61531462       5.62561789      30.57983751
Ni       7.12231495       1.36416941      14.19106396
Ni       6.74602753       1.31278494      30.59644822
Ni       4.58421092       5.64561360      14.08969389
Ni       4.23512156       5.58686835      30.49595514
Ni      -0.15392366       2.83804989       6.05656147
Ni      -0.47027730       2.83576025      22.42614414
Ni      -2.57017039       7.07639082       6.11281182
Ni      -2.89268357       7.10265018      22.43637613
Ni       4.78141124       2.73877456       6.04240838
Ni       4.45984181       2.73740548      22.30567545
Ni       2.40729222       7.16835619       5.97291092
Ni       1.86257757       7.09788508      22.33702396
Ni       2.10270132       1.39332085      10.15038020
Ni       1.81331799       1.39462521      26.53282530
Ni      -0.12327694       5.55026862      10.20910268
Ni      -0.58353620       5.55475334      26.58330635
Ni       7.17784086       1.45224829      10.06174367
Ni       6.76918903       1.35063278      26.43370104
Ni       4.63045712       5.56922936      10.04554880
Ni       4.27793554       5.61920638      26.33326720
Ni      -0.01290778       2.76834595       2.00034894
Ni      -0.41396137       2.78248037      18.33268150
Ni      -2.46726168       7.13614879       2.07066800
Ni      -2.84388828       7.11405494      18.40291778
Ni       4.96668730       2.82743384       1.84050603
Ni       4.54390219       2.82976773      18.18365473
Ni       2.46236245       7.11842912       1.90123252
Ni       1.96172940       7.07611814      18.32234288
Ni       2.26514105       2.82589664      12.17460418
Ni       1.90835619       2.74738278      28.50151699
Ni      -0.23207502       7.02919189      12.27746360
Ni      -0.59061644       7.06903673      28.44631544
Ni       7.08856164       2.68176672      12.03065830
Ni       6.80966700       2.66408373      28.31344062
Ni       4.70254697       7.03777337      12.15776432
Ni       4.39093827       6.94423499      28.46655409
Ni       3.36795521       0.72259933      12.14877247
Ni       3.07174507       0.60096010      28.59446111
Ni       1.03997251       4.96906646      12.15272738
Ni       0.67099402       4.85043381      28.60076166
Ni       8.30122273       0.55711363      12.11415479
Ni       8.03884381       0.63806996      28.32579490
Ni       5.87718352       4.89581485      12.06592785
Ni       5.57908400       4.85086591      28.44100161
Ni       1.14595002       3.56932239       3.99914796
Ni       0.80242572       3.47343388      20.37618417
Ni      -1.33039008       7.83560790       4.04724442
Ni      -1.72352798       7.71138803      20.35721941
Ni       6.11958302       3.44935625       3.83122155
Ni       5.75910393       3.45726549      20.27446623
Ni       3.69695786       7.66677091       3.88542835
Ni       3.30304975       7.73320402      20.23402621
Ni       0.89950686       0.73622264      12.26276782
Ni       0.58802703       0.60912946      28.57878288
Ni      -1.45084625       4.90071114      12.28063758
Ni      -1.88506585       5.00742836      28.61167019
Ni       5.89825167       0.61080120      12.08456597
Ni       5.58798925       0.65362626      28.41158933
Ni       3.39622276       4.84944929      12.16769726
Ni       3.04475497       4.90093456      28.48611248
Ni      -0.12756924       1.40713870       4.14892979
Ni      -0.43665341       1.35003033      20.36143295
Ni      -2.51863871       5.67067355       4.11253363
Ni      -2.93604247       5.70251156      20.48709604
Ni       4.84996764       1.45186482       3.91877448
Mg       4.51750560       1.30117009      20.28496552
Ni       2.42096715       5.67927151       4.03583561
Ni       2.05805053       5.60721995      20.31373679
Ni      -1.30004367       3.55332992       3.88612037
Ni      -1.61304836       3.42606595      20.45008461
Ni      -3.81336034       7.85440492       4.08576219
Ni      -4.12973665       7.76257257      20.33204085
Ni       3.58398749       3.48359688       3.98756807
Ni       3.21846407       3.41680862      20.38023731
Ni       1.15982057       7.74667939       4.02766313
Ni       0.77777970       7.82764257      20.33193530
Ni       2.49042677      -0.00995299      -0.04530349
Ni       2.06554357       0.03398817      16.32016813
Mg       0.01996494       4.27333212       0.00155663
Ni       7.41713603      -0.02078006      -0.11860555
Ni       7.09860431      -0.09872972      16.34392406
Ni       4.96268986       4.30159710      -0.11018590
Ni       4.58092561       4.15679353      16.20260337
Ni       1.22386083       2.16454264      -0.00987456
Mg       0.85101158       2.14623190      16.27784131
Ni      -1.23038490       6.29124515       0.00937073
Ni      -1.46214858       6.43879137      16.34368522
Ni       6.07331995       2.21425777      -0.18184875
Mg       5.74425530       2.11474755      16.13975915
Ni       3.75975102       6.39316922      -0.27155322
Ni       3.34757462       6.32731232      16.29855400
Ni      -1.40727352       2.11120652       8.19094218
Ni      -1.76206499       2.06523039      24.47138925
Ni      -3.76114899       6.45487998       8.19069535
Ni      -4.27516134       6.26452550      24.48274500
Ni       3.51176819       2.10947936       8.03179807
Ni       3.13416377       2.03420231      24.49931310
Ni       1.10640870       6.29654388       8.08240718
Mg       0.70606207       6.29046330      24.36269249
Mg       2.20980120       0.00252531       8.16270533
Ni       1.95714076      -0.07486598      24.40287876
Ni      -0.16191613       4.23841912       8.13336318
Ni      -0.60062548       4.23787808      24.40887322
Ni       7.18282470      -0.12400540       8.04645240
Ni       6.80151398      -0.10952278      24.39308638
Ni       4.79014508       4.20019369       7.97681968
Ni      -1.17179897       2.09313367       0.05850041
Mg      -1.55257337       2.07676858      16.35387873
Ni      -3.72830558       6.39928283      -0.02886614
Ni      -4.02315674       6.32333078      16.30843325
Ni       3.69833613       2.08946204      -0.05186270
Ni       3.43525983       2.16969517      16.28821569
Ni       1.26204688       6.43636310      -0.01851717
Ni       0.90304008       6.28478324      16.29060025
Ni       1.09928434       2.01885378       8.05413455
Ni       0.79278529       2.04171822      24.47783233
Ni      -1.39426940       6.31419178       8.25605382
Ni      -1.80157718       6.35313416      24.41732396
Ni       5.97924371       2.03083631       8.06992633
Ni       5.66169076       1.97335635      24.35774463
Ni       3.50627213       6.36595681       7.99256392
Ni       3.18631004       6.32177028      24.39320348
