187
Lattice="9.713098329060648 0.12044895956596649 0.1980365757515326 -4.978125122458462 8.550296292778098 -0.2251200906301257 0.30965481802668315 -1.5537828731727046 31.247352137220158" Properties=species:S:1:pos:R:3 pbc="T T T"
Mg       0.20830393      -0.55211115      14.13283998
Mg       0.33128976      -1.45623886      29.77746641
Mg      -2.31834650       3.48581694      14.06041577
Mg      -2.12137652       2.81207319      29.69007873
Mg       5.18014436      -1.44462493      29.86012305
Mg       2.47739359       3.66659584      14.20801311
Mg       2.51125600       2.78806837      29.86194011
Mg       0.05771263      -0.29429083       6.28323658
Mg       0.17434299      -1.10637056      21.98347910
Mg      -2.41921674       4.00110482       6.20025902
Mg      -2.31198891       3.15400833      21.88331497
Mg       4.96813249      -0.24494621       6.48942617
Mg       5.12295655      -0.97667891      22.00409924
Mg       2.45440039       3.99738426       6.33946239
Mg       2.52031503       3.21670757      21.93090615
Ni       0.20665218      -1.32855950      24.91075362
Mg      -2.23532589       3.77975903       9.22842049
Mg      -2.18457872       2.98744417      24.90006290
Mg       4.99528146      -0.42939497       9.48232725
Mg       5.09207680      -1.21253070      25.03345755
Mg       2.53456060       3.90445185       9.20255751
Mg       2.61878091       3.14778131      24.85344465
Mg       0.02225242      -0.16703736       1.53671278
Mg       0.11393918      -0.81645665      17.17154536
Mg      -2.46884288       4.17958651       1.36249095
Mg      -2.30700562       3.39509273      16.92445321
Ni       4.80959968      -0.11221335       1.64262642
Mg       5.03063575      -0.75522977      17.08499200
Mg       2.51465703       4.34297342       1.46675669
Mg       2.48227285       3.48104704      17.09336093
Mg       2.39491290       1.33102190       2.36795916
Mg       2.60982883       0.61661605      18.09882353
Mg      -0.02762677       5.60729448       2.34535213
Mg       0.19792988       4.82735580      18.08778424
Mg       7.24704454       1.39736092       2.49970986
Mg       7.42588518       0.75125281      18.17362320
Mg       4.81405334       5.68858731       2.43374154
Mg       4.96072244       4.79308594      18.17388306
Mg       0.03595344       2.28688776      10.28357534
Mg       0.24274490       1.51047046      25.85630930
Mg      -2.33209068       6.64893345      10.10053351
Mg      -2.30657337       5.83771190      25.74045036
Mg       4.87397208       2.48816524      10.37264373
Mg       5.02698162       1.66467639      25.92268020
Mg       2.40737395       6.61779974      10.26945547
Mg       2.61299543       5.90784998      25.89753377
Mg       2.58908617       1.12194803       5.38120763
Mg       2.57946293       0.47204795      21.09907064
Mg      -0.00908359       5.51085474       5.24029859
Mg       0.17312968       4.69794815      20.91131425
Ni       7.38057559       1.22041282       5.47356425
Mg       7.53233185       0.51880384      21.15108776
Mg       4.77904083       5.57406664       5.33449741
Mg       0.04369001       2.17765093      13.16320588
Ni       0.26557479       1.50913184      28.74738963
Mg      -2.39029647       6.55667196      13.03253011
Mg      -2.22915391       5.65136665      28.62600123
Mg       4.99649939       2.29178479      13.27901666
Mg       5.04242817       1.40707489      28.88638255
Mg       2.48894871       6.58356829      13.14037310
Mg       2.52806377       5.67931378      28.71222299
Ni       2.56597569       0.74303117      13.64886622
Ni       2.67590424       0.02013729      29.39925092
Ni       0.02839213       5.08445774      13.61367324
Mg       0.20146696       4.39860226      29.21025339
Ni       7.34782608       0.84828393      13.73772599
Ni       7.57938785      -0.04882823      29.51724773
Ni       4.93648010       5.17480778      13.73406621
Ni       4.96677102       4.35149511      29.30849299
Ni      -0.02484093       2.61342225       5.82174683
Ni       0.07853228       1.76822176      21.40816187
Ni      -2.49638550       6.95764732       5.71915283
Ni      -2.32238078       6.02260996      21.37291613
Ni       4.82272890       2.66505242       5.87424788
Ni       5.00229652       1.99124299      21.60768237
Ni       2.41610201       6.94811144       5.82845978
Ni       2.53260103       6.16245703      21.33397336
Ni       2.49061083       1.02841412       9.74313993
Ni       2.54852348       0.22201247      25.48448847
Ni       0.00792981       5.23651980       9.67979787
Ni       0.17386934       4.53912617      25.25658934
Ni       7.37257311       0.96892347       9.83750565
Ni       7.52060407       0.24007469      25.50821956
Ni       4.96103923       5.22202535       9.73853733
Ni       4.99160839       4.56107757      25.45172331
Ni      -0.08433292       2.79172934       1.89859989
Ni       0.08653356       2.02247391      17.61921125
Ni      -2.49089137       7.06211682       1.78950867
Ni      -2.40011462       6.39373639      17.40014381
Ni       4.81548864       2.85675569       2.03527177
Ni       4.95424937       2.09491648      17.63279437
Ni       2.28050514       7.08477918       1.97755949
Ni       2.51452195       6.33410165      17.46433861
Ni       2.55644376       2.19668224      11.68375380
Ni       2.67352745       1.58770010      27.32491961
Ni      -0.02674993       6.58878808      11.65327111
Ni       0.19335743       5.80326613      27.32788261
Ni       7.42376954       2.43450714      11.73713624
Ni       7.51989744       1.64932580      27.42804333
Ni       4.91639450       6.58654269      11.84214267
Ni       5.05308373       5.80543357      27.34830663
Ni       3.71476301       0.20283540      11.76079611
Ni       3.99399917      -0.66346076      27.40306343
Ni       1.24577613       4.37423328      11.63523866
Ni       1.45052363       3.68899241      27.29018416
Ni       8.63944051       0.28263049      11.86436070
Ni       8.76774029      -0.56742951      27.56383564
Ni       6.11545190       4.45565738      11.80769621
Ni       6.17562710       3.77748351      27.44903994
Ni       1.24847348       3.43153646       3.98999361
Ni       1.36377727       2.61717873      19.53031066
Ni      -1.22074766       7.70321539       3.65417553
Ni      -1.09293752       6.82220062      19.45306705
Ni       6.11526768       3.43916387       3.97628315
Ni       6.25974211       2.74918739      19.56330731
Ni       3.54374823       7.61813337       3.88290779
Ni       3.76234221       6.92686260      19.51246002
Ni       1.37451918       0.09306015      11.73974842
Ni       1.38339926      -0.55767632      27.35732590
Ni      -1.24440910       4.39623018      11.50787555
Ni      -1.09505611       3.69130642      27.23150552
Ni       6.13113435       0.27535280      11.87563309
Ni       6.39126338      -0.56975006      27.51648829
Ni       3.69418086       4.45669637      11.72222487
Ni       3.88681873       3.73945351      27.34270868
Ni      -0.02405596       1.22021303       3.82510864
Mg       0.16838159       0.42569538      19.46402827
Ni      -2.47746977       5.58318929       3.74625220
Ni      -2.34567018       4.67522025      19.41618223
Ni       4.85665659       1.26404780       3.99488770
Ni       4.99464193       0.53061918      19.53292957
Ni       2.37434425       5.67201877       3.89763655
Ni       2.57785103       4.82183592      19.45101202
Ni      -1.25741687       3.37088269       3.81565829
Ni      -0.96833143       2.57528514      19.53300442
Ni      -3.68934546       7.70400603       3.72426547
Ni      -3.61141542       6.93225602      19.34632826
Ni       3.57217414       3.41372097       3.87493957
Ni       3.81723322       2.65796163      19.61540187
Ni       1.11532438       7.72919342       3.79585887
Ni       1.30604020       7.01741978      19.48612275
Ni       2.49630930      -0.01595161       0.01771612
Ni       2.53412556      -0.59118447      15.72462799
Ni       0.02177523       4.24082619      -0.11569607
Ni       0.03117753       3.58139341      15.49611449
Ni       7.22669874       0.11222719       0.16702842
Ni       7.51060007      -0.62813063      15.78411448
Ni       4.79701762       4.39140025       0.00022372
Ni       4.87241043       3.62508874      15.70355302
Ni       1.14636470       2.13855941      -0.01925515
Ni       1.35392764       1.40345358      15.59815873
Ni      -1.33925220       6.40994202       0.00426395
Ni      -1.22950263       5.72327906      15.55299259
Ni       5.98359387       2.18429583       0.01145601
Ni       6.26053462       1.41497511      15.71158147
Mg       3.49368934       6.49641830      -0.00019159
Ni       3.63203247       5.71890455      15.62166526
Ni      -1.24527382       1.78237472       7.75369609
Ni      -0.99850026       1.02523314      23.33527125
Ni      -3.64087225       6.01790366       7.76482998
Ni      -3.39889116       5.25126003      23.31445850
Ni       3.78001444       0.98322827      23.43665959
Ni       1.20076164       6.00660236       7.70844355
Ni       1.34703313       5.38405031      23.36832193
Ni       2.47499456      -0.36516913       7.84832365
Ni       2.53973629      -1.12078952      23.44630786
Ni       0.12604063       3.14535228      23.34366359
Ni       7.35475989      -0.23381524       8.02462663
Ni       7.67593393      -1.00579454      23.55525718
Ni       4.83725536       4.06007858       7.80126050
Ni       5.06992760       3.29488606      23.50304984
Ni      -1.22956173       2.07369851      -0.01440554
Ni      -1.19074515       1.44000738      15.55532128
Ni      -3.74038568       6.43056499      -0.13057114
Ni      -3.55086536       5.63668024      15.50103112
Ni       3.63262900       2.27081517       0.06859860
Ni       3.72550786       1.45030338      15.69914215
Mg       1.15638351       6.46502329       0.06930669
Ni       1.28595428       5.67702143      15.48830625
Ni       1.18460886       1.73523576       7.80588571
Ni       1.52875071       0.97641330      23.38792534
Ni      -1.18855847       5.99453406       7.72985080
Ni      -1.02814552       5.33103889      23.29304300
Ni       6.12227996       1.82815204       7.98733119
Ni       6.19376687       1.08879089      23.53145266
Ni       3.67086121       6.16542664       7.83753162
Ni       3.77428680       5.26346115      23.36324958
