189
Lattice="10.022889891396312 -0.027744782285267326 0.6415908759065961 -4.90010337696311 8.520992099957706 0.0008343437025353533 0.3510091759693212 0.2185394310164546 31.413995155694682" Properties=species:S:1:pos:R:3 pbc="T T T"
Mg       0.34952671       0.19374229      29.93615415
Mg      -2.26790257       4.31291436      14.16322031
Mg      -2.08663903       4.57670702      29.95927579
Mg       5.11290882       0.13665956      14.66635235
Mg       5.23029624       0.25561485      30.23397779
Mg       2.78705123       4.25482000      14.63715476
Mg       2.88575173       4.38959000      30.16007089
Ni       0.10756546       0.03259237       6.41031760
Mg       0.26978634       0.20432587      22.16563060
Mg      -2.35028418       4.30259455       6.36353539
Mg      -2.17358680       4.43978513      22.12575059
Ni       5.34739580       0.21529492      22.53981550
Mg       2.60852639       4.25522666       6.71955652
Mg       2.80664358       4.36386805      22.38249165
Mg       0.15314316       0.08140317       9.34205673
Mg       0.31899850       0.17809195      25.15528181
Mg      -2.36985163       4.27407040       9.29831596
Mg      -2.18233420       4.44997298      25.05946437
Mg       5.06866912       0.08429453       9.66116788
Mg       5.35804714       0.14262310      25.35493303
Mg       2.73547983       4.31960820       9.64200352
Mg       2.81246667       4.43900258      25.31985223
Mg       0.03707042       0.07728897       1.43884012
Mg       0.13804613       0.12570439      17.18150588
Mg      -2.43706751       4.25679231       1.52468738
Mg      -2.34310916       4.33347392      17.18477267
Mg       5.00857409       0.02483958       1.78422381
Mg       5.13802553       0.07873414      17.53535286
Mg       2.58723618       4.22215922       1.79470835
Mg       2.70913545       4.34973097      17.49468191
Mg       2.62639364       1.45753715       2.77262616
Mg       2.73816351       1.55172343      18.43812860
Mg       0.07617976       5.73019765       2.67210439
Mg       0.20900829       5.79629323      18.27856636
Mg       7.51229659       1.40651338       2.95213634
Mg       7.76257960       1.53597708      18.67813463
Mg       5.08469653       5.68719022       2.87359086
Mg       5.30580204       5.82501177      18.65041185
Mg       0.11624937       2.80503912      10.38700668
Mg       0.31514301       2.97073961      26.09565293
Ni      -2.32072426       7.20639629      10.43301537
Mg      -2.13313055       7.36630355      26.18810595
Ni       5.15723615       2.76462238      10.68469887
Mg       5.36190446       2.98719040      26.41814863
Mg       2.68258537       7.15778121      10.73666621
Mg       2.96988883       7.21434978      26.46407190
Mg       2.51090297       1.41743253       5.62594153
Ni       2.77466846       1.61190506      21.29297017
Mg       0.10661177       5.65839250       5.64964146
Mg       0.25401810       5.74098149      21.36571053
Mg       7.60943050       1.43703820       5.93500548
Mg       7.79095972       1.53607135      21.68726865
Mg       5.18422074       5.69129707       5.96381814
Mg       5.29913515       5.78424952      21.61647559
Mg       0.24318780       3.02919030      13.45629655
Mg       0.31045408       3.03180854      29.05659232
Mg      -2.19826838       7.23757055      13.37274552
Mg      -2.12695323       7.31592209      29.08818966
Mg       5.23566300       2.87901499      13.67019165
Mg       5.43529238       2.96205203      29.43102042
Mg       2.74907585       7.22522943      13.79614921
Mg       2.96474934       7.28806347      29.38949505
Ni       2.66053435       1.45153562      13.98895959
Ni       2.89344593       1.61181567      29.62771664
Ni       0.22525093       5.78909720      13.93620802
Ni       0.46682606       5.90002748      29.61024953
Ni       7.68638514       1.49168707      14.24899348
Ni       7.89515639       1.56464295      29.95083723
Ni       5.15972361       5.73563856      14.28730094
Ni       5.46753646       5.84786314      29.93567307
Ni       0.05859592       2.94704221       6.07804971
Ni       0.34687594       3.00351732      21.69048047
Ni      -2.28049431       7.14458091       6.05713573
Ni      -2.20790963       7.22627874      21.74207647
Ni       5.07062893       2.84433977       6.28929037
Ni       5.26390761       2.92191220      22.04263404
Ni       2.59656814       7.08960913       6.32698320
Ni       2.79868749       7.12608369      22.00518034
Mg       2.64249848       1.40777271      10.00159749
Ni       2.73830553       1.63254178      25.69476177
Ni       0.14255135       5.72673322       9.95679720
Ni       0.39939663       5.94142340      25.68662010
Ni       7.67391326       1.50990558      10.46406168
Mg       7.83057383       1.54241320      26.05700471
Ni       5.26857752       5.72312363      10.34170610
Ni       5.32784006       5.77594772      26.12204209
Ni       0.11880913       2.81529283       2.04111756
Ni       0.15082763       2.92705053      17.83243529
Ni      -2.43474344       7.10064071       2.04042339
Ni      -2.26286224       7.20591604      17.79986914
Ni       5.01539285       2.82481407       2.44062893
Ni       5.20842624       3.01139062      18.10719623
Ni       2.65405169       7.12446289       2.40195082
Ni       2.80445463       7.22468912      18.13559374
Ni       2.69376265       2.95964219      12.16801311
Ni       2.82486940       3.07013479      27.78591273
Ni       0.21543234       7.19705436      12.03997563
Ni       0.36203980       7.35364862      27.78964034
Ni       7.74633727       2.91436392      12.31907679
Ni       7.83857688       3.01086683      28.00628433
Ni       5.24302257       7.17741697      12.35792017
Ni       5.40141464       7.26218759      28.09474112
Ni       3.87982904       0.78031932      12.05306742
Ni       4.03721533       0.85914204      27.82697523
Ni       1.40241028       5.05545130      11.97273224
Ni       1.66468364       5.07872199      27.64059315
Ni       8.87080958       0.76458174      12.47363239
Ni       9.17566928       0.73457302      28.04782626
Ni       6.46133613       4.96588266      12.34093469
Ni       6.65836328       5.04382183      28.01164537
Ni       1.31009778       3.49883956       4.13074509
Ni       1.51723821       3.69555190      19.94332510
Ni      -1.16151835       7.77372180       4.07770090
Ni      -0.83946591       7.93480141      19.82713059
Ni       6.28229598       3.52401740       4.40402453
Ni       6.50103286       3.61032537      20.17822348
Ni       3.87286435       7.73265643       4.50935185
Ni       4.04599073       7.86420165      20.10320155
Ni       1.42093879       0.71405427      11.91460306
Ni       1.59915015       0.82639971      27.62660822
Ni      -1.01044747       5.03691086      11.90106659
Ni      -0.88110649       5.21984394      27.58457120
Ni       6.42330621       0.74786837      12.24608919
Ni       6.61676000       0.85495030      27.92994914
Ni       3.91990404       4.99619801      12.22170221
Ni       4.10426348       5.20397939      27.91125310
Ni       0.05299047       1.41007759       3.98957837
Ni       0.19009765       1.53460093      19.66758442
Ni      -2.41306710       5.81025525       4.08638199
Ni      -2.21403750       5.96496332      19.70063924
Ni       5.09023832       1.48302182       4.29722211
Ni       5.19031063       1.56071744      20.04459527
Ni       2.64672682       5.69827668       4.31791999
Ni       2.82069905       5.80553394      20.08010742
Ni      -1.16002173       3.76908017       4.01739438
Ni      -1.03511032       3.74762217      19.74903963
Ni      -3.58845475       7.74085332       4.05802391
Ni      -3.36759633       8.00002280      19.80245183
Ni       3.89456385       3.61074055       4.37611002
Ni       4.06491058       3.65304177      20.01704468
Ni       1.32078143       7.86166461       4.29873989
Ni       1.57492932       7.96182756      20.08239287
Ni       2.42296242      -0.05145524       0.21700797
Mg       2.66066367       0.14198661      15.94100512
Ni       0.03568625       4.30646334       0.26013548
Ni       0.25374705       4.34989002      15.88255602
Ni       7.57135271       0.02131240       0.41705896
Ni       7.68320289       0.12203193      16.23131546
Ni       5.03795545       4.24402580       0.35367119
Ni       5.20541078       4.37026217      16.20247481
Ni       1.20632479       2.17504045       0.21768464
Ni       1.41959596       2.30065023      15.89094082
Ni      -1.21423830       6.46865707       0.16635202
Ni      -0.95543865       6.52765565      15.87329440
Ni       6.29052713       2.07716990       0.41716018
Ni       6.51127783       2.22396656      16.16422231
Ni       3.89951289       6.29957711       0.51848973
Ni       4.07562999       6.43057765      16.25352793
Mg      -1.14555322       2.15493159       7.88571170
Ni      -0.93070727       2.27786403      23.53365261
Ni      -3.53514741       6.42520404       7.87216534
Ni      -3.37516003       6.49203225      23.63969130
Ni       3.86629934       2.19169881       8.19514800
Ni       3.95451744       2.24289085      23.78503369
Ni       1.54606487       6.45414159       8.23807511
Ni       1.67440723       6.48304431      23.86331018
Mg       2.55387821      -0.06224024       7.91886674
Ni       2.80634292       0.08552113      23.75163407
Ni       0.13081174       4.30976291       8.00590813
Ni       0.30573871       4.41914159      23.72948883
Ni       7.58324842       0.08268852       8.31245948
Ni       7.79677525       0.13764198      24.09726397
Ni       5.15128091       4.28633480       8.35642833
Ni       5.37798181       4.47624886      24.06305665
Ni      -0.94181786       2.25245289      15.76940280
Ni      -3.61548347       6.37839604       0.03109332
Ni      -3.51814796       6.51737510      15.68706229
Ni       3.78714335       2.07249663       0.21847566
Ni       3.92986043       2.31505228      15.96728065
Ni       1.34965934       6.33385106       0.19321164
Ni       1.52985260       6.57227698      16.03194123
Ni       1.22787545       2.10664457       7.94270448
Ni       1.50292346       2.29411273      23.74011352
Ni      -1.13496570       6.51903304       7.92728493
Ni      -0.89338702       6.54094289      23.70819184
Ni       6.43892782       2.22972382       8.34369267
Ni       6.58079319       2.28155410      24.03091036
Ni       4.01261860       6.40569732       8.36533169
Ni       4.04739908       6.67825222      24.04801272
