188
Lattice="9.921638169221016 0.4450473803644947 -0.053315569978685855 -5.002181684466812 8.195907358815615 0.19703614204847975 0.6646616380077158 -0.2755284581724624 30.74863359928692" Properties=species:S:1:pos:R:3 pbc="T T T"
Mg       0.33053676      -0.11313932      13.94235991
Mg       0.66697173      -0.20375492      29.20553179
Mg      -2.20033670       3.93890917      14.01880557
Mg      -1.85671630       3.81479658      29.39151765
Mg       5.24954817       0.10297477      13.91400058
Mg       5.62668688      -0.02568561      29.30516153
Mg       2.76865306       4.20566085      14.03360542
Mg       3.07630894       4.10894806      29.39666682
Mg       0.09663984      -0.03077677       6.24796765
Mg       0.50982416      -0.18714266      21.63515555
Mg      -2.36639926       4.01461379       6.30097019
Mg      -2.03719642       3.88373860      21.73203199
Mg       5.06756257       0.15066342       6.17922167
Mg       5.56594576       0.00721310      21.66006761
Mg       2.51220708       4.30339989       6.45288447
Mg       2.88839573       4.09663350      21.70388281
Mg       0.18480794      -0.03083339       9.11384532
Mg       0.50183715      -0.13194662      24.48052627
Mg      -2.36531693       3.97159656       9.17275861
Mg      -1.98280201       3.88952668      24.52425616
Mg       5.16129241       0.14866898       9.12461107
Mg       5.52607071       0.02137154      24.48809347
Mg       2.78910253       4.12888498       9.23347538
Mg       3.01116843       4.06749937      24.55958857
Mg       0.04625168      -0.05689925       1.47731647
Ni       0.26609306      -0.07013345      16.75446330
Ni      -2.44393114       4.09764078       1.59780909
Mg      -2.13073672       3.99642603      16.85928885
Mg       4.96528312       0.23737096       1.37496683
Ni       5.29187004      -0.04111820      16.79470802
Mg       2.83751391       4.16677176      16.90299944
Mg       2.60692507       1.48105850       2.39578974
Mg       2.80117497       1.39351439      17.73194359
Mg      -0.00794170       5.62871908       2.52535917
Mg       0.36647332       5.49206593      17.86446071
Mg       7.37157317       1.79768872       2.37204375
Mg       7.71026469       1.54261961      17.75750789
Mg       4.92790647       5.77768857       2.43344639
Mg       5.28512023       5.59500090      17.89051500
Mg       0.20918401       2.73967569      10.07080014
Mg       0.54180101       2.55749585      25.49115137
Mg      -2.28185891       6.78973872      10.27955865
Mg      -1.98282128       6.64950014      25.66694593
Mg       5.19426942       2.97906581      10.16587907
Mg       5.50094108       2.75465512      25.45174419
Mg       2.62461889       6.99234730      10.30933307
Mg       2.98774339       6.79289113      25.55528712
Mg       2.53372849       1.50975628       5.28047931
Mg       2.82091779       1.29362188      20.72597589
Mg       0.12568025       5.52229320       5.43720242
Mg       0.44878603       5.33840447      20.80347635
Mg       7.52794044       1.71769579       5.37235918
Mg       5.08391227       5.72395139       5.39466631
Mg       5.38190864       5.60702415      20.73095848
Mg       0.24678524       2.75031920      13.06397762
Mg       0.56323482       2.60053198      28.40473481
Mg      -2.16001980       6.78607921      13.19991177
Mg      -1.90602705       6.65028210      28.54447214
Mg       5.29419728       2.90597196      12.97957795
Mg       5.50537775       2.86604660      28.39298826
Mg       2.62163898       6.95058257      13.16041468
Mg       3.11403874       6.94505546      28.54105675
Ni       2.75480830       1.46346513      13.42434821
Ni       3.10467953       1.28588705      28.83702191
Ni       0.32260308       5.47884650      13.46281899
Ni       0.54783681       5.40632426      28.92744588
Ni       7.71133120       1.55689740      13.37025344
Ni       7.92209706       1.42147401      28.79571148
Ni       5.24431029       5.67589388      13.53973563
Ni       5.50952304       5.61661903      28.90418448
Ni       0.12426587       2.80959132       5.90032122
Ni       0.41189728       2.63300442      21.24676784
Ni      -2.32917662       6.80029912       5.87204292
Ni      -2.15873669       6.70967179      21.30148642
Ni       5.02196664       2.93278547       5.73888502
Ni       5.45626967       2.85675704      21.16140478
Ni       2.60677156       7.08182870       5.91784077
Mg       2.86615448       6.94670369      21.29709400
Ni       2.74949368       1.47736280       9.73256909
Ni       3.03255861       1.30242277      25.04457293
Ni       0.25205977       5.41623386       9.73192439
Ni       0.52834061       5.35169968      25.09472794
Ni       7.70175346       1.64427304       9.59456477
Ni       7.96361045       1.52420050      25.01390863
Ni       5.18355371       5.82757924       9.69606483
Ni       5.56213785       5.66448671      25.06249379
Ni       0.14206995       2.87598418       1.97157238
Ni       0.34792973       2.62833793      17.31580145
Ni      -2.48267181       6.85659493       2.09045638
Ni      -2.16405646       6.72544920      17.46670770
Ni       5.01024831       3.13281456       1.91454861
Ni       5.26274955       2.91762294      17.29413611
Ni       2.52958446       7.07058568       2.01421853
Ni       2.73585071       6.90544639      17.40525888
Ni       2.71641248       2.80055480      11.68471655
Ni       2.96912120       2.63119487      26.96163056
Ni       0.29209742       6.89103013      11.75473596
Ni       0.51522533       6.77032835      27.06244276
Ni       7.62266164       3.10650379      11.56551368
Ni       8.05789748       2.92487732      26.89122693
Ni       5.30116798       7.17860843      11.68364106
Ni       5.50264100       6.95444471      26.98831702
Ni       3.97382598       0.74916405      11.48933913
Ni       4.26798571       0.62949521      26.88158837
Ni       1.43402788       5.01201810      11.63165598
Ni       1.73301129       4.82212984      26.95681886
Ni       8.88614587       1.00737026      11.47913233
Ni       9.28123038       0.84491511      26.92567858
Ni       6.35521380       5.11056806      11.54447042
Ni       6.77770689       4.96215896      27.01910750
Ni       1.23243553       3.43491463       3.86603754
Ni       1.68502389       3.32732567      19.30136104
Ni      -1.16654444       7.53589459       3.98817987
Ni      -0.85945715       7.39096305      19.39374701
Ni       6.35886715       3.67059959       3.82122138
Ni       6.60924218       3.57099977      19.16883054
Ni       3.73396429       7.90073309       3.94649353
Ni       4.11633984       7.70136616      19.31827071
Ni       1.47882092       0.74552235      11.49267125
Ni       1.80457033       0.58484902      26.81320295
Ni      -0.93781635       4.59989571      11.58911036
Ni      -0.60957936       4.57059236      26.95220828
Ni       6.40442477       0.96314769      11.42555025
Ni       6.73741585       0.76884330      26.82307366
Ni       3.91923621       5.01660777      11.59428890
Ni       4.29039443       4.87735550      26.94931269
Ni       0.07844150       1.34416373       3.89399984
Ni       0.39116367       1.18618498      19.37535791
Ni      -2.49411048       5.45976946       4.00696765
Ni      -2.13322638       5.37784603      19.40774099
Ni       5.07495841       1.64662790       3.94564307
Ni       5.42563563       1.49675796      19.22977251
Ni       2.39037905       5.65973870       3.89572283
Ni       2.91545430       5.54286776      19.31925518
Ni      -1.12820288       3.40450029       3.88903325
Ni      -0.80575342       3.24840314      19.25880445
Ni      -3.34488639       7.28108923      19.45173458
Ni       3.82766994       3.65828348       3.87407991
Ni       4.16975648       3.56889667      19.24301376
Ni       1.27445919       7.84435105       4.01026737
Ni       1.57201953       7.62856396      19.35298850
Ni       2.51866524       0.03997693       0.00890635
Ni       2.84766702       0.02810060      15.27898979
Ni      -0.03224493       4.13733790       0.08833263
Ni       0.41754683       4.08742081      15.39590016
Ni       7.42107164       0.35855574      -0.07974489
Ni       7.81635049       0.24018210      15.36048033
Ni       4.93605131       4.47763054       0.07544302
Ni       5.28683622       4.26145671      15.50551522
Ni       1.23886134       2.11696971       0.03025183
Ni       1.50588101       2.01637004      15.33310876
Ni      -1.30378566       6.25451622       0.18484931
Ni      -0.86424450       6.17659604      15.60232411
Ni       6.10878330       2.29607368       0.04242941
Ni       6.60167536       2.32561050      15.45747579
Ni       3.61614822       6.61710563       0.07878943
Ni       4.03602020       6.24479653      15.55493280
Ni      -1.11086552       1.99132791       7.82451208
Ni      -0.78293781       1.77487263      23.15075731
Ni      -3.48983279       6.06441984       7.85122813
Ni       3.90787326       2.29163302       7.69808063
Ni       4.17140458       2.06854461      23.08755309
Ni       1.31459488       6.24429832       7.86706957
Ni       1.63739562       6.16780283      23.17847465
Ni       2.57384017       0.08225059       7.65002655
Ni       3.01037473      -0.04096535      22.99558739
Ni       0.24761857       4.07416955       7.81425321
Ni       0.46721291       4.01513669      23.21529012
Ni       7.49522782       0.32063614       7.64172744
Ni       7.93217019       0.02685163      23.00926853
Ni       5.01662048       4.36164717       7.76570304
Ni       5.46733543       4.18037162      23.19025896
Mg      -1.26131684       2.06983198       0.06171632
Ni      -0.95290492       1.90081049      15.44888925
Ni      -3.73034533       6.03648732       0.05475388
Ni      -3.40499792       5.94147801      15.57197782
Ni       3.67000224       2.26771288       0.05745036
Ni       4.14545846       2.09866932      15.34326171
Ni       1.16434779       6.34550658       0.10210728
Mg       1.59969468       6.21114305      15.50498194
Ni       1.45918423       2.13145140       7.69730580
Ni       1.73669410       1.86854019      23.08812372
Ni      -1.09170815       6.20241140       7.75084859
Ni      -0.82168549       6.11894799      23.22000982
Ni       6.31966377       2.30591211       7.74443794
Ni       6.60805522       2.18680011      23.06492372
Ni       3.87225209       6.36714679       7.78346576
Ni       4.24151997       6.24918237      23.16348833
