190
Lattice="9.397629981846709 0.2241182214459428 -0.06792285526922616 -4.7826393622356616 8.376574478221501 0.1708881312908049 0.44862994821833563 -0.8465710108545416 31.010639852696087" Properties=species:S:1:pos:R:3 pbc="T T T"
Mg       0.24766288      -0.42742090      14.02526562
Mg       0.41801501      -0.87476271      29.53689129
Mg      -2.20436563       3.85888752      14.12642205
Mg      -1.97615700       3.48800031      29.67229990
Mg       4.97469452      -0.30775371      14.00410481
Mg       5.11597870      -0.68404000      29.48042366
Mg       2.46738709       3.95730198      14.00182893
Mg       2.72337814       3.51463335      29.49720030
Mg       0.12264126      -0.16252692       6.33959778
Mg       0.28892989      -0.63910526      21.80717806
Mg      -2.33363920       4.03173371       6.36744909
Mg      -2.02595784       3.53344521      21.94271367
Mg       4.92838218      -0.05335990       6.31985189
Mg       2.40621771       4.20170008       6.31443011
Mg       2.64984158       3.56954371      21.85935401
Mg       0.11110686      -0.18476691       9.23909933
Ni       0.39806045      -0.66689567      24.72787258
Mg      -2.26694805       3.97135323       9.29718162
Mg      -2.06705526       3.49267625      24.82037414
Mg       4.74935489      -0.09181791       9.23053869
Mg       5.09957596      -0.59997070      24.66657745
Mg       2.40523544       4.04005960       9.30563576
Mg       2.61268097       3.62742172      24.76620971
Mg       0.04192478      -0.03693853       1.35905584
Mg       0.19773301      -0.54795839      17.00606133
Mg      -2.43488470       4.16240563       1.56805706
Mg      -2.14146696       3.61156858      17.01410936
Mg       4.76894580       0.00799755       1.39508299
Mg       5.04121427      -0.27132580      16.88591603
Mg       2.29634485       4.28162444       1.53983362
Mg       2.57875489       3.79890079      16.95746548
Mg       2.33272384       1.44177843       2.42523902
Mg       2.54799220       0.98487294      17.94339698
Mg       0.02465906       5.49561253       2.51210273
Mg       0.15678443       5.27295335      17.85922802
Ni       7.05962286       1.51845604       2.38301975
Mg       7.29187319       1.07202007      17.93604845
Ni       4.63247410       5.73103014       2.38779944
Mg       4.98744958       5.20111267      17.93799350
Mg       0.15233418       2.61198071      10.22525638
Mg       0.30431793       2.11092248      25.70886889
Ni      -2.20400547       6.77627785      10.27410402
Mg      -1.96923201       6.30373671      25.78346517
Mg       4.83322508       2.61362388      10.18527551
Mg       5.10857807       2.30364759      25.68982734
Mg       2.40953682       6.77526917      10.31334279
Mg       2.65406712       6.50432093      25.72289873
Mg       2.43857973       1.33688890       5.27760752
Mg       2.59170206       0.94067507      20.92039465
Mg       0.01841206       5.51438766       5.45868848
Mg       0.30550572       5.12766724      20.93302439
Mg       7.17437617       1.50421503       5.35524198
Mg       7.25434493       0.98092666      20.82037556
Mg       4.78788200       5.65563165       5.30564223
Mg       4.84852752       5.20269676      21.01141855
Mg       0.18596129       2.49450018      13.12326119
Mg       0.29451050       1.95332471      28.65158928
Mg      -2.27761348       6.59000800      13.23128023
Mg      -2.02343721       6.27406328      28.80724793
Mg       4.83128071       2.60032720      13.00492756
Mg       5.11858763       2.16614335      28.57472396
Mg       2.41038975       6.75173057      13.16650039
Mg       2.80277182       6.30818668      28.74710432
Ni       2.42931211       1.22489364      13.58917683
Ni       2.72191755       0.73132911      29.05705044
Ni       0.16698295       5.26358783      13.63668153
Ni       0.33974465       4.90623736      29.13118027
Ni       7.24427764       1.22786425      13.49902586
Ni       7.44588937       0.77026569      29.05048345
Ni       4.81065257       5.45443753      13.54546110
Ni       5.07938699       4.93959981      29.16105448
Ni       0.01175185       2.73149538       5.79038869
Ni       0.31862258       2.31886868      21.37955724
Ni      -2.31064280       6.89836048       6.02270247
Ni      -2.09230508       6.35364892      21.44120772
Ni       4.72147560       2.75947768       5.76735951
Ni       4.94667041       2.43166356      21.39201305
Ni       2.28251817       6.94939730       5.93435019
Ni       2.60968438       6.52931859      21.48927122
Ni       2.40270281       1.29510148       9.69050631
Ni       2.66713241       0.86828561      25.18532577
Ni       0.03690950       5.41604468       9.71978137
Ni       0.31866609       4.91514380      25.29208877
Ni       7.19924032       1.30919798       9.70969672
Ni       7.48063139       0.94610632      25.09199193
Ni       4.78608297       5.48208888       9.74052119
Ni       5.01400372       5.08648910      25.15415367
Ni      -0.02397159       2.77757602       1.96567677
Ni       0.24855091       2.32564353      17.49422043
Ni      -2.45218786       6.99677535       2.04164894
Ni      -2.14853612       6.56981411      17.63556543
Ni       4.77283181       2.88828474       1.98071703
Ni       4.92314978       2.49262071      17.47264168
Ni       2.28222980       7.09072028       2.01394723
Ni       2.51387281       6.70508978      17.51254900
Ni       2.51109832       2.65049128      11.73910919
Ni       2.67699209       2.13868932      27.15818661
Ni       0.06124519       6.77919765      11.75797189
Ni       0.45273414       6.33500345      27.24326742
Ni       7.11513393       2.60385878      11.70168359
Mg       7.40851619       2.24113427      27.15386161
Ni       4.85365612       6.79249690      11.65913506
Ni       5.07278958       6.41118568      27.21081130
Ni       3.62337076       0.50531475      11.58860640
Ni       3.83684657       0.11028977      27.18069376
Ni       1.26921015       4.69608878      11.70822780
Ni       1.55281268       4.25487696      27.26501354
Ni       8.39845301       0.66348414      11.57100262
Ni       8.53389356       0.21712243      27.10506705
Ni       6.00142832       4.69510581      11.61170708
Ni       6.22013690       4.31592391      27.14943274
Ni       1.20878240       3.52329848       3.84139101
Ni       1.43413093       3.02869195      19.41709274
Ni      -1.20033713       7.72281999       3.94686670
Ni      -0.86797756       7.14081505      19.57017133
Ni       5.93306424       3.54891644       3.79793502
Ni       6.08756818       3.17214127      19.40142971
Ni       3.56262167       7.79178055       3.86328581
Ni       3.74168958       7.30569438      19.39683495
Ni       1.34402094       0.38188210      11.71306471
Ni       1.60446506      -0.02913011      27.08998445
Ni      -1.10180374       4.61817205      11.77989866
Ni       5.98008429       0.43802240      11.65087854
Ni       6.24943846       0.02274162      27.19817637
Ni       3.69181565       4.72171042      11.64294144
Ni       3.83203066       4.23520894      27.26866178
Ni       0.10332411       1.37750897       3.89625055
Ni       0.32325026       0.92827427      19.47457901
Ni      -2.32099298       5.41263640       3.96852343
Ni      -2.14797680       5.02511034      19.48673701
Ni       4.77067033       1.49686015       3.92790297
Ni       4.95531484       0.98372047      19.29630263
Ni       2.42459974       5.62557629       3.96926977
Ni       2.64210165       5.13859718      19.38539093
Ni      -1.14409492       3.37783441       4.06225823
Ni      -0.95276161       3.07721451      19.44303760
Ni      -3.52822745       7.56747325       3.96923823
Ni      -3.29876978       7.17645608      19.46381791
Ni       3.47467092       3.54791558       3.78408821
Ni       3.75532976       3.12952267      19.49163953
Ni       1.24800295       7.70369649       4.07637340
Ni       1.41685856       7.29673886      19.48587969
Ni       2.34965584       0.04012789       0.01127122
Ni       2.59174284      -0.42566050      15.50832600
Ni      -0.01549872       4.19185445       0.07765809
Ni       0.27575175       3.86719780      15.52755266
Ni       7.06512329       0.13453318      -0.01071264
Ni       7.26761091      -0.26801175      15.44627864
Ni       4.69445283       4.36582257       0.05185362
Mg       4.90445380       3.97104348      15.48930074
Ni       1.10358560       2.12479121      -0.01387530
Ni       1.38975809       1.56813711      15.57054532
Ni      -1.29081518       6.41144161       0.03099275
Ni      -0.97036553       5.92383224      15.63802160
Ni       5.79590399       2.29184123      -0.01597892
Ni       6.10508898       1.79811961      15.44733871
Ni       3.40821035       6.43229859       0.08262958
Ni       3.68790056       6.06557925      15.62830668
Ni      -1.14962557       1.87265194       7.78561149
Ni      -0.83109536       1.43262056      23.28354813
Ni      -3.48661241       5.95700588       7.95856400
Ni      -3.28150343       5.60063587      23.36935802
Ni       3.68240355       1.94311168       7.73850891
Ni       3.82501679       1.51757032      23.29733977
Ni       1.19668536       6.18968560       7.82419882
Ni       1.39671725       5.67129391      23.31516909
Ni       2.51018167      -0.18320052       7.70814665
Ni       2.68407409      -0.55838133      23.32733867
Ni       0.09023066       3.96772803       7.87475860
Ni       0.22945566       3.47515321      23.36978729
Ni       7.16154753      -0.06714792       7.71432189
Mg       7.42264102      -0.43589133      23.24963136
Ni       4.73122188       4.14301765       7.77696250
Ni       4.97577341       3.82193401      23.31331690
Ni      -1.19197017       2.07595293       0.02207475
Ni      -0.93664900       1.59092301      15.57402467
Ni      -3.57804130       6.26691416       0.17424982
Ni      -3.39473670       5.92436113      15.61091886
Ni       3.44149538       2.17293462      -0.10660089
Mg       3.64818343       1.85356976      15.36438448
Ni       1.09874235       6.44790425       0.08861340
Ni       1.32140840       5.93797611      15.63332516
Ni       1.21816614       2.00680485       7.86369115
Ni       1.50467375       1.45341610      23.38605458
Ni      -1.13570308       6.12590716       7.91534625
Ni      -0.89130093       5.71536280      23.41184244
Ni       6.04725085       1.96251829       7.70460939
Ni       6.10535090       1.59557901      23.21177541
Ni       3.55990991       6.21728584       7.80533580
Ni       3.74504575       5.77731419      23.31889300
