189
Lattice="10.080204119090341 -0.17374242981353422 0.49939330840118484 -4.878797035399329 8.409824668714041 -0.04839407857561148 -0.3541824335461619 -0.015581626430706527 31.172989950405604" Properties=species:S:1:pos:R:3 pbc="T T T"
Mg      -0.03604521      -0.09264236      14.15530574
Mg      -0.36511492      -0.02730645      29.65525391
Mg      -2.58977603       4.23961843      14.12304018
Mg      -2.74657623       4.20351609      29.67186211
Mg       4.87313926      -0.06123243      14.47540101
Mg       4.74838288      -0.11324267      29.95699141
Mg       2.43367864       4.05245621      14.39270238
Mg       2.25304288       4.04071348      29.91913820
Mg      -0.13906765      -0.04376729       6.33754492
Mg      -0.23578284      -0.05456884      21.95706876
Mg      -2.54150463       4.22823955       6.35685262
Mg      -2.76461179       4.14652586      21.94241454
Mg       4.97967261      -0.06736192       6.58595830
Mg       4.78827845      -0.12995741      22.19269474
Mg       2.53386117       4.03885038       6.54478484
Mg       2.28554453       4.14294795      22.11764184
Mg      -0.05846615      -0.03710870       9.21203070
Mg      -0.25383690      -0.07020663      24.83966326
Mg      -2.54957666       4.20639857       9.22504548
Mg      -2.74102856       4.20595542      24.91277533
Mg       4.90343502      -0.07568248       9.47219889
Mg       4.84063983      -0.10451176      25.12613944
Mg       2.42729643       4.14265274       9.45950902
Mg       2.36526746       4.16253831      25.07789547
Mg       0.02660701       0.00416497       1.49352117
Mg      -0.25643178      -0.04078506      17.06196508
Mg      -2.42474544       4.24114865       1.53651556
Mg      -2.60911307       4.21111445      17.05721312
Ni       4.98164345      -0.05075513       1.77169759
Mg       4.90774039      -0.17641814      17.40412375
Mg       2.55252384       4.13222954       1.62004335
Mg       2.41389310       4.13149527      17.17212432
Mg       2.50871794       1.37623444       2.65812271
Mg       2.39005810       1.34591800      18.18065391
Mg       0.07916479       5.50223106       2.61176322
Mg      -0.09286054       5.55570873      18.14113964
Mg       7.59499828       1.32069149       2.80312352
Ni       7.35407579       1.27639542      18.36148549
Mg       5.11142199       5.41387573       2.80050585
Mg       5.02621251       5.38312230      18.44356520
Mg      -0.08862547       2.77632061      10.31331403
Mg      -0.18956979       2.81203202      25.87564463
Mg      -2.44626403       6.89518862      10.23353445
Mg      -2.73931355       7.03003971      25.87675799
Mg       5.05356231       2.74268390      10.47543386
Mg       4.79423223       2.65218228      26.04337474
Mg       2.52369981       6.82659145      10.46428444
Mg       2.41923447       6.96050676      26.12906929
Mg       2.43499619       1.36340756       5.58441908
Mg       2.31215820       1.29909627      21.13277579
Mg      -0.02068540       5.56323283       5.49238914
Mg      -0.03944169       5.56471120      21.11317669
Mg       7.50011192       1.23725518       5.74034614
Mg       7.30701867       1.31358851      21.31653631
Mg       5.17065494       5.41997477       5.75483453
Mg       4.93191055       5.49611439      21.33567703
Mg      -0.06402227       2.76965520      13.15732585
Mg      -0.37711949       2.83499719      28.79867408
Mg      -2.58734005       7.01333634      13.13118062
Mg      -2.66985215       6.96895461      28.82683026
Mg       4.93251824       2.71452035      13.44124464
Ni       4.83447583       2.71266175      29.13513318
Mg       2.38965315       6.88329787      13.40887378
Ni       2.30196247       7.01207063      29.07134515
Ni       2.27918589       1.37639475      13.77398003
Ni       2.29162459       1.41927104      29.40833865
Ni      -0.00584666       5.51992506      13.76482630
Ni      -0.32625143       5.52414500      29.28955929
Ni       7.17018824       1.27709117      29.57132420
Ni       4.99568172       5.49327076      13.97692595
Ni       4.88425793       5.52002297      29.58649891
Ni      -0.02055079       2.75005354       5.93145735
Ni      -0.13435247       2.76767203      21.41013125
Ni      -2.51339920       7.07944670       5.86547330
Ni      -2.64568944       7.01449030      21.55610967
Ni       5.08068644       2.64046231       6.17301581
Ni       4.87164587       2.61808354      21.68799697
Ni       2.65546379       6.85373367       6.19924495
Ni       2.41300360       6.86940973      21.74783550
Ni       2.35729931       1.37090979       9.92475277
Ni       2.30578400       1.35721053      25.49342302
Ni      -0.12596862       5.50180886       9.98798182
Ni      -0.21039618       5.66489982      25.42232402
Mg       7.51532030       1.15245242      10.10206492
Ni       7.23538492       1.23465206      25.72863692
Ni       4.92386757       5.35418933      10.11020978
Ni       4.89314555       5.44320031      25.75383128
Ni       0.02138822       2.77884584       1.94079984
Ni      -0.23642402       2.68345869      17.67797343
Ni      -2.36381286       6.99071187       1.99789772
Ni      -2.60791903       6.88381123      17.59589817
Ni       5.06833335       2.68416181       2.14249565
Ni       4.76557057       2.61516655      17.82031968
Ni       2.70018325       6.85380927       2.27596433
Ni       2.46527495       6.82805580      17.89395564
Ni       2.43799814       2.76798169      11.93471140
Ni       2.24909083       2.67887587      27.47351990
Ni      -0.02342695       6.90448336      11.90945405
Ni      -0.19107060       6.91969810      27.38607807
Ni       7.42190184       2.55066708      12.07305827
Ni       7.44201129       2.65334281      27.69276185
Ni       4.97165394       6.81823741      12.18700095
Ni       4.97281551       6.87531108      27.65988337
Ni       3.58406656       0.60077844      11.92101310
Ni       3.53627932       0.61569601      27.52778181
Ni       1.18771696       4.86972684      11.85480452
Ni       1.08125834       4.79336990      27.47527885
Ni       8.73703802       0.64746789      12.17428372
Ni       8.64544412       0.55876262      27.79031967
Ni       6.27842796       4.78577602      12.05823687
Ni       6.01422633       4.70392131      27.70217734
Ni       1.25296720       3.46184074       4.05078980
Ni       1.03983541       3.41974580      19.61117044
Ni      -1.20074258       7.58701776       3.95765809
Ni      -1.38769524       7.72419965      19.55465255
Ni       6.24256927       3.32162526       4.29708910
Ni       6.10291877       3.42223298      19.87905250
Ni       3.89117906       7.68739867       4.31155241
Ni       3.75589052       7.48949491      19.79793598
Ni       1.13505385       0.59641264      11.86744007
Ni       1.01650315       0.63446865      27.36168281
Ni      -1.30153169       4.93866859      11.71552732
Ni      -1.43242172       4.89224454      27.32392845
Ni       6.13286614       0.55330852      12.01880603
Ni       6.04501721       0.54794301      27.53812328
Ni       3.71701271       4.74823994      11.92296572
Ni       3.63066457       4.85328465      27.56492532
Ni      -0.00474002       1.35748216       3.91516882
Mg      -0.19475477       1.34369691      19.61616194
Ni      -2.43971125       5.54717724       3.91260190
Ni      -2.59675294       5.55320179      19.47562144
Ni       5.01936519       1.27711966       4.17769051
Ni       4.83718433       1.34879705      19.72766075
Ni       2.37046020       5.51543600      19.78773663
Ni      -1.14181356       3.51916209       3.83574715
Ni      -1.39105017       3.48249623      19.56745237
Ni      -3.67026107       7.70228864       3.83388073
Ni      -3.89210626       7.77105954      19.48015274
Ni       3.76498055       3.35252660       4.17230753
Ni       3.65589580       3.30809903      19.77432332
Ni       1.44773938       7.59826977       4.12966845
Ni       1.17918052       7.67486481      19.76199380
Ni       2.48173480      -0.08973316       0.12057640
Ni       2.37658738      -0.04042123      15.72818742
Ni       0.15495988       4.15969112       0.18403526
Ni      -0.18050350       4.08590593      15.76594526
Ni       7.58194918      -0.16639151       0.28464424
Ni       7.47950182      -0.14606237      15.94706055
Ni       5.16172865       4.08412540       0.28810656
Ni       4.93037296       4.00553176      15.92255493
Ni       1.33261490       2.08697583       0.06938062
Ni       1.15486764       2.05611819      15.70627718
Ni      -1.13820809       6.22338754       0.11287281
Ni      -1.38749266       6.33366137      15.60142766
Ni       6.34835113       1.95942024       0.28646593
Ni       6.16381161       2.02339968      15.97265273
Ni       3.92330727       6.14462677       0.31784799
Ni       3.66444823       6.14661631      15.86694693
Ni      -1.33211970       2.05719200       7.80765607
Ni      -1.58693799       2.09669611      23.34883159
Ni      -3.71382295       6.28707290       7.75608925
Ni      -3.89843275       6.30681849      23.26990358
Ni       3.72701125       2.07688868       8.05253263
Ni       3.60167450       2.14895818      23.54798900
Ni       1.32781096       6.21959231       8.02123778
Ni       1.04982506       6.23853743      23.56284413
Ni       2.28765582      -0.10088439       7.78767980
Ni       2.28723962       0.08355204      23.43990341
Ni      -0.04506975       4.18687685       7.92988779
Ni      -0.15845295       4.18098826      23.56170668
Ni       7.55608371      -0.11023086       8.16669589
Ni       7.28781600      -0.13898867      23.77148067
Ni       5.12862099       3.97480006       8.14601953
Ni       4.83885106       4.09060758      23.74119957
Ni      -1.22948502       2.12367241       0.01161813
Ni      -1.44034951       2.15273394      15.68282346
Mg      -3.64654884       6.27769352      -0.07587460
Ni      -3.85403142       6.28167140      15.53104966
Ni       3.81781110       2.03105677       0.15857338
Ni       3.53365122       2.04439205      15.72401834
Ni       1.40603199       6.24899158       0.21092789
Ni       1.28726994       6.21268965      15.70232578
Ni       1.03318504       2.09021994      23.54651310
Mg      -1.17811440       6.26535188       7.91517547
Ni      -1.35125769       6.27452581      23.41749932
Ni       6.24917561       1.93562073       8.27684362
Ni       6.07338499       1.95955391      23.75610281
Ni       3.83040186       6.10491064       8.08595353
Ni       3.64076947       6.10016898      23.79542133
