189
Lattice="10.088081959259735 -0.05385260984600051 -0.14820495328817082 -4.995069886367181 8.378876539709092 0.020929371320158832 0.5703798713320347 -0.5587400537190551 33.36991605956086" Properties=species:S:1:pos:R:3 pbc="T T T"
Mg       0.29875605      -0.32067045      15.19681479
Mg       0.57064228      -0.57332421      31.87023875
Mg      -2.23043614       3.93199325      15.14733301
Mg      -2.00935839       3.65150540      31.79099227
Mg       5.29676403      -0.30720935      14.94596456
Mg       2.82028085       3.81442609      15.02382672
Mg       3.07223526       3.63757227      31.74029225
Mg      -0.00621348      -0.02164797       6.78610860
Mg       0.42477476      -0.34091060      23.43601064
Ni      -2.39113317       4.11609056       6.86000763
Mg      -2.11371669       3.71200863      23.44137507
Ni       5.17282592      -0.20814540       6.73060676
Mg       5.39336371      -0.42862213      23.38132470
Mg       2.71574194       4.02294905       6.68745260
Mg       2.97767194       3.78066618      23.36729454
Mg       0.13675266      -0.12972845       9.94888329
Mg       0.35637294      -0.48126408      26.59041021
Mg      -2.37033400       3.94841567       9.92567122
Mg      -2.00568022       3.76436365      26.63985918
Mg       5.21465575      -0.24577305       9.80486407
Mg       5.53322805      -0.53057145      26.56362009
Mg       2.73204905       3.96876779       9.91425462
Mg       2.93536947       3.76591353      26.51463907
Mg      -0.03190208      -0.09400340       1.57699703
Mg       0.32554030      -0.27059199      18.25973230
Mg      -2.39416360       4.14954639       1.59089546
Mg      -2.10135459       3.92972392      18.20652520
Mg       5.13412374      -0.01313163       1.46614893
Mg       5.42091967      -0.26849400      18.23198069
Ni       2.63291337       4.12057635       1.55107016
Mg       2.85112460       3.83727166      18.17601638
Mg       2.57799679       1.32149301       2.56436258
Mg       2.93844523       1.10140062      19.11735134
Mg       0.05396978       5.46422213       2.57083257
Mg       0.30980079       5.26610043      19.26054884
Mg       7.66875029       1.26078727       2.45908918
Mg       7.80057371       1.05508846      19.14731264
Mg       5.15037121       5.54304602       2.53062943
Mg       5.43223515       5.20361652      19.18228706
Mg       0.31143864       2.50613506      10.93547860
Mg       0.45563266       2.32351388      27.64157092
Mg      -1.92625166       6.42015211      27.60755453
Mg       5.27580238       2.54033737      10.83289761
Ni       5.46588318       2.21313058      27.49530414
Mg       2.70283091       6.70621227      10.75584029
Mg       3.12486417       6.45870735      27.50857254
Mg       2.96786112       1.05154426      22.38515634
Mg       0.12179342       5.47815788       5.66245709
Mg       0.38576960       5.19984537      22.41203012
Mg       7.74279315       1.23219260       5.65037112
Mg       7.93287434       1.07591900      22.29000614
Mg       5.14648464       5.52514886       5.63146655
Mg       5.47155357       5.10674742      22.31373755
Mg       0.22344282       2.60140294      14.10596088
Mg       0.51668477       2.33546468      30.68446878
Mg      -2.26686001       6.71713708      14.04265346
Mg      -1.85869077       6.38896169      30.73802430
Mg       5.29858371       2.49431953      14.00822686
Mg       5.58358109       2.19563794      30.59143423
Mg       2.80866966       6.69989035      14.05385258
Mg       3.12931290       6.39092018      30.70973496
Ni       2.77564965       1.05151490      14.54101507
Ni       3.07701639       0.83401634      31.19245024
Ni       0.37282667       5.38825074      14.57585048
Ni       0.56430793       5.03061360      31.25992261
Ni       7.77645449       1.15141166      14.48979571
Ni       8.11589694       0.83622288      31.24120192
Ni       5.39082681       5.38810014      14.48302746
Ni       5.67627011       5.00108100      31.17442631
Ni       0.14936369       2.71706305       6.18215367
Mg       0.32621972       2.40811635      22.93082762
Ni      -2.36142376       6.98225277       6.23213419
Ni      -2.10130347       6.61533888      22.96684479
Ni       5.14545481       2.68631804       6.15589904
Ni       5.38742946       2.31765891      22.82688770
Ni       2.63060418       6.80113370       6.14546294
Ni       2.99350953       6.55397555      22.92600295
Ni       2.70019198       1.16327663      10.31497802
Ni       2.98620734       0.94528511      27.01413016
Ni       0.22383451       5.43931768      10.38231811
Ni       0.48060915       5.20878304      27.04814031
Ni       7.77940200       1.20592874      10.33103667
Ni       8.10356213       0.90965365      27.00924793
Ni       5.26639305       5.33668042      10.40819965
Ni       5.57104277       5.12232350      27.02547879
Ni       0.07511876       2.70982533       2.01931362
Ni       0.30341106       2.47431000      18.72124353
Ni      -2.41455491       6.95136440       2.04680913
Ni      -2.18240716       6.64366128      18.66949536
Ni       5.06267760       2.72384157       2.02632194
Ni       5.40934001       2.45108908      18.67715752
Ni       2.58302324       6.82613705       1.90860220
Ni       2.79900879       6.67444542      18.64449574
Ni       2.65755954       2.61988911      12.41559829
Ni       2.94807420       2.27018201      29.18929036
Mg       0.21688836       6.78364439      12.56115383
Ni       0.49159353       6.50286175      29.15393582
Ni       7.71681321       2.60857708      12.35013751
Ni       7.99587511       2.27444756      29.09058551
Mg       5.34058512       6.66192722      12.25958351
Mg       5.51428863       6.45331356      29.04321337
Ni       4.01082782       0.52014078      12.45215758
Ni       4.19306243       0.16912713      29.23614053
Ni       1.50736545       4.64084235      12.42674083
Ni       1.85753875       4.32116462      29.12445659
Ni       9.05263489       0.55737887      12.31062613
Ni       9.29216662       0.16259268      29.07587621
Ni       6.62557850       4.57908059      12.39882980
Ni       6.87907955       4.32917077      29.13234496
Ni       1.42195154       3.35748725       4.06530577
Ni       1.57788664       3.16974149      20.81090930
Ni      -1.13908657       7.60001260       4.16314093
Ni      -0.83488736       7.31506915      20.69962880
Ni       6.34644784       3.35356272       4.13995268
Ni       6.72435754       3.14545964      20.68433064
Ni       3.79927229       7.56954915       3.98127027
Ni       4.15220383       7.23201973      20.76742828
Ni       1.47132053       0.51214835      12.51297028
Ni       1.71864931       0.22442911      29.15631770
Ni      -1.01236389       4.70001751      12.49695212
Ni      -0.72988930       4.30772381      29.22244675
Ni       6.62640972       0.47781870      12.39636644
Mg       6.78280455       0.25591500      29.05734362
Ni       3.97935448       4.62187766      12.40248045
Ni       4.30252314       4.41037667      29.16091776
Ni       0.15195100       1.24899056       4.13255023
Ni       0.41427846       1.00065268      20.86216553
Ni      -2.41570535       5.52051701       4.20483751
Ni      -2.12813021       5.29479641      20.84391458
Ni       5.08926395       1.35278642       4.05024942
Ni       5.33605306       1.02718931      20.76867768
Ni       2.61690931       5.41943896       4.12267238
Ni       2.91407610       5.17002428      20.75646802
Ni      -1.09953607       3.42749232       4.19575326
Ni      -1.01228534       3.10719766      20.82971056
Ni      -3.63156233       7.65409704       4.19577078
Ni      -3.29751806       7.40311490      20.90804774
Ni       3.84101042       3.34878798       4.04478320
Ni       4.12480327       3.11119425      20.78506919
Ni       1.42302176       7.56647755       4.10230019
Ni       1.60981355       7.32046903      20.66307566
Mg       2.48113861      -0.00673939      -0.04680631
Ni       2.85291101      -0.29751170      16.75252544
Ni       0.01784496       4.14244419      -0.13423654
Ni       0.25200759       3.80797605      16.64883838
Ni       7.57590572      -0.09150849      -0.10838688
Ni       7.85117700      -0.37732242      16.53405461
Ni       5.14846371       4.07651571       0.01348408
Ni       5.38269263       3.88019481      16.56512712
Ni       1.19135747       2.10351762      -0.02292280
Ni       1.56168483       1.71847938      16.60908524
Ni      -1.22802391       6.36393919       0.02120038
Ni      -0.96921907       6.00083523      16.65881851
Ni       6.36680219       2.17075336      -0.12817101
Ni       6.57819428       1.74986309      16.65492277
Ni       3.93362939       6.15441281      -0.07382968
Ni       4.07517410       5.96312654      16.57264637
Ni      -1.09943898       1.87159118       8.35032917
Ni      -0.76632099       1.67173289      25.03102217
Ni      -3.50458730       6.13432645       8.35153839
Ni      -3.29362739       5.85523076      25.05344063
Ni       3.95194081       1.86886384       8.39194855
Ni       4.22132496       1.62381085      24.96275798
Ni       1.49542143       6.12013440       8.26817814
Ni       1.73186888       5.91081355      24.88603131
Ni       2.70860661      -0.15064616       8.32841726
Ni       2.94861709      -0.42359640      25.06626667
Ni       0.15981897       4.01405994       8.28398923
Ni       0.43566845       3.70114082      25.07344567
Ni       7.78165189      -0.21832703       8.32547762
Ni       7.98043564      -0.41202264      24.94905204
Ni       5.21192363       3.93389888       8.32328239
Ni       5.51651555       3.69433731      24.87147935
Ni      -1.32137095       1.97872774      -0.04101658
Ni      -1.00476337       1.81736056      16.65545583
Ni      -3.74791449       6.23523432      -0.09419111
Ni      -3.43545935       6.08200246      16.73765639
Ni       3.81053567       2.06492744      -0.10132906
Ni       4.21448676       1.78817076      16.68910894
Ni       1.29604929       6.28455881      -0.11780732
Ni       1.57165292       6.00137771      16.55828742
Ni       1.33489005       2.05821265       8.25992042
Ni       1.67542535       1.66699739      25.04380526
Ni      -1.00679206       6.04296419       8.28503490
Ni      -0.71174737       5.80152993      24.97842084
Ni       6.36999232       1.85570195       8.23285042
Ni       6.69327862       1.61595579      24.93734740
Ni       3.97073875       6.19779203       8.24936496
Ni       4.27218115       5.85294675      24.85122586
