192
Lattice="9.654398069338916 0.21581885680910906 0.34694425881983854 -4.518500769091169 8.55021797479821 -0.11244015387672855 1.1796804489896429 0.44434360700013914 30.815117711691176" Properties=species:S:1:pos:R:3 pbc="T T T"
Mg       0.48823607       0.26595409      13.83496571
Mg       1.03228165       0.44382086      29.33759497
Mg      -1.72987622       4.42857530      13.94475921
Mg      -1.09640109       4.78235114      29.39111430
Mg       5.44332329       0.28021273      14.17854632
Mg       5.97530495       0.54237539      29.51855864
Mg       3.11004840       4.48270822      13.96167541
Mg       3.69366552       4.90408724      29.49385443
Ni       0.11263531       0.09114490       6.26923200
Mg       0.76934422       0.29405748      21.63293868
Ni      -2.06758793       4.29896426       6.25837140
Mg      -1.43094973       4.55824619      21.57860247
Mg       5.12327616       0.22359396       6.43440825
Mg       5.63661386       0.42969941      21.94371046
Mg       2.75884407       4.42739263       6.36548858
Mg       3.29489416       4.65770529      21.73522847
Mg       0.37855265       0.07535192       9.12422209
Mg       0.93671752       0.26113787      24.54806083
Mg      -1.86821272       4.35689280       9.07262676
Mg      -1.28854508       4.62457031      24.58831449
Mg       5.17809782       0.14666675       9.32280514
Ni       5.73950876       0.56984894      24.72826975
Mg       2.87489459       4.47337391       9.28535248
Mg       3.44418469       4.74973625      24.68727843
Mg       0.13661294       0.05536789       1.43438925
Mg       0.71656693       0.26393587      16.83236401
Mg      -2.15242970       4.34949843       1.44482869
Mg      -1.71092044       4.53738469      16.80898333
Mg       4.87307063       0.21444791       1.59407231
Mg       5.34910031       0.35972996      17.07206589
Mg       2.54118155       4.38869569       1.64279321
Mg       3.24149701       4.61686477      17.00119898
Mg       2.56702339       1.56239272       2.53757378
Mg       3.14373135       1.79593981      17.88528400
Mg       0.26074322       5.78253559       2.48226817
Mg       0.90450509       5.97690732      17.90772015
Mg       7.39485029       1.64039954       2.69757486
Ni       7.99869500       1.86644399      18.03374443
Mg       5.14146346       5.93025749       2.65325521
Mg       5.68842519       6.13657819      18.00671969
Mg       0.42683306       2.99106963      10.09046948
Mg       1.12491792       3.22230647      25.50631117
Ni      -1.78427620       7.21832425      10.12769788
Mg      -1.26372075       7.47560704      25.45047679
Ni       5.26284141       3.05010264      10.26399294
Mg       5.84577019       3.34786677      25.70101292
Mg       3.06677212       7.40706721      10.22982662
Mg       3.55669234       7.77414219      25.67526976
Mg       2.63452687       1.49412949       5.35861020
Mg       3.22709089       1.79309799      20.83364417
Mg       0.40236204       5.82106844       5.32111728
Mg       0.92186457       5.95207327      20.65457710
Mg       7.53123796       1.70064663       5.45962307
Mg       8.10499464       1.87718975      21.01254410
Mg       5.24921580       5.95276347       5.53938497
Mg       5.79857112       6.20156575      20.90363510
Mg       0.64530343       3.04239104      12.98420488
Mg       1.18163601       3.25561259      28.36982936
Mg      -1.70724264       7.28067883      12.93020648
Mg      -1.06863367       7.56808550      28.27622777
Mg       5.39504994       3.21717797      13.23598901
Mg       6.00626952       3.47083705      28.59952403
Mg       3.37817564       7.43698378      13.21748546
Mg       3.76549736       7.59275504      28.52762710
Ni       2.97459708       1.69900699      13.64007657
Ni       3.51272283       2.01879083      28.95046367
Ni       0.73885056       5.93640271      13.48402728
Ni       1.27801612       6.23314296      28.90543204
Ni       7.82252691       1.68411932      13.78517803
Ni       8.45586940       2.00610791      29.09286950
Ni       5.50304709       6.18315755      13.68677646
Ni       6.08996454       6.36746508      29.10931896
Ni       0.38179450       2.95337821       5.73660760
Ni       0.93268997       3.25095683      21.24868250
Ni      -1.95132203       7.10116605       5.66622232
Ni      -1.33864551       7.53976998      21.17864925
Ni       5.10717609       3.03498964       6.03577699
Ni       5.73729015       3.30796118      21.33826487
Ni       2.95749990       7.36967264       5.98723039
Ni       3.48305247       7.58847637      21.26635167
Ni       2.81291411       1.64362703       9.77171588
Ni       3.44625842       1.86644769      25.23536945
Ni       0.55673956       5.83468351       9.63439419
Ni       1.09423661       6.02851227      25.02866118
Ni       7.62617536       1.77484266       9.92220189
Ni       8.25834927       1.91280528      25.35655911
Ni       5.36885793       6.04270187       9.82674288
Ni       6.03857975       6.31300976      25.23905078
Ni       0.09778183       2.90685976       1.93038812
Ni       0.72851676       3.09342808      17.29989805
Mg      -1.99769702       7.19584026       1.96171560
Mg      -1.50276892       7.33170823      17.25826632
Ni       4.94796615       3.01076851       2.11002819
Mg       5.58647634       3.18807227      17.55552213
Ni       2.75632583       7.22252899       2.11031853
Ni       3.23393038       7.56368018      17.42638797
Ni       2.95347749       3.02808224      11.76649586
Ni       3.54121473       3.29073277      27.10820132
Ni       0.67319164       7.38507491      11.51134038
Ni       1.29018362       7.65686976      26.99184132
Ni       7.72356478       3.26236486      11.89480542
Ni       8.35768572       3.51924973      27.17292925
Ni       5.40510658       7.45806612      11.79480964
Ni       6.17841865       7.69333887      27.19004765
Ni       4.07548459       0.94897154      11.67800025
Ni       4.61424121       1.08493102      27.13081193
Ni       1.86417933       5.23592846      11.58376050
Mg       2.44990678       5.51198467      27.03813927
Ni       8.99237084       1.06340616      11.86054130
Ni       9.55386599       1.32492424      27.27991921
Ni       6.72412842       5.29650622      11.80476562
Ni       7.25010017       5.58907694      27.25961326
Ni       1.53558361       3.71172775       3.91681138
Mg       2.02823345       3.85832670      19.37771028
Ni      -0.80928746       8.04884498       3.86010420
Ni      -0.13858818       8.17611472      19.26692282
Ni       6.28531677       3.87491931       4.18221936
Ni       6.85948075       4.07953393      19.47325248
Ni       3.94836271       8.05745674       3.99300339
Ni       4.67490394       8.31708007      19.50864656
Ni       1.72180642       0.81421473      11.65614289
Ni       2.21975518       1.04750113      26.96149235
Ni      -0.58053940       5.18775388      11.53749306
Ni       0.08005313       5.48610718      26.95662312
Ni       6.56500021       1.02846660      11.70118379
Ni       7.11894833       1.22919770      27.11991431
Ni       4.29736959       5.30501237      11.71186723
Ni       4.84132125       5.54450461      27.10510271
Ni       0.16538232       1.51960543       3.78370412
Ni       0.76358626       1.76858564      19.22378592
Ni      -2.03394550       5.73422420       3.74059417
Ni      -1.46242544       5.96618187      19.20932872
Ni       5.07391349       1.58857573       4.01576301
Ni       5.59897657       1.84578210      19.50043498
Ni       2.81015529       5.95402324       4.02193724
Ni       3.33739274       6.17287941      19.36261461
Ni      -0.90783998       3.66533576       3.82894822
Ni      -0.39342064       3.85977539      19.27709794
Ni      -3.22366505       7.86000776       3.71545649
Ni      -2.58707970       8.05960823      19.17924909
Ni       3.96858224       3.74503048       4.07742424
Ni       4.56061525       3.98485673      19.36591483
Mg       1.72441928       8.02972860       3.92174136
Ni       2.27043417       8.15716738      19.30361502
Ni       2.45282153       0.16078626       0.08816083
Ni       2.95313947       0.28738380      15.39605115
Ni       0.13676220       4.27370662       0.00479554
Ni       0.63187306       4.52418643      15.44285599
Ni       7.22723507       0.14003433       0.35985811
Ni       7.82258276       0.30936993      15.61262901
Ni       5.00095035       4.35957286       0.27131614
Ni       5.59324708       4.63787600      15.73993627
Ni       1.24545066       2.16026562       0.02508906
Ni       1.90019413       2.46032019      15.35720380
Ni      -0.96995911       6.42775323       0.03646694
Ni      -0.42851636       6.73068411      15.42208174
Ni       6.05968974       2.27440742       0.35727175
Ni       6.75666189       2.49633232      15.66863357
Ni       3.84785414       6.58950191       0.15862631
Ni       4.42859503       6.72467570      15.62333837
Ni      -0.78099157       2.26343285       7.67553829
Ni      -0.28050633       2.49732023      23.14279752
Ni      -3.07532960       6.58089026       7.64530947
Ni      -2.51840601       6.71696594      22.95688214
Ni       4.09102409       2.35374594       7.85842740
Ni       4.56586798       2.50836655      23.30820944
Ni       1.71953394       6.63416464       7.75607494
Ni       2.28024343       6.92008139      23.16025022
Ni       2.76396150       0.14776839       7.80530796
Ni       3.34075310       0.44020840      23.19148867
Ni       0.34745453       4.45023828       7.81289313
Ni       0.97007840       4.63721485      23.15689915
Ni       7.59848529       0.27204227       8.00025473
Ni       8.10586317       0.44469307      23.33073228
Ni       5.39002145       4.61658421       7.87184676
Ni       6.01395037       4.77374658      23.23050021
Ni      -1.12655949       2.17432728      -0.11953899
Ni      -0.46018228       2.35879644      15.36422448
Ni      -3.45752356       6.44646637       0.00852428
Ni      -2.71049073       6.71142693      15.32754300
Ni       3.70419925       2.17333862       0.20911135
Ni       4.29545481       2.45262527      15.54182624
Ni       1.49503315       6.57111613       0.10582252
Ni       2.02890880       6.68319405      15.56593904
Ni       1.63840377       2.32891330       7.73420175
Ni       2.11812202       2.55240131      23.15288063
Ni      -0.61641436       6.56040440       7.78042187
Ni      -0.10465356       6.82118258      23.10220224
Ni       6.37307774       2.40328751       7.87094244
Ni       7.02878934       2.60889493      23.24385603
Ni       4.21635409       6.63807979       7.87997097
Ni       4.75103645       6.86762665      23.35544170
