191
Lattice="9.691640434957108 0.3092954935106445 -0.06532899095850124 -4.961961894384061 8.284784508769508 -0.036111420973762534 0.5286546967563757 -0.19809660722045452 33.25188073523792" Properties=species:S:1:pos:R:3 pbc="T T T"
Mg       0.20571962      -0.09514931      15.10335026
Mg       0.53626570      -0.25662644      31.68332222
Mg      -2.25917129       4.00896636      15.02129294
Mg      -2.01329544       3.97369539      31.71309714
Ni       5.04130578       0.09343674      15.11855879
Mg       5.33659081      -0.04149886      31.62702075
Ni       2.71705955       4.13065792      15.01145059
Mg       2.89191316       4.15662794      31.58570157
Mg       0.11085955      -0.02619701       6.75818006
Mg       0.32357843      -0.15661305      23.31803673
Ni      -2.36348086       4.18479892       6.74247107
Mg      -2.13686200       4.02569863      23.36631259
Mg       4.95893769       0.08412191       6.70946940
Mg       5.27005629       0.06709240      23.39034544
Mg       2.43591782       4.34661342       6.72049195
Mg       2.56963341       4.18816327      23.27855569
Mg       0.17526305      -0.05079977       9.94716406
Ni       0.44385471      -0.10729510      26.46119136
Ni      -2.30898251       4.14957722       9.84163538
Mg      -2.12471076       3.99138193      26.45971175
Mg       5.05066672       0.09739546       9.84936799
Mg       5.30748548      -0.08670309      26.49151733
Ni       2.55125279       4.21683200       9.87232898
Mg       2.71452528       4.20000097      26.46248188
Mg       0.01319107      -0.03684248       1.55226053
Mg       0.30866067      -0.06575879      18.21358099
Mg      -2.51235067       4.10869565       1.60756104
Mg      -2.19908026       4.06449505      18.19032564
Mg       4.80924896       0.13371402       1.51266958
Mg       5.17464785      -0.01648761      18.14105847
Mg       2.48516120       4.29857504       1.47063321
Mg       2.63912298       4.17523715      18.15375860
Mg       2.49775841       1.37818140       2.56169059
Mg       2.74679370       1.31917793      19.08050261
Mg      -0.08813906       5.67191826       2.54030749
Mg       0.21643914       5.47249215      19.19218494
Mg       7.19543986       1.58251367       2.54717479
Ni       7.58485122       1.53710132      19.14545632
Mg       4.78336541       5.73273784       2.59635425
Mg       5.09424200       5.63171814      19.13174711
Mg       0.09960075       2.76944042      10.90648970
Mg       0.31242721       2.64306077      27.52599047
Mg      -2.35912900       6.79434362      10.88436820
Mg      -2.15679584       6.86415423      27.55861433
Mg       4.93943173       2.83983159      10.93968849
Mg       5.20054915       2.79143701      27.53043639
Mg       2.44359043       7.13109252      10.85555548
Mg       2.76779652       6.93892056      27.43744868
Mg       2.50650132       1.45992416       5.72119683
Mg       2.73058220       1.44746038      22.38804577
Mg       0.06766403       5.64458902       5.69309671
Mg       0.28882351       5.42208428      22.31866985
Mg       7.41852995       1.66015670       5.67394355
Mg       7.59811911       1.49387658      22.39544594
Mg       4.83379268       5.76904920       5.72125078
Mg       5.15116243       5.59953023      22.32664836
Mg       0.13505983       2.68588298      14.02791702
Mg       0.36230434       2.61948748      30.72838402
Mg      -2.36264385       6.89818263      14.03814579
Mg      -2.03441144       6.71545814      30.64256739
Mg       5.01757982       2.86833396      14.01629961
Mg       5.34441336       2.76085388      30.59514681
Mg       2.54340887       7.02361670      13.99098240
Mg       2.80350031       6.97063523      30.58027103
Ni       2.68088785       1.33884616      14.59803222
Mg       2.93499880       1.33568409      31.03514172
Ni       0.40662215       5.38932506      31.05925600
Ni       7.42897023       1.57152153      14.47858855
Ni       7.72700757       1.49501742      31.06606036
Mg       5.03679689       5.72956857      14.51584921
Ni       5.27152055       5.60332072      31.06796547
Ni       0.09349285       2.80880077       6.28867757
Ni       0.35683441       2.66952503      22.77201290
Ni      -2.48266950       6.97875620       6.25961120
Ni      -2.17216577       6.84176534      22.66774615
Ni       4.86983976       3.00439852       6.19618067
Ni       5.17059610       2.84747042      22.82828038
Ni       2.43367853       7.01484068       6.18563371
Ni       2.67677661       6.99081857      22.71000931
Ni       2.58216932       1.42303847      10.41171913
Ni       2.83844339       1.44300749      26.96655016
Ni       0.12691122       5.52694864      10.34839434
Mg       0.40266182       5.46049027      26.91325146
Ni       7.45958777       1.59976213      10.42289359
Ni       7.62479017       1.46631283      26.96862752
Ni       4.93670972       5.71424610      10.37421772
Ni       5.19739080       5.59320768      26.74670929
Ni      -0.04114040       2.86031988       2.10179550
Ni       0.25923575       2.71646922      18.69431939
Ni      -2.53859336       6.95902403       2.03058459
Ni      -2.19255509       6.82789811      18.62724669
Ni       4.93096529       2.93260745       2.03659121
Ni       5.00586359       2.91503843      18.57496157
Ni       2.32200325       7.03117361       2.02322684
Ni       2.65764082       7.05809194      18.53424251
Ni       2.58411826       2.85272287      12.39066329
Ni       2.78532212       2.66681479      29.05432297
Ni       0.14215725       7.00268145      12.43669876
Ni       0.38698306       6.82673683      29.06531961
Ni       7.43409058       2.99652906      12.43574772
Ni       7.66107331       2.75259142      29.18075382
Ni       4.95053765       7.09813684      12.44409970
Mg       5.20669653       7.00010921      28.97611438
Ni       3.88309392       0.74262153      12.47539433
Ni       4.05305270       0.66632181      28.99916289
Ni       1.40538672       4.90238427      12.48919670
Ni       1.55981743       4.70854151      29.05366409
Ni       8.67115525       0.83996555      12.44697320
Ni       8.95007009       0.82897209      29.08077693
Ni       6.16612891       4.90089278      12.41547621
Ni       6.53440792       4.98247127      28.97349931
Ni       1.22627344       3.52962476       4.11923177
Ni       1.48732677       3.45851501      20.66678183
Ni      -1.32318444       7.81700841       4.07276170
Ni      -0.95984084       7.63473622      20.67120846
Ni       6.20955764       3.66702539       4.04967083
Ni       6.28360922       3.62649834      20.74264832
Ni       3.53633664       7.68482072       4.16166155
Mg       3.89120079       7.70014178      20.71001745
Ni       1.40981799       0.73164187      12.47593515
Ni       1.69998670       0.55504513      29.07611134
Ni      -1.06437610       4.81837631      12.41159609
Ni      -0.88497117       4.77456878      28.99480325
Ni       6.21299654       0.83387872      12.42009194
Ni       6.48731238       0.75319584      29.05797674
Ni       3.82107574       5.05059631      12.31200728
Ni       3.96080570       4.86716270      28.99962562
Ni       0.10441627       1.32873562       4.12659648
Ni       0.32112957       1.30532516      20.84267818
Ni      -2.44122046       5.52181999       4.11755879
Ni      -2.12136047       5.45995243      20.69423019
Ni       4.95962487       1.53871519       4.18227723
Ni       5.20092506       1.37486963      20.73244883
Ni       2.37259735       5.67134764       4.04348316
Ni       2.65903344       5.61125219      20.70833484
Ni      -1.17865218       3.41984930       4.14042211
Ni      -0.90746132       3.39692218      20.81063921
Mg      -3.60715929       7.54813684       4.07393897
Ni      -3.43097898       7.52456180      20.75898878
Ni       3.62890147       3.57790077       4.07382155
Ni       3.87454364       3.46759031      20.62126023
Ni       1.17046503       7.72336428       4.11837045
Ni       1.48751629       7.59712607      20.75431003
Ni       2.40382582       0.04693568      -0.02249882
Ni       2.60154736       0.05825903      16.59268593
Ni       0.00044374       4.29642728      -0.00296125
Ni       0.15736247       4.14805415      16.63680327
Ni       7.23525106       0.14317344      -0.08709409
Ni       7.46923022       0.17232760      16.60744395
Ni       4.76683887       4.38909543      -0.05982361
Ni       5.09649231       4.34378226      16.56397064
Ni       1.23882220       2.19689953       0.09808009
Ni       1.40396523       2.07922226      16.56312959
Ni      -1.31124047       6.29883813      -0.11443366
Ni      -0.96616656       6.14904705      16.56142786
Ni       5.97780498       2.29297032      -0.03022631
Ni       6.30428138       2.27577011      16.51491577
Ni       3.60884578       6.46848960      -0.08395655
Ni       3.82494106       6.26828178      16.61475078
Ni      -1.05658675       2.02013624       8.25475849
Ni      -0.85842824       1.95953979      24.93562973
Ni      -3.63253927       6.14855419       8.27720859
Ni      -3.33137095       6.04525665      24.95853329
Ni       3.71263449       2.06471844       8.26279194
Ni       4.07771285       2.04338003      25.02144617
Ni       1.24798143       6.33086882       8.24251817
Ni       1.51405214       6.18817797      24.93839357
Ni       2.57946103       0.03918414       8.29626616
Ni       2.86405329      -0.05844423      24.95210724
Ni       0.00717229       4.09270631       8.33417253
Ni       0.36743173       4.08744932      24.93724675
Ni       7.42208337       0.15065278       8.22061613
Ni       7.64782912       0.06501871      24.78915821
Ni       4.84894558       4.34101331       8.33026576
Ni       5.19654338       4.17556904      24.86410508
Ni      -1.27197777       2.02544622      -0.01988658
Ni      -0.92140775       2.06349011      16.54828903
Ni      -3.73323424       6.22599801      -0.04799975
Ni      -3.50069155       6.14564280      16.59265477
Ni       3.62676121       2.28104986      -0.06611200
Ni       3.81483934       2.11863778      16.63831820
Ni       1.18260942       6.28380857      -0.13140240
Ni       1.38822818       6.23779764      16.57321718
Ni       1.37522607       2.00040067       8.33778423
Mg       1.52332061       1.99777407      24.89120151
Ni      -1.14392692       6.25701938       8.23484728
Ni      -0.89770109       6.19786878      24.90619861
Ni       6.18032137       2.20686414       8.20306259
Ni       6.47402459       2.08195684      24.88679399
Ni       3.68459927       6.35728549       8.22384466
Ni       3.94007883       6.33110984      24.91451146
