192
Lattice="9.976062505142522 -0.2656021733756671 0.40337753748950816 -4.857951132753445 9.069285034829702 -0.32444034289285084 0.3861833263426515 -0.07285213894413334 32.44930530483079" Properties=species:S:1:pos:R:3 pbc="T T T"
Mg       0.22688022      -0.03402820      14.67044817
Mg       0.44494561      -0.02591544      30.96620830
Mg      -2.35498489       4.49916799      14.52804119
Mg      -2.13162425       4.57383589      30.84732707
Ni       5.22322437      -0.16859907      14.94769839
Mg       5.27809644      -0.12140650      31.19767934
Mg       2.76655163       4.35320940      14.82128807
Mg       2.90656680       4.40632484      30.98578053
Mg      -0.00567337       0.04211918       6.56474212
Mg       0.27689900      -0.06033296      22.84457053
Mg      -2.37591099       4.52578448       6.43429671
Mg      -2.13902643       4.42146059      22.71462291
Mg       5.10642657      -0.13481475       6.71769149
Mg       5.30024267      -0.16127661      23.02282221
Mg       2.58153130       4.28103170       6.58013948
Mg       2.88624584       4.34679922      22.86089007
Mg       0.16299021      -0.03406792       9.62379892
Mg       0.26527739      -0.12596920      25.94922071
Mg      -2.26984800       4.48157275       9.52896756
Ni      -2.13723471       4.36358745      25.67725818
Mg       5.07155510      -0.22544325       9.83287451
Mg       5.30140976      -0.29912336      25.97072800
Mg       2.63499543       4.29960292       9.71651841
Mg       2.83739696       4.42469564      25.88890648
Mg       0.09686687       0.02346615       1.45848424
Mg       0.24784087      -0.10267209      17.70453373
Mg      -2.38965804       4.45822180       1.37589411
Mg      -2.18012578       4.57059089      17.62558005
Mg       4.94805763      -0.17395418       1.75907348
Mg       5.20818982      -0.14693108      17.98081341
Ni       2.54779364       4.54420058       1.52570772
Mg       2.76571506       4.42931777      17.80381708
Mg       2.47267131       1.37810022       2.53784973
Mg       2.77256590       1.33683422      18.71221401
Mg       0.18984689       5.92964194       2.38913157
Mg       0.26403330       5.97508758      18.66525377
Ni       7.49476192       1.39534166       2.77505430
Mg       7.61874535       1.28572003      19.08214072
Mg       5.15274472       5.82854956       2.65861128
Mg       5.27741678       5.69986565      18.87982766
Mg       0.11160773       3.01235848      10.58229733
Mg       0.33341078       3.03061219      26.80611212
Mg      -2.22067523       7.49919561      10.39264770
Mg      -2.13169583       7.47672644      26.72085334
Mg       5.11312855       2.83742197      10.80066697
Ni       5.43334028       2.80598190      26.95261496
Mg       2.67441797       7.39340945      10.59780107
Mg       2.94275723       7.28830080      26.87291039
Mg       2.62448145       1.38061271       5.61251515
Mg       2.71989479       1.43548520      21.91005561
Mg       0.18010498       5.97083158       5.49771807
Mg       0.32068457       5.95534981      21.69070660
Mg       7.63241095       1.22475267       5.82282575
Mg       7.80808355       1.31912474      22.12431592
Mg       5.09547857       5.79219986       5.78682720
Mg       5.23695737       5.80549251      21.80913921
Mg       0.18309431       2.94755898      13.68543187
Mg       0.50167335       2.89909995      29.83357132
Mg      -2.21998846       7.43884278      13.46749267
Mg      -2.09295317       7.37540424      29.73100484
Mg       5.25219675       2.76590623      13.86801464
Mg       5.39029401       2.71465512      30.04922854
Mg       2.82261616       7.36362381      13.82672639
Mg       3.00277965       7.44906171      29.88418032
Ni       2.65284477       1.49452661      14.33135382
Ni       2.86763322       1.26163777      30.38639434
Ni       0.25270666       5.91374955      14.17776412
Ni       0.50073534       5.93604373      30.33383869
Ni       7.62889317       1.23085900      14.43830652
Ni       7.74764116       1.19213835      30.64006757
Ni       5.22162623       5.85900558      14.25957930
Ni       5.40078331       5.69094826      30.49158161
Ni       0.11697431       2.96495637       6.16910001
Ni       0.29162199       2.95967025      22.30770578
Ni      -2.30465179       7.47869003       5.77661843
Ni      -2.11752828       7.45486693      22.14264742
Ni       5.04700755       2.85109049       6.29599687
Ni       5.30484923       2.92066212      22.43170960
Ni       2.68191673       7.41138447       6.10038449
Ni       2.82954868       7.31091547      22.18041853
Ni       2.57358418       1.32087914      10.26975873
Ni       2.86835705       1.41220401      26.41238931
Ni       0.22179792       6.01899438      10.01763757
Ni       0.37254550       5.86215341      26.16875887
Ni       7.60850460       1.26024567      10.40471981
Ni       7.83962254       1.29708379      26.66025929
Ni       5.24165489       5.71570087      10.20504726
Ni       5.30032693       5.70673068      26.51852359
Ni       0.08677258       3.05978975       2.03181860
Ni       0.26250836       2.98567283      18.20104052
Ni      -2.36778933       7.42636744       1.81075354
Ni      -2.12774002       7.48241365      18.04974969
Ni       5.10341733       2.88533985       2.22353041
Ni       5.24742686       2.73016885      18.36179038
Ni       2.59983127       7.38797454       2.06302384
Ni       2.82277782       7.27591278      18.40004737
Ni       2.62724071       2.89287235      12.14712436
Ni       2.91475950       2.82201033      28.47492009
Ni       0.30331593       7.45599652      12.11202769
Ni       0.51299910       7.41875395      28.38406223
Ni       7.69722963       2.67629104      12.48606105
Ni       7.94767268       2.79127209      28.73136101
Ni       5.24323681       7.21156041      12.33122421
Ni       5.50526661       7.19897872      28.48205771
Ni       3.83484288       0.59785350      12.30040428
Ni       4.08590466       0.55923826      28.49686326
Ni       1.46705404       5.20533655      12.08093711
Ni       1.66880643       5.16800526      28.37638755
Ni       8.91031997       0.55410319      12.56107347
Ni       9.03446677       0.44104661      28.68467138
Ni       6.49947928       4.97117952      12.43407357
Ni       6.58584358       4.97218218      28.50812364
Ni       1.41061515       3.66971213       3.98954478
Ni       1.61210545       3.66277256      20.27960166
Ni      -1.02965602       8.19934999       3.81311867
Mg      -0.87917376       8.27729530      20.14514485
Ni       6.40103153       3.57350975       4.26526053
Ni       6.42798685       3.51845219      20.50542045
Ni       3.90155729       8.09338316       4.10158791
Ni       4.12389139       8.00221901      20.34375413
Ni       1.42730867       0.65205393      12.22163054
Ni       1.57408809       0.74768710      28.38435753
Ni      -1.04478283       5.28037247      11.99320103
Ni      -0.86779293       5.22381116      28.33418344
Ni       6.44979527       0.51238982      12.44068503
Ni       6.67508600       0.49327359      28.63421568
Ni       3.92023590       5.01614951      12.20502214
Ni       4.02995140       5.13871152      28.43858966
Ni       0.08415804       1.49187886       4.01033160
Ni       0.25902591       1.45217510      20.20792933
Ni      -2.31668478       6.04738667       3.79378061
Ni      -2.23615144       5.94447068      20.10987277
Ni       5.03581783       1.30018769       4.24979820
Ni       5.29102162       1.44216555      20.41417067
Ni       2.67784115       5.81959481       4.07519871
Ni       2.83123246       5.84792995      20.34669595
Ni      -1.19230834       3.66801328       3.97538356
Ni      -0.96710089       3.69333034      20.18774797
Ni      -3.52817553       8.27261940       3.84795656
Ni      -3.41740475       8.21277125      20.07554281
Ni       3.94810243       3.69638622       4.15824602
Ni       3.96244299       3.60335252      20.31223913
Ni       1.43417394       8.22086267       3.94636620
Ni       1.57142623       8.19443199      20.23092524
Ni       2.50391268      -0.10602602       0.14419157
Ni       2.73102730      -0.13940975      16.38395939
Ni       0.00441890       4.42995017      -0.11143321
Ni       0.17474129       4.43782087      16.15273940
Ni       7.49840938      -0.15638959       0.20136753
Ni       7.71750018      -0.31369998      16.54743254
Ni       4.93823919       4.34449273       0.09687354
Ni       5.23856041       4.34527475      16.38578987
Ni       1.33767680       2.08946926      -0.08767824
Ni       1.54949676       2.14173305      16.29657721
Ni      -1.10227232       6.76919174      -0.06853801
Ni      -0.92752269       6.72001738      16.16357127
Ni       6.29465147       2.14564308       0.23597738
Ni       6.34505041       1.99041386      16.35970308
Ni       3.82271082       6.63178841       0.07796941
Ni       4.03715433       6.55961293      16.37387835
Ni      -1.12146400       2.23523847       8.09263222
Ni      -0.90316700       2.25642810      24.20858964
Ni      -3.54715487       6.73279986       7.81812010
Ni      -3.40816657       6.77045941      24.16424325
Ni       3.87490812       2.15551074       8.21509895
Ni       4.13334877       2.14726610      24.50074765
Ni       1.40278915       6.59858623       8.03295485
Ni       1.64584553       6.51424314      24.30261445
Ni       2.66013865      -0.15119487       8.25231823
Mg       2.81872540      -0.04433755      24.36656426
Ni       0.16196814       4.43533079       8.00020733
Ni       0.33155923       4.38011644      24.29008909
Ni       7.58846856      -0.25888378       8.42025799
Ni       7.71622309      -0.21846011      24.60053104
Mg       5.05270064       4.30933069       8.29985355
Ni       5.37386965       4.30215581      24.42765597
Ni      -1.20954447       2.16148842      -0.15686036
Ni      -1.06197045       2.31650712      16.14437131
Ni      -3.69190240       6.75670407      -0.20182993
Ni      -3.45492227       6.74652066      16.04055965
Ni       3.74101418       2.13381982       0.15925435
Mg       3.90264707       2.08362874      16.30671841
Ni       1.36226064       6.60642503       0.00645842
Ni       1.51063590       6.54627669      16.20753290
Ni       1.40046341       2.20592144       8.13035615
Ni       1.53927373       2.13943594      24.43586658
Mg      -1.05587910       6.70378723       7.98049306
Ni      -0.82660251       6.67011652      24.20498602
Ni       6.31094721       2.00549923       8.31244563
Ni       6.63669479       2.02854666      24.50457352
Ni       3.91550480       6.55008022       8.08797021
Ni       4.14396001       6.46486647      24.49126764
