190
Lattice="10.133417641373486 -0.10670119519288059 0.03826705005424327 -4.846673497971395 8.617617218060987 -0.08694594725713883 -0.8155143826830362 0.19731593571363737 31.97723319113472" Properties=species:S:1:pos:R:3 pbc="T T T"
Mg      -0.40938552       0.08315119      14.43898896
Mg      -0.65880770       0.15831877      30.45687839
Mg      -2.80506913       4.46682497      14.51645437
Mg      -3.18465940       4.53495155      30.48311446
Mg       4.69829450       0.02757023      14.58049568
Mg       4.21357207       0.17938593      30.52499700
Mg       2.27104888       4.27593625      14.43805783
Mg       1.84075141       4.44542100      30.39515981
Ni      -0.18991564       0.06065556       6.46872885
Mg      -0.61858145       0.10266494      22.38503302
Mg      -2.69177834       4.29474638       6.48396295
Mg      -3.02445467       4.35678199      22.46667868
Ni       4.91923410       0.06925610       6.45051863
Mg       4.53635817       0.01367313      22.44964001
Mg       2.55505301       4.27746814       6.40539526
Mg       2.05733545       4.39221730      22.45678883
Mg      -0.33606679       0.08419465       9.50274517
Mg      -0.67185401       0.18212379      25.46505528
Mg      -2.64116460       4.41169885       9.44870258
Mg      -3.09129696       4.43659818      25.54199842
Mg       4.79491913       0.02937064       9.54498043
Mg       4.45205726       0.02260182      25.50768307
Mg       2.36487551       4.33301943       9.43070126
Mg       2.06776693       4.29717950      25.57801940
Mg      -0.01646315       0.02295463       1.45366571
Mg      -0.37054836       0.12401862      17.40436545
Mg      -2.48283935       4.25990787       1.47246872
Mg      -2.86814724       4.49074497      17.34717999
Mg       5.02321833      -0.03458320       1.59036543
Mg       4.58575630       0.02456270      17.52974298
Mg       2.62512532       4.26594864       1.37220372
Mg       2.22885754       4.26578301      17.52967389
Mg       2.50542993       1.40318312       2.44486918
Mg       2.09859531       1.49054343      18.53030983
Mg       0.10328212       5.78821666       2.48444877
Mg      -0.31156675       5.92065870      18.36411410
Mg       7.61486897       1.35100759       2.51378449
Mg       7.16512104       1.53522791      18.49483994
Mg       5.14489081       5.69215709       2.52385679
Mg       4.72175946       5.84208426      18.43400086
Mg      -0.25705765       2.89898879      10.49246952
Ni      -0.55240901       2.91457942      26.49659506
Mg      -2.58546460       7.34614401      10.44064705
Mg      -2.99366079       7.37020661      26.31957504
Mg       4.94923937       2.82762661      10.51365032
Mg       4.39468173       2.95237501      26.45726750
Mg       2.46065681       7.19881208      10.50662207
Mg       1.98014778       7.34384372      26.41955692
Mg       2.41551421       1.45274060       5.44038406
Mg       2.03465948       1.56354168      21.55289777
Mg      -0.05929551       5.72900995       5.41621329
Mg      -0.39628779       5.84422934      21.40964723
Mg       7.48335368       1.32702863       5.57886720
Mg       7.16481593       1.50198301      21.50190469
Mg       5.07265129       5.69161814       5.48661272
Mg       4.71249706       5.80753704      21.50128719
Mg      -0.28425557       2.95845191      13.48446899
Mg      -0.58674945       3.01314923      29.40031234
Mg      -2.67880099       7.15643423      13.44744421
Mg      -3.14297167       7.39640597      29.35213065
Mg       4.80069928       2.89537239      13.44336791
Mg       4.29348239       3.15636785      29.49877116
Mg       2.35538247       7.18675969      13.44913086
Ni       2.20154780       1.53490943      14.04197546
Ni       1.80455998       1.66272520      29.99962709
Ni      -0.21679119       5.80765673      13.93099854
Ni      -0.63348698       5.90142835      29.85289639
Ni       7.29310480       1.47004600      14.08256932
Ni       6.92487980       1.50453016      29.91597347
Ni       4.82944217       5.73885612      14.06197530
Ni       4.36363873       5.82522842      29.89603085
Ni      -0.03392601       2.84359793       5.94045581
Ni      -0.49891617       2.94128941      22.01368933
Ni      -2.54931627       7.19514406       5.82981425
Ni      -2.91527039       7.31833477      21.94995031
Ni       4.93511275       2.86676954       5.95008682
Ni       4.60081350       2.96692469      21.98127736
Ni       2.62419479       7.16202104       5.99649880
Ni       2.11293263       7.35469370      21.86452878
Ni       2.28299390       1.42757637       9.90826002
Ni       1.86583094       1.54811797      25.95436855
Ni      -0.16410842       5.79817245       9.94481008
Ni      -0.46498334       5.75378870      25.91812017
Ni       7.41515039       1.39886518      10.02967705
Ni       6.91484161       1.48873332      26.01660340
Ni       5.00695750       5.67148629       9.97603586
Ni       4.45329386       5.77620534      26.04472567
Ni       0.02783253       2.84285973       1.91734656
Ni      -0.40935945       2.94234311      17.95221680
Ni      -2.38631598       7.18858641       1.87044951
Ni      -2.82457297       7.30798677      17.84044218
Ni       5.06054967       2.82220696       2.01320491
Ni       4.65231354       2.81019982      17.98511268
Ni       2.69888936       7.08723439       1.93952870
Ni       2.27872421       7.28057974      17.95390815
Ni       2.25400771       2.92001511      11.99001762
Ni       1.90816342       2.95730357      27.86204056
Ni      -0.05064459       7.21231628      11.96929009
Ni      -0.43375744       7.32294571      27.96726930
Ni       7.45884464       2.72525957      11.96436395
Ni       7.03286631       2.94553933      27.94679787
Ni       4.87106608       7.22402871      12.02338808
Ni       4.56073146       7.24929186      27.96989024
Ni       3.53444082       0.74383872      11.99509541
Ni       3.01919476       0.80201185      28.04695829
Ni       1.07279816       5.06057319      11.90558246
Ni       0.71665447       5.16420491      27.94513454
Ni       8.63959968       0.67990360      11.96446856
Ni       8.20347589       0.79319225      27.98172582
Ni       5.76825809       5.12407752      27.97396573
Ni       1.30118411       3.61567325       3.93314635
Mg       0.81763266       3.65168771      20.03583084
Ni      -1.20447620       7.89859850       3.87544005
Ni      -1.53324320       7.99053599      19.95292286
Ni       6.30701619       3.52792821       3.90458374
Ni       5.96285720       3.72360858      19.93435808
Ni       3.93761746       7.80177303       3.96657948
Ni       3.50648409       7.86484104      19.99811542
Ni       0.97146042       0.77286301      12.02446759
Ni       0.69905516       0.85890792      27.97336274
Ni      -1.40701802       5.10206870      11.88506077
Ni      -1.85900741       5.25302468      27.93144898
Ni       6.09359151       0.67187170      12.00091810
Ni       5.66744486       0.77417967      27.97972887
Ni       3.63768044       5.02054416      11.78392836
Ni       3.15133436       5.12534927      27.99733536
Ni      -0.07900069       1.40689272       4.07019027
Ni      -0.49819409       1.60807199      20.00225261
Ni      -2.31628061       5.79599360       3.89948341
Ni      -2.82565689       5.95463937      19.90874094
Ni       5.03190384       1.43338849       3.99485884
Ni       4.59798359       1.48306908      20.02221387
Ni       2.57585330       5.69497598       3.93590101
Ni       2.18171254       5.81815255      19.90475941
Ni      -1.34184283       3.66279479       4.04667022
Ni      -1.65450220       3.66275097      19.97745953
Ni      -3.70523106       7.90324828       3.96645761
Mg      -4.16039111       7.99262959      19.91845308
Ni       3.85622340       3.48300305       3.96122772
Mg       3.38825878       3.65758131      20.03076913
Ni       1.31959501       7.91255235       3.84787811
Ni       0.95173273       7.87278087      19.90200169
Ni       2.59775058      -0.02887699      -0.02024577
Ni       2.11668874       0.06791496      15.88865515
Ni       0.12448831       4.38748695      -0.06951274
Ni      -0.29771736       4.36004232      15.97401457
Ni       7.57691026      -0.06810597       0.04733321
Ni       7.20619965       0.04897566      15.96538719
Ni       5.15686234       4.16301633      -0.04724196
Ni       4.82497591       4.36521437      15.97332940
Ni       1.35601745       2.05048261      -0.00561675
Ni       0.89869914       2.22135112      15.95393302
Ni      -1.22739045       6.51610309      -0.09156213
Ni      -1.53626931       6.57022442      15.93343062
Ni       6.40204013       2.09375192      -0.01934503
Ni       6.00844369       2.15674595      15.89064878
Ni       3.97961381       6.40113321      -0.01168789
Ni       3.54817177       6.57133932      15.94319407
Ni      -1.38408829       2.29141814       7.97564539
Ni      -1.90742452       2.33639653      23.95717987
Ni      -3.82070059       6.57385206       7.96712338
Ni      -4.33902740       6.65870941      23.99197053
Ni       3.67847117       2.09687261       8.01645405
Ni       3.19662436       2.30734671      24.11488554
Ni       1.24185219       6.42209591       7.97730387
Ni       0.78107325       6.57923063      23.93900654
Ni       2.25608963       0.01441568       8.06884316
Ni       1.98917602       0.06318993      24.01459939
Ni      -0.03727234       4.30526945       7.97127916
Ni      -0.45555868       4.46021695      23.99125837
Ni       7.42421914      -0.07661944       8.00447950
Ni       7.06765666       0.04523254      24.05577353
Ni       4.97927984       4.31493512       8.07102269
Ni       4.54844041       4.43577973      23.98276782
Ni      -1.25095124       2.18735529      -0.09990864
Ni      -1.49481233       2.24789201      15.92985839
Ni      -3.65848892       6.45816806      -0.00145293
Ni      -3.97931762       6.60202861      15.95058208
Ni       3.91351958       2.01117191       0.04942973
Ni       3.50876856       2.22103061      15.99427611
Ni       1.39760417       6.45645023      -0.06436400
Ni       0.98812416       6.53290505      15.92964607
Ni       1.12664632       2.19673426       7.95085563
Ni       0.77141536       2.25876576      23.96601013
Ni      -1.26976614       6.42712469       7.84777682
Ni      -1.78021071       6.61812247      23.94671411
Ni       6.23879545       2.05320515       8.03955384
Ni       5.78315172       2.20485902      24.01208222
Ni       3.72155978       6.41740867       7.95855298
Ni       3.37093667       6.54992150      23.89992054
