192
Lattice="9.995736699753232 -0.25703555999359035 0.12095875134589057 -4.5204539668066595 8.361035833370275 -0.1819784399119383 -0.5396688409590742 0.2486787726244338 31.065339127649867" Properties=species:S:1:pos:R:3 pbc="T T T"
Mg      -0.16542043       0.18616857      14.00403048
Mg      -0.50406466       0.28967173      29.61037506
Mg      -2.49673028       4.25872198      13.89874395
Mg      -2.80774235       4.38255747      29.50938146
Mg       4.70441047      -0.07038659      14.18698289
Mg       4.41886029      -0.03088708      29.58891225
Mg       2.54575124       4.15712592      13.95812757
Mg       2.24771924       4.35385586      29.56055275
Mg      -0.04984271       0.01692477       6.33050946
Mg      -0.43139992       0.15994997      21.79846850
Mg      -2.37148993       4.27028135       6.23366361
Mg      -2.67365462       4.37925805      21.80798099
Mg       4.88868215      -0.07977822       6.46227661
Mg       4.62528729       0.07060876      21.89909178
Mg       2.64477409       4.16282912       6.27791931
Mg       2.32663978       4.12662022      21.87166236
Mg      -0.10838372       0.06285214       9.30515268
Mg      -0.43040323       0.22130362      24.63433355
Ni      -2.46078241       4.21589240       9.17039850
Mg      -2.70645301       4.34179493      24.62803232
Mg       4.89236890      -0.09098311       9.26993686
Mg       4.65239868       0.08795819      24.79938650
Mg       2.62079168       4.13391390       9.16222179
Mg       2.32853376       4.25644679      24.71178661
Mg       0.01685736      -0.08014823       1.41364419
Mg      -0.24246106       0.16142135      16.98351953
Mg      -2.24891847       4.23132930       1.33233855
Mg      -2.62058719       4.22570732      16.92587589
Mg       4.89542812      -0.17966726       1.55324312
Mg       4.68028966       0.05639917      17.08167529
Mg       2.79311797       4.00090822       1.39232556
Ni       2.40500775       4.09592328      17.00068815
Mg       2.57806405       1.37399241       2.45644579
Mg       2.25285776       1.42984454      17.93165367
Mg       0.32252024       5.53417333       2.29523223
Mg       0.07249729       5.63172339      17.84829036
Mg       7.56326998       1.15016749       2.46207821
Mg       7.28268487       1.28819227      17.93964275
Mg       5.32349827       5.39162118       2.43872442
Mg       5.02224584       5.43236606      17.97936956
Mg       0.08730272       2.82833973      10.13311199
Mg      -0.26477251       2.95708999      25.55992669
Mg      -2.42425376       7.04998096      10.15063029
Mg      -2.55201676       7.10065431      25.56839931
Ni       4.91871427       2.70337086      10.24798468
Mg       4.71934072       2.80780979      25.76092937
Mg       2.77516157       6.87393519      10.04388543
Mg       2.47236382       7.05525588      25.62950346
Mg       2.42466213       1.33363372       5.34459364
Mg       2.20441586       1.50608952      20.96890902
Mg       0.24128125       5.45274435       5.27983208
Mg      -0.00714375       5.72813792      20.77497329
Mg       7.56222888       1.22472764       5.38457504
Mg       7.17948048       1.26932785      20.94414621
Mg       5.20149570       5.33264387       5.31110018
Mg       5.00837142       5.59350117      20.88286041
Mg      -0.00268787       2.83961353      13.09066517
Mg      -0.33365436       2.91017586      28.68914112
Mg      -2.35059894       7.09156699      13.00769655
Mg      -2.68967600       7.14263156      28.51185659
Mg       4.90506401       2.76570522      13.09120071
Mg       4.69168430       2.83857123      28.72489223
Mg       2.67007331       6.87079375      13.01123352
Mg       2.37152114       7.05284600      28.50599863
Ni       2.30182513       1.42517322      13.55831667
Ni       2.08370313       1.54373941      29.19252846
Ni       0.06296418       5.61213089      13.51011939
Ni      -0.25083671       5.69559966      29.02231441
Ni       7.33859468       1.34805552      13.70812526
Ni       6.99109495       1.43301987      29.15698249
Ni       4.96539102       5.46300785      13.56289144
Ni       4.74929685       5.57177576      29.09794756
Ni       0.03502994       2.79664699       5.75083130
Ni      -0.20617011       3.02069206      21.34181945
Ni      -2.23798833       7.05427664       5.64935046
Ni      -2.47987596       7.00817039      21.37156810
Ni       5.00465702       2.69152890       5.86092912
Mg       4.71214196       2.80197313      21.37980109
Ni       2.87093492       6.90070587       5.65967779
Ni       2.54976199       7.00357715      21.35234150
Ni       2.42397795       1.38216740       9.72249534
Ni       2.16121343       1.49058014      25.26794268
Ni       0.14248130       5.56744416       9.56698865
Ni      -0.06968681       5.81388299      25.14138538
Ni       7.42604922       1.28792318       9.86398955
Ni       7.07240674       1.31064875      25.38032697
Ni       5.16941489       5.40170384       9.65008548
Ni       4.89732567       5.57356590      25.33502920
Ni       0.08226085       2.74100104       1.87857723
Ni      -0.14396687       2.89772016      17.45020476
Ni      -2.15280214       6.94011888       1.76155869
Ni      -2.42591000       7.07182662      17.33590284
Ni       5.07143731       2.62844522       1.97123360
Mg       4.73301230       2.71905314      17.51892093
Ni       2.86115240       6.84063157       1.79123165
Ni       2.51182468       6.93989566      17.45751009
Ni       2.46399330       2.75729744      11.65842765
Ni       2.21140161       2.94243328      27.12515952
Ni       0.23866548       6.85878591      11.60841309
Ni      -0.06020953       7.11317715      27.10537699
Ni       7.42969887       2.59750788      11.73682055
Ni       7.18988324       2.71749031      27.17497727
Ni       5.19675561       6.87573706      11.67712234
Ni       5.00102797       7.04048273      27.08096209
Ni       3.57463154       0.63854063      11.66920425
Ni       3.35930402       0.84939342      27.15230539
Ni       1.33284232       4.88110375      11.62097926
Ni       1.01696026       5.00170933      27.13540190
Ni       8.50201193       0.55294798      11.84368530
Ni       8.21835988       0.63674762      27.31265689
Ni       6.29340779       4.76887224      11.65050871
Ni       6.04615848       4.80178609      27.17928862
Ni       1.40976858       3.39432691       3.76890197
Ni       1.13016064       3.62203717      19.42283195
Ni      -0.90359046       7.63906672       3.73432488
Ni      -1.20916109       7.78724608      19.31623988
Ni       6.38205640       3.34295114       3.77362776
Ni       6.02146784       3.43776381      19.46051522
Ni       4.03655063       7.54184954       3.79703015
Ni       3.82704460       7.60022810      19.36673648
Ni       1.02313816       0.70032748      11.62009270
Ni       0.80065598       0.86639535      27.17009711
Ni      -1.14039409       4.93728946      11.49420463
Ni      -1.37481731       4.97964306      27.09633861
Ni       6.05706319       0.59148876      11.70600490
Ni       5.87378730       0.69628905      27.21517095
Ni       3.79380355       4.72074288      11.58616350
Ni       3.60823561       4.88124738      27.19898238
Ni      -0.01543410       1.30255949       3.91033494
Ni      -0.25396108       1.55631758      19.41661139
Ni      -2.35319704       5.56564452       3.79849171
Ni      -2.54831546       5.72096047      19.31659339
Ni       5.06932025       1.24137425       3.89544234
Ni       4.76247517       1.40007268      19.51877496
Ni       2.75867165       5.53155073       3.79610330
Ni       2.47443494       5.58428686      19.36745606
Ni      -1.23815735       3.50223027       3.79226202
Ni      -1.38145051       3.63012136      19.36258977
Ni      -3.36282534       7.67990975       3.70142430
Ni      -3.69887429       7.82982912      19.27487386
Ni       3.90056130       3.44602711       3.90565589
Ni       3.57833645       3.45977114      19.38093834
Ni       1.66428479       7.59526745       3.75306425
Ni       1.39415018       7.59862088      19.23323332
Ni       2.50936631      -0.08128302       0.07800208
Ni       2.26094247       0.08910839      15.59256773
Ni       0.29486352       4.08891185      -0.13994647
Ni      -0.01581477       4.26860320      15.58648307
Ni       7.47102888      -0.15164918       0.12724791
Ni       7.27779664      -0.15195109      15.62872741
Ni       5.19981462       3.92374891       0.06721941
Ni       5.01908448       4.17127187      15.57614587
Ni       1.29616905       1.98361587      -0.06451741
Ni       1.15925669       2.19203573      15.56666016
Ni      -0.85553097       6.25243173      -0.09181216
Ni      -1.11850881       6.41023122      15.46162324
Ni       6.32249288       1.83810926      -0.03247266
Mg       6.09080543       1.93864100      15.53230982
Ni       4.09437140       6.07749608      -0.07973502
Ni       3.72447577       6.21238300      15.46023764
Ni      -1.15901477       2.18502017       7.72649837
Ni      -1.58156919       2.21969150      23.21496645
Ni      -3.60334386       6.34662166       7.60831879
Ni      -3.77563262       6.41828364      23.12885645
Ni       3.69409883       1.98689099       7.85197966
Ni       3.45056983       2.24630625      23.31945469
Ni       1.54037323       6.20165955       7.66664170
Ni       1.13553082       6.39055070      23.25588230
Ni       2.41133593      -0.06144836       7.79480774
Ni       2.15523849       0.09279235      23.29988469
Ni       0.09109675       4.14304209       7.72893766
Ni      -0.22310206       4.29660842      23.18190355
Ni       7.31646727      -0.10597834       7.85059571
Ni       7.08191031       0.01715024      23.38658622
Ni       5.14762892       4.01793849       7.72630431
Ni       4.86146776       4.18075311      23.26653701
Ni      -1.11015043       1.98670361       0.01533966
Ni      -1.35570982       2.23983223      15.45093062
Ni      -3.45148676       6.25403010      -0.15276816
Ni      -3.66089933       6.38474253      15.50842847
Ni       3.83163552       1.98103364       0.12227237
Ni       3.67595235       2.01393659      15.56302416
Ni       1.60984401       6.10280334      -0.11253732
Ni       1.37908248       6.29301515      15.44245226
Ni       1.17641715       2.05415800       7.83335540
Ni       0.95527373       2.25035158      23.26654870
Ni      -1.03793713       6.20590729       7.68368009
Ni      -1.36280505       6.31320978      23.19096636
Ni       6.28278236       1.95984995       7.91882008
Ni       6.00143826       2.03418275      23.35975784
Ni       3.98606070       6.20039969       7.68226424
Ni       3.73883254       6.39348887      23.20909828
