190
Lattice="9.946288977424674 -0.24910877797468306 0.38602731539549556 -5.089592205583895 8.471008133255507 -0.259077238970361 -0.26083510034181095 -0.5691519677985528 31.18524411391868" Properties=species:S:1:pos:R:3 pbc="T T T"
Ni      -0.24310285      -0.59697090      29.64709961
Mg      -2.70996407       4.00882441      14.04448618
Mg      -2.83145787       3.69517603      29.60439879
Mg       4.84115685      -0.36723880      14.27731431
Mg       4.81538873      -0.62628980      29.86360799
Mg       2.33018865       3.89573517      14.21154088
Mg       2.14690109       3.64571611      29.82322743
Mg      -0.08311886      -0.12686134       6.37342341
Mg      -0.07933975      -0.44703321      21.89598788
Mg      -2.54469210       3.99845200       6.19997049
Mg      -2.77043905       3.90994563      21.77682624
Mg       4.91402952      -0.28289688       6.56364842
Mg       4.76890937      -0.58794998      22.16619571
Mg       2.43122942       4.01747630       6.35104137
Mg       2.29845331       3.69296406      21.97827432
Mg      -0.00874961      -0.15447780       9.21852235
Mg      -0.24746837      -0.37772251      24.91908380
Mg      -2.57976111       4.10925593       9.14581409
Mg      -2.74834128       3.81480038      24.73114668
Mg       4.90264755      -0.34800951       9.51991521
Mg       4.80625029      -0.59959688      25.02189994
Mg       2.33174144       3.92124952       9.37119192
Mg       2.24543699       3.78420350      24.90573934
Mg      -0.05389014      -0.06108341       1.38508878
Ni      -0.22858874      -0.31018472      17.04974573
Mg      -2.57916534       4.15529246       1.34130201
Ni      -2.63234689       3.88864876      16.94248719
Mg       5.05372043      -0.24487687       1.59704022
Mg       4.81660097      -0.45507790      17.23291946
Mg       2.37744497       4.03378402       1.51153800
Mg       2.34440056       3.81145682      17.16384223
Mg       2.37906797       1.22311136       2.49694376
Mg       2.35622351       0.99546539      18.15940089
Mg      -0.14330469       5.57419572       2.45891757
Ni      -0.29344679       5.25262559      17.98416646
Mg       7.45883387       1.19164861       2.72012730
Mg       7.25516235       0.82541331      18.25289213
Mg       4.86471531       5.42954315       2.62675517
Mg       4.81759391       4.99541104      18.08117035
Mg      -0.11425164       2.64139826      10.25475105
Mg      -0.31877312       2.32935083      25.84084148
Ni      -2.64193621       6.78486001      10.04586237
Ni      -2.80767528       6.62133167      25.69171405
Mg       4.79094848       2.47489517      10.41658306
Mg       4.69173254       2.18530337      25.96072997
Mg       2.31146969       6.61753456      10.24220188
Mg       2.13866328       6.43962601      25.90764801
Mg       2.45992051       1.31175063       5.50239400
Mg       2.25375652       0.90908624      21.04570792
Ni      -0.07241946       5.46577192       5.34543824
Mg      -0.27006799       5.15451943      20.86459658
Mg       7.45406286       1.02260751       5.59315188
Mg       7.28356271       0.76374062      21.22229714
Mg       4.80794524       5.34169878       5.44575896
Mg       4.69802798       5.02291081      21.04391489
Mg      -0.21131765       2.54546429      13.11964709
Mg      -0.28555110       2.37236851      28.72607157
Mg      -2.77067963       6.81825590      12.97048134
Mg      -2.85484411       6.48516035      28.61588610
Mg       4.77131582       2.34435625      13.29869467
Ni       4.76673912       2.05839962      28.94142697
Mg       2.28172425       6.68760985      13.16434579
Mg       2.12726119       6.38443296      28.81811352
Ni       2.41924571       1.10252454      13.81439579
Ni       2.24318515       0.85196555      29.31882869
Ni      -0.27157897       5.31445751      13.58175753
Ni      -0.34450386       5.08239159      29.16721824
Ni       7.27369911       0.92048313      14.02724197
Ni       7.21989374       0.72589714      29.47624397
Ni       4.70588664       5.23600439      13.80807214
Ni       4.62442031       4.86452570      29.36587375
Ni      -0.05252461       2.70271601       5.84729289
Ni      -0.26190495       2.39278579      21.42927703
Ni      -2.66638206       6.93522971       5.68229099
Ni      -2.75956800       6.53783905      21.31385828
Ni       4.83963817       2.60304587       6.00437445
Ni       4.68774535       2.26538279      21.61777617
Ni       2.34260162       6.81934182       5.81210875
Ni       2.23237825       6.46070313      21.40444776
Ni       2.35278168       1.15728429       9.78105005
Ni       2.33609046       0.80391905      25.43506440
Ni      -0.13912394       5.37183084       9.70974193
Ni       7.31689483       1.07747554      10.05293901
Ni       7.22882686       0.73691761      25.65739352
Ni       4.83613866       5.32857024       9.80640179
Ni       4.63611264       4.91852162      25.49164486
Ni      -0.03289509       2.81776210       1.94276785
Ni      -0.16571979       2.43319280      17.47815537
Ni      -2.62596886       7.02699282       1.77471027
Ni      -2.70933759       6.76727063      17.42057752
Ni       4.92835874       2.61090174       2.15132599
Mg       4.84179063       2.28354547      17.68293987
Ni       2.27596165       6.79324117       1.94576804
Ni       2.14618433       6.63877345      17.55267629
Ni       2.38997841       2.56212670      11.82365948
Ni       2.22224832       2.20777524      27.30340042
Ni      -0.17492954       6.72605373      11.58409072
Ni      -0.27774900       6.41683263      27.13033786
Ni       7.32505303       2.34208563      11.92286031
Ni       7.13458768       2.03195642      27.59872560
Ni       4.81144316       6.52806128      11.78197878
Ni       4.68256768       6.27268833      27.37414927
Ni       3.67766408       0.40281700      11.87576386
Ni       3.40831948       0.08062251      27.35465863
Ni       1.11828106       4.53011862      11.62466659
Ni       0.87655400       4.31298165      27.25780017
Mg       8.61253700       0.27254217      12.04663569
Ni       8.55496689      -0.10076398      27.56031288
Mg       6.02904138       4.56139481      11.91916887
Ni       5.92760874       4.21702198      27.54971724
Ni       1.14817418       3.42059247       3.91464870
Ni       1.07565683       3.02922516      19.47416262
Ni      -1.44932659       7.58210883       3.74780081
Ni      -1.53204140       7.26715261      19.41146777
Mg       6.14179550       3.25232220       4.09892887
Ni       5.89980067       3.03789495      19.71889277
Mg       3.61237474       7.48959740       3.92338010
Ni       3.44877720       7.14948138      19.64521258
Ni       1.07582874       0.47402473      11.70462685
Ni       1.08048134       0.13760055      27.27270746
Ni      -1.40396233       4.66628838      11.61591698
Ni      -1.51397170       4.38239032      27.21643112
Ni       6.12932377       0.27226764      11.85743501
Ni       5.97200042      -0.00860761      27.52912334
Ni       3.57895982       4.60180041      11.76775299
Ni       3.45154461       4.25158950      27.29662477
Ni      -0.14977974       1.28139056       3.78340608
Ni      -0.19020724       1.03125970      19.48396042
Ni      -2.63410291       5.55092774       3.76270055
Ni      -2.68570151       5.27142525      19.30280475
Ni       4.90959711       1.16530031       4.17650652
Ni       4.81121091       0.93373067      19.67594511
Ni       2.47822020       5.46409010       3.92598050
Ni       2.21960274       5.10615458      19.50804703
Ni      -1.33537150       3.46284232       3.83683610
Mg      -1.51774794       3.15312385      19.42830677
Ni      -3.82629169       7.66580526       3.69004920
Ni      -3.96991012       7.44012621      19.26330520
Ni       3.63827780       3.26957030       4.08304879
Ni       3.51142043       3.01104618      19.61582831
Ni       1.15239927       7.58894584       3.89062135
Ni       0.87786226       7.28777554      19.49701562
Ni       2.49534139      -0.07789184       0.05929275
Ni       2.45424011      -0.26252954      15.72739801
Ni      -0.06313297       4.21274257      -0.01593042
Ni      -0.18041941       3.93322809      15.56651207
Ni       7.49961538      -0.16813095       0.34472682
Ni       7.37391732      -0.39278145      15.79182469
Ni       4.96231481       4.03430784       0.11524711
Ni       4.73080054       3.72458271      15.75862573
Ni       1.20618129       2.12707909       0.02519488
Ni       1.10841654       1.75373269      15.55332240
Ni      -1.37256022       6.35037492      -0.16921171
Ni      -1.47354766       5.98213353      15.52428528
Ni       6.20696257       1.98620326       0.23074800
Ni       6.09179932       1.59331574      15.80864220
Ni       3.64429799       6.14091249       0.11718013
Ni       3.49028769       5.85655613      15.71636949
Ni      -1.30238991       1.93792513       7.70097136
Ni      -1.49832387       1.67160924      23.32045802
Ni      -3.86865080       6.14204959       7.57920786
Ni      -3.92235181       5.82177322      23.15055569
Ni       3.62930985       1.88294349       7.92033878
Ni       3.52315068       1.57882881      23.49825923
Ni       1.06651178       6.05056394       7.83875636
Ni       0.88777177       5.76040091      23.36721486
Ni       2.44954914      -0.22860930       7.99198700
Ni       2.27088188      -0.48441466      23.40856273
Ni      -0.12541115       4.00423496       7.70677448
Ni      -0.30586342       3.75142442      23.38408263
Ni       7.40168249      -0.31687478       8.07750974
Mg       7.29016868      -0.59598701      23.70181230
Mg       4.85163165       3.91007131       8.01244593
Ni       4.74600740       3.54930507      23.59149995
Ni      -1.31685368       2.03588955      -0.01834328
Ni      -1.38268565       1.81756266      15.59322110
Ni      -3.79939255       6.36757394      -0.19623074
Ni      -3.92151478       6.06857504      15.30995833
Ni       3.73168333       2.07075774       0.17712843
Ni       3.53023394       1.61836522      15.75402982
Ni       1.14400726       6.16607837      -0.08536908
Ni       1.12339405       6.05288930      15.63297971
Ni       1.05939620       1.91414680       7.81540525
Ni       1.03669430       1.69636188      23.30068871
Ni      -1.33786241       6.20004715       7.73297178
Ni      -1.45175192       5.85155852      23.30026743
Ni       6.18532427       1.83286211       7.96715066
Ni       5.99960190       1.53458697      23.71332948
Ni       3.62834226       6.00487743       7.84828574
Ni       3.44020187       5.82309608      23.53406582
