191
Lattice="10.034235851116318 0.2392974537655438 0.17365983700007975 -5.122073376341436 8.208124275146876 0.07142756193755852 -1.1169176526294025 -1.2326122105910078 32.23320724483094" Properties=species:S:1:pos:R:3 pbc="T T T"
Mg      -0.52761377      -0.62837284      14.53934345
Mg      -1.06231825      -1.18769278      30.68398746
Mg      -3.04980956       3.53941914      14.56911895
Mg      -3.65284801       2.92633743      30.63153379
Mg       4.60896209      -0.46843558      14.65849730
Mg       3.96044553      -1.05881311      30.82203764
Mg       1.91641255       3.71314248      14.80662449
Ni       1.47413210       3.06361592      30.78640471
Mg      -0.08294841      -0.14991535       6.46760020
Mg      -0.76448340      -0.87703950      22.65161817
Mg      -2.76500571       3.84067295       6.49885508
Mg      -3.50097325       3.15349510      22.57027856
Mg       4.79048718      -0.06919542       6.69720040
Mg       4.24819940      -0.76540225      22.79129716
Mg       2.28096170       3.89573260       6.68966410
Mg       1.58443606       3.33758553      22.79556773
Mg      -0.31881030      -0.39298428       9.51859914
Mg      -0.87206961      -0.87527596      25.69880073
Mg      -3.39022231       3.08192576      25.70525636
Mg       4.70160436      -0.20697272       9.68886784
Mg       4.10277538      -0.89581401      25.85982662
Mg       2.15497494       3.78363262       9.70518699
Mg       1.51996839       3.21750258      25.94346615
Mg      -0.02485686       0.02330951       1.44818010
Mg      -0.59733656      -0.64779653      17.66873269
Mg      -2.57938890       4.03707291       1.60929485
Mg      -3.22505051       3.51657017      17.70112205
Mg       4.87323887      -0.00147907       1.66120646
Mg       4.47456703      -0.59059737      17.78676306
Mg       2.40199700       4.15767109       1.67305899
Mg       1.77837073       3.54807449      17.65144170
Mg       2.35744464       1.39743860       2.67130575
Mg       1.89569815       0.67879803      18.82076956
Mg      -0.13315144       5.45473265       2.53225845
Mg      -0.75800405       4.89715281      18.71789737
Mg       7.36347304       1.41269036       2.76517191
Mg       6.81663337       1.00841497      18.78574179
Mg       4.81742344       5.55329721       2.79727286
Mg       4.29334044       4.92161086      18.80508805
Mg      -0.45673173       2.34119917      10.58147517
Mg      -0.96905470       1.78749503      26.69852468
Mg      -3.02527348       6.43722803      10.70646624
Mg      -3.52827231       5.78952013      26.77955868
Mg       4.62398065       2.43212556      10.85746191
Mg       3.96763167       1.86558650      26.80672884
Mg       2.08614661       6.62111568      10.70604671
Mg       1.50191661       5.98077507      26.89228452
Mg       2.33417697       1.17056776       5.63466572
Mg       1.74373765       0.67845407      21.73096406
Mg      -0.22729411       5.35648372       5.69806434
Mg      -0.81731432       4.62843641      21.75952844
Mg       7.33081312       1.37753153       5.67194487
Ni       6.78738893       0.71774101      21.79145634
Mg       4.81691709       5.50314363       5.69681473
Mg       4.19293743       4.88310701      21.87236262
Mg      -0.55664065       2.28111469      13.67168142
Mg      -1.05150665       1.62795742      29.79345033
Mg      -3.02625874       6.36140958      13.68364583
Mg      -3.63645723       5.78862389      29.79866669
Mg       4.51383046       2.38794811      13.72343009
Mg       3.97076878       1.75380064      29.91658582
Ni       1.94173561       6.40394734      13.76236436
Mg       1.28333782       5.83583452      29.82343913
Ni       2.00081475       0.90661466      14.14226589
Ni       1.37564306       0.41810413      30.27679104
Ni      -0.45585713       4.98569052      14.12605380
Ni      -1.09592271       4.40805730      30.31734238
Ni       6.97915216       1.08369256      14.28124722
Ni       6.42318035       0.27289341      30.44840111
Ni       4.50677086       5.12148330      14.34300179
Mg       3.96020245       4.53078239      30.44451712
Ni      -0.22718458       2.55772891       6.08456620
Ni      -0.84314117       1.94457669      22.27234048
Ni      -2.71882547       6.62593095       6.11296961
Ni      -3.37833039       5.95749462      22.15438981
Ni       4.72300006       2.67234081       6.12580908
Ni       4.30200511       2.03366106      22.31601913
Ni       2.23391413       6.86996511       6.18291078
Ni       1.68741424       6.12834348      22.35749901
Ni       2.19185702       0.95428837      10.14789750
Ni       1.52888389       0.53814748      26.25619342
Ni      -0.46997439       5.18832132      10.12989206
Ni      -0.91051127       4.52218310      26.33865932
Ni       7.09224294       1.24243096      10.27731006
Ni       6.60136767       0.44676741      26.33351236
Ni       4.58832222       5.31453251      10.33801275
Ni       4.04715916       4.71127014      26.42758250
Ni      -0.13339265       2.68870469       2.11797086
Ni      -0.68815687       2.11713525      18.16632052
Ni      -2.57913375       6.81294265       2.04239570
Ni      -3.18929930       6.14013225      18.24125314
Ni       4.90152333       2.85721561       2.19518551
Ni       4.29070515       2.17897140      18.23127281
Ni       2.34663115       6.84615430       2.06944087
Ni       1.74684257       6.23451390      18.28843653
Ni       2.07025081       2.34160525      12.17367099
Ni       1.49727903       1.69439348      28.21482662
Ni      -0.52742514       6.47026549      12.28515399
Ni      -1.13819740       5.92858815      28.38249488
Ni       7.07532003       2.50366320      12.33070722
Ni       6.50885506       1.75637215      28.39705810
Ni       4.42157941       6.65119220      12.33790381
Ni       4.04038990       5.94785101      28.46398559
Ni       3.30165613       0.33020503      12.20789772
Ni       2.82991213      -0.22682524      28.23836010
Ni       0.80449730       4.38456447      12.23979453
Ni       0.17464679       3.76547176      28.29982378
Ni       8.30068988       0.50831964      12.25994446
Ni       7.81362146      -0.26622651      28.44717684
Ni       5.70619165       4.50940716      12.24041071
Ni       5.33602234       3.95050916      28.28312877
Ni       1.10647961       3.39746753       4.11683888
Ni       0.50368500       2.77788232      20.25439398
Ni      -1.54763853       7.45015036       4.08611153
Ni      -2.09364339       6.84884276      20.31981681
Ni       6.07332723       3.50521092       4.21083890
Ni       5.51942815       2.91099109      20.38077605
Ni       3.54893327       7.57522374       4.17616833
Ni       2.98332677       7.05699643      20.22399616
Ni       0.82875487       0.31494665      12.12402931
Ni       0.30487375      -0.44512239      28.18508264
Ni      -1.81311299       4.40647584      12.12086853
Ni      -2.28898501       3.79469728      28.25429052
Ni       5.95907582       0.42729556      12.16313618
Ni       5.21603890      -0.26202804      28.31804189
Ni       3.27785159       4.58035023      12.30019211
Ni       2.77578684       3.82066406      28.41226179
Ni      -0.28197404       1.23483546       4.04992944
Ni      -0.70625259       0.52490752      20.17343549
Ni      -2.78418669       5.33130977       4.17454868
Ni      -3.26031117       4.72111144      20.14610107
Ni       4.84106001       1.40829244       4.15248354
Ni       4.36953242       0.79468110      20.26514159
Ni       2.33987548       5.50468556       4.18876704
Ni       1.71179970       4.84135232      20.34460921
Ni      -1.55407814       3.23822446       4.07703917
Ni      -2.02254823       2.66405362      20.08927321
Ni      -4.05866689       7.31992342       4.19869615
Ni      -4.56430523       6.69914481      20.30852257
Ni       3.55771013       3.32972435       4.21457073
Ni       2.99733651       2.75551800      20.24425513
Ni       0.97564119       7.52256093       4.12157498
Mg       0.49871760       6.84916661      20.29636935
Ni       2.45656852       0.13082109       0.07487544
Ni       1.96149020      -0.51344044      16.14808449
Ni      -0.08036613       4.04427326       0.08768233
Ni      -0.56854717       3.57461440      16.13345647
Ni       7.56277464       0.16741312       0.06286538
Ni       6.97016141      -0.44213350      16.14738896
Ni       5.03981324       4.25929571       0.15525569
Ni       4.27398816       3.63959571      16.28661102
Ni       1.23171619       2.10668332       0.09577840
Ni       0.59330142       1.55327494      16.15920511
Ni      -1.36534508       6.14274100       0.13921098
Ni      -1.94551449       5.56344985      16.20919976
Ni       6.22505199       2.20185289       0.11151288
Ni       5.74988276       1.61255712      16.18903750
Ni       3.70470970       6.30782391       0.14327597
Ni       3.12289961       5.71045264      16.33305781
Ni      -1.49822078       1.77740375       8.00174458
Ni      -2.15674958       1.12827497      24.17646083
Ni      -4.19645387       5.81043662       8.05906085
Ni      -4.67726682       5.25246260      24.20290308
Ni       3.43385039       1.92721966       8.19683015
Ni       2.94441582       1.21673126      24.29177711
Ni       0.87072246       5.94040015       8.20705794
Ni       0.41850249       5.33081355      24.40670068
Mg       2.26595608      -0.23386974       8.06332695
Ni       1.67775287      -0.91894221      24.25798744
Ni      -0.29637663       3.82382199       8.15219813
Ni      -0.95850702       3.26863848      24.20244467
Ni       7.24624849      -0.13390018       8.14300279
Ni       6.66413056      -0.70771218      24.28964448
Ni       4.71099619       3.98839773       8.31378894
Ni       4.14994627       3.36857478      24.39850369
Ni      -1.24859808       2.05946672       0.03135829
Ni      -1.82476796       1.50817995      16.12781529
Ni      -3.93965678       6.10735555       0.08412851
Ni      -4.45364447       5.54275647      16.12154725
Ni       3.69989862       2.14633504       0.02609480
Ni       3.15573130       1.60700084      16.19949704
Ni       1.07953933       6.24397107       0.12981213
Ni       0.61227675       5.64252675      16.27158253
Ni       0.94912528       1.71856768       8.08180444
Ni       0.52730861       1.28550030      24.21960432
Ni      -1.60439100       5.83665140       8.12303412
Ni      -2.15619169       5.36089397      24.27529646
Ni       6.00620119       1.96192629       8.22432208
Ni       5.43139642       1.25728741      24.30926155
Ni       3.41485364       6.10903537       8.18793596
Ni       2.87134718       5.36721646      24.42538481
