190
Lattice="9.797616506992107 0.0510567276600726 -0.2031605857940109 -5.2342632563408715 8.640464685358308 0.029057178406636613 0.5558264440149187 -0.30135810022791726 32.690935102441905" Properties=species:S:1:pos:R:3 pbc="T T T"
Mg       0.29199602      -0.15485294      14.86130412
Mg       0.52330444      -0.15473334      31.22260949
Mg      -2.36463904       4.19604619      14.86969617
Mg      -2.13233543       4.01690749      31.12538634
Mg       5.23814384      -0.13264581      14.68332717
Mg       5.52093065      -0.23049845      30.97174633
Ni       2.55490565       4.21811748      14.70566247
Mg       2.77733083       4.04245915      31.09861016
Mg       0.12346082      -0.01258663       6.64187416
Mg       0.30948612      -0.19665837      22.96050462
Mg      -2.47349483       4.27724147       6.58813037
Mg      -2.23674333       4.05164479      23.01173196
Mg       4.91148359      -0.03662831       6.55960843
Mg       5.24018009      -0.18802286      22.80121739
Mg       2.35189223       4.33822159       6.50336859
Mg       2.56389016       4.08883146      23.00513484
Mg       0.25164971      -0.03699477       9.84132781
Mg       0.55730094      -0.32621445      26.10779600
Mg      -2.50004211       4.22579109       9.66599861
Mg      -2.27549481       4.13926169      26.09492085
Mg       5.11056950      -0.14395748       9.63881747
Mg       5.35035471      -0.32735830      25.92293253
Mg       2.44067249       4.24907113       9.69373164
Mg       2.72626776       4.13526300      25.89339343
Mg       0.02294089      -0.04061168       1.53410785
Mg       0.22600033      -0.14571109      17.80901646
Mg      -2.56873229       4.39813450       1.62775849
Mg      -2.27564205       4.13461121      17.88383619
Mg       4.89607302      -0.04838616       1.36334115
Ni       5.24328243      -0.13860626      17.86088530
Mg       2.26304256       4.25531650       1.48690675
Mg       2.62893946       4.12433858      17.75640739
Mg       2.40881758       1.39892293       2.50540535
Mg       2.67422603       1.24055890      18.90474958
Mg      -0.15714236       5.78696612       2.48726755
Mg       0.02790554       5.56733138      18.83176399
Mg       7.37291983       1.36163599       2.46547225
Mg       7.63512363       1.31732325      18.66729034
Mg       4.77688004       5.80181381       2.32150793
Mg       4.92575922       5.53450565      18.75630009
Ni       0.09201107       2.75231906      10.68528589
Mg       0.38339489       2.68820632      27.05343222
Mg      -2.57289914       7.08148576      10.73722602
Mg      -2.28554288       6.92216946      27.09036856
Mg       4.98034225       2.90965533      10.56685931
Mg       5.20669925       2.61736916      26.96534267
Mg       2.42286839       7.09151732      10.61919082
Mg       2.52455075       6.96227851      27.05933009
Mg       2.42924593       1.36322667       5.59784061
Mg       2.77253865       1.26871806      21.91610485
Mg      -0.13205817       5.72348131       5.55095325
Mg       0.05022030       5.60740046      21.90538140
Mg       7.45444883       1.40713626       5.50519323
Mg       7.65468533       1.26955294      21.83409316
Mg       4.84237231       5.71909594       5.42003677
Mg       5.06858129       5.56877064      21.81948049
Mg       0.18557650       2.67972915      13.81315208
Mg       0.35880360       2.56672868      30.09736513
Mg      -2.57764929       7.09167958      13.83076590
Mg      -2.26980012       6.86903207      30.13566405
Mg       5.10332514       2.75454937      13.68671267
Ni       5.23946614       2.63469098      30.06003101
Mg       2.53951781       7.11542150      13.62026529
Mg       2.69661673       6.95843311      30.03842948
Ni       2.69089772       1.31727892      14.23921260
Ni       2.90437480       1.18134568      30.60226824
Ni       0.38810292       5.42288801      30.56754338
Ni       7.54846107       1.41260920      14.16215985
Ni       7.89657539       1.15335209      30.43292781
Ni       4.91274996       5.72866625      14.17260269
Ni       5.20537864       5.45309602      30.59561921
Ni      -0.06367785       2.87385894       6.12520660
Ni       0.31041740       2.71373508      22.39730225
Ni      -2.66122996       7.12828238       6.13503351
Ni      -2.36878884       7.00005568      22.59580949
Ni       4.88263975       2.91066015       5.97568258
Ni       5.10312806       2.70572305      22.31251758
Ni       2.24559863       7.17253302       5.98793597
Ni       2.60220313       7.02206290      22.40063845
Ni       2.53122011       1.32324760      10.12462621
Ni       2.84986846       1.14029575      26.49055785
Ni      -0.03224776       5.61765396      10.15075369
Ni       0.23767321       5.51734882      26.49251410
Ni       7.43107699       1.35210884      10.01245555
Ni       7.70541092       1.22036778      26.35773647
Ni       4.78862517       5.78020129      10.04765367
Ni       5.17657410       5.44214445      26.45167627
Ni      -0.08895755       2.85340650       2.02958038
Ni       0.18327405       2.78230952      18.34594316
Ni      -2.72978997       7.23161719       2.02771015
Ni      -2.49226371       7.03509121      18.33830881
Ni       4.78815476       2.94702928       1.92884576
Ni       5.11129229       2.71318993      18.21655829
Ni       2.21046412       7.18201590       1.89306894
Ni       2.47000177       7.13524433      18.29249614
Ni       2.53077997       2.76511831      12.10886319
Ni       2.86934615       2.68544396      28.54654508
Ni       0.04717385       7.10358130      12.17815439
Ni       0.26794338       6.95926904      28.57073461
Ni       7.50878751       2.81848505      12.08676447
Ni       7.72607490       2.75428149      28.48399594
Ni       4.79311984       7.14604473      12.13078952
Ni       5.14772414       6.90621793      28.40604773
Ni       3.93739850       0.67700658      12.17651237
Ni       4.00475627       0.47062035      28.64944642
Ni       1.26304554       4.84381159      12.19624161
Ni       1.52404496       4.93308264      28.52760977
Ni       8.78610679       0.52876895      12.11693103
Ni       9.09506922       0.44534552      28.38146410
Ni       6.08847277       4.93115438      12.08721826
Ni       6.31898913       4.88083652      28.44455038
Ni       1.16801798       3.57710025       4.05795762
Ni       1.42449571       3.51778298      20.35715337
Ni      -1.45494818       7.87791606       3.98777894
Ni      -1.13611679       7.74076625      20.45571577
Ni       6.05144297       3.72562415       3.97158221
Ni       6.33293578       3.52670990      20.23881721
Ni       3.42762659       7.94961634       4.03866840
Ni       3.73115969       7.75006061      20.32365218
Ni       1.44791853       0.57271480      12.24524175
Ni       1.73894121       0.53609273      28.56441397
Ni      -1.30053797       4.93542217      12.24337515
Ni      -0.87293097       4.84725673      28.52712804
Ni       6.35817161       0.67082048      12.18405723
Ni       6.59244151       0.50855591      28.43323119
Ni       3.57844186       4.98512039      12.13460068
Ni       3.99933664       4.82498229      28.49005552
Ni       0.00198485       1.33672900       3.96089769
Ni       0.31537071       1.37024476      20.46987184
Ni      -2.48789171       5.69744157       4.05776151
Mg      -2.32758138       5.50602439      20.54058504
Ni       4.92071191       1.39205790       3.99951081
Ni       5.18577445       1.24427893      20.28321763
Ni       2.19494093       5.71249555       3.96630719
Ni       2.61952652       5.57344222      20.34382692
Ni      -1.36556896       3.52972410       4.12930417
Ni      -1.14534021       3.40298869      20.51509656
Ni      -3.86595886       7.93590530       4.09685091
Ni      -3.57410604       7.60634279      20.34968609
Ni       3.60117044       3.61214398       3.96947968
Ni       3.91702303       3.45899727      20.29273106
Ni       0.90782805       8.00676721       4.00089387
Ni       1.24337436       7.73273216      20.43460033
Ni       2.39025886       0.02611778      -0.00387153
Ni       2.74993496      -0.14680981      16.27135939
Ni      -0.18127452       4.33917362      -0.01014001
Ni       0.09438460       4.20418973      16.29491331
Ni       7.35944902      -0.03120015      -0.10951349
Ni       7.61302764      -0.13601565      16.20270392
Ni       4.71641989       4.37914285      -0.12106047
Ni       4.95235593       4.22716606      16.22754667
Ni       1.13090804       2.06896196      -0.03474704
Ni       1.44817916       2.02071580      16.23630070
Ni      -1.46569928       6.54915204      -0.04280645
Ni      -1.15818237       6.37411356      16.36247880
Ni       6.11269350       2.30957915      -0.11207393
Ni       3.40102375       6.46196568      -0.13344709
Ni       3.66943044       6.25604470      16.32427150
Ni      -1.20598398       2.03396472       8.12975011
Ni      -0.86636490       1.89271151      24.44243776
Ni      -3.85727011       6.37176914       8.10583820
Ni      -3.61408544       6.26294403      24.52082094
Ni       3.68635091       2.07189689       8.13306500
Ni       4.01012430       1.93459374      24.40588368
Ni       1.05079095       6.44286959       8.02693662
Ni       1.40207951       6.29402063      24.41445061
Ni       2.60034066      -0.11263133       8.02826291
Ni       2.89305887      -0.21149133      24.58503177
Ni      -0.01392983       4.28722338       8.21180432
Ni       0.28369905       4.07052624      24.43379188
Ni       7.45554512      -0.04347881       8.01342239
Ni       7.70592584      -0.09978092      24.26613758
Ni       4.92358430       4.21424775       8.10999510
Ni       5.19069435       4.06085326      24.38952523
Ni      -1.26997641       2.15839394       0.05372457
Mg      -1.03595421       2.06163901      16.39356492
Ni      -3.96425926       6.54127594       0.01097448
Ni      -3.57937004       6.28181888      16.32525238
Ni       3.62708156       2.18308291      -0.01915739
Ni       3.84892044       2.11470536      16.30922472
Ni       0.96851391       6.52012646      -0.06191744
Ni       1.31804010       6.34366501      16.24398560
Ni       1.25304617       2.09939533       8.17971300
Ni       1.63100816       1.89830041      24.44648951
Ni      -1.30662149       6.37371495       8.10289774
Ni      -1.04377171       6.25885620      24.43893179
Mg       6.13424529       2.14313777       8.04997884
Ni       6.50595258       2.06179858      24.31028495
Ni       3.56439415       6.45059993       8.05235984
Ni       3.83982101       6.26262174      24.45770756
