190
Lattice="9.864327916536933 0.04013326460271977 -0.12544804118906736 -4.744173766049537 8.73242530903357 -0.016686817583264936 0.45458476556172706 0.030439332504148472 31.559034584361452" Properties=species:S:1:pos:R:3 pbc="T T T"
Mg       0.20255904      -0.00890183      14.27401650
Mg       0.36829941      -0.01329149      29.99605598
Mg      -2.14944420       4.34612842      14.32395904
Mg      -1.98402822       4.40287858      30.08596737
Mg       5.15679526       0.08898839      14.12529914
Mg       5.33696925       0.02230260      29.96316482
Mg       2.70636126       4.35806400      14.27472224
Mg       3.02828584       4.33995706      29.94054001
Mg       0.05636848      -0.04712722       6.45583372
Mg       0.27909108      -0.01088746      22.20301164
Mg      -2.26600232       4.28174557       6.42862197
Mg      -2.03027832       4.36792291      22.19211656
Mg       4.94575212       0.05277303       6.30406245
Mg       5.30198717       0.02821830      22.14574069
Mg       2.59332194       4.41280720       6.24272746
Mg       2.91601907       4.37295786      22.12902453
Mg       0.11030564      -0.03100201       9.38345965
Mg       0.36772291       0.04933438      25.15870569
Mg      -2.22200757       4.39405131       9.38687452
Ni      -2.05811567       4.36094898      25.12612415
Mg       5.12285613       0.04213670       9.23796661
Ni       5.25869889       0.02721492      25.06150609
Mg       2.67817351       4.34452595       9.31346395
Mg       2.93315575       4.48547859      25.13158264
Mg      -0.02408452      -0.01427156       1.53374473
Mg       0.28182602      -0.01472441      17.24810845
Mg      -2.43653704       4.40874253       1.48125810
Mg      -2.13381500       4.42084564      17.19667454
Mg       5.00017193       0.04373705       1.33757010
Mg       5.23121562       0.04661211      17.20774442
Mg       2.54183868       4.27537236       1.40244620
Mg       2.84231827       4.31678222      17.18170903
Mg       2.56454825       1.45839046       2.45385157
Mg       2.83758865       1.34981404      18.15812110
Mg       0.11205375       5.88617803       2.41133341
Mg       0.44653664       5.88545691      18.23015058
Mg       7.45967708       1.53767226       2.28673061
Mg       7.67688310       1.49512681      18.19425023
Mg       5.05552332       5.84801594       2.34870235
Mg       5.37200487       5.88016142      18.11835738
Mg       0.20796161       2.94905117      10.31227708
Mg       0.38161749       2.91876478      26.12290160
Mg      -2.14175744       7.26714425      10.31804254
Mg      -1.90580136       7.30659714      26.12656434
Mg       5.11503669       2.94055817      10.28062697
Ni       5.25365846       2.95837204      26.02662837
Mg       2.69796873       7.34676266      10.32807021
Mg       3.04031523       7.38085107      26.05511748
Mg       2.56920398       1.49177426       5.41282839
Mg       2.73404029       1.53984504      21.10841800
Mg       0.26311601       5.83735475       5.41293730
Mg       0.44494810       5.90045019      21.20885965
Mg       7.53343707       1.39926527       5.43601029
Mg       7.80421627       1.53632416      21.14504533
Mg       5.10879689       5.95087453       5.33834496
Mg       5.31084579       5.82800246      21.12957090
Ni       0.19344475       2.93599854      13.34011465
Mg       0.46192505       2.98627610      29.06069604
Mg      -1.99494203       7.32283479      13.26739435
Mg      -1.97422032       7.21478492      29.04177762
Mg       5.24680256       2.96381020      13.14509979
Mg       5.39290984       2.95429055      29.07260714
Mg       2.79225433       7.41366040      13.20035543
Mg       2.98961128       7.34884130      28.97858841
Ni       2.71313778       1.53070696      13.76384738
Ni       2.82846589       1.56885079      29.52554232
Ni       0.37849509       5.88058240      13.73707159
Ni       0.54590192       5.94706126      29.50767418
Ni       7.67308283       1.46600133      13.64785946
Ni       7.87090451       1.50332995      29.45321184
Ni       5.25213856       5.85993303      13.68326970
Ni       5.48485921       5.90483400      29.47237442
Ni       0.19960243       2.93460891       5.92746943
Ni       0.41461832       2.94487269      21.63228590
Ni      -2.27155270       7.32057100       5.86104830
Ni      -2.04846844       7.30521613      21.68238627
Ni       5.11993211       2.96101065       5.89981721
Ni       5.31897338       3.01555825      21.60721819
Ni       2.72547658       7.29309452       5.85715777
Ni       2.94504745       7.28058237      21.59204876
Ni       2.64161326       1.47071223       9.71177588
Ni       2.78706897       1.52319504      25.60072944
Ni       0.24456946       5.78659275       9.75341024
Ni       0.53606426       5.88230158      25.59176589
Ni       7.55406254       1.52368810       9.84372166
Ni       7.80196472       1.50555055      25.60710450
Ni       5.10614598       5.98351603       9.65931318
Ni       5.36622380       5.89124949      25.46658629
Ni       0.08790084       2.84360291       1.99239434
Ni       0.29727679       2.95322039      17.74787200
Ni      -2.28905187       7.35460664       2.00972220
Ni      -1.93582729       7.27764477      17.74358795
Ni       4.98331747       2.88897814       1.85913764
Ni       5.26339051       2.91638011      17.70444402
Ni       2.60156680       7.31625354       1.88983559
Ni       2.87850400       7.35702604      17.59580931
Ni       2.60202851       2.98009545      11.74874801
Ni       2.98129127       2.89429211      27.53280820
Ni       0.36307691       7.32475176      11.72269479
Ni       0.59383886       7.36264762      27.49923972
Ni       7.67965993       2.97374762      11.75989101
Ni       7.89370263       3.03282327      27.49808451
Ni       5.31846620       7.37851036      11.73843185
Ni       5.47418028       7.31591137      27.50029137
Ni       3.92611266       0.68269019      11.81277825
Ni       4.18071707       0.83702672      27.54253636
Ni       1.43005047       5.21060516      11.91485834
Ni       1.74508872       5.21371560      27.52278943
Ni       8.86410184       0.82175957      11.68643648
Ni       8.97030845       0.82000859      27.45051553
Ni       6.47634546       5.13861015      11.66068597
Ni       6.77295971       5.16955541      27.51661026
Ni       1.42967837       3.61109386       3.88706572
Ni       1.70212616       3.67949737      19.73917334
Ni      -1.00627120       7.95079741       3.92176997
Ni      -0.70060655       8.07996074      19.60707305
Ni       6.25001555       3.70562891       3.85867524
Ni       6.51847928       3.65325584      19.54536926
Ni       4.13053357       8.07869577      19.55790780
Ni       1.36469393       0.79954668      11.89454874
Ni       1.64195819       0.81474199      27.54630083
Ni      -1.00201608       5.07678319      11.77536053
Ni      -0.71706307       5.14488852      27.60607564
Ni       6.33889136       0.82171451      11.72993500
Ni       6.64448028       0.81167167      27.47392214
Ni       3.93823764       5.03428437      11.72603550
Ni       4.20503839       5.17337283      27.51866196
Ni       0.05287897       1.44707407       3.86766124
Ni       0.35731645       1.53132691      19.66405977
Ni      -2.32015688       5.84270672       3.96788780
Ni      -2.01504139       5.87821348      19.64344500
Ni       5.01965161       1.52422739       3.90619200
Ni       5.19861769       1.42508289      19.69589664
Ni       2.57192626       5.82117147       3.77800081
Mg       2.90701539       5.87084458      19.68112644
Ni      -1.09631685       3.70349617       3.89324221
Ni      -0.88686185       3.68907426      19.65173102
Ni      -3.43099114       8.02159971       3.92781035
Ni      -3.25993453       7.93557261      19.72146051
Ni       3.86649462       3.65959198       3.82748014
Ni       4.06490044       3.76986872      19.55035151
Ni       1.50826804       8.03913426       3.74009648
Ni       1.71916400       8.01203735      19.68710420
Ni       2.50363620      -0.10767477      -0.07658097
Ni       2.62707471       0.13867982      15.70663734
Mg       0.08043199       4.33803272      -0.08613759
Ni       0.31177380       4.31941601      15.73036089
Ni       7.45833518       0.01146185      -0.11977063
Ni       7.58580864      -0.03055642      15.77817769
Ni       4.95689667       4.31852919      -0.17501035
Ni       5.23075498       4.29994272      15.58947317
Ni       1.29494431       2.25726051      -0.11221089
Ni       1.47102501       2.24427399      15.70757108
Ni      -1.06818165       6.60021576      -0.11670733
Ni      -0.82224181       6.61504045      15.77986578
Ni       6.22965002       2.24356849      -0.02734048
Ni       6.39379482       2.22977132      15.65085150
Ni       3.87247566       6.68362569      -0.08612075
Ni       4.14794904       6.55415680      15.65222859
Ni      -1.10249225       2.21740062       7.82515062
Ni      -0.88342100       2.14239489      23.78510548
Ni      -3.41998786       6.55926211       7.90854146
Ni      -3.18618402       6.54067965      23.63376594
Ni       3.85389960       2.16998700       7.76684100
Ni       4.08303475       2.29687845      23.56534130
Ni       1.43769476       6.56634133       7.74796645
Ni       1.69494619       6.52334717      23.63212177
Ni       2.66446835       0.10751920       7.87055020
Mg       2.80135537       0.01114468      23.64749290
Ni       0.06428567       4.33606246       7.88487350
Ni       0.35751487       4.38194571      23.58824108
Ni       7.52464616       0.14171325       7.78952389
Ni       7.70908381       0.03796279      23.50909577
Ni       5.18007158       4.29817313       7.79042175
Ni       5.32059176       4.45572474      23.55034756
Ni      -1.19438604       2.20515869      -0.05481175
Ni      -0.83752149       2.19636608      15.77262049
Ni      -3.48617987       6.48361086      -0.06772221
Mg      -3.35752996       6.46498739      15.74340187
Ni       3.71042279       2.19128320      -0.06355918
Ni       4.07054454       2.26082402      15.76679242
Ni       1.60587320       6.59947313      15.76073713
Ni       1.33520762       2.20486481       7.94842666
Ni       1.60835980       2.23079205      23.55965349
Ni      -1.01749778       6.55721296       7.89256235
Ni      -0.76686435       6.53690019      23.58884281
Ni       6.36174154       2.19052063       7.86142380
Ni       6.56430012       2.02746966      23.57238150
Ni       3.96648109       6.66352651       7.75988996
Ni       4.21713061       6.65819098      23.56815210
