191
Lattice="9.662268389348501 0.3444852874768493 0.18719131139041384 -5.055383042607694 8.3637190325403 -0.012970641593748411 0.16627320917938226 -0.8085637111262662 31.985049214877694" Properties=species:S:1:pos:R:3 pbc="T T T"
Mg       0.02816706      -0.36976114      14.51129900
Mg       0.14283563      -0.70407986      30.52893308
Mg      -2.43667892       3.80816006      14.47247882
Mg      -2.42175032       3.41904062      30.41792223
Mg       4.91986079      -0.24178300      14.59934209
Mg       4.96037574      -0.55485632      30.58782306
Mg       2.31341784       4.00313043      14.58570376
Mg       2.45455713       3.59846054      30.53383891
Mg       0.03278194      -0.10485354       6.55656740
Mg       0.08639162      -0.55488817      22.43671856
Mg      -2.45170797       4.00792434       6.51946108
Mg      -2.44217350       3.56546237      22.46683534
Mg       4.81918970      -0.01648723       6.55178907
Mg       4.98641804      -0.40107595      22.63614344
Mg       2.30454978       4.25584354       6.55715774
Mg       2.56188984       3.73703135      22.52120511
Mg      -0.06360844      -0.23204168       9.42804390
Mg       0.08711847      -0.62907865      25.51417823
Mg      -2.49139939       4.00622205       9.52013778
Ni      -2.40243435       3.60094009      25.53820918
Mg       4.87166505      -0.08605286       9.63096454
Mg       4.97206482      -0.50250346      25.60926768
Mg       2.30063205       4.13689860       9.52598269
Mg       2.42958998       3.75896818      25.48840231
Mg      -0.02294364      -0.03724040       1.48914322
Mg       0.10375399      -0.37947501      17.46728917
Mg      -2.52367372       4.12987350       1.55844892
Mg      -2.52953602       3.75202320      17.49675423
Mg       4.90372386       0.13259210       1.58019625
Mg       4.95203655      -0.33786680      17.58533273
Mg       2.24928935       4.30013569       1.64760016
Mg       2.40140455       3.97907778      17.62994466
Mg       2.41619715       1.49812759       2.54397479
Mg       2.48623375       1.07362132      18.52987569
Mg      -0.09986211       5.58085024       2.52622855
Mg      -0.11803438       5.28683389      18.49691084
Mg       7.31500468       1.57245926       2.65046611
Mg       7.37618201       1.18514408      18.64554740
Mg       4.65304476       5.82978969       2.65878104
Mg       4.84509013       5.38567246      18.68808234
Mg      -0.06788643       2.56314767      10.51030796
Mg       0.05948282       2.16068171      26.48810920
Mg      -2.61897377       6.80134421      10.46336109
Mg      -2.47806054       6.35101788      26.48223571
Mg       4.82088804       2.73235516      10.61576747
Mg       4.87185264       2.33813874      26.61232521
Mg       2.28428094       6.96457494      10.57561416
Mg       2.28826220       6.56211303      26.62202994
Mg       2.44462185       1.40692639       5.62441920
Mg       2.47210630       0.99638020      21.59873455
Mg      -0.16754144       5.52248635       5.63707018
Mg      -0.11993533       5.11495392      21.46717986
Mg       7.22663598       1.52063733       5.64090303
Mg       7.27774051       1.14709389      21.67946167
Mg       4.72021943       5.67634154       5.73165101
Mg       4.76122545       5.29224551      21.56679856
Ni       0.06109433       2.46872029      13.51653406
Mg       0.10456094       2.06983197      29.51590844
Mg      -2.49859896       6.66729477      13.61913973
Mg      -2.41727831       6.20922654      29.53229665
Mg       4.87215686       2.70466379      13.52294728
Mg       4.89291171       2.28554909      29.64794170
Mg       2.23597195       6.80668894      13.58480500
Mg       2.35570165       6.42622610      29.62467926
Ni       2.45115345       1.20409654      14.05773477
Ni       2.53946087       0.76912721      30.08637979
Ni      -0.10938162       5.38577495      14.11627124
Ni       0.02405785       4.96338364      30.10611205
Ni       7.29537626       1.39438833      14.10414201
Ni       7.41276835       0.85604109      30.17661475
Ni       4.72746538       5.42750822      14.17380288
Ni       4.87374842       5.03235129      30.03444347
Ni      -0.11650993       2.73633348       6.00491767
Ni       0.06558879       2.23070965      22.03396149
Ni      -2.62682058       6.91498734       6.02813806
Ni      -2.56918220       6.49692379      21.92347449
Ni       4.81257555       2.85695092       6.05012504
Ni       4.89850192       2.43411393      22.06947065
Ni       2.22118779       7.10008833       6.10064538
Ni       2.35843582       6.68960012      22.09652594
Ni       2.42556543       1.19771995      10.05782435
Ni       2.53102514       0.89350614      25.99577565
Ni      -0.15856113       5.40749729       9.96880317
Ni      -0.10502061       5.01630720      25.99960348
Ni       7.26672488       1.43904733      10.20815887
Ni       7.35487683       1.04969885      26.20778929
Ni       4.69514560       5.67472909      10.11717657
Ni       4.80959482       5.34434344      26.19769403
Mg      -0.07826791       2.81888044       2.02383328
Ni       0.02920890       2.40107141      18.01695627
Ni      -2.57522130       7.02222717       2.05134733
Ni      -2.51206005       6.58876980      17.99260068
Ni       4.71035175       2.96532917       2.08245142
Ni       4.83647554       2.63138113      18.20861350
Ni       2.12879857       7.18399614       2.10676897
Ni       2.35065510       6.71127310      18.11327890
Ni       2.45881112       2.57900088      12.03239514
Ni       2.51499907       2.18415330      28.03956427
Ni      -0.14745803       6.72461310      12.02190983
Ni      -0.08562687       6.42982552      28.08558277
Ni       7.28191527       2.79296401      12.15737726
Ni       7.39150455       2.38871025      28.18060454
Ni       4.66296059       6.96404639      12.05613069
Ni       4.71800773       6.57294566      28.18250053
Ni       3.63625939       0.54709754      12.03827101
Ni       3.70585169       0.07875425      28.03676206
Ni       1.13048205       4.76060290      12.09478892
Ni       1.25428710       4.28252927      28.10674268
Ni       8.46134818       0.66773720      12.19468924
Ni       8.49749848       0.29885733      28.20969574
Ni       5.95970497       4.83179267      12.20983314
Ni       6.00328692       4.44513756      28.08756427
Ni       1.13747038       3.59425058       4.08403795
Ni       1.29054478       3.04431568      20.15142207
Ni      -1.36215205       7.66340685       4.10884538
Ni      -1.31946653       7.37933713      19.96067953
Ni       5.96967697       3.74855155       4.17353915
Ni       6.06870362       3.31501019      20.09300043
Ni       3.43742512       7.88659063       4.10432230
Ni       3.52017840       7.47012783      20.13947266
Ni       1.28857496       0.42394893      12.03939698
Ni       1.28786350       0.16106029      28.07371052
Ni      -1.21200581       4.68516077      12.07845498
Ni      -1.15399670       4.22726143      28.00999942
Ni       6.04347467       0.69613642      12.11532308
Ni       6.20051729       0.29245704      28.11063559
Ni       3.46001281       4.87027120      12.13987241
Ni       3.60704055       4.40851219      28.03912644
Ni       0.02563584       1.37891117       4.01953780
Ni       0.03412987       0.93673238      19.94185622
Ni      -2.60825594       5.46804206       3.96531974
Ni      -2.47224123       5.03243427      20.00694074
Ni       4.77439539       1.51279162       4.03880430
Ni       4.89811420       1.08154568      20.12750902
Ni       2.32483346       5.66944622       4.11213184
Ni       2.31640997       5.31444548      20.11471692
Ni      -1.28650724       3.36589243       4.08683190
Ni      -1.17758053       3.00716529      19.98457715
Ni      -3.73302738       7.58620542       3.95305488
Ni      -3.63020061       7.20788755      19.92856741
Ni       3.55289174       3.71993041       4.13179406
Ni       3.53142523       3.12667548      20.14739436
Ni       1.01030755       7.83454211       4.14703886
Ni       1.03650917       7.38578378      20.14459486
Ni       2.40743562       0.08889320       0.10776268
Ni       2.54467966      -0.37132922      15.92182223
Ni      -0.11729510       4.21868520       0.02791887
Ni      -0.00358269       3.78150338      15.92289604
Ni       7.22397202       0.18413358       0.16186086
Ni       7.35014657      -0.09043683      16.13869593
Ni       4.67632904       4.44901070       0.16411719
Ni       4.90113524       4.13617268      16.19264405
Ni       1.13983733       2.20013405       0.03265408
Ni       1.22762868       1.78549754      16.01855076
Ni      -1.42373090       6.36408798       0.06015344
Ni      -1.36929022       5.97891347      16.01989023
Ni       6.00508339       2.31159345       0.08985437
Ni       6.06112443       1.97890128      16.10681899
Ni       3.41392000       6.55002845       0.10330744
Ni       3.52147803       6.18367302      16.14161608
Ni      -1.17621940       1.83806571       8.01768831
Ni      -1.14714311       1.48821097      24.07626121
Mg      -3.68238640       5.75127506      24.02397399
Ni       3.53096180       2.04658389       8.08388817
Ni       3.64751493       1.59962764      24.15864310
Ni       1.14714138       6.18160478       8.09377633
Ni       1.18221388       5.86164107      23.99130821
Ni       2.41781401      -0.14074747       8.02602210
Ni       2.48515808      -0.47872596      23.96031939
Ni       0.03945033       4.02116257       8.06742303
Ni      -0.03223372       3.68307757      24.00178095
Ni       7.31367094       0.11071029       8.16649296
Ni       7.39033530      -0.25463465      24.15321600
Ni       4.80155818       4.25342443       8.15368601
Ni       4.85046287       3.81082802      24.16886516
Ni      -1.34712469       2.16224850      -0.01219419
Ni      -1.06243323       1.73256701      16.02487784
Ni      -3.77682720       6.30298475       0.01125425
Ni      -3.67277952       5.95089147      16.03418978
Ni       3.51009401       2.26346668       0.10788959
Ni       3.62046459       1.86147440      16.14797068
Ni       1.00463210       6.46454749      -0.01270405
Ni       1.14436540       6.06551093      16.14553111
Ni       1.24059959       1.91962018       7.99807272
Ni       1.29712837       1.59770763      23.93991924
Ni      -1.26737506       6.11483140       7.98852523
Ni      -1.27869580       5.74293853      24.04331999
Ni       6.04243762       2.08355362       8.13093373
Ni       6.17022312       1.64214379      24.08939186
Ni       3.41175636       6.32451211       8.16251414
Ni       3.40360972       5.91981938      24.06286240
