191
Lattice="9.632440386779185 0.10229491945640162 -0.05854415539847005 -5.055915769794434 8.303864605645256 0.03507417627584556 -0.0568356319342092 -0.504568825601524 31.01294885432121" Properties=species:S:1:pos:R:3 pbc="T T T"
Mg      -0.05318971      -0.31225230      14.01241031
Mg      -0.02680909      -0.43520310      29.49109505
Mg      -2.63661055       3.86168776      14.03070029
Mg      -2.67114890       3.69830299      29.58309117
Mg       4.82552754      -0.17045755      13.91452935
Mg       4.78743300      -0.29478744      29.62093117
Ni       2.31400910       4.04280881      14.03854921
Mg       2.22386475       3.79476895      29.50705492
Mg      -0.04688790      -0.16815302       6.27103494
Mg      -0.01502713      -0.36440793      21.79979945
Mg      -2.49042327       4.10089532       6.34664683
Mg      -2.65458884       3.78528757      21.78628173
Mg       4.88386372       0.03667736       6.27484869
Mg       4.75131792      -0.37104897      21.76322941
Mg       2.24461869       3.97112020       6.31112184
Mg       2.33992428       3.89287788      21.78877962
Mg      -0.14281177      -0.18417542       9.23920357
Mg      -0.01745022      -0.36185423      24.74636881
Mg      -2.50777902       4.02646111       9.22398835
Mg      -2.55090997       3.72139626      24.67560460
Mg       4.86851114      -0.11249734       9.13986326
Mg       4.78295577      -0.29274827      24.59509760
Mg       2.27131949       4.01222271       9.27992029
Mg       2.19024098       3.75488315      24.62356827
Mg      -0.01312419       0.00342095       1.46154026
Mg      -0.04390010      -0.35629731      16.94607311
Mg      -2.49176600       4.28890406       1.44587180
Mg      -2.55399380       3.88256701      16.93358584
Mg       4.79592862      -0.05641943       1.38646570
Mg       4.80070669      -0.22104782      16.95936429
Mg       2.30764407       4.27027860       1.41259659
Mg       2.32371784       3.91939453      16.89847683
Mg       2.43704424       1.35993331       2.42633897
Mg       2.31945784       1.19157078      17.98018080
Mg      -0.27903923       5.52648442       2.35362470
Mg      -0.24856485       5.20827282      17.92666387
Mg       7.14861380       1.44493620       2.36179674
Mg       7.14684842       1.19455678      17.96639770
Mg       4.63233173       5.50151169       2.38634876
Mg       4.69137055       5.29271242      17.88448687
Mg      -0.00532373       2.61637601      10.20235682
Mg      -0.06832287       2.20788791      25.64017171
Mg      -2.59173749       6.78355881      10.16465559
Mg      -2.62600933       6.49520688      25.72186678
Mg       4.65933479       2.68133119      10.11094787
Mg       4.60126220       2.37203621      25.67462945
Mg       2.22499243       6.69206146      10.14920361
Mg       2.21767959       6.57538050      25.63120978
Mg       2.35536817       1.34226045       5.35395562
Mg       2.28908549       1.08266002      20.71666294
Mg      -0.10579418       5.44468970       5.39906554
Mg      -0.15216861       5.24785258      20.84877292
Mg       7.22776037       1.42185882       5.25881474
Mg       7.09508251       1.16592188      20.80376756
Mg       4.61009765       5.46331183       5.35478175
Mg       4.59466763       5.36210582      20.81874712
Mg      -0.12822321       2.62954317      13.13656171
Mg      -0.12038923       2.31022591      28.65241293
Mg      -2.68781144       6.74452440      13.18558208
Ni      -2.59193474       6.36777778      28.57195245
Mg       4.69121196       2.56576533      12.96700239
Ni       4.79248829       2.25982927      28.62659941
Mg       2.11100402       6.50498352      28.52879257
Ni       2.34002305       1.22638354      13.52550255
Ni       2.34387730       0.95205672      29.06761898
Ni      -0.08024427       5.29596063      13.55667814
Ni      -0.15675475       5.17906275      29.12073394
Ni       7.13626449       1.23512522      13.51655096
Ni       7.19808474       0.99663175      28.94855296
Ni       4.68087273       5.33854430      13.55620372
Ni       4.57689308       5.14220422      29.10016546
Ni      -0.07853612       2.62010267       5.76029151
Ni      -0.18671242       2.43359983      21.32562313
Ni      -2.57293044       6.81249908       5.76524690
Ni      -2.65680663       6.53687304      21.28026201
Ni       4.66275037       2.74267170       5.74306628
Ni       4.74503412       2.38818979      21.33933579
Ni       2.26158525       6.92302173       5.76387807
Ni       2.15809086       6.76260258      21.27735758
Ni       2.39413638       1.29328382       9.77861652
Ni       2.29128324       0.99189638      25.16258558
Ni      -0.23340836       5.33763219       9.70551348
Ni      -0.26018562       5.12743436      25.15237940
Ni       7.05489714       1.38159058       9.65412938
Ni       7.18336214       1.01660494      25.17888808
Ni       4.62788714       5.43123657       9.68281816
Ni       4.61897266       5.21856046      25.19661233
Ni      -0.11203106       2.75664693       2.01436294
Ni      -0.08816801       2.45510957      17.33123608
Ni      -2.55358417       6.85469681       2.03769175
Ni      -2.60884554       6.60432910      17.50438894
Ni       4.79260396       2.75195232       1.90125280
Ni       4.72592757       2.46149428      17.44824680
Ni       2.20201289       6.99699921       1.91592899
Ni       2.10239925       6.75799616      17.44805510
Ni       2.28497157       2.58201927      11.62435991
Ni       2.26309315       2.33941160      27.10979570
Ni      -0.24790310       6.74421479      11.59747181
Ni      -0.22026017       6.50224488      27.13009125
Ni       7.12038335       2.57318993      11.63665181
Ni       7.02696007       2.43913769      27.05352617
Ni       4.59739360       6.84929647      11.62493660
Ni       4.56223242       6.52170566      27.08442484
Ni       3.64033976       0.60483446      11.52883509
Ni       3.59099412       0.29760552      27.18308271
Ni       0.97902090       4.66116000      11.55919222
Ni       1.11030276       4.42321188      27.13806662
Ni       8.34389272       0.52345846      11.60532850
Ni       8.37670332       0.29460174      27.07108635
Ni       5.98543505       4.66103815      11.57192122
Ni       5.87557904       4.50202952      27.10949748
Ni       1.13526156       3.43338527       3.91907927
Ni       1.17730498       3.18213973      19.41892237
Ni      -1.37723796       7.50779422       3.89415761
Ni      -1.46195160       7.31697286      19.45311575
Ni       5.93819190       3.43481494       3.74724839
Ni       5.94944007       3.19443080      19.28810188
Ni       3.41491531       7.60916608       3.90773987
Ni       3.35934270       7.39819695      19.34864544
Ni       1.22839683       0.50378428      11.52076275
Ni       1.17372306       0.28050791      27.13490706
Ni      -1.36177997       4.71575527      11.60680932
Ni      -1.45058681       4.35806172      27.16695058
Ni       5.91525233       0.52271991      11.63815010
Ni       5.88931882       0.31693615      27.23478016
Ni       3.40132989       4.72838741      11.68978114
Ni       3.36204461       4.47663277      27.08010928
Ni      -0.08413939       1.26511535       3.95154959
Ni      -0.23402356       1.13674934      19.42670222
Ni      -2.68977229       5.53624235       3.87650876
Ni      -2.62915868       5.29454350      19.44220616
Ni       4.78405663       1.34136985       3.81681255
Ni       4.71378153       1.12382862      19.34840290
Ni       2.29584604       5.56885960       3.85719907
Mg       2.19774548       5.25281054      19.38546835
Ni      -1.29630041       3.37681955       3.86339430
Ni      -1.35199025       3.14045750      19.37826935
Ni      -3.78168144       7.52596676       3.76085084
Ni      -3.89228513       7.29632743      19.49743218
Ni       3.51721154       3.46415616       3.86502876
Ni       3.54788228       3.11214504      19.38949099
Ni       1.00938328       7.61638092       3.86412891
Ni       0.87526251       7.31711298      19.42623776
Ni       2.40540146       0.10270622       0.01830471
Ni       2.44101573      -0.22181924      15.51992293
Ni      -0.18595624       4.12993685       0.02561232
Ni      -0.07867723       3.89933593      15.46698117
Ni       7.26095403       0.01200193       0.00154885
Ni       7.22684992      -0.23256782      15.54204575
Ni       4.69280078       4.27789855      -0.02454143
Ni       4.68525141       4.00754174      15.41506597
Ni       1.13924495       2.14399224      -0.12379829
Mg       1.16796618       1.86667755      15.41019943
Ni      -1.38705798       6.22751109      -0.04263648
Ni      -1.46914182       5.94922296      15.49533851
Mg       5.95087568       2.13413159       0.05712472
Ni       5.92540125       1.95175425      15.49723919
Ni       3.45402619       6.28050418      -0.03456614
Ni       3.40477562       6.09238712      15.46790027
Ni      -1.36037307       1.84996117       7.74121914
Ni      -1.34308862       1.67743216      23.27752788
Ni      -3.82139900       6.19461898       7.79639979
Ni      -3.81525163       5.83310042      23.23712962
Ni       3.47558309       1.96331288       7.70607970
Ni       3.57917267       1.75101253      23.20097676
Ni       1.08325384       6.18873793       7.74758659
Ni       0.90250757       5.84586842      23.30471464
Ni       2.30691201      -0.14209277       7.79200704
Ni       2.30200344      -0.30409727      23.28120093
Ni      -0.10864025       4.07772824       7.64832292
Ni      -0.21818325       3.87597599      23.22244733
Ni       7.13489277      -0.02467975       7.74609182
Ni       7.21728337      -0.27057578      23.19279516
Ni       4.64234720       4.10520449       7.67655796
Ni       4.58876847       3.90763361      23.25009973
Ni      -1.30255557       2.01301645       0.06470022
Ni      -1.28616498       1.86694927      15.49283967
Ni      -3.79382485       6.19092165      -0.00234148
Ni      -3.81820080       5.92536282      15.56585852
Ni       3.50533809       2.18764425       0.00185083
Ni       3.58709913       1.88280364      15.58818895
Ni       1.02824743       6.28521380       0.03259586
Ni       0.93740355       6.03977246      15.50919388
Ni       1.03788463       1.98871292       7.77959030
Ni       1.08891314       1.71183653      23.31502748
Ni      -1.47326444       6.05103473       7.74605886
Ni      -1.48258637       5.85084749      23.20847051
Ni       5.92538172       2.07977024       7.61183549
Ni       5.87634156       1.82866478      23.26118960
Ni       3.53976034       6.12319142       7.81181891
Ni       3.41313255       5.93807352      23.25132329
