191
Lattice="9.727829206268831 0.4032615185410438 -0.04941440926413878 -4.995746556332597 8.179109036267988 0.24080486774918045 -0.18765517892998748 -0.1043274708445675 31.98617500611073" Properties=species:S:1:pos:R:3 pbc="T T T"
Mg      -0.15159445      -0.10317898      14.49128988
Mg      -0.23052861      -0.06847342      30.48977765
Mg      -2.53186222       4.04062992      14.57058747
Mg      -2.73379283       3.93071444      30.65210600
Mg       4.81417482       0.20503130      14.45291764
Mg       4.70623828       0.10024342      30.46905236
Mg       2.27446348       4.31867868      14.51419910
Mg       2.03625575       4.18651898      30.58472390
Mg      -0.02700139      -0.12798724       6.49094546
Mg      -0.16295355      -0.04935905      22.46368214
Mg      -2.56587944       4.04630138       6.55602635
Mg      -2.53469287       4.06926855      22.63786335
Mg       4.87989406       0.22310420       6.43099000
Mg       4.74417260       0.22087679      22.43939194
Mg       2.33302071       4.24010858       6.53348876
Mg       2.13210579       4.18673822      22.55456265
Mg      -0.01608501       0.06917347       9.49770816
Mg      -0.20293071      -0.05041808      25.45929741
Mg      -2.57189069       4.10113116       9.56525897
Mg      -2.71779541       4.04567048      25.62057601
Mg       4.75210029       0.22301512       9.43025105
Mg       4.71900006       0.20631436      25.43102496
Mg       2.34963549       4.30241431       9.61249211
Mg       2.19498881       4.23996570      25.52590391
Mg      -0.02046141       0.04832434       1.46211621
Mg      -0.15022399      -0.02281484      17.38932962
Mg      -2.51005094       4.22417971       1.62976549
Mg      -2.59380173       3.98582572      17.69914657
Mg       4.87432409       0.17649810       1.55218707
Mg       4.71114048       0.08080065      17.42470273
Mg       2.46425337       4.27059186       1.59025358
Mg       2.24218782       4.19078909      17.63341068
Mg       2.41381003       1.46615876       2.48068398
Mg       2.32507743       1.44266863      18.54156782
Mg      -0.12326527       5.54831024       2.63324969
Mg      -0.06140684       5.51731492      18.65302033
Mg       7.26033395       1.62047893       2.56275078
Mg       7.22875799       1.53016140      18.40435562
Ni       4.74828075       5.86314173       2.56872859
Mg       4.67009962       5.79839225      18.67890914
Mg      -0.14767348       2.77644607      26.58077169
Mg      -2.59212155       6.82274800      10.72838704
Mg      -2.78004577       6.70453393      26.64267369
Mg       4.74910293       2.91700840      10.47653123
Mg       4.70454510       2.88376010      26.49555247
Mg       2.16465602       7.02452007      10.65926590
Mg       2.06304131       7.03487476      26.58281254
Mg       2.38350135       1.45263788       5.45930808
Mg       2.28796268       1.40702471      21.62435595
Mg      -0.07051658       5.58397838       5.64725324
Mg      -0.28006985       5.50626665      21.63947237
Mg       7.19963909       1.69644791       5.46903571
Mg       7.06344122       1.63538059      21.53541882
Mg       4.76705913       5.78172661       5.62809025
Mg       4.63031508       5.68974086      21.53958587
Mg      -0.14477148       2.73540184      13.51932871
Mg      -0.25762307       2.71368601      29.53417419
Mg      -2.69359373       6.78275444      13.74920860
Mg      -2.77736116       6.84509269      29.71950734
Mg       4.63700877       2.89763110      13.42581964
Mg       4.70403581       2.86838036      29.49931221
Mg       2.29646830       7.02548913      13.76233742
Mg       2.20604684       6.98542383      29.77160545
Ni       2.28109991       1.44195353      13.99120970
Ni       2.18495557       1.30316122      29.94479893
Ni      -0.22730428       5.58000373      14.18481457
Ni      -0.24554121       5.46600112      30.10922787
Ni       7.17710337       1.59939133      13.96929439
Ni       7.16140808       1.62349926      29.98658425
Ni       4.66301000       5.61878812      14.13135916
Ni       4.69087067       5.60538831      30.12559067
Ni      -0.08653844       2.83100552       6.12237662
Ni      -0.16407834       2.74694062      22.06996119
Ni      -2.52028616       6.92940705       6.19715151
Ni      -2.63833522       6.78146443      22.31253628
Ni       4.73953769       2.99633800       6.09683927
Ni       4.70434291       2.94047778      21.96900107
Ni       2.28908044       7.08102079       6.19694148
Ni       2.16531755       7.10472898      22.16152438
Ni       2.34901527       1.48910959      10.00249760
Ni       2.24386247       1.41122363      26.03188496
Ni      -0.05620503       5.48050832      10.21922725
Ni      -0.24906291       5.49047131      26.12104251
Ni       7.21746586       1.59906870      10.02084657
Ni       7.10400530       1.58291011      26.01044575
Ni       4.71370689       5.73288676      10.15160521
Ni       4.65998240       5.75804580      26.12060388
Ni      -0.13657306       2.81834220       2.05078235
Ni      -0.17394312       2.67825837      18.00865555
Ni      -2.53840572       6.93681361       2.12456943
Ni      -2.59869249       6.78882080      18.19556578
Ni       4.75316690       2.96116721       1.98490746
Ni       4.72485217       2.94002477      18.03437401
Ni       2.30752868       7.05617498       2.09705915
Ni       2.28882537       6.95477288      18.19519088
Ni       2.31485287       2.87077562      12.10928843
Ni       2.15819872       2.81816344      28.02328165
Ni      -0.24648397       6.87264482      12.21680987
Ni      -0.31120060       6.84148043      28.06212285
Ni       7.11163781       3.01777396      12.02724509
Ni       7.07863378       3.08003100      28.03865602
Ni       4.74303193       7.13358655      12.11595980
Ni       4.60689384       7.05832279      28.13887207
Ni       3.52261429       0.76486248      12.04907354
Ni       3.47049737       0.79399426      28.02137357
Ni       1.08847024       4.96568412      12.04774915
Ni       0.95785687       4.85962126      28.04429188
Ni       8.34199050       1.05644770      11.93844332
Ni       8.34519752       0.95530218      27.88654502
Ni       5.85325930       5.03069492      12.09568133
Ni       5.86997563       4.97393769      28.12406794
Ni       1.14387440       3.51534953       4.20130644
Ni       0.94141137       3.38211591      20.10873630
Ni      -1.32913611       7.64273649       4.22877795
Ni      -1.40142117       7.55109093      20.16490162
Ni       5.98982294       3.69373921       4.03632695
Ni       5.85316996       3.67560236      20.02078207
Ni       3.48452631       7.82347179       4.15964283
Ni       3.46166382       7.77129935      20.24509208
Ni       1.12499870       0.62541389      12.01560411
Ni       1.08598616       0.65487488      28.00311230
Ni      -1.34123573       4.77735366      12.18496920
Ni      -1.46933731       4.71674518      28.16299437
Ni       6.09138143       0.92380612      12.06378952
Ni       5.86518717       0.80846932      27.89988940
Ni       3.61592013       5.00793104      12.12978581
Ni       3.37840504       4.86066140      28.07192997
Ni      -0.04987055       1.29003513       4.01431457
Ni      -0.18057223       1.34999620      19.85720213
Ni      -2.49390463       5.53162766       4.15555637
Ni      -2.54586449       5.50525359      20.11423480
Ni       4.84101948       1.55763635       3.99509100
Ni       4.72712752       1.55831011      19.99613295
Ni       2.35401503       5.60453083       4.12848204
Ni       2.26340754       5.63241774      20.19185988
Mg      -1.26549561       3.46498731       4.08471675
Ni      -1.37427270       3.38991015      20.05010289
Ni      -3.81828061       7.56368646       4.27070419
Ni      -3.88900364       7.52444946      20.16330330
Ni       3.53895313       3.55274369       4.04994884
Ni       3.48464516       3.59579355      20.09374542
Ni       0.96473903       7.70644128       4.19867165
Ni       0.95816580       7.64766604      20.18403022
Ni       2.44685747       0.08925924      -0.03325675
Ni       2.28882085       0.07192254      16.06862746
Ni      -0.00977661       4.16257398       0.02087976
Ni      -0.17443003       4.14980904      16.11849731
Ni       7.35988720       0.25447947      -0.06011096
Ni       7.22687867       0.27980329      15.98189242
Ni       4.86151476       4.38622195       0.05466811
Ni       4.66761638       4.35893887      16.06379353
Ni       1.21337017       2.18033942       0.10280206
Ni       1.11854843       2.13128195      15.98920448
Ni      -1.29984741       6.25581346       0.17191970
Ni      -1.40213029       6.24956140      16.09828022
Ni       6.09974684       2.32622872      -0.02893690
Ni       5.91732675       2.29739990      16.05112861
Ni       3.58209025       6.45542900       0.18313154
Ni       3.39540418       6.39798902      16.18838381
Ni      -1.25395167       2.02129322       8.03046307
Ni      -1.47242639       2.00577131      24.04442240
Ni      -3.69716154       6.03421456       8.19384107
Ni      -3.95368280       5.99557518      24.14824115
Ni       3.70369000       2.25529530       8.02170445
Ni       3.59111166       2.25612741      23.99734641
Ni       1.16776844       6.25361260       8.12189487
Ni       0.98153650       6.27459683      24.19885149
Ni       2.40934788       0.17838795       8.03440861
Ni       2.27999358      -0.00179721      23.93257499
Ni      -0.10001527       4.21271215       8.14498539
Ni      -0.28653055       4.15554629      24.07035951
Ni       7.18530534       0.19849368       7.90570985
Ni       7.11588183       0.22968209      24.00579465
Ni       4.68135917       4.32363658       8.05140608
Ni       4.67914303       4.33818459      24.10584342
Ni      -1.25355879       2.03329755       0.17131401
Ni      -1.39273560       1.95674067      16.07743051
Ni      -3.73626638       6.16960309       0.15339722
Ni      -3.82110232       6.08684946      16.18253826
Ni       3.55261161       2.23859014       0.02046359
Ni       3.48010075       2.21977691      15.95046540
Ni       1.02566770       6.32132569       0.15025300
Ni       1.01813463       6.25924686      16.06478338
Ni       1.09252515       2.07809794       8.03324679
Ni       1.00664023       2.03353688      24.00306521
Ni      -1.33161498       6.16599091       8.04151620
Ni      -1.41385810       6.13464052      24.14031659
Ni       6.06362229       2.28679981       8.04956700
Ni       5.92245126       2.35982740      24.03419622
Ni       3.58015516       6.43263134       8.07139558
Ni       3.40105794       6.39453149      24.16627015
