191
Lattice="9.859930589742154 -0.02829717703812236 0.12131619545071748 -5.099745376654324 8.421364997925961 -0.22254208925225702 0.6097472923394561 -0.30442796625720125 32.35292684950003" Properties=species:S:1:pos:R:3 pbc="T T T"
Mg       0.36477769      -0.06856883      14.59199645
Mg       0.58860456      -0.31565167      30.87813435
Mg      -2.34940904       4.06050596      14.53675507
Mg      -1.96954054       3.89390398      30.63522397
Mg       5.31818175      -0.11460884      14.66503774
Mg       5.64056715      -0.26360570      30.88608128
Mg       2.64840354       3.97085017      14.63811835
Mg       2.99560732       3.89801951      30.77877891
Mg       0.09001279      -0.01030290       6.57379449
Mg       0.44701449      -0.24278455      22.66020478
Mg      -2.40499938       4.12716275       6.47079007
Mg      -2.15720143       4.00470286      22.53083701
Mg       5.11490119      -0.07527264       6.65111513
Ni       5.30183026      -0.19889129      22.85373502
Mg       2.50800557       4.17262633       6.51853620
Mg       2.79864473       4.01373197      22.75635159
Mg       0.20000332      -0.11106152       9.58039353
Mg       0.43482791      -0.24735000      25.71756324
Mg      -2.51645318       4.19467054       9.41549699
Mg      -2.07610843       3.99900554      25.72821411
Mg       5.20363078      -0.06564028       9.63664419
Mg       5.37131045      -0.29918027      25.87774675
Mg       2.47514026       4.04887897       9.58132395
Mg       2.83236433       3.96055922      25.75650656
Mg      -0.10724092      -0.06891565       1.48450121
Mg       0.33930385      -0.20201045      17.74363114
Ni      -2.53008428       4.21407725       1.41653884
Mg      -2.23371277       4.03192826      17.67812789
Mg       4.91728205      -0.12512676       1.52124002
Mg       5.21026617      -0.20914720      17.77065407
Mg       2.33227559       4.16076499       1.43143594
Mg       2.65772013       4.04751360      17.70885440
Mg       2.48956765       1.39968878       2.50418020
Mg       2.73547652       1.22169937      18.67815329
Mg      -0.10089016       5.56949665       2.38798129
Mg       0.31564110       5.42512797      18.47525741
Mg       7.35477331       1.31374779       2.64674794
Mg       7.68909178       1.18668657      18.72291536
Mg       4.84484382       5.67966843       2.51238459
Mg       5.14640189       5.41343828      18.55833468
Mg       0.14010001       2.71617281      10.61333382
Mg       0.47598438       2.53038253      26.76195809
Mg      -2.40117189       6.93414943      10.41534720
Mg      -2.06102232       6.76337307      26.60710659
Mg       5.12363268       2.70516754      10.70229060
Mg       5.39890584       2.51015797      26.69549120
Mg       2.47639337       6.91844337      10.57752344
Mg       2.91375086       6.78473902      26.67667940
Mg       2.42935827       1.26051982       5.66337171
Mg       2.84892606       1.19369438      21.67080260
Mg      -0.02222102       5.56935172       5.44439344
Mg       0.25812741       5.45725611      21.69399764
Mg       7.34125467       1.35897111       5.65876305
Mg       7.79456970       1.21247581      21.92468140
Mg       4.95217673       5.49407263       5.57710345
Mg       5.22457988       5.35151001      21.68436136
Mg       0.33001131       2.60188901      13.55938326
Mg       0.46423314       2.62732595      29.75043106
Ni      -2.32867961       6.84845393      13.50337569
Mg      -2.08200004       6.65318025      29.63737758
Mg       5.16456366       2.63422464      13.67747871
Mg       5.36543376       2.49747375      29.92492493
Mg       2.52389454       6.89313282      13.54232072
Ni       2.94813452       6.74457631      29.67040631
Ni       2.75941424       1.19607656      14.04312684
Mg       3.08733321       1.17671338      30.41995209
Ni       0.16211676       5.50557990      14.09594161
Ni       0.47366488       5.30446532      30.20545149
Ni       7.51672333       1.31638859      14.24948944
Ni       7.81766521       1.11940673      30.35708184
Ni       4.94620034       5.50459716      14.03848089
Ni       5.36968051       5.29510812      30.30959753
Ni       0.00346480       2.72677838       6.03066964
Ni       0.40491383       2.63491301      22.19209364
Ni      -2.54004077       7.01172814       5.86896835
Ni      -2.06956804       6.82193463      21.93258078
Ni       4.97885313       2.70880470       6.07614269
Ni       5.22780910       2.55194956      22.21492573
Ni       2.43190244       6.95171697       5.89845066
Ni       2.74831188       6.88050553      22.12399521
Ni       2.68403046       1.28466723      10.16815619
Ni       2.94044757       1.13723152      26.31027203
Ni       0.06243187       5.50566889       9.99568306
Ni       0.30317547       5.38964189      26.25520803
Ni       7.54979601       1.24268666      10.14928597
Ni       7.80485753       1.12128952      26.32744259
Ni       4.99285379       5.54695921       9.98626209
Ni       5.31372735       5.32206739      26.23006109
Ni      -0.02000651       2.78110136       1.97343613
Ni       0.24526648       2.60467228      18.25990112
Ni      -2.62512537       6.95155337       1.90728615
Ni      -2.33264992       6.95866819      18.07637401
Ni       4.99443531       2.72469747       2.06581259
Ni       5.26662863       2.65415603      18.16891762
Ni       2.29836374       7.00008558       1.93612103
Mg       2.59909517       6.91373519      18.08434526
Ni       2.71559281       2.74391681      12.08273547
Ni       2.91001595       2.47111110      28.26950744
Ni       0.10336388       6.97481735      11.94267244
Ni       0.27929233       6.76414397      28.27697755
Ni       7.50077440       2.67094606      12.18513222
Ni       7.86389905       2.50418022      28.39917610
Ni       5.06594481       6.87697725      12.01405325
Ni       5.28464205       6.72502968      28.14782657
Ni       3.90219989       0.57455419      12.09715718
Ni       4.21540776       0.33912605      28.21176786
Ni       1.24896162       4.78420888      12.07318217
Ni       1.63017502       4.61482959      28.15221934
Ni       8.84067506       0.54575542      12.20408430
Ni       9.17964010       0.42451931      28.38453607
Ni       6.32766207       4.80491502      12.07877644
Ni       6.57780013       4.68906532      28.31081502
Ni       1.27431334       3.46676552       3.94699093
Ni       1.57069372       3.31263859      20.17376521
Mg      -1.34819120       7.68479594       3.86816467
Ni      -1.03328359       7.48193415      20.01683124
Ni       6.15771665       3.36385472       3.98038933
Ni       6.54904656       3.26927253      20.26194120
Ni       3.54099267       7.68325166       3.95736208
Ni       3.92814083       7.52427303      20.01360158
Mg       1.46364647       0.56261674      12.12817217
Ni       1.78709297       0.39353919      28.20084450
Ni      -1.04958596       4.72603530      11.96892862
Ni       6.34654662       0.59481975      12.25488969
Ni       6.64333216       0.42105405      28.36171756
Ni       3.92016814       4.71479236      12.12341130
Ni       4.11968837       4.62219445      28.25488358
Ni       0.13643660       1.40199399       4.07240172
Ni       0.35822607       1.25358782      20.16461049
Ni      -2.49043807       5.63794903       3.86388567
Ni      -2.22416343       5.45500530      20.20502110
Ni       4.90721769       1.41705684       4.04210649
Ni       5.34253726       1.17902963      20.26180655
Ni       2.40577192       5.56114117       3.97973463
Ni       2.75479286       5.43435647      20.20393413
Ni      -1.25215143       3.55474372       3.91525268
Ni      -0.90422871       3.36324247      20.15594303
Ni      -3.73172251       7.65022961       3.92005142
Ni      -3.46589133       7.57343293      20.03943377
Ni       3.74803940       3.50129873       4.00683652
Ni       3.91200610       3.35941505      20.09374629
Ni       1.18253099       7.65038096       3.91380537
Ni       1.50570204       7.48365852      20.01837557
Ni       2.39930392       0.02386064       0.07165376
Ni       2.84593499      -0.13113750      16.15298034
Ni      -0.11570489       4.24445061      -0.01787604
Ni       0.25869171       3.97714197      16.18663510
Ni       7.42333189      -0.02076976       0.15257912
Ni       7.73909857      -0.10215807      16.32318464
Ni       4.90888645       4.13928856       0.04076398
Ni       5.09762878       3.98592749      16.13836660
Ni       1.20206486       2.11672079      -0.09030090
Ni       1.57085845       1.91747079      16.14557427
Ni      -1.34033638       6.37435213      -0.13217147
Ni      -1.13964055       6.10852149      16.06329836
Ni       6.08790214       2.09957425      -0.02274584
Ni       6.46894446       1.96411436      16.25287274
Ni       3.65918777       6.28943779      -0.05725427
Ni       4.00790395       6.10234552      16.15194416
Ni      -1.10634699       2.07906682       8.14328805
Ni      -0.83931534       1.81612080      24.34680371
Ni      -3.68984460       6.22913688       7.97851824
Ni      -3.33680387       6.08487895      24.21401880
Ni       3.93072838       2.01253630       8.04811467
Ni       4.16556320       1.94370960      24.28947125
Ni       1.24924540       6.35292962       7.92034658
Ni       1.51530602       6.00956297      24.21730348
Ni       2.64696159      -0.02804109       8.18653705
Ni       3.01406566      -0.27041769      24.38964845
Ni      -0.00224257       4.14036320       8.07554871
Ni       0.33859500       3.84829681      24.11891004
Ni       7.53526826      -0.12741553       8.14120818
Ni       7.80544247      -0.12346540      24.33709196
Ni       4.94022654       4.10188488       8.05118183
Ni       5.27157104       3.98959001      24.24551236
Ni      -1.26624607       2.17765248      -0.04761437
Ni      -1.07965032       1.97486971      16.13156508
Ni      -3.88654471       6.36206409      -0.14944204
Ni      -3.51024555       6.19612772      16.04966381
Ni       3.69358481       2.04793419      -0.00998726
Ni       3.97390676       1.91490195      16.13019482
Ni       1.13926712       6.24379018      -0.04994240
Ni       1.44899801       6.13351282      15.95172502
Ni       1.27120054       2.02193827       8.00751408
Ni       1.57251999       1.89569760      24.18064840
Ni      -1.31309308       6.18739777       7.96205832
Ni      -0.83878048       6.08242535      24.03965441
Ni       6.31832487       1.97234450       8.06927743
Ni       6.50789880       1.85037204      24.35116206
Ni       3.72650488       6.20910716       7.86105295
Ni       3.97388607       6.03854260      24.21593765
