190
Lattice="9.940410668636911 0.0010009166593538295 0.2823626760749153 -4.762677045949576 8.632243481943947 -0.3146154736508619 -0.05518579330799183 -0.4047540004214866 31.64219511462471" Properties=species:S:1:pos:R:3 pbc="T T T"
Mg      -0.07253050      -0.25158531      14.40456888
Mg      -0.05620453      -0.36934487      30.13423891
Mg      -2.47096298       4.13443112      14.15826354
Mg      -2.50747523       3.99543664      30.02558760
Mg       4.93580130      -0.37982954      30.35438612
Mg       2.49567148       4.08883490      14.32317235
Mg       2.54298732       3.94808748      30.08925627
Mg      -0.04715886      -0.00172468       6.37236222
Mg      -0.04690218      -0.28955586      22.20496970
Mg      -2.29334288       4.18384052       6.29638118
Mg      -2.40974742       4.01210112      22.14002543
Mg       4.95260963      -0.03457180       6.60077031
Mg       4.96815783      -0.29200917      22.39807674
Mg       2.66596617       4.23282799       6.42690152
Mg       2.49789939       4.05901500      22.19266385
Mg      -0.05579490      -0.20067572       9.41834347
Mg      -0.06337919      -0.34505334      25.24197198
Mg      -2.35935355       4.20738999       9.18077851
Mg      -2.31219914       3.97143328      25.05859416
Mg       4.89629456      -0.21197164       9.45873441
Mg       4.92785103      -0.40607679      25.43695027
Mg       2.46052078       4.11763739       9.32885233
Mg       2.55531410       3.92554336      25.16448365
Mg       0.05669912      -0.00950439       1.55809708
Mg       0.04444994      -0.24401491      17.28632357
Ni      -2.35558063       4.30784381       1.40255301
Mg      -2.46912180       4.06160464      17.13254543
Mg       5.00121063      -0.06172261       1.68490278
Mg       4.93301245      -0.23413292      17.47916881
Mg       2.46144423       4.28320048       1.58272565
Mg       2.51223442       4.19986849      17.31123646
Mg       2.54197617       1.49618254       2.53460502
Mg       2.44298739       1.11897741      18.26715802
Mg       0.22447774       5.67480541       2.34623743
Mg       0.06351848       5.52257078      18.29242392
Mg       7.54214505       1.43567366       2.61204716
Mg       7.52488894       1.16339737      18.47609632
Mg       5.18380848       5.74061308       2.58067408
Mg       5.08740836       5.53831307      18.33556717
Mg       0.04704907       2.73301950      10.34584528
Mg       0.08474797       2.43028653      26.19955613
Mg      -2.42048318       7.07446555      10.09686142
Mg      -2.39132486       6.94634504      26.07718387
Mg       5.01332383       2.69765363      10.42686782
Mg       5.08190031       2.58845797      26.28330874
Mg       2.66920000       7.09594127      10.30910020
Mg       2.71192820       6.84757019      26.07116521
Ni       2.45911878       1.30615516       5.55904442
Ni       2.50804786       1.25328147      21.35438799
Mg       0.15212935       5.62574856       5.36518351
Mg       0.06493108       5.51572515      21.04258725
Mg       7.46434245       1.31033966       5.64598496
Mg       7.56271673       1.19737678      21.40107108
Mg       5.09410235       5.62360382       5.48611366
Mg       5.11199334       5.44051844      21.31090398
Mg       0.00580705       2.65677422      13.30673185
Ni       0.11297566       2.61857612      29.11089457
Mg      -2.27064174       7.03928617      13.17406886
Mg      -2.32715416       6.75190822      29.01846548
Mg       5.00955518       2.67763420      13.39396264
Mg       4.99893914       2.49097313      29.26536520
Mg       2.59920836       7.12754086      13.21152536
Mg       2.63028048       6.85387604      29.06298582
Ni       2.52374735       1.24896538      13.76033661
Ni       2.43976749       1.23016561      29.80558339
Ni       0.10822336       5.59094718      13.76413064
Ni       0.12784664       5.36972207      29.62112826
Ni       7.38890574       1.17452054      14.03137640
Ni       7.38949813       0.97501905      29.84068105
Ni       5.05850102       5.58797979      13.82783800
Ni       5.01872210       5.37311739      29.73427090
Ni       0.06012245       2.87391746       5.91195568
Ni       0.07063422       2.63212686      21.59933561
Ni      -2.30405369       7.06419720       5.68491565
Ni      -2.37534591       6.91178188      21.54983214
Mg       5.05302440       2.84464251       6.01421558
Ni       4.98921204       2.56724660      21.87528245
Ni       2.58304697       7.06492504       5.86703266
Ni       2.61063455       6.90600243      21.81475017
Ni       2.53607027       1.38986766       9.87803489
Ni       2.35795560       1.10356866      25.74537058
Ni       0.17781717       5.61777808       9.75048195
Ni       0.03893421       5.36665942      25.59243184
Ni       7.49335689       1.31973110      10.02580785
Ni       7.38882589       1.13342858      25.90346474
Ni       5.07581610       5.73812728       9.88977946
Ni       5.10755926       5.49341397      25.68249609
Ni       0.14560307       2.92380288       1.93129650
Ni       0.08527697       2.60351175      17.71211602
Ni      -2.35952828       7.23220722       1.77280746
Ni      -2.37526664       6.88496400      17.57482910
Ni       5.04672064       2.88998126       2.05208892
Ni       5.06551322       2.77411821      17.93263738
Ni       2.58038188       7.17966917       1.88387127
Ni       2.63829990       6.98966894      17.76445910
Ni       2.53718148       2.77134554      11.92064425
Ni       2.51475707       2.50858933      27.66672952
Ni       0.16539626       7.07464861      11.71621263
Ni       0.08605501       6.79574811      27.62604734
Ni       7.49730774       2.86167619      12.00195924
Ni       7.47312064       2.47276434      27.82361794
Ni       5.12774714       7.09337978      11.82620561
Ni       5.08963922       6.83035730      27.68546367
Ni       3.70074412       0.57991957      11.96083013
Ni       3.74528164       0.38050697      27.70416350
Ni       1.34078772       4.93256127      11.85320630
Ni       1.29098425       4.74441207      27.67532547
Ni       8.64355478       0.57458258      12.00712027
Ni       8.66489502       0.44384968      27.93436037
Ni       6.35779854       4.87181282      11.99399998
Ni       6.23389569       4.69954421      27.75419813
Ni       1.27194890       3.58176915       3.92013188
Ni       1.29089908       3.35490327      19.73965268
Ni      -1.07437888       7.78537542       3.70723584
Ni      -1.14967492       7.57252611      19.58946317
Ni       6.33257654       3.48725750       4.07551772
Ni       6.30506702       3.31332179      19.83882321
Ni       3.94672987       7.89023388       3.92456730
Ni       3.79213017       7.63571145      19.75637595
Ni       1.24548290       0.54230070      11.81701071
Ni       1.14137951       0.44733058      27.80347278
Ni      -1.13426640       4.80175263      11.76064167
Mg      -1.17599737       4.56434803      27.49565861
Ni       6.30531404       0.75169135      12.11163022
Ni       6.17129623       0.34406583      27.87270093
Ni       3.95418602       4.80518820      11.83626441
Ni       3.80161822       4.69603954      27.71412767
Ni       0.00770777       1.28674808       3.85817836
Ni       0.04799853       1.22375931      19.78623947
Ni      -2.39719152       5.75225360       3.65956771
Ni      -2.38360643       5.46364094      19.65557749
Ni       4.90254845       1.36962211       4.08929213
Ni       5.00926144       1.20044898      19.91905357
Ni       2.62384683       5.75792068       3.90783821
Ni       2.52853949       5.44773830      19.73691047
Ni      -1.26710776       3.57297486       3.94869385
Ni      -1.27935119       3.32125387      19.66490626
Ni      -3.56290124       7.74704385       3.64580877
Ni      -3.68664296       7.73076562      19.50806560
Ni       3.84884408       3.53780414       3.94763139
Ni       3.81583489       3.35595054      19.73546893
Ni       1.44232676       7.90128644       3.95400471
Ni       1.39998251       7.65372663      19.59599269
Ni       2.54136413      -0.12469332       0.08571042
Ni       2.34277942      -0.15134591      15.88322360
Ni       0.11044141       4.41103798      -0.04034800
Ni       0.07514323       4.07988211      15.75694234
Ni       7.58892097       0.04567407       0.14546934
Ni       7.38705868      -0.14066111      16.01954698
Ni       5.06699346       4.33646698       0.04731867
Ni       4.95626880       4.17207111      15.85243449
Ni       1.32561127       2.15996728       0.01632894
Ni       1.24593990       1.91026782      15.81549941
Ni      -1.09118188       6.50845936      -0.13633009
Ni      -1.07264157       6.31904624      15.59467780
Ni       6.26824706       2.17685286       0.10507741
Ni       6.25788743       2.03452001      16.02468335
Ni       4.01493566       6.55788157       0.01392609
Ni       3.83225465       6.26616984      15.78638746
Ni      -1.16547605       2.08567730       7.83579351
Ni      -1.18630173       1.82165745      23.66327072
Ni      -3.49360267       6.34017247       7.62478921
Ni      -3.66199721       6.15886895      23.46098515
Ni       3.72603165       2.10484757       7.95535968
Ni       3.70466823       1.84789085      23.76947177
Ni       1.43383408       6.36715307       7.82637720
Ni       1.29910252       5.99342391      23.58119125
Ni       2.51850632      -0.10357598       7.97734285
Ni       2.44083128      -0.28251155      23.83346746
Ni      -0.03689217       4.28346099       7.74471240
Ni       0.14168896       3.95622705      23.61316733
Mg       7.49449256      -0.15434028       8.09311694
Ni       7.34665327      -0.35755944      23.88818630
Ni       5.08645626       4.31262021       7.99295715
Ni       4.94730108       4.11566126      23.77786341
Ni      -1.20243519       2.18843011       0.00565268
Mg      -1.22374739       1.98986012      15.76122044
Ni      -3.54521347       6.46498785      -0.23237445
Ni      -3.56151070       6.36756154      15.55303816
Ni       3.72652845       2.20456370      -0.02297224
Ni       3.66501729       1.97286755      15.83966780
Ni       1.40661919       6.48098195      -0.10524681
Ni       1.30938134       2.02653340       7.90456689
Ni       1.27668093       1.82546129      23.68994655
Ni      -1.01203301       6.34724300       7.76891507
Ni      -1.12189847       6.21424835      23.60624663
Ni       6.25070179       2.07310831       8.09910003
Ni       6.22839967       1.86843064      23.83207115
Ni       3.95655677       6.48525380       7.87686362
Ni       3.89006579       6.10374556      23.78441695
