191
Lattice="10.072717407978265 0.24235508378201018 -0.05154849249639606 -5.316892788557247 8.450847035509243 0.1981045250169826 -0.08432669048456487 0.35676288148705887 31.80865442353099" Properties=species:S:1:pos:R:3 pbc="T T T"
Mg      -0.02610414       0.12094929      14.35587474
Mg      -0.14918440       0.38540170      30.24703115
Mg      -2.62490727       4.36903253      14.48045376
Mg      -2.73178820       4.57122136      30.44947402
Mg       5.08295686       0.28523054      14.39853201
Mg       5.01957837       0.44827254      30.36005481
Mg       2.39369842       4.51509253      14.42710758
Mg       2.24111668       4.69594876      30.33859476
Mg      -0.03891254       0.04520980       6.39094075
Mg      -0.07078009       0.25239606      22.25466173
Mg      -2.74975183       4.37389521       6.66450900
Mg      -2.75354587       4.43701395      22.38743960
Mg       4.99264547       0.18301219       6.54181582
Mg       4.96178603       0.30119032      22.36232490
Mg       2.45873110       4.35062622       6.48137786
Mg       2.23162665       4.51182456      22.37939365
Mg      -0.06215463       0.08849679       9.45396563
Mg      -0.09249929       0.26933700      25.33771291
Mg      -2.66519785       4.27679143       9.59739708
Mg      -2.75987532       4.47320463      25.50626205
Ni       4.99673267       0.25189103       9.34687615
Mg       4.89847026       0.43765369      25.33432766
Mg       2.38968138       4.49195743       9.46861227
Mg       2.30115238       4.72643299      25.42960611
Mg       0.00895864      -0.02435103       1.44168415
Ni      -0.05335715       0.29471411      17.44770991
Mg      -2.67035282       4.18213333       1.58066481
Mg      -2.72723214       4.37257283      17.50619362
Mg       5.13778828       0.11535920       1.43960358
Mg       4.96760990       0.33569261      17.37401824
Mg       2.39523198       4.38003012       1.50986779
Mg       2.32138515       4.55752812      17.46521205
Mg       2.51266678       1.48934005       2.43738834
Mg       2.42822419       1.79418702      18.28692482
Mg      -0.09732897       5.77186958       2.63591141
Mg      -0.15310932       5.89534845      18.57025741
Mg       7.55607795       1.62684782       2.46018807
Mg       7.45445777       1.79338635      18.32856562
Mg       4.73121500       5.92193017       2.48754589
Mg       4.88084560       6.05332780      18.52424432
Mg      -0.16750714       3.01292306      10.39195696
Mg      -0.18108896       3.19353421      26.37213106
Mg      -2.73439640       7.22412816      10.63470807
Mg      -2.85310687       7.32818771      26.42135636
Mg       4.94382554       3.09496981      10.48825522
Mg       4.92106947       3.34342007      26.38335469
Mg       2.13903572       7.35112699      10.57658227
Mg       2.24324624       7.47015363      26.50551378
Mg       2.32404372       1.51037558       5.40788600
Mg       2.42486040       1.73491235      21.50118877
Mg      -0.16932297       5.77826339       5.67574037
Mg      -0.20328024       5.94145970      21.44875449
Mg       7.49446551       1.55122982       5.51327816
Mg       7.45633014       1.87684807      21.39838469
Mg       4.92720971       5.82218724       5.47130077
Mg       4.75356459       6.02949277      21.48536638
Mg      -0.09949430       2.99391574      13.52028350
Mg      -0.17773105       3.27309938      29.31114285
Mg      -2.88270162       7.25713905      13.54082583
Ni      -2.83556966       7.43581759      29.52821405
Mg       4.90729980       3.18597770      13.56362880
Mg       4.83619977       3.38974855      29.43464080
Mg       2.28194911       7.30409570      13.62864819
Mg       2.22766034       7.49964547      29.48479500
Ni       2.47183100       1.71133034      13.92072774
Ni       2.40570377       1.76405212      29.81067417
Ni      -0.23549275       5.78416438      14.03618127
Ni      -0.30125466       6.03936915      29.94829728
Ni       7.48606791       1.69736993      13.84351093
Ni       7.36242543       1.89321613      29.79244690
Ni       4.86195465       6.02222440      13.94529288
Ni       4.79811825       6.19348698      29.93448915
Ni      -0.05159512       2.90109086       6.10924413
Ni      -0.20692696       3.10449550      21.89845041
Ni      -2.76318894       7.20067174       6.13985046
Ni      -2.72392863       7.35096968      22.05004718
Ni       4.90938744       3.02914512       6.00086214
Ni       4.93099666       3.14430594      21.89500422
Ni       2.18074794       7.30928118       6.04958413
Ni       2.32117754       7.31980719      21.99974731
Ni       2.46417833       1.55837364       9.94256601
Ni       2.33039639       1.80181005      25.89063986
Ni      -0.20297073       5.83078624      10.00524720
Ni      -0.31731121       6.04969356      26.01060047
Ni       7.52811686       1.68715625       9.93616080
Ni       7.48374956       1.95204210      25.86407761
Ni       4.77337366       5.95212572      10.04038058
Ni       4.79364528       5.96342073      25.90837787
Ni      -0.13155574       2.80234679       2.06477450
Ni      -0.15639914       3.08334976      17.92602105
Ni      -2.74418008       7.18953164       2.06718960
Ni      -2.75983956       7.22690936      18.09095461
Ni       4.91057144       2.99095375       1.97460100
Ni       4.83295883       3.20871960      17.94046919
Ni       2.27476474       7.24229470       2.10951204
Ni       2.27739655       7.43337860      18.03745088
Ni       2.37185544       3.17274993      12.06145498
Ni       2.30458938       3.28564202      27.89216260
Ni      -0.22552725       7.29623214      12.08086889
Ni      -0.35858413       7.42770458      27.97270431
Ni       7.36434969       3.19909525      11.98722950
Ni       7.37915015       3.38908301      27.85668500
Ni       4.81134958       7.30820790      12.07326389
Ni       4.73669469       7.56437444      27.87700667
Ni       3.73622530       0.92475263      11.88295042
Ni       3.65602155       1.12117765      27.82819565
Ni       1.07631574       5.05400862      12.02281283
Ni       1.00620892       5.27827822      27.94237978
Ni       8.73145741       1.07566074      11.85547731
Ni       8.71819236       1.17908576      27.83554360
Ni       6.08899936       5.18846113      11.89708968
Ni       5.90939611       5.50097998      27.91185028
Ni       1.09385685       3.67876200       4.01982022
Ni       1.12272618       3.86569937      19.88019868
Ni      -1.57410524       7.89663394       4.10952254
Ni      -1.58672148       8.11546998      20.17481110
Ni       6.16296616       3.78779029       4.12005021
Ni       6.09141155       3.99002429      19.90980867
Ni       3.55573850       8.03188996       4.18951841
Mg       3.41950838       8.19093594      20.00826037
Ni       1.12184100       0.86825262      12.01738115
Ni       1.15611784       1.00337423      27.78167721
Ni      -1.47811994       5.19516602      11.98803363
Ni      -1.47451068       5.26098957      27.90642995
Ni       6.24520604       1.03369133      11.90918335
Ni       6.25736292       1.11126733      27.68255175
Ni       3.62957774       5.35190508      11.97342435
Ni       3.54781585       5.55946110      27.97749070
Ni      -0.07394922       1.47192279       4.03028157
Ni      -0.18271098       1.65679204      19.91987322
Ni      -2.73393375       5.72676483       4.08786760
Ni      -2.76147977       5.92348058      19.98869791
Ni       5.03704229       1.57647934       3.95837084
Ni       4.91598633       1.78887442      19.91885890
Ni       2.40244584       5.85763375       4.03920306
Ni       2.34318842       6.01243078      19.92862264
Ni      -1.37197978       3.57014704       4.08277378
Ni      -1.46625541       3.82768522      19.91010514
Ni      -3.94952004       7.78603370       4.11422286
Ni       3.72189374       3.65355462       4.08813645
Ni       3.59476188       3.90745843      19.89113826
Ni       0.94081638       7.88771194       4.19605300
Ni       1.06632124       8.16091157      19.92840512
Ni       2.48432573      -0.02239795      -0.02993918
Ni       2.58402828       0.23007154      15.88339561
Ni      -0.21938832       4.31464929       0.18200542
Ni      -0.17448797       4.47709957      15.96779652
Ni       7.66071940       0.23511900      -0.03641633
Mg       7.56836290       0.34123861      15.89037995
Ni       4.80182328       4.47956663       0.08521187
Ni       4.91143863       4.56643558      16.06304379
Ni       1.12344544       2.22038269       0.06587018
Ni       1.16607831       2.33639124      15.96163312
Ni      -1.46729296       6.41118273       0.19077079
Mg      -1.54904221       6.55838276      16.00437959
Ni       6.18468041       2.26802401       0.02345066
Ni       6.20378547       2.48454827      15.90325491
Ni       3.57330211       6.54197336       0.08382374
Ni       3.45220908       6.72265766      16.01564080
Ni      -1.36777270       2.19446538       8.02971257
Ni      -1.39104184       2.33326218      23.89643861
Ni      -4.01249444       6.40369814       8.05389770
Ni      -4.17538184       6.62447088      24.03646291
Ni       3.73521245       2.30079134       7.97099545
Ni       3.62753159       2.48387910      23.93168734
Ni       1.05549769       6.53451830       8.06676307
Ni       1.04187652       6.72276680      24.02243202
Ni       2.46179944       0.18445731       7.93192201
Ni       2.51937729       0.30365988      23.85988775
Ni      -0.24561914       4.36319880       8.14921782
Ni      -0.24563005       4.54673576      24.03979905
Ni       7.55663502       0.11762561       7.93129203
Ni       7.43378978       0.31209803      23.81108904
Ni       4.86339164       4.47417024       7.93144099
Ni       4.86568879       4.69512065      24.02535740
Ni      -1.29623079       2.13030997       0.07505184
Ni      -1.37608412       2.28712472      15.93148411
Ni      -4.02881420       6.40620346       0.18154467
Ni      -4.03153417       6.56569024      15.98026935
Ni       3.71891482       2.27888151      -0.00025930
Ni       3.61721290       2.51047609      15.88061054
Ni       1.09486524       6.45427519       0.05185351
Ni       1.12279391       6.65926273      16.00340628
Ni       1.16020485       2.31204708       7.98576822
Ni       1.06942162       2.27661348      23.98746116
Ni      -1.48976898       6.49807730       7.97155658
Ni      -1.63791068       6.76939496      23.99591697
Ni       6.26400882       2.36041856       7.94641264
Ni       6.13444442       2.63034606      23.91822860
Ni       3.48270785       6.58529274       8.04283188
Ni       3.46928776       6.86687919      24.01630238
