190
Lattice="9.671261503469099 -0.1746306468409506 0.18600114381690372 -4.947344004813424 8.64020888007796 -0.14171771578184797 0.39752841271388734 -0.11474172642411523 31.54387709716749" Properties=species:S:1:pos:R:3 pbc="T T T"
Mg       0.16501228      -0.12832883      14.28866933
Mg       0.32722015      -0.08865811      30.03709318
Mg      -2.23611155       4.33568966      14.25086437
Mg      -2.08001381       4.25194513      30.04037294
Mg       5.04169624      -0.13350145      14.42878119
Mg       5.12775142      -0.20244979      30.06780846
Mg       2.49191333       4.20126781      14.35892835
Mg       2.72638722       4.14650501      30.08535083
Mg       0.11125418       0.05869755       6.30705326
Mg       0.29381245      -0.06601589      22.16745339
Mg      -2.36534066       4.28002493       6.27845108
Mg      -2.26616883       4.23195785      22.08336590
Mg       4.84214138      -0.18578189       6.38961555
Mg       5.16805021      -0.20816854      22.27108762
Mg       2.43256667       4.26084395       6.48991722
Mg       2.62883473       4.06539459      22.27922119
Mg       0.15117203      -0.10800318       9.35649864
Mg       0.27892494       0.02179891      25.18998461
Mg      -2.28991078       4.27057700       9.27202173
Mg      -2.17946098       4.26221202      25.01826996
Mg       4.86338683      -0.21449188       9.46313275
Mg       5.15521552      -0.21576987      25.27476758
Mg       2.55576829       4.12072158       9.43598333
Mg       2.66252773       4.19543876      25.19433970
Mg      -0.05178372      -0.03182348       1.43365619
Mg       0.15456693      -0.08799778      17.16115125
Mg      -2.48916243       4.46754977       1.30343236
Mg      -2.21046385       4.26328807      17.26475288
Mg       4.89167851      -0.05821733       1.61399860
Mg       4.98675843      -0.18779897      17.33376200
Mg       2.40804172       4.29603193       1.42613159
Mg       2.53871412       4.16948029      17.25589147
Mg       2.40471206       1.44098849       2.44018298
Ni       2.58375042       1.32055177      18.19817787
Mg       0.05853609       5.73183178       2.41230568
Mg       0.16102542       5.62339325      18.24680682
Ni       7.21308479       1.25321579       2.51910474
Mg       7.47004196       1.21599126      18.29537616
Mg       4.75589920       5.59014751       2.46940690
Mg       5.03400724       5.49401140      18.34660023
Mg       0.04728813       2.63263237      10.36993599
Mg       0.23822000       2.78883841      26.19776798
Ni      -2.42534272       7.12129742      10.24548612
Mg      -2.17784494       7.10551282      26.09410391
Mg       4.89622483       2.71867997      10.44242681
Mg       5.10182384       2.68911514      26.17769061
Mg       2.44198020       7.05841352      10.38100738
Mg       2.60216682       6.99720823      26.10996573
Mg       2.46625672       1.35456825       5.42325080
Mg       2.68493901       1.29494574      21.13024656
Mg       0.08531149       5.67581179       5.40730434
Mg       0.08819898       5.68520860      21.18621802
Mg       7.30980900       1.26789356       5.61842497
Mg       7.54643625       1.28786302      21.33486563
Mg       4.89562542       5.51724630       5.43188974
Mg       4.99221104       5.47781170      21.31824719
Mg       0.22846794       2.81256172      13.28618167
Mg       0.30251729       2.67739043      29.08273887
Mg      -2.32598279       7.04113200      13.25379245
Mg      -2.13971183       7.05549149      28.97705788
Mg       4.92432711       2.70906471      13.38245548
Mg       5.23477344       2.66541950      29.13068528
Mg       2.48199066       7.02472747      13.34239628
Mg       2.72953450       7.03246863      29.00076279
Ni       2.61710971       1.35745018      13.89837760
Ni       2.72872176       1.31364357      29.58856238
Ni       0.12717041       5.65132667      13.87287988
Ni       0.28492408       5.59121272      29.59497951
Ni       7.42778067       1.27304303      13.96816054
Ni       7.61237578       1.16834061      29.74881763
Ni       4.85600517       5.57927322      13.85666108
Ni       5.10694872       5.47228081      29.65972380
Ni       0.11573116       2.87008035       5.85811736
Ni       0.21638732       2.77346516      21.70330239
Ni      -2.37514317       7.21972352       5.82374874
Ni      -2.20859170       7.13048321      21.49585019
Ni       4.87707492       2.58598197       6.02186925
Ni       5.11058051       2.70441360      21.79448325
Mg       2.48715193       7.06405188       5.95084953
Mg       2.61455239       6.97693689      21.75307959
Ni       2.48700518       1.34245225       9.76540911
Ni       2.74062997       1.30404238      25.71769068
Ni       0.03006212       5.68642082       9.71595646
Ni       0.20872276       5.64338782      25.59669433
Ni       7.31882726       1.27208650      10.08539607
Ni       7.59785931       1.21120499      25.72849243
Ni       4.95449079       5.61062035       9.91574406
Ni       5.11929640       5.58361953      25.75139991
Ni       0.01234799       2.91002020       1.92103367
Ni       0.29492624       2.74322593      17.68915290
Ni      -2.44171784       7.18611022       1.85980515
Ni      -2.41839894       7.13990248      17.66850059
Ni       4.76084780       2.74611065       1.97602917
Ni       5.07866812       2.71200990      17.74024157
Ni       2.32244349       6.99186955       1.97052754
Ni       2.53592405       6.96559713      17.73334696
Ni       2.60872399       2.82016058      11.82691076
Ni       2.78793187       2.72397857      27.62315041
Ni       0.06479568       7.00615641      11.79733422
Ni       0.26207344       7.07311904      27.56501350
Ni       7.38108679       2.64175734      11.94550511
Ni       4.92232973       6.95479202      11.87229596
Ni       5.16305590       6.90025795      27.62917670
Ni       3.84129905       0.62729882      11.91214987
Ni       3.97668085       0.42697114      27.62526683
Ni       1.28815740       4.96003732      11.80944657
Ni       1.53084929       4.78300975      27.53561747
Ni       8.54133290       0.51698657      12.00432983
Ni       8.81520074       0.45828456      27.76552838
Ni       6.21683469       4.90358151      11.97186656
Ni       6.27592609       4.84220920      27.64793243
Ni       1.23456965       3.55551809       3.92209668
Ni      -1.17686771       7.78494602       3.92400778
Ni      -1.08026491       7.74277673      19.67785424
Ni       6.09610463       3.35333203       4.04351302
Ni       6.26803476       3.37880961      19.75232772
Ni       3.55929973       7.65628684       4.02680229
Ni       3.71427678       7.73706773      19.75528621
Ni       1.37017858       0.71158902      11.87829882
Ni       1.53144348       0.62276634      27.50175769
Ni      -1.06383395       4.93347125      11.77027152
Ni      -0.88152632       4.89327956      27.54292349
Ni       6.25251901       0.55740274      11.93803418
Ni       6.37648867       0.48213100      27.77484499
Ni       3.68513875       4.87096178      11.84961681
Ni       3.93373837       4.80245355      27.68104028
Ni       0.01905469       1.44675153       3.88755129
Ni       0.22807139       1.34388024      19.70192967
Ni      -2.41855797       5.75183833       3.80982370
Ni      -2.24263032       5.63937515      19.67376380
Ni       4.96372856       1.31577786       4.02723781
Ni       5.05343891       1.28372084      19.81701071
Ni       2.39887498       5.68579209       3.97320542
Ni       2.68482314       5.60566621      19.73223210
Ni      -1.18246842       3.60479367       3.83662925
Ni      -0.98516183       3.39417339      19.61523674
Ni      -3.71483349       7.93189559       3.86718559
Ni      -3.44904979       7.81257600      19.60537727
Ni       3.74206202       3.40237780       4.02170034
Ni       3.77581256       3.44709877      19.73183524
Ni       1.16135530       7.73846160       3.91553947
Ni       1.34288136       7.73119814      19.61258513
Ni       2.43565060      -0.10244027      -0.08685631
Mg       2.63140739      -0.04936962      15.81129527
Ni      -0.00186482       4.35108018      -0.04097396
Ni       0.06238776       4.21232261      15.82288200
Ni       7.19930456      -0.07348728       0.12966641
Ni       7.43358123      -0.22221554      15.92801344
Ni       4.76506464       4.20941224       0.03832839
Ni       4.89691982       4.16334308      15.83271262
Ni       1.19740783       2.07836172       0.05294688
Ni       1.34329211       2.01035795      15.75793075
Ni      -1.29981252       6.52288798      -0.01231096
Ni      -1.16348013       6.39680744      15.75108734
Ni       6.14686229       2.07151052       0.09930828
Ni       6.22394847       1.93467553      15.95621292
Ni       3.51007068       6.32985921       0.07761731
Ni       3.73711498       6.35618905      15.75191891
Ni      -1.21274001       2.13778488       7.76902957
Ni      -0.91318589       2.13737322      23.60131247
Ni      -3.56622445       6.40920755       7.76269076
Ni      -3.41560549       6.34877265      23.55340008
Ni       3.60024493       1.98865814       7.93059588
Ni       3.89373555       1.99286536      23.61113801
Ni       1.24574345       6.37703543       7.85680379
Ni       1.37503645       6.39690505      23.61279926
Ni       2.48726960       0.03400899       8.00452499
Ni       2.67638885      -0.20303212      23.67905465
Ni       0.00894345       4.25042497       7.86558302
Ni       0.31149794       4.12188460      23.64526548
Ni       7.27898751      -0.21130867       7.99493978
Ni       7.58556340      -0.19348257      23.85788826
Ni       4.81933214       4.20591422       8.00106537
Ni       5.04374020       4.03919342      23.70329445
Ni      -1.26314351       2.22031681      -0.00106000
Ni      -1.02312332       2.13666405      15.80295927
Ni      -3.69366591       6.46830668      -0.14783508
Ni      -3.61325125       6.53201129      15.67533983
Ni       3.62428470       2.15052958       0.08617224
Ni       3.81311300       2.00858093      15.80456650
Ni       1.09311442       6.42563142       0.02323351
Ni       1.40322476       6.31168256      15.74716249
Ni       1.35399548       2.05359577       7.90117068
Ni       1.43306373       1.95684939      23.62475971
Ni      -1.16796552       6.43752000       7.80089900
Ni      -0.99822245       6.23742418      23.54658014
Ni       6.06998263       2.06038695       7.97697936
Ni       6.33412951       2.01347517      23.72812248
Ni       3.65082282       6.33327465       7.98171642
Ni       3.83979407       6.28797813      23.63479818
