187
Lattice="9.826086394689153 -0.1027602748520765 0.10255507518482822 -4.9151577678010065 8.742803280901436 -0.2485236198765725 0.6872329299857775 -0.27197327771136237 31.75653870381571" Properties=species:S:1:pos:R:3 pbc="T T T"
Mg       0.27079996      -0.04772689      14.41130582
Mg       0.67430067      -0.28907693      30.21957896
Mg      -2.12261105       4.35662556      14.31717558
Mg      -1.85857588       4.13997856      30.14177720
Mg       5.32673717      -0.22520774      14.45509421
Mg       5.51796936      -0.28179201      30.37142055
Mg       2.68388251       4.23638405      14.20540945
Mg       3.06117082       4.06457611      30.15044636
Mg       0.13356878      -0.04622719       6.46348318
Ni       0.49113306      -0.22488209      22.31424859
Mg      -2.24075182       4.35928188       6.21521924
Mg      -1.89825835       4.25275198      22.22290848
Mg       5.03629007      -0.01831722       6.50118687
Mg       5.27382063      -0.18189675      22.28193861
Mg       2.58679055       4.22728841       6.39019137
Mg       2.88141647       4.16218114      22.22588138
Mg       0.27088180      -0.05920592       9.40541914
Mg       0.47091272      -0.18038821      25.38629347
Mg      -2.35659942       4.25045063       9.35824017
Mg      -2.04486487       4.14836803      25.21008219
Mg       5.09039227      -0.05489081       9.47277107
Mg       5.53095952      -0.26452299      25.33431258
Mg       2.69128682       4.30050408       9.27191871
Mg       3.01825409       4.06390083      25.24814900
Mg       0.02814293       0.02699140       1.59917376
Mg       0.47628692      -0.25234072      17.37324386
Mg      -2.43211155       4.53127879       1.29532719
Mg      -2.04303469       4.23924260      17.20495808
Mg       4.97606541      -0.03445035       1.54020424
Mg       5.22132840      -0.23289448      17.42300122
Mg       2.43867630       4.36929416       1.41704490
Mg       2.82278723       4.07279835      17.34265245
Mg       2.53865007       1.45719282       2.41793230
Mg       2.86633549       1.23679726      18.39488349
Mg       0.03259523       5.77926366       2.32521486
Mg       0.43090271       5.64388629      18.22473315
Mg       7.40796203       1.28116900       2.56707880
Mg       7.76874449       1.25765026      18.39954910
Mg       4.94895356       5.67125017       2.37366000
Mg       5.30360968       5.61093333      18.20383930
Mg       0.22295270       2.82961362      10.33070274
Mg       0.61341407       2.74899504      26.23020593
Mg      -2.23500428       7.17518545      10.17392065
Mg      -1.79425468       7.08147415      26.10735971
Mg       5.05595109       2.82121945      10.35268101
Mg       5.47135619       2.66077453      26.26811200
Mg       2.63510494       7.06001418      10.29836980
Mg       2.95652277       6.94090706      26.13439428
Mg       2.59165566       1.37321272       5.42532066
Mg       2.83431890       1.23445894      21.33632563
Mg       0.06833748       5.68108000       5.31243635
Mg       0.46100736       5.53362080      21.21893563
Mg       7.44774468       1.35415210       5.51196555
Mg       7.81073396       1.14647462      21.41017680
Mg       4.92347893       5.77525333       5.43045830
Mg       0.31395724       2.74484176      13.24970693
Mg       0.70825016       2.70705027      29.14331542
Mg      -2.29879199       7.13335041      13.21161255
Mg      -1.81158722       7.02016745      29.09626181
Mg       5.20243578       2.79020364      13.40730444
Mg       5.49883762       2.52875756      29.29683628
Mg       2.72711782       7.04612453      13.32852395
Mg       3.11760365       6.96278356      29.17352410
Ni       2.69811286       1.33662448      13.83922696
Ni       3.17626513       1.18501151      29.75606167
Ni       0.27254433       5.62645549      13.71820490
Ni       7.62560006       1.28925863      13.93355640
Ni       8.06818762       1.10943733      29.75971625
Ni       5.27315361       5.62116964      13.85789778
Ni       5.50938296       5.45741406      29.73471526
Ni       0.14949258       2.84217841       5.86186058
Ni       0.44885162       2.71749932      21.79008733
Ni      -2.29999213       7.26591082       5.81312898
Ni      -1.89520956       7.11174769      21.65164359
Ni       4.97573286       2.77418862       5.91804456
Ni       5.41503765       2.67862867      21.71713615
Ni       2.55346726       7.15892490       5.82056425
Ni       2.93053201       7.02986411      21.64153012
Ni       2.68720906       1.32867874       9.96726870
Ni       3.04390825       1.20785917      25.83359380
Ni       0.21803738       5.75106770       9.73045250
Ni       0.48884666       5.56638615      25.60821837
Ni       7.62815899       1.25580282       9.90377259
Ni       7.98911629       1.13918970      25.82455460
Ni       5.48470985       5.60319079      25.75081893
Ni       0.04240664       2.92786606       1.85397344
Ni       0.38943595       2.70609655      17.82025309
Ni      -2.33340103       7.23168868       1.82471318
Ni      -2.12797235       7.17991175      17.67218973
Ni       4.96371191       2.86141382       1.92596286
Ni       5.37649279       2.69132737      17.80716816
Ni       2.49003921       7.14080034       1.79912262
Ni       2.82856986       7.12643656      17.65037385
Ni       2.69418928       2.79370811      11.87448990
Ni       3.11739501       2.63926193      27.65793007
Ni       0.29316514       7.12935974      11.76561354
Ni       0.65384731       7.05082129      27.63853953
Ni       7.57559573       2.77185929      11.92027382
Ni       8.00192664       2.46642165      27.79878541
Ni       5.21509992       7.15935778      11.80874260
Ni       5.53207583       6.91026528      27.69633872
Ni       3.85996465       0.58752026      11.87146823
Ni       1.45479577       4.92478600      11.88394059
Ni       1.85682518       4.77427991      27.66638339
Ni       8.90803953       0.52447051      11.92430887
Ni       9.16910810       0.43379952      27.86159194
Ni       6.31317302       4.84999836      11.94479236
Ni       6.70227270       4.81971172      27.77333740
Ni       1.35590795       3.56313479       3.88846446
Ni       1.68411111       3.41149513      19.80617700
Ni      -1.12000414       7.85372234       3.74606978
Ni      -0.81846281       7.82081690      19.60032138
Ni       6.17890963       3.53826608       3.87017199
Ni       6.58597082       3.38393115      19.79243610
Ni       3.81778906       7.85510632       3.88300231
Ni       4.18336292       7.69472130      19.70245577
Ni       1.42104993       0.57374628      11.94213214
Ni       1.83974707       0.41935737      27.73634872
Ni      -0.95830413       5.05933062      11.76851854
Ni      -0.63330476       4.82071554      27.68078786
Ni       6.44728065       0.46939606      11.97635367
Ni       6.74547090       0.38854082      27.79882850
Ni       3.86875228       4.92771143      11.80251157
Ni       4.30145157       4.78725148      27.64977899
Ni       0.08589242       1.43410794       3.90934026
Ni       0.36359287       1.29539658      19.83605322
Ni      -2.39544461       5.71284770       3.81803999
Ni      -2.14016170       5.54249520      19.68791208
Ni       5.04759734       1.42698127       4.03249415
Ni       5.34250989       1.20697232      19.79900046
Ni       2.47465922       5.76364622       3.91675858
Ni       2.92542717       5.57623465      19.77235605
Ni      -1.13611754       3.70363613       3.84279555
Ni      -0.79731666       3.52640995      19.75969202
Ni      -3.61145973       8.05249298       3.79890597
Ni      -3.21997925       7.82089497      19.54315698
Ni       3.76693966       3.44890391       3.94543669
Ni       4.04470238       3.43544943      19.76255448
Ni       1.27934776       7.94499921       3.78465056
Ni       1.75855196       7.80822812      19.67818725
Ni       2.45346003      -0.06333896       0.01337781
Ni       2.73899619      -0.13244070      15.96338713
Ni      -0.05549018       4.37180629      -0.15923501
Ni       0.41332904       4.21151793      15.73761249
Ni       7.38000380      -0.02792733       0.12593391
Ni       7.80821358      -0.16560276      15.92433862
Ni       4.79501327       4.30767949      -0.02328842
Ni       5.29039036       4.20791825      15.87968014
Ni       1.32883316       2.20312321      -0.16893698
Ni       1.61361497       2.00552641      15.89730534
Ni      -1.29745222       6.53588633      -0.08850628
Ni      -0.82304331       6.30896198      15.80559350
Ni       6.48433463       1.96670571      15.92960944
Ni       3.71030642       6.48278503      -0.10977362
Ni       3.92231583       6.32938076      15.71786234
Ni      -1.11705594       2.20906542       7.92046262
Ni      -0.72297592       2.05805425      23.82027188
Ni      -3.52495855       6.58678289       7.78667485
Ni      -3.14725542       6.35376191      23.70156609
Ni       3.85818487       2.05808635       7.88055227
Ni       4.27647042       1.88956403      23.87826326
Ni       1.41793725       6.41564743       7.79578626
Ni       1.78001106       6.30270267      23.76790706
Ni       2.58288569      -0.15247843       7.99903481
Ni       2.88544633      -0.25263834      23.80975131
Ni       0.16943026       4.28459167       7.92848862
Ni       0.57816428       4.14569744      23.75243043
Ni       7.54666913      -0.04833306       8.00081293
Ni       7.91626452      -0.29895264      23.94502012
Mg       5.07699570       4.19714185       7.79848056
Ni       5.40628204       4.01988129      23.73289691
Ni      -1.28781099       2.15875490      -0.15163525
Ni      -0.83767410       2.09716730      15.73804185
Ni      -3.72569070       6.51324010      -0.26213120
Ni      -3.22787612       6.42976484      15.63509933
Ni       3.69196212       2.14785818      -0.00809741
Ni       3.93484861       2.02985923      15.93459208
Ni       1.14674448       6.49663990      -0.00735550
Ni       1.72849011       6.38809769      15.74940267
Ni       1.43660815       2.10322702       7.81206529
Ni       1.69847158       1.98966046      23.74182258
Ni      -1.06514958       6.37619820       7.76908282
Ni      -0.76989841       6.34296186      23.62853542
Ni       6.29454882       2.02083112       7.89013901
Ni       6.55119675       1.88723384      23.78299801
Ni       3.90245554       6.48428096       7.79508060
Ni       4.20145144       6.32786823      23.73988821
