189
Lattice="10.009074507589496 0.12310076433376081 0.12367467976134804 -5.050953962605417 8.752283144574275 -0.1990146296880252 -0.009536532724653417 -0.9693340653996793 31.829281129298867" Properties=species:S:1:pos:R:3 pbc="T T T"
Mg      -0.03657367      -0.41944233      14.39524091
Mg      -0.03116411      -0.85797549      30.39546613
Mg      -2.51688388       3.94549879      14.28684146
Mg      -2.43026244       3.41244430      30.18532666
Mg       4.97244836      -0.38077312      14.50326182
Mg       4.99483675      -0.78329148      30.40668583
Mg       2.40646577       4.01204269      14.41007838
Ni       2.52205133       3.52106129      30.30198423
Mg       0.06493336      -0.18834866       6.49233588
Ni       0.05328106      -0.76386906      22.34895317
Mg      -2.56553817       4.15094091       6.32713531
Mg      -2.55512873       3.71624684      22.31047887
Mg       5.00219772      -0.09780690       6.41095098
Mg       4.92208993      -0.63471583      22.39262791
Mg       2.46977170       4.23316356       6.45223325
Mg       2.48736194       3.74931475      22.32157569
Mg      -0.03339544      -0.23789723       9.42278574
Mg      -0.03267211      -0.81487241      25.28759517
Mg      -2.54200293       4.06477180       9.27295990
Mg      -2.45725923       3.57099857      25.28830670
Mg       5.07587255      -0.30208393       9.58994911
Mg       4.96087234      -0.64648680      25.38191074
Ni       2.49916514       4.13480289       9.49163684
Mg       2.51135266       3.62002920      25.33410661
Ni      -0.08176967      -0.09462785       1.48786203
Mg       0.06454308      -0.59184981      17.49020034
Mg      -2.49949332       4.26811034       1.40371309
Mg      -2.49026401       3.84878991      17.35469463
Mg       4.97954284      -0.49969162      17.42892559
Mg       2.40847563       4.44729357       1.44576660
Mg       2.41483643       3.98211175      17.33579709
Mg       2.53730800       1.40213064       2.64866812
Mg       2.43604589       0.96187938      18.37021470
Mg      -0.14873742       5.79045734       2.30974263
Mg      -0.02838207       5.26993952      18.36408213
Mg       7.45156266       1.53714656       2.51219669
Mg       7.46369218       0.86407786      18.50114266
Mg       4.95388051       5.92629250       2.48729473
Mg       5.05248659       5.44636422      18.51264129
Mg       0.02362015       2.63676289      10.42152657
Mg       0.06076619       2.24665051      26.27736096
Mg      -2.50686304       6.97745913      10.31857332
Mg      -2.43411219       6.48644367      26.32359329
Mg       4.95098498       2.70591563      10.50164395
Mg       4.99923068       2.20809178      26.39829852
Mg       2.40830207       7.10195175      10.27432560
Mg       2.43986846       6.61726202      26.24072997
Mg       2.43043314       1.38787492       5.48854957
Mg       2.46903563       0.85532751      21.35279702
Mg       0.02358694       5.82043404       5.40411050
Mg      -0.02858736       5.18850815      21.28961210
Mg       7.61681086       1.42111416       5.56612401
Mg       7.56451890       0.88047967      21.43075996
Mg       4.93498968       5.83812256       5.46899939
Mg       4.99515485       5.28579391      21.39611810
Mg      -0.08389356       2.55928850      13.41342573
Mg      -0.03160926       2.11177986      29.25300234
Mg      -2.55103158       6.87553780      13.27395590
Ni      -2.57297492       6.38176954      29.19290103
Mg       5.00543458       2.52593748      13.48487013
Mg       5.00074088       2.07337139      29.31843286
Mg       2.41247777       6.91146984      13.32607326
Ni       2.46812420       6.51209688      29.25961994
Ni       2.45087608       1.13491928      13.96754125
Ni       2.60425342       0.65046234      29.87754402
Ni      -0.02521106       5.33149466      13.79201660
Ni       0.00935531       4.95930154      29.76662894
Ni       7.53310668       1.16419697      14.03513928
Ni       7.57884027       0.67975631      29.89643279
Ni       4.86308207       5.50065044      13.89744663
Ni       4.96045688       5.05481232      29.78078496
Ni       0.01884036       2.24974715      21.76782130
Ni      -2.58222698       7.18158388       5.86131356
Ni      -2.47629897       6.72154434      21.75381076
Ni       4.99053500       2.80853095       6.03689138
Ni       5.02671840       2.32569250      21.85765087
Ni       2.44493475       7.16688169       5.87614336
Ni       2.42955939       6.64231551      21.72089087
Ni       2.43060748       1.21666076      10.00244673
Ni       2.49812996       0.62222585      25.87388650
Mg      -0.09174831       5.50108644       9.88471937
Ni      -0.05298149       5.19320051      25.75816943
Ni       7.47652562       1.23297130      10.03850469
Mg       7.49353922       0.88323718      25.87736566
Ni       4.86135475       5.62258155       9.87656718
Ni       4.93545178       5.29034435      25.77858375
Ni       0.00957731       2.83302322       1.88566232
Ni      -0.06537143       2.34465321      17.86055123
Ni      -2.63866364       7.24901847       1.82084355
Ni      -2.63337776       6.75553150      17.75550940
Ni       4.94793830       2.97444942       1.95727190
Ni       5.06578610       2.36509706      17.95714951
Ni       2.44060055       7.34801594       1.89187915
Ni       2.43676674       6.86733373      17.86344088
Ni       2.51035790       2.64990364      11.99049807
Ni       2.53529565       2.14139821      27.82810089
Ni      -0.07294725       6.92347433      11.84134195
Ni      -0.03426946       6.42913717      27.80882004
Ni       7.53415067       2.65563557      11.89589931
Ni       7.43918811       2.19437834      27.84953262
Ni       4.92652550       6.99109183      11.84596041
Ni       4.91946775       6.47936570      27.80940565
Ni       3.77334430       0.44093907      11.96456228
Ni       3.76830179       0.04025955      27.80418764
Ni       1.18693062       4.72464359      11.79686151
Ni       1.25730761       4.21418410      27.81471508
Mg       8.65498728       0.43813155      12.01322745
Ni       8.75302603      -0.14196061      27.93573449
Ni       6.24689611       4.84146877      11.84501318
Ni       6.21698053       4.45707223      27.84629449
Ni       1.29653863       3.61727559       3.97456057
Ni       1.25017885       3.10281254      19.87332455
Ni      -1.37019020       7.97572420       3.81308636
Ni      -1.24609055       7.42073593      19.72895620
Ni       6.26435876       3.64991714       4.02475354
Ni       6.19598103       3.11614668      19.89831504
Ni       3.68590228       8.05431984       3.92457388
Ni       3.63728781       7.45697888      19.84303458
Ni       1.21672959       0.34170690      11.95513262
Ni       1.18657190      -0.13444014      27.77437317
Ni      -1.29444595       4.69425983      11.88880027
Ni      -1.27659700       4.30241355      27.77997095
Ni       6.19067210       0.41432003      12.00373518
Ni       6.30478568      -0.03873577      27.86429587
Ni       3.75371273       4.86692646      11.89842034
Ni       3.80128277       4.29007730      27.74942707
Ni       0.10325824       1.20445212       3.99781694
Mg       0.00593969       0.88914040      19.83067443
Ni      -2.60244991       5.72331002       3.80288795
Ni      -2.56055079       5.20089571      19.78807548
Ni       5.04118450       1.41876458       4.00817674
Ni       4.93043612       0.95190770      20.02593980
Ni       2.38928013       5.76181941       3.93728870
Ni       2.43935625       5.33378900      19.82925718
Ni      -1.31302549       3.44728057       3.92783210
Ni      -1.23229134       3.05540268      19.80052851
Ni      -3.87617064       7.92145137       3.82425977
Ni      -3.77286930       7.45412026      19.76212471
Ni       3.74954379       3.56624827       3.93307469
Ni       3.78034910       3.10705971      19.94123034
Ni       1.24149990       7.97450724       3.78265243
Mg       1.15295335       7.48663726      19.74937097
Ni       2.53641939      -0.09783329       0.04689824
Ni       2.51337123      -0.42119063      15.87532076
Ni       0.06358457       4.44515338      -0.09699145
Ni       0.08325147       3.86242568      15.86983501
Ni       7.57663608       0.09501646       0.07506276
Ni       7.50784825      -0.40218592      16.01365945
Ni       4.91782918       4.46224468       0.00127983
Ni       5.00290049       3.99971541      15.87737131
Ni       1.34951536       2.22744277       0.00263959
Ni       1.28125160       1.78382199      15.91345433
Ni      -1.29365631       6.55120344      -0.10678575
Ni      -1.24808785       6.09808299      15.76172823
Ni       6.24929479       2.28260991       0.02279018
Ni       6.29071853       1.81244881      16.00621125
Ni       3.65493077       6.63242463      -0.15482716
Ni       3.72631505       6.18872743      15.80744885
Ni      -1.27719024       1.92000612       7.94877645
Ni      -1.28545778       1.48860483      23.76869475
Ni      -3.72802906       6.40546303       7.82086251
Ni      -3.79145994       5.85057941      23.74919575
Ni       3.81536283       1.99630764       7.91872540
Ni       3.84571431       1.57493398      23.87580317
Ni       1.22811591       6.40035411       7.88863926
Ni       1.17976347       5.92513190      23.84255336
Ni       2.49983448      -0.22387936       8.06278606
Mg       2.49711674      -0.66612549      23.89526982
Ni       0.04496883       4.15865458       7.90557865
Ni      -0.06189218       3.63318808      23.84017140
Ni       7.55515015      -0.67015670      23.90915931
Ni       5.02926926       4.29237516       7.93459200
Ni       5.03793130       3.72722346      23.84780805
Ni      -1.23094854       2.22666069      -0.07125511
Ni      -1.22558607       1.78926770      15.81813861
Ni      -3.89511801       6.55637115      -0.20144982
Ni      -3.83174956       6.08375634      15.68579275
Ni       3.79993328       2.26103906       0.01655946
Ni       3.77701103       1.76953629      15.95296155
Ni       1.26506944       6.59528797      -0.04899552
Ni       1.25846557       6.06184575      15.84982024
Ni       1.29745647       1.99197230       7.93762569
Ni       1.19739123       1.42442630      23.83370821
Ni      -1.16789026       6.40767172       7.84019321
Ni      -1.23130739       5.91215840      23.83781183
Ni       6.27414052       2.01759918       7.99165463
Ni       6.24625816       1.51297646      23.87587825
Ni       3.66187830       6.33883250       7.99419140
Ni       3.71180838       5.86385317      23.85332487
