190
Lattice="9.499374838333603 -0.29190717103528857 -0.04073961789943515 -4.773961434441344 8.580863302951744 -0.10893233052078051 0.06865772137207601 -0.09160542242787033 31.882954807778646" Properties=species:S:1:pos:R:3 pbc="T T T"
Mg       0.08769516      -0.13481618      14.52787069
Ni       0.09300699      -0.04432495      30.41651145
Mg      -2.26471192       4.19340145      14.34254917
Mg      -2.24912180       4.30291991      30.30844912
Mg       4.82847023      -0.21733619      14.39302479
Mg       4.72597242      -0.23959465      30.38156630
Mg       2.45906630       4.15102617      14.43081071
Mg       2.41131060       4.04283357      30.31350707
Mg       0.05803947       0.00359289       6.53343642
Mg       0.07913098      -0.09570405      22.33760065
Ni      -2.41114673       4.25263457       6.49322024
Mg      -2.27024832       4.19712215      22.31149783
Mg       4.79417561      -0.17148071       6.39476414
Mg       4.76931033      -0.21548737      22.37185483
Mg       2.37684270       4.19185365       6.35669271
Mg       2.31558965       4.12599761      22.38901031
Mg       0.07008798       0.04502974       9.46682727
Mg       0.05879962      -0.12235731      25.40087692
Mg      -2.34382577       4.28260354       9.36724276
Mg      -2.37238365       4.21438160      25.43604615
Mg       4.71558498      -0.21419108       9.51374175
Mg       4.76008652      -0.19539007      25.28907701
Mg       2.48631252       4.09363304       9.31501512
Mg       2.38512447       4.07968446      25.30826589
Mg       0.09541369      -0.09333511      17.49861326
Mg      -2.41075496       4.27116068       1.47537884
Mg      -2.27808254       4.20434737      17.41183165
Mg       4.73714381      -0.18412823       1.41995105
Mg       4.78648754      -0.21378749      17.37322306
Mg       2.33178055       4.14451468       1.39125820
Mg       2.42228709       4.07323880      17.34974630
Mg       2.31341879       1.41202570       2.46280485
Mg       2.39955930       1.24325938      18.34649014
Mg       0.01531848       5.58419411       2.36078332
Mg      -0.05738799       5.53972067      18.32925960
Mg       7.03488355       1.25676846       2.48111414
Mg       7.22981533       0.99951941      18.42179889
Mg       4.76836174       5.44441122       2.32627205
Mg       4.90394500       5.34351811      18.35666924
Mg       0.01728456       2.74788367      10.42754236
Mg       0.03129857       2.64167103      26.36914269
Mg      -2.37103010       7.12414717      10.32204779
Mg      -2.33043801       7.01476562      26.32785066
Mg       4.87907406       2.65245053      10.35684657
Mg       4.72597339       2.58626207      26.33583844
Mg       2.36586133       6.99946877      10.29158364
Mg       2.51785008       6.84481104      26.32341433
Mg       2.46761444       1.38317035       5.41732043
Mg       2.41286151       1.24627537      21.33171614
Mg      -0.08827199       5.65210717       5.37251928
Mg       0.04991583       5.55423126      21.29275012
Mg       7.16732381       1.19481983       5.41199747
Mg       7.18645108       1.12117074      21.28619052
Mg       4.74452928       5.43050922       5.30222864
Mg       4.79342614       5.37970503      21.25759613
Mg       0.05808059       2.71157779      13.44704843
Mg       0.05906131       2.72809921      29.33824599
Mg      -2.41536159       7.08809767      29.31298202
Mg       4.73120056       2.61002291      13.43762416
Mg       4.78312124       2.53643740      29.33928491
Mg       2.30836531       6.99639242      13.36215641
Mg       2.40853007       6.91037958      29.23095540
Ni       2.39731675       1.32859841      13.91913108
Ni       2.42728549       1.24601012      29.82622054
Ni       0.03465595       5.59453081      13.90492541
Ni       0.06618795       5.63326168      29.82260185
Ni       7.23371723       1.13255077      13.95645434
Ni       7.12145732       1.12036921      29.94749918
Ni       4.77563519       5.45132219      13.82424264
Ni       4.86521946       5.38673845      29.77824228
Ni       0.01342090       2.81337134       5.84283633
Ni       0.04129178       2.70618682      21.84871430
Ni      -2.37876967       7.13778165       5.84110456
Ni      -2.29823591       7.08720977      21.85883757
Ni       4.77082662       2.55316300       5.84371217
Ni       4.79558733       2.64284808      21.82343393
Ni       2.37768778       6.94948080       5.78036930
Ni       2.38350587       6.87654563      21.87424737
Ni       2.34966450       1.34357757       9.84748577
Ni       2.49240412       1.28524574      25.90036560
Ni       0.03252210       5.57923318       9.93939431
Ni       0.02403824       5.55368472      25.88648328
Ni       7.16733188       1.09460297       9.83026383
Ni       7.15330864       1.09557514      25.92835031
Ni       4.72372411       5.57460965       9.85367696
Ni       4.74151436       5.38694437      25.75690512
Ni      -0.03570742       2.78559316       1.96064346
Ni      -0.07479123       2.66413934      17.98311651
Ni      -2.33524949       7.01188893       1.83316556
Ni      -2.33702941       7.06004857      17.84206194
Ni       4.72930948       2.64006876       1.89565908
Ni       4.82595106       2.61019171      17.85351359
Ni       2.41155814       6.91445764       1.84394361
Ni       2.47000179       6.92560392      17.82133179
Mg       2.45128256       2.58396340      11.94053574
Ni       2.38141748       2.63640317      27.74553017
Ni      -0.13397499       7.02791407      11.82232060
Ni       0.06546823       6.98086853      27.84888671
Ni       7.14329315       2.57336356      11.80545971
Mg       7.14288055       2.58085930      27.81475123
Ni       4.77712511       6.91921266      11.86814235
Ni       4.78479998       6.73286299      27.76787355
Ni       3.52666823       0.60211930      11.97510817
Ni       3.58149586       0.53470609      27.86757905
Ni       1.11326027       4.81217762      11.94149259
Ni       1.17688158       4.68973872      27.82104792
Ni       8.32892014       0.34993316      11.93717420
Ni       8.41227826       0.28484316      27.87514196
Ni       5.92151403       4.71559576      11.85351786
Ni       5.95837251       4.63841733      27.80582569
Ni       1.24804052       3.48267621       3.93799078
Ni       1.23518886       3.50717180      19.79061834
Ni      -1.15474911       7.67190991       3.84378922
Ni      -1.15039577       7.72312656      19.81179212
Ni       5.86956402       3.34075625       3.83280478
Ni       5.94501005       3.30763611      19.84895693
Ni       3.59748488       7.64455638       3.78109272
Ni       3.66357632       7.54001451      19.80806580
Ni       1.17468136       0.60249481      11.93634436
Ni       1.20627697       0.57799562      27.86290742
Ni      -1.14191299       4.93083815      11.82322071
Ni      -1.10960107       4.88086119      27.70914832
Ni       5.95379735       0.52159755      11.92159408
Ni       5.98417290       0.37652187      27.84243444
Ni       3.57665999       4.80003252      11.84498018
Ni       3.65209129       4.77282995      27.79728412
Ni      -0.06701459       1.45809596       3.99667027
Ni       0.05899724       1.29967717      19.93000418
Ni      -2.42572680       5.69024826       3.95945718
Ni      -2.25527992       5.67311616      19.86391188
Ni       4.75599494       1.31258051       3.94494946
Ni       4.81307613       1.17057359      19.90428743
Ni       2.33531369       5.58723733       3.86393600
Ni       2.30661797       5.49175533      19.74292537
Ni      -1.09390957       3.53764603       3.96559310
Ni      -1.07828776       3.56743931      19.80450754
Ni      -3.55062622       7.82286753       3.79765562
Ni      -3.64919764       7.80881878      19.73033491
Ni       3.55727090       3.49222035       3.92550937
Ni       3.66233585       3.32759818      19.78264988
Ni       1.14925616       7.63966217       3.91742922
Ni       1.15877959       7.55724950      19.75966427
Ni       2.40516842      -0.11906387      -0.11777978
Ni       2.45632029      -0.15563934      15.98847376
Ni      -0.06794049       4.32467414      -0.06294253
Ni       0.05172160       4.18978534      15.85133514
Ni       7.09203015      -0.19232699       0.03942784
Ni       7.19894711      -0.32636250      15.88884101
Ni       4.75019050       4.06971083      -0.01124135
Ni       4.71749881       4.08329108      15.85519225
Ni       1.22225578       2.04554669      -0.02641866
Ni       1.16718665       2.01189565      15.97841610
Ni      -1.28122011       6.36753316      -0.08224587
Ni      -1.14450143       6.35082623      15.83182706
Ni       5.89416131       1.85525434      -0.12165483
Ni       5.99420424       1.86269217      15.83719086
Ni       3.52244786       6.22646422      -0.13704542
Ni       3.60636075       6.22888270      15.76277397
Ni      -1.16277844       2.19701800       7.91358141
Ni      -1.11951665       2.09048724      23.91803495
Ni      -3.64733256       6.51266242       7.91192201
Ni      -3.60713093       6.39663919      23.85085816
Ni       3.53799722       1.90885612       7.98624227
Ni       3.54057578       1.94172904      23.92287240
Ni       1.20462705       6.27584251       7.82107618
Ni       1.25207400       6.19090435      23.81126403
Ni       2.36565146      -0.19080715       7.98449635
Ni       2.47853980      -0.16516176      23.86084689
Ni       0.08575525       4.20426037       7.96144446
Ni       0.01594465       4.17993810      23.80896009
Ni       7.03134119      -0.19590006       7.92050984
Ni       7.16524906      -0.29183316      23.92971347
Ni       4.76897283       4.06688807       7.83359725
Ni       4.76104142       3.95958073      23.78734466
Ni      -1.17855814       2.18592724      -0.09720230
Ni      -1.16097597       2.08930199      15.87601498
Ni      -3.57538825       6.44814157      -0.08061227
Ni      -3.48895216       6.30513125      15.85174007
Ni       3.52291612       1.98538806      -0.03140837
Ni       3.53457829       1.96979619      15.91713371
Ni       1.10451106       6.31767980      -0.06666643
Ni       1.13887690       6.26374319      15.88243197
Ni       1.12501693       2.06166757       7.88313334
Ni       1.23780606       2.09405569      23.86749705
Ni      -1.24014892       6.38168313       7.87737742
Ni      -1.20565384       6.29128805      23.84570749
Ni       5.84867039       1.97420316       7.94771010
Ni       6.07201464       1.87021018      23.83138045
Ni       3.62129827       6.15230212       7.90040056
Ni       3.65466770       6.11976870      23.78956057
