188
Lattice="9.780432280305037 -0.3662732074519066 -0.23628069635263615 -4.928476087766068 8.537458313585878 0.3192632312876802 0.012779305474150135 -0.5191559029855134 31.010912058159867" Properties=species:S:1:pos:R:3 pbc="T T T"
Mg      -0.04096557      -0.24162136      13.99330095
Mg       0.06004322      -0.51730693      29.61359474
Mg      -2.56183379       4.11786367      14.12142487
Mg      -2.49790692       3.69932957      29.80738651
Mg       4.91919225      -0.36110962      13.88058974
Mg       4.95423757      -0.65083397      29.44210148
Mg       2.43487802       3.79185511      14.05564791
Mg       2.44693879       3.57756812      29.62705650
Mg       0.00804324      -0.10483339       6.19357406
Mg       0.03587044      -0.34511702      21.77728618
Mg      -2.45948407       4.13717683       6.48369236
Mg      -2.43902768       3.89847623      21.96293779
Ni       4.81069553      -0.25010029       6.14427731
Ni       4.89364943      -0.57916532      21.61876394
Mg       2.38251768       3.96034327       6.37605407
Mg       2.44017100       3.73634143      21.89463974
Mg       0.04270483      -0.11290430       9.27652961
Mg       0.02203816      -0.35884669      24.67622987
Mg      -2.48319817       4.09920247       9.31516754
Mg      -2.42608272       3.82447151      24.79964024
Ni       4.89982914      -0.25200677       9.14803336
Mg       4.88272161      -0.46927593      24.55523946
Mg       2.43697139       4.00900807       9.27099406
Mg       2.43206915       3.65773893      24.76873194
Mg       0.00315758      -0.04725323       1.42263575
Ni       0.02506581      -0.34322812      16.93918672
Mg      -2.39512034       4.23890155       1.60329114
Mg      -2.47651044       4.05785352      17.12920592
Mg       4.80498615      -0.21798558       1.23332163
Mg       4.87353809      -0.40234478      16.88753263
Mg       2.43155132       4.04276287       1.42996945
Mg       2.50355445       3.68245796      17.06368719
Mg       2.52328565       1.20767014       2.46069233
Mg       2.47307311       1.07126915      17.94746694
Mg       0.06074950       5.59301769       2.46935624
Mg       0.01035627       5.18016187      18.05771744
Mg       7.35495135       1.04733806       2.24274077
Mg       7.34216685       0.81253882      17.79656636
Mg       4.77935478       5.29555869       2.41451665
Ni       4.91131929       5.08623945      17.92935016
Mg      -0.01700160       2.56610915      10.20168051
Mg      -0.03343109       2.43952294      25.73343315
Mg      -2.52555652       6.82491261      10.36412769
Mg      -2.59205570       6.57643008      25.88911204
Mg       4.92296229       2.47612771      10.11322589
Mg       4.89625015       2.22788915      25.59134796
Mg       2.46824845       6.66578471      10.30787301
Mg       2.46200739       6.46691866      25.71432276
Mg       2.48165237       1.25680549       5.25192271
Ni       2.46727465       0.87788160      20.83146259
Mg      -0.01621925       5.44413348       5.50618304
Mg       0.04959811       5.22892179      20.93105920
Mg       7.20116656       0.97563801       5.26720590
Mg       7.27765385       0.78573630      20.76193462
Mg       4.88576539       5.36900598       5.40168742
Mg       4.88742990       4.99243739      20.87479632
Mg       0.02671694       2.55845423      13.09545880
Ni       0.06705348       2.29284164      28.67080517
Mg      -2.39194880       6.81902695      13.29152255
Mg      -2.49427177       6.54843832      28.77392922
Mg       4.90964239       2.31642988      12.98288127
Mg       4.96048197       2.15003781      28.53444102
Mg       2.34245399       6.73374205      13.08692277
Mg       2.39614548       6.40074583      28.69649278
Ni       2.55296947       1.11118916      13.45565634
Ni       2.55073633       0.79243455      29.03023472
Ni       0.05498738       5.38718947      13.75423436
Ni      -0.01408034       5.09218233      29.25074315
Ni       7.30934372       0.94787960      13.41410749
Ni       7.34966551       0.59490754      28.95067066
Ni       4.85280964       5.26071314      13.58649028
Ni       4.84209414       4.85889897      29.07034379
Ni      -0.00042637       2.63961494       5.93548172
Ni       0.01107361       2.48581874      21.37307084
Ni      -2.41324376       6.99813027       6.04686128
Ni      -2.43584437       6.71754677      21.53286560
Ni       4.85730156       2.52718392       5.83213923
Ni       4.83365989       2.27232309      21.27166010
Mg       2.42232729       6.81155138       5.93192938
Ni       2.48523138       6.55461326      21.40531552
Ni       2.51999740       1.10024889       9.66313193
Ni       2.43025174       0.90898193      25.21801295
Ni       0.00102789       5.40645331       9.75892246
Ni      -0.00584829       5.20667673      25.41031841
Ni       7.35299048       0.91190768       9.44304954
Ni       7.32374158       0.69088593      25.02581199
Ni       4.96406700       5.21760713       9.66784509
Ni       4.86153456       5.00207125      25.18060464
Ni      -0.08012230       2.77864178       1.95883085
Ni      -0.03965820       2.39985965      17.44997614
Ni      -2.50097432       6.97357119       2.18457509
Ni      -2.41062042       6.75426383      17.65041717
Ni       4.87013021       2.57014666       1.86187424
Ni       4.85927505       2.42145787      17.37303595
Ni       2.44382678       6.78448676       1.97443031
Ni       2.46643978       6.53182655      17.60409767
Ni       2.39828611       2.49343295      11.64518177
Ni       2.52796038       2.21885525      27.07282988
Ni      -0.06650277       6.75019440      11.76748967
Mg      -0.00365831       6.51148965      27.35840249
Ni       7.30939504       2.32160801      11.49127734
Ni       7.29936180       1.99827981      27.02128339
Ni       4.89074418       6.66742601      11.68207735
Ni       4.86948436       6.24774893      27.20043720
Ni       3.74605921       0.37688318      11.59212779
Ni       3.65186531       0.08371650      27.05855060
Ni       1.24489721       4.62733540      11.71776804
Ni       1.31215905       4.39939938      27.23197226
Ni       8.51028477       0.16355506      11.48840656
Ni       8.57268554      -0.09249920      26.98897853
Ni       6.01888121       4.41307721      11.59286429
Ni       6.04704120       4.12318028      27.14648249
Ni       1.25933744       3.35550286       3.98273007
Ni       1.23164803       3.11621292      19.51095576
Ni      -1.29292077       7.69628530       4.02634019
Ni      -1.29430152       7.40453268      19.54261119
Ni       6.11480238       3.27370903       3.82673192
Ni       6.19080297       2.89735763      19.36865883
Ni       3.63266564       7.44476602       3.90782587
Ni       3.61156309       7.26810383      19.43480520
Ni       1.21073568       0.54846467      11.69569217
Ni       1.17110654       0.23937689      27.10921841
Ni      -1.24838756       4.72083148      11.72554221
Ni      -1.26179738       4.44605153      27.27540655
Ni       6.12099039      -0.06689888      27.05324692
Ni       3.65933003       4.59460623      11.75105584
Ni       3.61988047       4.24610497      27.23500043
Ni      -0.05563318       1.35573915       3.93185331
Ni      -0.08699121       1.17851609      19.48285912
Ni      -2.41596106       5.56971736       4.04771066
Ni      -2.47302672       5.32600593      19.61515555
Ni       4.78598303       1.21161000       3.76624756
Mg       4.93474882       0.92985793      19.32478588
Ni       2.51314016       5.45040808       3.90376705
Ni       2.41069621       5.16236244      19.49156041
Ni      -1.22984366       3.48956544       3.94631485
Ni      -1.24839546       3.22047597      19.52629374
Ni      -3.69727948       7.72227268       4.19374727
Ni      -3.62321573       7.47407968      19.62020128
Ni       3.65565358       3.27641767       3.88963808
Ni       3.54344208       2.97154589      19.38710339
Ni       1.19717752       7.52109122       4.04328767
Ni       1.13816629       7.35054099      19.49389022
Ni       2.39463015      -0.18652212      -0.04399158
Ni       2.50456436      -0.35329073      15.44646607
Ni      -0.03724564       3.92197956      15.61450396
Ni       7.42991500      -0.26864437      -0.24330622
Ni       7.32152736      -0.51638133      15.38612564
Ni       4.91877528       3.93268865       0.03288822
Ni       4.92835026       3.65256971      15.46701279
Ni       1.22705069       2.07625011       0.04856892
Ni       1.25105829       1.75619874      15.51290987
Ni      -1.23740400       6.32373253       0.13040068
Ni      -1.18786101       6.04758060      15.69596075
Ni       6.08941470       1.88128731      -0.13454383
Ni       6.09445819       1.58476770      15.43879675
Mg       3.72564474       6.14587541       0.04407258
Ni       3.73871244       5.89751898      15.58858441
Ni      -1.22726765       1.98730699       7.93431965
Ni      -3.68539208       6.26715689       7.99235459
Ni      -3.75925501       5.91934661      23.49658723
Ni       3.75247255       1.84994975       7.64187813
Ni       3.71766571       1.57744193      23.12163929
Ni       1.16402339       6.12162368       7.81621091
Ni       1.18641892       5.79357818      23.33558086
Ni       2.50037536      -0.13937048       7.67224047
Mg       2.44670741      -0.46785658      23.24098504
Mg       0.01520982       4.02278830       7.80347088
Ni       0.00010577       3.72817640      23.32256339
Ni       7.29259324      -0.45501161       7.51929254
Ni       7.43156555      -0.57735117      23.06788690
Ni       4.82828895       3.81225783       7.76285426
Ni       4.91816524       3.65507300      23.23875921
Ni      -1.24615650       2.04477806       0.08396542
Ni      -1.22383058       1.82461750      15.59710789
Ni      -3.66782665       6.35678988       0.27407661
Ni      -3.69857186       6.15801477      15.79637436
Ni       3.66622101       2.01939521       0.08904660
Ni       3.66393972       1.72006713      15.44151154
Ni       1.11498350       6.28883134       0.15311717
Ni       1.21747094       6.01750710      15.67900280
Ni       1.16653001       1.83245129       7.80764348
Ni       1.17200067       1.72990355      23.14589640
Ni      -1.18473866       6.25861459       7.85146736
Mg       6.10487251       1.79403780       7.63849568
Ni       6.20688672       1.43944040      23.17596779
Ni       3.65300905       5.86835687       7.84339951
Ni       3.65978472       5.70794768      23.34200043
