187
Lattice="9.859810424614432 -0.13854664005300318 -0.12272819947676145 -4.961669418042262 8.57318745568377 0.02918250249904917 -0.6548521095942281 0.10483739971030433 31.70186449141208" Properties=species:S:1:pos:R:3 pbc="T T T"
Mg      -0.33730586       0.02270860      14.34815592
Mg      -0.62053476       0.05190972      30.24328559
Mg      -2.76728962       4.31028150      14.42678680
Mg      -3.15524714       4.32874126      30.16020774
Mg       4.62289072      -0.03104343      14.29871905
Mg       4.33078177       0.06656083      30.20461097
Mg       2.07575107       4.27241864      14.34305535
Ni       1.81415311       4.29637792      30.18515928
Mg      -0.11746994      -0.04413563       6.44147560
Mg      -0.43466895       0.05294442      22.32753687
Mg      -2.68044997       4.31656327       6.34788012
Mg      -2.94907205       4.30826808      22.24950205
Mg       4.74522211      -0.05474765       6.35370902
Mg       4.45352829      -0.02980244      22.30546643
Mg       2.25326140       4.33633977       6.40878703
Mg       1.88420858       4.28394823      22.23778024
Mg      -0.25925749       0.04867196       9.44043822
Mg      -0.53942666       0.06775843      25.33780844
Mg      -2.67350339       4.30086984       9.44480202
Mg      -2.93067193       4.41758472      25.26822526
Mg       4.65282109      -0.00592179       9.38968478
Mg       4.42962383       0.00495155      25.04841246
Mg       2.24837056       4.20950158       9.42623109
Mg       1.96479633       4.28951054      25.27187519
Mg      -0.09405220       0.03465245       1.43953664
Mg      -0.32535423       0.01777953      17.33881952
Mg      -2.48627260       4.31492977       1.57305204
Mg      -2.90454088       4.42469090      17.30154786
Mg       4.93625901      -0.10250307       1.43603031
Mg       4.69983183      -0.05558288      17.33424992
Mg       2.43232740       4.25213719       1.32320760
Mg       2.09070615       4.32923851      17.30285374
Mg       2.41104499       1.40179916       2.45493150
Mg       2.12854528       1.48648232      18.23031686
Mg      -0.01314654       5.63481711       2.47049355
Ni      -0.29302218       5.73691318      18.32916194
Mg       7.34392745       1.36541360       2.37197552
Mg       6.94648447       1.46323763      18.31438024
Mg       4.82545375       5.59904708       2.30644592
Mg       4.59907592       5.61160639      18.23594817
Mg      -0.31648194       2.91934479      10.40112028
Ni      -0.56767764       2.89202062      26.28188138
Mg      -2.77092277       7.22959682      10.36890413
Mg      -3.11586909       7.16312194      26.28989157
Mg       4.75114985       2.82261328      10.24536184
Mg       4.35490075       2.87930464      26.09773421
Mg       2.25283508       7.00837889      10.37374789
Mg       1.90744489       7.00652916      26.27209553
Mg       2.31447702       1.36836364       5.44593972
Mg       1.99159932       1.40892505      21.23050641
Mg      -0.13412512       5.62267121       5.45722502
Ni      -0.44651214       5.86002472      21.35195262
Mg       7.21223753       1.35178629       5.32657616
Mg       6.96669021       1.30008352      21.22252698
Mg       4.69937852       5.62881026       5.42310277
Mg       4.45983310       5.63259466      21.14261550
Mg      -0.30419910       2.89476237      13.33308763
Mg      -0.64471988       2.96654234      29.21900848
Mg      -2.70804833       7.09830589      13.29465124
Ni      -3.06508433       7.20559095      29.21816105
Mg       4.72588996       2.80783156      13.30580254
Mg       4.31741514       2.84862018      29.14339037
Mg       2.17844458       7.09769936      13.40273155
Mg       1.81079221       7.16673017      29.13459469
Ni       2.15104552       1.41166406      13.88073212
Ni       1.95800753       1.54090668      29.66721112
Ni      -0.36880463       5.70202256      13.85798357
Ni      -0.70626844       5.78090227      29.68939993
Ni       7.09580182       1.28589713      13.77557386
Ni       6.81129978       1.42943284      29.62069542
Ni       4.67352431       5.59256672      13.76746418
Ni       4.32597465       5.64970751      29.60889972
Ni      -0.13576465       2.82209759       5.88175359
Ni      -0.39237071       2.86610241      21.77216941
Ni      -2.65792551       7.14238284       5.86823537
Ni      -2.84388395       7.24614972      21.81630641
Ni       4.76499685       2.81215831       5.86365978
Ni       4.40404185       2.83950957      21.72681839
Ni       2.37618948       7.05693599       5.87826490
Ni       2.04381567       7.10652974      21.80491414
Ni       2.28704689       1.37107421       9.92193936
Ni       1.90528039       1.51206518      25.73072101
Ni      -0.27463162       5.72559522       9.92845488
Ni      -0.45897942       5.70160239      25.81317079
Ni       7.18414522       1.32564591       9.80719509
Ni       6.96626322       1.40417849      25.64171309
Ni       4.68869405       5.67878924       9.82376617
Ni       4.32586207       5.68228970      25.64839099
Ni      -0.13336304       2.77626104       2.02739411
Ni      -0.40845133       2.90438258      17.82629071
Ni      -2.44634732       7.26545889       1.94681055
Ni      -2.86429488       7.24115124      17.87538947
Ni       4.95747419       2.79239345       1.87094659
Ni       4.64649206       2.85333090      17.76972252
Ni       2.44370407       7.13512928       1.90842242
Ni       2.03285467       7.09695679      17.80154012
Ni       2.22233951       2.84913550      11.87796322
Ni       1.91975061       2.86912428      27.70590653
Ni      -0.24382412       7.04519346      11.83453157
Ni      -0.65435328       7.14592686      27.72296527
Ni       7.09181649       2.81342916      11.74426131
Ni       6.88863137       2.79234451      27.57647743
Ni       4.70158950       7.06572890      11.77253627
Ni       4.47887058       7.05511713      27.70913731
Ni       3.43492504       0.67536879      11.84662376
Ni       3.05996432       0.72128277      27.70674927
Ni       0.99781690       4.96262709      11.82238725
Ni       0.64007966       5.07308267      27.73573513
Ni       8.35418314       0.68833079      11.82374847
Ni       8.04130901       0.73342506      27.65840293
Ni       5.83302433       4.93662366      11.81706099
Ni       5.60041767       4.94437560      27.61504837
Ni       1.17910792       3.55675663       3.92340188
Ni       0.82868983       3.58119815      19.86263585
Ni      -1.35530342       7.88182981       3.93109323
Ni      -1.61202706       7.83669542      19.65320599
Ni       6.01017480       3.49692305       3.88705858
Mg       5.76365730       3.54998996      19.69642632
Ni       3.61419511       7.74424732       3.92863483
Ni       0.99858930       0.73779256      11.87795176
Mg       0.71434539       0.80641642      27.65630225
Ni      -1.46056142       5.00275068      11.88680275
Ni      -1.75984952       5.07808670      27.68443773
Ni       5.96509339       0.65435085      11.73905539
Ni       5.74069243       0.71905632      27.62649349
Ni       3.37206882       4.95574650      11.86770017
Ni       3.16021953       5.07384785      27.69238598
Ni      -0.07073136       1.42178882       4.01383700
Ni      -0.40657422       1.50988541      19.73000715
Ni      -2.51768296       5.68172307       3.92932958
Ni      -3.00465033       5.74772829      19.81283283
Ni       4.81152599       1.38002731       3.95136401
Ni       4.49315082       1.34072077      19.73606873
Ni       2.39186286       5.65660524       3.90249521
Ni       2.05857117       5.64599538      19.88953908
Ni      -1.38485352       3.59581871       3.96274743
Ni      -1.57392197       3.62426932      19.80821981
Ni      -4.11934786       7.90935315      19.72108292
Ni       3.59227559       3.49454608       3.93985233
Ni       3.32011388       3.54982888      19.66581828
Ni       1.15177760       7.85095337       3.86271885
Ni       0.84364061       7.90181109      19.80229159
Ni       2.53524655      -0.02120101      -0.08369251
Ni       2.11794720       0.02289374      15.82508038
Ni      -0.01928064       4.29831174      -0.13542837
Ni      -0.31676379       4.24084788      15.81924441
Ni       7.36981142      -0.11649034      -0.16931061
Ni       7.06079247      -0.03260521      15.79628140
Ni       4.90626677       4.15969122      -0.10616164
Ni       1.20268985       2.11153322      -0.05761564
Ni      -1.19212455       6.39668266      -0.04090405
Ni      -1.60563900       6.44452853      15.88971371
Ni       6.11868366       2.08231546       0.02028669
Ni       5.83795499       2.12716032      15.80415172
Ni       3.57619753       6.26096069      -0.16366620
Ni      -1.45195187       2.08628553       8.01224802
Ni      -1.73217561       2.20275044      23.79849962
Ni      -3.90453845       6.50173873       7.95870705
Ni      -4.22582926       6.52528163      23.83397408
Ni       3.53797031       2.14294286       7.89222569
Ni       3.18759002       2.17761213      23.69917936
Ni       0.97750909       6.49269692       7.91367416
Ni       0.68638060       6.45408127      23.69711503
Ni       2.35327432      -0.04045582       7.85419287
Ni       1.92966928      -0.00449858      23.81834025
Ni      -0.18740444       4.29075737       7.85579727
Ni      -0.51817674       4.39410595      23.75844840
Ni       7.25564332      -0.06339422       7.90684568
Ni       6.95665203      -0.06824138      23.68382031
Ni       4.72826763       4.20609455       7.78815246
Mg       4.33218325       4.27696414      23.66520117
Ni      -1.26914465       2.15504377       0.02488978
Ni      -1.54836842       2.13840252      15.87447980
Ni      -3.60926427       6.40785486       0.06283531
Ni      -4.09098413       6.47033390      15.94502135
Ni       3.66380450       2.13422032       0.02690613
Ni       3.40645331       2.15112198      15.71196520
Ni       1.20985830       6.31193733      -0.03782753
Ni       0.92148108       6.47608272      15.85638064
Ni       1.01619154       2.17139745       7.92741691
Mg       0.63339627       2.06434382      23.80488155
Ni      -1.44935090       6.38572422       8.00585855
Ni      -1.72045773       6.50422930      23.75710701
Mg       5.99205105       2.01791918       7.84926694
Ni       5.69191845       2.05898629      23.66915432
Ni       3.58478694       6.43480177       7.88612380
Ni       3.18800222       6.39199254      23.66973553
