190
Lattice="9.864692874349991 -0.09546802288308692 0.19547987875725875 -5.293188677014252 8.227925534778068 -0.19951720596742248 -0.16184396646810636 0.9645988139292029 31.294103022484098" Properties=species:S:1:pos:R:3 pbc="T T T"
Mg      -0.24610101       0.97370649      29.78937471
Mg      -2.69826458       4.57210130      13.95754968
Mg      -2.72819770       4.95971047      29.69499806
Mg       4.79477755       0.38642041      14.30387647
Mg       4.82112623       0.92198892      29.92607341
Mg       2.19106688       4.49538466      14.13736106
Mg       2.08059143       5.03715191      29.77622249
Mg      -0.01137723       0.24079136       6.35227688
Mg      -0.10508074       0.70917422      22.00462006
Mg      -2.64901101       4.37905756       6.23483752
Mg      -2.79059721       4.80883289      21.87145929
Mg       4.82279973       0.12954421       6.50600360
Mg       4.77842577       0.68442771      22.07646996
Mg       2.28093726       4.30500307       6.39730397
Mg       2.13395735       4.69285892      21.89252798
Ni      -0.08196276       0.30979083       9.27483690
Mg      -0.16414511       0.79546511      24.88615779
Mg      -2.65591512       4.44451002       9.21885692
Mg      -2.84135129       4.94855190      24.76225778
Ni       4.87287579       0.20188592       9.41462183
Mg       4.79911323       0.71568427      25.03420273
Mg       2.29505697       4.26312146       9.23984913
Mg       2.13971564       4.79601920      24.96182942
Mg       0.03476402       0.03137852       1.52452994
Mg      -0.06800679       0.53894102      17.00048685
Mg      -2.68773309       4.12955416       1.29878928
Mg      -2.65946927       4.66976269      16.98252410
Mg       4.84156557      -0.02899616       1.54702348
Mg       4.84872737       0.44908260      17.16097947
Mg       2.27594992       4.18420509       1.42736869
Mg       2.25526627       4.59188984      17.01737588
Mg       2.27238961       1.38133308       2.49086456
Mg       2.37195721       1.82308558      18.19959134
Mg      -0.28564318       5.65063452       2.34355764
Mg      -0.27888674       6.01051294      18.04299298
Mg       7.32375062       1.38932465       2.66514054
Mg       7.22206842       1.82013869      18.24687383
Ni       4.71903168       5.46266332       2.51799973
Mg       4.59570216       5.96007251      18.10537950
Mg      -0.20490088       3.01905276      10.22750734
Mg      -0.23351208       3.52254939      25.85631887
Mg      -2.81123868       7.18412842      10.13468293
Mg      -2.85169478       7.61669606      25.81470071
Mg       4.77730622       3.05472574      10.28362103
Mg       4.73370562       3.42686703      26.01182663
Mg       2.04983540       7.13233212      10.19543196
Mg       2.05114319       7.65835648      25.84992948
Mg       2.41134505       1.62347305       5.34911568
Mg       2.23013798       1.93172009      21.10356875
Mg      -0.27761863       5.57554036       5.33479932
Mg      -0.39324878       6.18706315      20.90187185
Ni       7.27128012       1.49960787       5.49353982
Mg       7.29710199       1.91455779      21.19797902
Mg       4.65742311       5.63514703       5.48267430
Ni       4.54037122       6.07925156      21.01382942
Mg      -0.26992212       3.08958098      13.21502532
Mg      -0.29066691       3.62112530      28.92272859
Mg      -2.88664761       7.23662215      13.08740963
Mg      -2.93168650       7.71354671      28.69868973
Mg       4.76437799       3.15260366      13.36946427
Mg       4.67121032       3.60294487      28.89710056
Mg       2.12646450       7.18575619      13.17938834
Mg       2.06656535       7.58580400      28.89988648
Ni       2.23716827       1.73094483      13.73339068
Mg       2.33877254       2.16041130      29.24435492
Ni      -0.34776913       5.95374639      13.62054738
Ni      -0.31019949       6.40968267      29.32691645
Ni       7.27975870       1.64490860      13.81846934
Ni       7.20614970       2.15041641      29.50519124
Ni       4.48003518       5.88217233      13.66624884
Ni       4.45915681       6.28532254      29.38567916
Ni      -0.06702059       2.90867421       5.84788466
Ni      -0.25629522       3.38878070      21.47640784
Ni      -2.71586363       6.99207361       5.69120460
Ni      -2.82440322       7.52596241      21.38012401
Ni       4.84536608       2.76534896       5.87243577
Ni       4.72064617       3.38622751      21.55782890
Ni       2.12706253       6.94521298       5.91277586
Ni       2.08518060       7.36993695      21.46412021
Ni       2.33428566       1.65901679       9.84122616
Ni       2.26249049       2.12853407      25.50764101
Ni      -0.29089299       5.68067128       9.65656720
Ni      -0.41228059       6.27331433      25.30237363
Ni       7.23301919       1.55872412      10.00027482
Ni       7.21344282       2.11064538      25.50820884
Ni       4.67242355       5.72624436       9.84156135
Ni       4.47692544       6.11803029      25.45691579
Mg      -0.19094303       2.87198690       1.98574364
Ni      -0.27834629       3.26773327      17.48934973
Ni      -2.89321448       6.89247475       1.83824900
Ni      -2.89549958       7.43130898      17.48284099
Ni       4.83340457       2.69506798       2.01534231
Ni       4.74199919       3.37259797      17.68293550
Ni       2.09629057       6.86746850       1.88028744
Ni       2.01406858       7.32032111      17.47039954
Ni       2.38946775       3.07290005      11.68165710
Ni       2.25636306       3.54411951      27.38995811
Ni      -0.27315055       7.18110532      11.61359616
Ni      -0.37129597       7.58615032      27.35564065
Ni       7.26072300       2.89435039      11.81686803
Ni       7.17133951       3.46737474      27.57531350
Ni       4.51491773       7.15237677      11.69722456
Ni       4.52946474       7.61695034      27.37671509
Ni       3.73096642       1.01793657      11.84608402
Ni       3.49137782       1.52537081      27.49468882
Ni       0.98800443       5.20440674      11.72287563
Ni       0.88781643       5.63202266      27.30082835
Ni       8.50558790       0.99892658      11.82710690
Ni       8.43267248       1.38963330      27.57801194
Ni       5.88101470       5.07235535      11.69648705
Ni       5.79186536       5.57873173      27.49787359
Ni       1.03904894       3.53480709       3.84839335
Ni       0.97749048       3.98695307      19.53059815
Ni      -1.54676799       7.60873585       3.71309574
Ni      -1.72483012       8.15158454      19.42142517
Ni       5.94003403       3.43864672       4.02659278
Ni       5.97022399       3.93073668      19.65194213
Ni       3.40147234       7.65638366       3.97021782
Ni       3.30894237       8.05497350      19.52173053
Ni       1.05950056       0.98574054      11.76157379
Ni       1.06996085       1.52005933      27.35102909
Ni      -1.58991181       5.56352635      27.32705035
Ni       5.98709278       0.97506424      11.86637150
Ni       5.89418854       1.42052830      27.49095353
Ni       3.47318442       5.05250574      11.77274883
Ni       3.32741144       5.51186802      27.44475587
Ni      -0.09038392       1.49695449       3.95748096
Ni      -0.14979405       1.90205409      19.56781526
Ni      -2.66502307       5.59765845       3.79422150
Ni      -2.79587025       6.06983125      19.43227225
Ni       4.87276721       1.42712572       3.96080759
Ni       4.78380126       1.85847186      19.60860836
Ni       2.05284648       5.50151368       3.90889990
Ni       2.12765689       6.06254659      19.52959116
Ni      -1.38606686       3.48411938       3.82367085
Ni      -1.43462485       4.06289561      19.48053982
Ni      -4.05863235       7.65390235       3.61899304
Ni      -4.11543709       8.22701338      19.41114234
Ni       3.50375071       3.53755104       3.91589606
Ni       3.46328400       3.97743104      19.59844046
Ni       0.83046677       7.58281036       3.78076001
Ni       0.82989804       8.10297951      19.46926313
Ni       2.50161464       0.01010612       0.07913766
Ni       2.31234783       0.45592532      15.79401609
Ni      -0.10394550       3.99594498       0.00407391
Ni      -0.21738876       4.57905487      15.58791921
Ni       7.49891787      -0.00189394       0.15263322
Ni       7.26942905       0.38680752      15.80256279
Mg       4.67513710       4.08686631       0.12538163
Ni       4.63727058       4.51453065      15.62779934
Ni       1.18299112       1.94150887       0.03882280
Ni       1.04575335       2.48648116      15.63659990
Ni      -1.53212380       6.15359484      -0.11750830
Ni      -1.58980566       6.62188548      15.56868944
Ni       6.03077975       1.95764171       0.11282443
Ni       5.99948712       2.49572904      15.80004990
Ni       3.41770259       6.06983617       0.04241282
Ni       3.35662811       6.63931368      15.63496100
Ni      -1.46211698       2.32402923       7.74390413
Ni      -1.48991675       2.69195321      23.40965435
Ni      -3.98678868       6.45886720       7.71868185
Ni      -4.08873920       6.90491841      23.29807479
Ni       3.48272990       2.25716806       7.81950701
Ni       3.45319032       2.81682218      23.52869969
Ni       0.97476162       6.32494640       7.66646859
Ni       0.87339535       6.87949207      23.33804318
Ni       2.48158402       0.22953624       7.84308830
Ni       2.33734583       0.75856530      23.49178526
Ni      -0.24480018       4.37665234       7.85053654
Ni      -0.23166119       4.74332109      23.44716525
Ni       7.29805580       0.26597539       7.99541308
Mg       7.32504176       0.62480958      23.55000010
Ni       4.71395060       4.21953946       7.91405046
Ni       4.68525731       4.78224203      23.60473755
Ni      -1.38514600       1.95438232      -0.07574413
Ni      -1.37543525       2.53097544      15.57711561
Ni      -4.02541284       6.18937140      -0.16937534
Ni      -4.07281505       6.72323000      15.51475705
Ni       3.55725881       1.99334048       0.12432321
Ni       3.60468975       2.52190737      15.75935761
Ni       0.97426280       6.13223416      -0.08066280
Ni       0.89684780       6.51529109      15.66174332
Ni       1.05170039       2.30423079       7.92488542
Ni       1.01691231       2.78078926      23.43384926
Ni      -1.51889660       6.44239146       7.78796806
Ni      -1.67349823       6.93765018      23.31516668
Ni       6.11934535       2.21969632       7.88042870
Ni       6.03325280       2.71829454      23.52849995
Ni       3.39530873       6.33924445       7.78993608
Mg       3.37501418       6.84024396      23.45200921
