190
Lattice="9.250773777352105 -0.017233099237000265 0.25964573472381164 -4.302025292187719 8.04212281748738 -0.22761240435434743 -0.04373360070826639 -0.3493563461906251 31.485445751717467" Properties=species:S:1:pos:R:3 pbc="T T T"
Mg      -0.01419578      -0.18155855      14.24516380
Mg      -0.02549558      -0.29366300      29.95489905
Mg      -2.22123154       3.92311960      14.14029275
Mg      -2.15288033       3.65328746      29.88753584
Mg       4.65117716      -0.23575213      14.26976811
Mg       4.59756188      -0.28872436      30.14737454
Mg       2.42930041       3.86099493      14.26869386
Mg       2.50402284       3.61986214      29.98007760
Mg       0.01234557      -0.05897061       6.42627748
Mg      -0.06799955      -0.24971247      22.11622186
Mg      -2.07989856       3.98331670       6.35677748
Mg      -2.19300849       3.68326737      21.98361273
Mg       4.68492056      -0.06787634       6.56584348
Mg       4.59538485      -0.26111253      22.22542045
Mg       2.55137511       3.95781003       6.38221132
Mg       2.55149781       3.79193499      22.13071509
Mg      -0.09183223      -0.07664504       9.36420507
Mg       0.05360454      -0.33901312      25.13496019
Mg      -2.10707492       3.89947601       9.13804362
Mg      -2.21645627       3.76112727      25.01745953
Mg       4.58529527      -0.13313572       9.57020174
Mg       4.56304970      -0.37121013      25.21956540
Mg       2.50132901       3.89201969       9.42372624
Mg       2.41452328       3.77878051      25.12813944
Ni      -0.02548089      -0.10608364       1.49908924
Mg      -0.04715396      -0.13882928      17.24397521
Mg      -2.15935242       3.91844816       1.35661460
Mg      -2.17798636       3.83613016      17.07579620
Mg       4.60368302      -0.04939296       1.57607366
Mg       4.58037653      -0.21783661      17.30970432
Mg       2.49358450       3.97308007       1.47012304
Ni       2.42082042       3.83490376      17.23333316
Ni       2.38000291       1.39123271       2.48869710
Mg       2.48286923       1.12459971      18.21074028
Mg       0.18906155       5.39686066       2.35487172
Mg       0.24367627       5.18931741      18.14198017
Mg       6.97976810       1.22015702       2.67136977
Mg       6.96946096       1.05569192      18.35653946
Mg       4.76221131       5.32243819       2.53527277
Mg       4.88974555       5.20313398      18.34547024
Ni       0.17790198       2.52858794      10.32507615
Mg       0.11297699       2.37060822      26.07087303
Mg      -1.96220458       6.57184387      10.17956819
Mg      -2.13710716       6.44203482      25.93950294
Mg       4.65316776       2.52319274      10.42119202
Mg       4.74863063       2.43262388      26.18012939
Mg       2.53431288       6.61461151      10.28670296
Mg       2.46390384       6.44091306      26.04459651
Mg       2.36854614       1.23349023       5.46882250
Mg       2.29637471       1.17515274      21.21261882
Mg       0.15926549       5.28358576       5.32336872
Mg       0.16056794       5.11912268      21.07051845
Mg       6.95450697       1.25745864       5.61741962
Mg       7.03187680       1.15879355      21.33856317
Mg       4.87478927       5.32697193       5.53346182
Mg       4.81665621       5.10940907      21.19961008
Mg       0.11447008       2.57864525      13.27015630
Mg       0.15284119       2.30612552      29.10047972
Ni      -1.99763628       6.55683964      13.22779177
Mg      -2.17187157       6.42275167      28.84301721
Ni       4.74508054       2.51826309      13.38964757
Mg       4.69577139       2.41537465      29.09647758
Mg       2.55795814       6.49831993      13.20686090
Mg       2.56234173       6.41774788      29.10995843
Ni       2.32554832       1.17267199      13.80629865
Ni       2.28810598       0.95768386      29.60642655
Ni       0.19237655       5.19127943      13.73728433
Ni       6.94679113       1.17107980      13.92961048
Ni       6.94379534       1.04271674      29.65925923
Ni       4.84193657       5.22753360      13.85812862
Ni       4.81232735       5.08293464      29.54940255
Ni      -0.00862258       2.64196059       5.71453866
Ni       0.14506212       2.48766610      21.56441523
Ni      -1.98588498       6.60597425       5.76367432
Ni      -2.10703928       6.47886163      21.44240041
Ni       4.73666925       2.49579063       6.10579568
Ni       4.69117844       2.46174972      21.68570574
Ni       2.54253296       6.54368838       5.81483081
Ni       2.57742060       6.52600075      21.64295562
Ni       2.39985712       1.20889787       9.88127870
Ni       2.35961948       1.17335442      25.62978326
Ni       0.27995285       5.29862313       9.71591671
Ni       0.25942118       5.07627592      25.56524052
Ni       6.96432811       1.24289897      10.02139794
Ni       6.99054768       0.90202763      25.79334237
Ni       4.70913153       5.29954820       9.91369177
Ni       4.86583293       5.10864986      25.72135939
Ni       0.04338454       2.63671104       1.88590707
Ni       0.10639025       2.44907839      17.64636446
Ni      -1.94474195       6.67806971       1.79477341
Ni      -2.02173754       6.41791643      17.57153642
Ni       4.65776026       2.69356638       2.14381805
Mg       4.71336180       2.44483346      17.87322733
Ni       2.63574726       6.64549536       2.00560447
Ni       2.56045872       6.50647187      17.68024187
Ni       2.47490710       2.56779381      11.89070711
Ni       2.35397982       2.39871819      27.57476768
Ni       0.25003331       6.53975873      11.76569244
Ni       0.26029229       6.36807009      27.50792951
Ni       6.93935409       2.48434819      11.94576554
Ni       7.03290654       2.30659232      27.70704963
Ni       4.85732374       6.57812230      11.79861769
Mg       4.83195690       6.40391900      27.60700122
Ni       3.49916145       0.64255498      11.96705911
Ni       3.51187591       0.31887084      27.59237179
Ni       1.34727723       4.53695821      11.79977291
Ni       1.24276422       4.46408684      27.48948439
Ni       8.07932167       0.53251798      12.08218953
Ni       8.09931053       0.38700942      27.76190495
Ni       5.96437013       4.53618918      11.87387354
Mg       5.91760879       4.39347619      27.71559856
Ni       1.32624635       3.30622204       3.98135782
Ni       1.30011716       3.04671674      19.66296407
Ni      -0.96336585       7.32256004       3.74463338
Mg      -0.85305705       7.11272952      19.55297113
Ni       5.92178060       3.20771017       4.01117538
Ni       5.94264629       2.99553268      19.75938070
Ni       3.72999781       7.25741432       3.88344622
Ni       3.72594201       7.18277065      19.62289071
Ni       1.14441391       0.50556698      11.72559742
Ni       1.09451577       0.39193411      27.62510315
Ni      -1.00233985       4.52282559      11.69708392
Ni      -0.92407288       4.44667775      27.44712172
Ni       5.79448640       0.52517736      11.90680497
Ni       5.79017830       0.29620241      27.71536744
Ni       3.58693272       4.51156806      11.88975674
Ni       3.56170891       4.34665371      27.53518183
Ni       0.11648940       1.24356459       3.92282067
Ni       0.02988642       1.07675885      19.70238340
Ni      -2.06186309       5.28211928       3.76875723
Ni      -2.13062198       5.10830310      19.45249028
Ni       4.65899266       1.21331243       4.12157707
Ni       4.58513824       1.18980622      19.74612437
Ni       2.45449371       5.33635726       3.90329167
Ni       2.46928718       5.09524564      19.70350798
Ni      -1.02087007       3.37603451       3.81283186
Ni      -1.00188609       3.15343924      19.50949712
Ni      -3.12283991       7.30196010       3.73288242
Ni      -3.18175287       7.23352802      19.56525745
Ni       3.56967240       3.23111398       4.00047919
Ni       3.53735084       3.11269722      19.77314789
Ni       1.51536548       7.27582627       3.97221180
Ni       1.42308709       7.10382815      19.61523786
Ni       2.31621334       0.01955896       0.05567582
Ni       2.18587418      -0.20532566      15.76886625
Ni       0.17255586       4.07063355      -0.09797797
Ni       0.18899915       3.82556515      15.62482143
Ni       6.88898307      -0.04530818       0.21722317
Ni       6.98382958      -0.14116404      15.93213187
Ni       4.85344530       4.02660591       0.10132606
Ni       4.76891528       3.87862119      15.83996574
Ni       1.31519406       2.01113182      -0.06184393
Ni       1.20201595       1.88029896      15.74599116
Ni      -0.86158154       6.06609202      -0.14488864
Mg      -0.93044728       5.85728034      15.70427768
Ni       5.88815825       2.01598687       0.05102366
Ni       5.89315962       1.79436456      15.99565079
Ni       3.71242286       6.02002394       0.00652907
Ni       3.64334425       5.87335932      15.68630776
Ni      -1.04273709       1.92547176       7.82863775
Ni      -1.17007995       1.70179015      23.58274652
Ni      -3.25176235       5.92080658       7.66050082
Ni      -3.20354526       5.79886187      23.33716372
Ni       3.57774859       1.85384390       7.93652590
Ni       3.62026673       1.75778155      23.73465684
Ni       1.39302995       5.91403638       7.76396289
Ni       1.35521379       5.66998346      23.53191610
Ni       2.39017756      -0.17575117       7.97848384
Mg       2.31663067      -0.26837830      23.65123346
Ni       0.11652179       3.91421465       7.88707668
Ni       0.14000094       3.79591715      23.54062239
Ni       6.94021173      -0.14283275       8.14088409
Ni       6.86467859      -0.33337573      23.84907574
Ni       4.74732202       4.01224225       7.96289644
Ni       4.82722013       3.71067584      23.67221306
Ni      -1.00906381       2.06114256       0.05816099
Ni      -1.22096802       1.82912297      15.72510471
Ni      -3.33141147       5.99935225      -0.20082585
Ni      -3.28236610       5.87485384      15.60082688
Ni       3.58532708       2.04391666       0.05551961
Ni       3.60936847       1.81186502      15.75298106
Ni       1.29707870       6.05766322      -0.05809849
Ni       1.35858545       5.90717776      15.65406712
Ni       1.30726455       1.90542535       7.87979497
Ni      -0.98626136       6.00625997       7.76166640
Ni      -0.97514649       5.72827195      23.52923398
Ni       5.83527452       1.88269809       7.98494776
Ni       5.90889107       1.66471591      23.78400895
Ni       3.69542326       5.84602108       7.87433597
Ni       3.72871641       5.77318510      23.59713231
