191
Lattice="10.05891925490343 0.22515097703305087 -0.40857777536119405 -5.0647709932029885 8.30816376844408 0.24892980854787336 0.25405033743626426 -0.6116413323565275 31.92010864923168" Properties=species:S:1:pos:R:3 pbc="T T T"
Mg       0.16364426      -0.32267113      14.49143035
Mg       0.18098700      -0.59894788      30.41099654
Ni      -2.45177279       3.85935450      14.67778122
Mg      -2.31748761       3.56756762      30.42376600
Mg       5.19175611      -0.15792299      14.28485665
Mg       5.31774720      -0.49415254      30.17904668
Mg       2.61630139       3.95255835      14.31425506
Mg       2.70471237       3.74849554      30.32775030
Mg       0.05036219      -0.10158566       6.47372753
Mg       0.20442404      -0.41700273      22.47741719
Mg      -2.42586404       4.02590999       6.70676963
Mg      -2.27758902       3.80578840      22.45408244
Mg       5.14506086      -0.04941002       6.26900680
Mg       5.26755932      -0.35802915      22.25651885
Mg       2.44570332       4.23232606       6.45941943
Mg       2.67157914       3.78148080      22.43051902
Mg       0.06747779      -0.16585907       9.54748012
Mg       0.15052490      -0.49895539      25.45959110
Mg      -2.42870060       4.03289860       9.55351603
Mg      -2.39434982       3.71611789      25.58716967
Mg       5.07893737      -0.10723939       9.27809315
Mg       5.22224871      -0.36487847      25.23254558
Mg       2.52510524       4.09879173       9.32933875
Mg       2.67228407       3.70878597      25.33990191
Mg       0.01385925       0.01007214       1.46775718
Mg       0.08173621      -0.26214018      17.43403712
Mg      -2.50339323       4.11991113       1.60176227
Mg      -2.26267287       3.78453144      17.60845207
Mg       5.04667361       0.06178416       1.30126037
Mg       5.22962635      -0.17450363      17.26770114
Mg       2.46052802       4.29838575       1.39261023
Mg       2.63719159       3.94496893      17.36668409
Mg       2.47552742       1.47282257       2.36295038
Mg       2.64810241       1.12046074      18.37218414
Mg      -0.06388737       5.58490407       2.59890354
Mg       0.06036908       5.27325751      18.47880639
Mg       7.62517627       1.51608281       2.20924997
Mg       7.65015380       1.24634395      18.17270888
Mg       5.11558945       5.70278790       2.29961342
Mg       5.20579245       5.45194437      18.31280465
Mg       0.10379905       2.53861954      10.38449861
Mg       0.10764354       2.31723499      26.52654438
Mg      -2.51990229       6.71552321      10.49938226
Mg      -2.34410431       6.39262771      26.53367477
Mg       5.04578761       2.74692402      10.24324376
Mg       5.20848237       2.27820015      26.14818192
Mg       2.59632081       6.90319579      10.40242776
Mg       2.74326102       6.59563767      26.45005021
Mg       2.55017752       1.28398234       5.38121424
Mg       2.68073640       1.04262688      21.22398156
Mg      -0.04305612       5.54577287       5.53354392
Ni       0.09429611       5.16588986      21.49497847
Mg       7.61882069       1.38151451       5.15656903
Mg       7.76477155       1.13637731      21.21084591
Mg       5.00424439       5.66528040       5.32819283
Mg       5.16916998       5.31833510      21.28706478
Mg       0.15591818       2.27575914      29.46623720
Mg      -2.50691970       6.76435464      13.65103103
Mg      -2.29786687       6.35353192      29.49859454
Mg       5.10419098       2.66898840      13.24634892
Mg       5.26071575       2.49577388      29.29163338
Mg       2.64771136       6.80989492      13.33770473
Mg       2.82999767       6.51802383      29.35475335
Ni       2.71717333       1.34171366      13.92877713
Ni       2.73729820       0.87626271      29.84261945
Ni       0.12443110       5.37284692      14.04420960
Ni       0.23100330       5.08700188      29.96092433
Ni       7.65375473       1.30371679      13.71777039
Ni       7.84638003       1.03743446      29.50433405
Ni       5.15754541       5.45403063      13.84109723
Ni       5.14721139       5.16527721      29.74388045
Ni       0.05824762       2.72648046       5.98745977
Ni       0.22442877       2.41422673      22.05576232
Ni      -2.49812017       6.84865845       6.17304424
Ni      -2.28061450       6.50971874      22.10880691
Ni       5.14359509       2.72871369       5.91592071
Ni       5.13151652       2.47579281      21.81215255
Ni       2.56854098       6.98639651       5.92048298
Ni       2.68434868       6.54567184      21.90723947
Ni       2.63947671       1.21029231       9.92635538
Ni       2.77722276       1.02744936      25.84382444
Ni       0.12449316       5.46495107      10.01161612
Ni       0.11068152       5.12017733      25.96447972
Ni       7.66074297       1.36977018       9.59814277
Ni       7.84290108       0.95215907      25.59832617
Ni       5.01279880       5.47653306       9.83336558
Ni       5.18900472       5.29580744      25.85403847
Ni      -0.07259778       2.80090611       1.97361691
Ni       0.15480450       2.51971721      18.02699628
Ni      -2.54548152       6.93616848       2.15099922
Ni      -2.44829886       6.50012818      18.12012496
Ni       5.02195987       2.89235706       1.83499651
Ni       5.15668356       2.62467563      17.79528248
Ni       2.57178757       7.03295140       1.90525569
Mg       2.63349467       6.80101006      17.81088925
Ni       2.56173428       2.65672476      11.95573462
Ni       2.78320343       2.28888265      27.83514640
Ni      -0.00092502       6.80761092      12.00868580
Ni       0.30935809       6.45075818      27.94866415
Ni       7.59541957       2.69994244      11.74712278
Ni       7.74324090       2.48203688      27.52664765
Ni       5.02582339       6.85733357      11.83368085
Ni       5.14171276       6.51689479      27.71085382
Ni       3.93208982       0.57368124      11.86786661
Ni       4.05638304       0.22468797      27.77387823
Ni       1.27813893       4.61781218      11.88634487
Ni       1.53491816       4.45179542      27.87859411
Ni       8.95318421       0.70449787      11.59794548
Ni       9.00055701       0.34666696      27.54125560
Ni       6.36053810       4.76889810      11.73750270
Ni       6.44724551       4.50458752      27.71874990
Ni       1.35747962       3.44036329       3.91471947
Ni       1.41678565       3.24203921      19.91105492
Ni      -1.25920947       7.60684183       4.13671514
Ni      -1.09932913       7.24795275      19.98791906
Ni       6.37399364       3.53377210       3.71886000
Ni       6.45865684       3.27055181      19.77640010
Ni       3.76116137       7.62069577       3.90387470
Ni       3.93618651       7.43946534      19.93965388
Ni       1.33522881       0.47539652      11.98153392
Ni       1.43912080       0.21418011      27.84362011
Ni      -1.23699329       4.61578401      12.00633558
Ni      -1.09103924       4.32850523      28.07079732
Ni       6.34397681       0.54901975      11.75597069
Ni       6.58961233       0.31443197      27.58493895
Ni       3.81348420       4.73803676      11.93567835
Ni       4.03699355       4.44624742      27.86173612
Ni      -0.00616807       1.30833140       3.98734367
Ni       0.10607436       1.04906147      19.91708002
Ni      -2.53275869       5.48137898       4.09272243
Ni      -2.28999452       5.19514590      20.11289525
Ni       5.09130444       1.41272992       3.82309591
Ni       5.22751365       1.10532901      19.77532305
Ni       2.52348410       5.69219383       3.98559989
Ni       2.63303510       5.29558474      19.82257859
Ni      -1.29380869       3.41596945       4.09663153
Ni      -1.13822778       3.08769231      20.02821216
Ni      -3.82452328       7.49597720       4.25768939
Ni      -3.66626016       7.20386535      20.27044358
Ni       3.81396180       3.54112218       3.82245776
Ni       3.83615238       3.10606860      19.75886575
Ni       1.21365465       7.64980284       4.04729477
Ni       1.41845104       7.37707106      19.98302228
Ni       2.46553916       0.03160696      -0.02819846
Mg       2.66385316      -0.28982057      15.84558329
Ni       0.05174322       4.16728205      -0.06992826
Ni       0.08040343       3.90929729      15.94204399
Ni       7.58556665       0.10560331      -0.34812214
Ni       7.60836722      -0.17977523      15.60053136
Ni       5.10292378       4.37123320      -0.12560484
Ni       5.20066302       4.01105169      15.76696332
Ni       1.19427740       2.03644492       0.00143567
Ni       1.30060143       1.80941944      15.99316165
Ni      -1.30283290       6.31290532       0.04848148
Ni      -1.15130944       5.95622704      16.09504559
Ni       6.24167247       2.31286419      -0.28645772
Ni       6.50536693       1.91206735      15.63980173
Ni       3.83592929       6.49293179      -0.13289080
Ni       3.88457167       6.12468397      15.79824659
Ni      -1.19818909       1.87680991       8.00748577
Ni      -1.01956207       1.66046977      23.94673661
Ni      -3.83983410       6.13307461       8.10457800
Ni      -3.54458038       5.75647284      24.24416753
Ni       3.84133108       2.02232682       7.83481259
Ni       3.94251628       1.75838682      23.79792488
Ni       1.33879098       6.24829717       7.87856473
Ni       1.47369243       5.81341412      23.93560304
Ni       2.52971862      -0.11613762       8.01148356
Ni       2.78156583      -0.51007958      23.84159666
Ni      -0.00101086       4.06729842       7.98795457
Ni       0.23556470       3.73303719      23.93624103
Ni       7.60345088       0.03059443       7.65400787
Ni       7.70248279      -0.17751026      23.65271828
Ni       5.05902020       4.24866248       7.74732012
Ni       5.19628672       3.85728796      23.74727913
Ni      -1.25832231       2.11507911       0.11874640
Ni      -1.07089543       1.80429288      16.08286645
Ni      -3.84577105       6.25105937       0.15911395
Ni      -3.62749043       5.87277557      16.13724963
Ni       3.77982148       2.10649682      -0.10651460
Ni       3.83349232       1.87997348      15.83117706
Ni       1.30942397       6.30224450      -0.04531738
Ni       1.35376606       5.99429967      15.87083828
Ni       1.22310760       1.98425401       8.00087019
Ni       1.41912823       1.68958281      23.95472671
Ni      -1.16299389       6.12906105       8.05588190
Ni      -1.15365928       5.77362478      24.05428579
Ni       6.36073908       2.06134628       7.65563818
Ni       6.45163815       1.71789350      23.66161964
Ni       3.75831424       6.27596751       7.85294284
Ni       3.91661978       5.84508595      23.75579482
