191
Lattice="9.685780011511016 0.19879795173825004 -0.17620899411719518 -4.624077938905164 8.265654534555537 0.053664916844024614 1.4363205636845737 -0.48231984373127174 31.318564290697093" Properties=species:S:1:pos:R:3 pbc="T T T"
Mg       0.67274082      -0.25970150      14.11469843
Mg       1.31667271      -0.44088879      29.90415245
Mg      -1.62292706       3.91632654      14.30978024
Mg      -0.98626645       3.64711584      29.92280847
Mg       5.53829140      -0.13856062      14.05565649
Mg       6.13787868      -0.36495161      29.80165959
Ni       3.21613326       3.94155650      14.17715373
Ni       3.93231022       3.79867589      29.79238487
Mg       0.29195231      -0.09482528       6.34303587
Mg       0.91283518      -0.30357133      22.03357225
Mg      -1.97184415       4.06851907       6.35660275
Mg      -1.32457956       3.83697393      22.15582037
Mg       5.18485677      -0.03172851       6.22880866
Mg       5.87533385      -0.32311756      21.86888715
Mg       2.71415913       4.04735338       6.23052400
Mg       3.55669747       3.89835207      21.92819355
Mg       0.42170288      -0.18127777       9.25558665
Ni       1.15162479      -0.38559220      24.86471538
Mg      -1.82796677       4.02044893       9.23032074
Mg      -1.18973561       3.76219106      25.03360563
Mg       5.30195088      -0.02271608       9.23088785
Mg       6.07291428      -0.38362849      24.86588515
Mg       2.98844831       4.04859409       9.33653177
Mg       3.58167328       3.82229790      24.90097905
Mg       0.08900647      -0.01784255       1.53683287
Ni       0.75151188      -0.32045769      17.11708111
Mg      -2.27891138       4.05278361       1.56051954
Mg      -1.55860124       3.81798929      17.19421115
Mg       4.91562778       0.10420781       1.43991920
Mg       5.62961194      -0.20059758      16.96039029
Mg       2.56792309       4.22675206       1.39673252
Mg       3.34492988       3.91902846      17.04270159
Mg       2.58283684       1.35519408       2.41730359
Mg       3.28973720       1.15265909      17.95195678
Mg       0.23022312       5.55687319       2.39879593
Mg       1.02538697       5.38488102      18.13230083
Mg       7.37385151       1.44180372       2.36111368
Ni       8.24448705       1.25819178      18.00139541
Mg       5.10294221       5.54457410       2.31579761
Mg       5.72315448       5.41630172      17.94247818
Mg       0.49204884       2.65574702      10.20941812
Mg       1.27542659       2.37499405      25.91259716
Mg      -1.80768337       6.74917253      10.20740102
Mg      -1.05220624       6.49099256      25.94488002
Mg       5.39828591       2.71104100      10.14635911
Mg       6.12706909       2.38439064      25.82459824
Mg       3.03326258       6.84343691      10.21797926
Ni       3.71831754       6.67049878      25.84585580
Mg       2.70350693       1.33376763       5.30222367
Mg       3.49063956       1.11762417      21.06956457
Mg       0.31245448       5.51434723       5.37355631
Mg       1.18333949       5.26321345      21.01680790
Mg       7.51951595       1.43345170       5.33917284
Mg       8.26920747       1.29173208      20.99779119
Mg       5.17898731       5.61028955       5.24305779
Mg       5.96930436       5.43934034      20.95332298
Mg       0.68034516       2.54751585      13.21502631
Ni       1.40354009       2.26577435      28.84240773
Mg      -1.61124438       6.80755873      13.20002960
Mg      -0.88790151       6.41831951      28.87001015
Mg       5.47065313       2.73032683      13.14530925
Mg       6.21197243       2.43598390      28.78289866
Ni       3.30917934       6.82604530      13.13083911
Mg       3.97018526       6.59197274      28.80041781
Ni       3.15855379       1.19590836      13.71281489
Ni       3.78413929       1.00534020      29.27585655
Ni       0.82281248       5.43849041      13.58426076
Mg       1.55008066       5.03213571      29.35388211
Ni       7.91522026       1.39048670      13.57200244
Ni       8.60074137       1.01968541      29.32669290
Ni       5.66016933       5.43517079      13.56979362
Ni       0.34741607       2.71521514       5.86551265
Ni       1.11150477       2.43536767      21.55675266
Ni      -1.89721568       6.82167029       5.94692922
Ni      -1.21662262       6.65512225      21.40854241
Ni       5.20918301       2.82140957       5.68701096
Ni       5.88135898       2.58006091      21.50744125
Ni       2.92063973       6.95691513       5.80209221
Ni       3.62692342       6.70055300      21.47754265
Ni       2.91466433       1.21072480       9.64071607
Ni       3.54082827       1.04669270      25.35259682
Ni       0.60425162       5.26953371       9.63564939
Mg       1.35581863       5.20881984      25.33498857
Ni       7.77631102       1.42293888       9.57795334
Ni       8.42205177       1.19646439      25.32077443
Ni       5.49831635       5.57168796       9.70164032
Ni       6.22189959       5.35921922      25.18400744
Ni       0.15835905       2.69602807       1.95858262
Ni       0.95863284       2.58704521      17.72173800
Ni      -2.09467880       6.97264559       1.93712866
Ni      -1.42154125       6.58643537      17.67391601
Ni       5.04192975       2.82941114       1.87072683
Ni       5.71318737       2.66485757      17.49661078
Ni       2.71230491       7.00588091       1.87940706
Ni       3.40328693       6.74662452      17.56788002
Ni       3.03464509       2.63877904      11.77007493
Ni       3.76668394       2.44351176      27.33855524
Ni       0.73808499       6.84227606      11.70117565
Ni       1.43761199       6.50718799      27.39854227
Ni       7.83841313       2.75065569      11.69115762
Ni       8.68472848       2.55075836      27.35685043
Ni       5.52098894       6.98529467      11.65657277
Ni       6.26616201       6.71448200      27.28693300
Ni       4.18951485       0.61033259      11.65302418
Ni       4.90353367       0.33953823      27.35405199
Mg       1.89834844       4.70035251      11.69608803
Ni       2.55811435       4.43519896      27.33294268
Mg       8.96614739       0.66971891      11.62850528
Ni       9.74505199       0.44231912      27.26686042
Ni       6.63196022       4.83166253      11.65449476
Ni       7.50963356       4.51081863      27.30942940
Ni       1.47791911       3.52393572       3.81850910
Ni       2.19635912       3.18483363      19.54540950
Mg      -0.86910012       7.56209565       3.81735859
Ni      -0.19003393       7.37157366      19.54529441
Ni       6.29829056       3.54743629       3.71874238
Ni       7.04084894       3.31720641      19.46980309
Ni       3.90527930       7.70712853       3.87251744
Ni       4.57585884       7.51497080      19.43850020
Ni       1.78439813       0.53399555      11.69475684
Ni       2.53245594       0.26450507      27.35290476
Ni      -0.53461511       4.67551802      11.72553025
Ni       0.22991974       4.47895036      27.37209415
Ni       6.62269066       0.61063298      11.56495061
Ni       7.34670329       0.36417694      27.26929938
Ni       4.30568968       4.86774555      11.71478937
Ni       5.00830953       4.58306596      27.39400575
Ni       0.21889393       1.33416708       3.87293010
Ni       0.88994090       1.06122865      19.69626825
Ni      -2.02880571       5.44817586       3.87084322
Ni      -1.35905805       5.18090890      19.63744641
Ni       4.99649712       1.42707181       3.84048290
Ni       5.76041191       1.20012886      19.54820455
Ni       2.78416239       5.56110000       3.93538423
Ni       3.53401591       5.33960502      19.58957059
Ni      -0.94315076       3.47592322       3.98494119
Ni      -0.14704644       3.14587848      19.55200492
Ni      -3.25356916       7.49971211       3.92961198
Ni      -2.49153327       7.28377403      19.59954141
Ni       3.87827533       3.56831811       3.86149348
Ni       4.56526361       3.18943879      19.47898272
Ni       1.57665271       7.59777248       3.86724782
Ni       2.29061425       7.28128936      19.46571117
Ni       2.42393189       0.06495431      -0.04882424
Mg       3.12083356      -0.12823536      15.68544042
Ni       0.09856595       4.19954992      -0.04332820
Ni       0.89651522       3.96166430      15.62730606
Ni       7.25645299       0.19351825      -0.14325585
Ni       7.94215585      -0.12504933      15.52969225
Ni       4.97481136       4.20645155      -0.15935745
Ni       5.62296989       4.09675848      15.46936012
Ni       1.30340859       2.08396410       0.09679500
Ni       2.02302643       1.93816072      15.66213014
Ni      -1.02443081       6.25721608      -0.03535931
Ni      -0.38806636       6.01742692      15.73275945
Ni       6.14310476       2.19536353      -0.09614147
Ni       6.88163526       1.92131149      15.64615654
Ni       3.82563237       6.24092908      -0.09344072
Ni       4.48771329       6.04158324      15.55914628
Ni      -0.79805887       1.94968958       7.85934015
Ni      -0.09336163       1.81074008      23.56354771
Ni      -3.15315259       6.11378652       7.88469029
Ni      -2.44765057       5.84586187      23.53746060
Ni       4.06049569       2.02024741       7.72363437
Ni       4.70250310       1.73510337      23.37875543
Ni       1.81914051       6.15588717       7.78630625
Mg       2.44091660       5.93254475      23.39316519
Ni       2.81506095      -0.04524936       7.74094825
Ni       3.44486593      -0.37785891      23.52948544
Ni       0.53004718       4.01505078       7.79302776
Ni       1.20316173       3.75683426      23.51158091
Ni       7.58253053       0.00179862       7.76253685
Ni       8.29320634      -0.20569801      23.33871757
Ni       5.31069295       4.08346312       7.79024647
Ni       6.07488692       3.94738466      23.31467533
Ni      -1.16240344       2.01829998       0.00587587
Ni      -0.50016946       1.89877239      15.79089241
Ni      -3.47555642       6.20765041       0.13515288
Ni      -2.69965679       5.99925896      15.72978971
Ni       3.66772769       2.21161197      -0.07812080
Ni       4.41075638       1.86565514      15.65890531
Ni       1.32340009       6.30518305      -0.01965176
Ni       2.16900310       6.07319877      15.59428591
Ni       1.64696583       2.00986825       7.82208574
Ni       2.32603080       1.71481262      23.47264680
Ni      -0.70082450       6.12254393       7.79446559
Ni      -0.04234929       5.94697785      23.45166781
Ni       6.42504335       2.11023500       7.74459740
Ni       7.23251504       1.96605190      23.39280717
Ni       4.21994887       6.25058775       7.70904452
Mg       4.94594915       6.05460166      23.37266850
