191
Lattice="9.691096187192835 0.16480629840643543 0.4370450912658898 -5.029465497696082 8.221125593917373 -0.38959438379258976 -1.0164605263255946 -0.27598021497617914 31.541710993303823" Properties=species:S:1:pos:R:3 pbc="T T T"
Mg      -0.52977665      -0.09274810      14.33353511
Mg      -0.97147667      -0.21400901      30.02271228
Mg      -2.92513586       3.91009907      14.09403018
Mg      -3.41284520       3.77930037      29.82183953
Mg       4.35634774      -0.03383041      14.51365068
Mg       3.79126712      -0.23308816      30.33419438
Mg       2.01196000       4.09037412      14.40705786
Mg       1.35868411       3.97356786      30.14771890
Mg      -0.19390900      -0.06780261       6.45129853
Mg      -0.73275457      -0.18405949      22.15689855
Mg      -2.69550897       4.06774177       6.20418219
Mg      -3.16245390       3.91380816      21.98212343
Mg       4.56075284      -0.04856817       6.68461636
Mg       4.20277963      -0.13180184      22.45417065
Mg       2.08284398       4.10263050       6.36115977
Mg       1.63334377       4.03843556      22.12580642
Mg      -0.25224723      -0.15004179       9.41601856
Mg      -0.84125560      -0.24654036      25.14297595
Mg      -2.92657359       4.03266124       9.24835687
Mg      -3.29384421       3.93550187      25.02070113
Mg       4.54092734      -0.03937208       9.58547567
Mg       4.07522375      -0.11008982      25.42201025
Mg       2.06026920       4.06887051       9.38588921
Mg       1.57706837       3.94652212      25.18201554
Ni      -0.09535683       0.02651887       1.41779028
Mg      -0.64867645      -0.12143985      17.24247395
Mg      -2.59639112       4.15553362       1.27568776
Mg      -3.01778535       4.00022690      17.01887264
Mg       4.79366886       0.09382054       1.62924366
Mg       4.36006752      -0.07759616      17.46525777
Mg       2.30297926       4.25457969       1.40488404
Mg       1.83219782       3.99283451      17.29667123
Mg       2.28917553       1.40955303       2.56282397
Mg       1.81067631       1.37242641      18.29787027
Ni      -0.22011159       5.58776117       2.32596994
Mg      -0.80682493       5.38635946      18.08732731
Mg       7.15817587       1.53122558       2.84858649
Mg       6.64805098       1.32390432      18.46218769
Mg       4.68560982       5.63027332       2.51933418
Mg       4.09855702       5.42744564      18.30626103
Mg      -0.35416246       2.68984525      10.22483011
Mg      -0.90653956       2.43557600      26.07425031
Mg      -2.92756570       6.69064721      10.04325346
Mg      -3.43617162       6.65877902      25.91378308
Mg       4.51062603       2.81936329      10.54471501
Mg       3.98325447       2.61453441      26.23561593
Mg       1.96852869       6.81000181      10.28503842
Mg       1.34843924       6.73648902      26.06781961
Mg       2.20895347       1.31673323       5.48869800
Mg       1.70383989       1.30126490      21.25429742
Mg      -0.15780928       5.42533134       5.37917513
Mg      -0.83035127       5.38436170      21.03511024
Mg       7.04326882       1.41930264       5.76868948
Ni       6.53775160       1.35551466      21.45146655
Mg       4.61599175       5.55309943       5.57556057
Mg       4.07199958       5.42734221      21.38285767
Mg      -0.51891059       2.63995278      13.20775661
Mg      -0.99103621       2.47386833      29.00168265
Mg      -2.99617814       6.77140200      13.04580059
Mg      -3.60521015       6.60619377      28.88045513
Ni       4.33763675       2.71419414      13.48760273
Mg       3.86786003       2.57585434      29.29370297
Mg       1.77696048       6.85947261      13.19350612
Mg       1.42139687       6.65898656      29.03352672
Ni       2.04909482       1.38179798      13.91153950
Ni       1.32906316       1.21474149      29.63693687
Ni      -0.54729401       5.45613508      13.77466068
Ni      -1.02636631       5.20263313      29.38116958
Ni       6.82500349       1.38618497      14.08131996
Ni       6.29280634       1.25290959      29.93858621
Ni       4.30226812       5.44906259      13.89613291
Ni       3.79156177       5.41556390      29.67559556
Ni      -0.26014963       2.74453554       5.89076872
Ni      -0.72390259       2.62999522      21.65412059
Ni      -2.75972634       6.80490352       5.68020019
Ni      -3.34266825       6.71874013      21.38092074
Ni       4.67434189       2.81119540       6.11202805
Ni       4.10845804       2.69145468      21.86602855
Mg       1.89802234       6.89554137       5.84736328
Ni       1.53155733       6.83086612      21.63395852
Ni       2.08307099       1.32988862       9.97941930
Mg       1.47273332       1.29045621      25.60917696
Ni      -0.43539415       5.40685584       9.69329449
Ni      -1.03607906       5.32757058      25.59899500
Ni       6.99178400       1.40391295      10.17336099
Ni       6.50591596       1.31994906      25.87222118
Ni       4.38875214       5.43906722      10.02295199
Ni       3.93243797       5.45877539      25.65886908
Ni      -0.09090097       2.73094748       1.99179951
Ni      -0.59491352       2.53344941      17.75180394
Ni      -2.65410248       6.90551113       1.66532495
Ni      -3.16151357       6.79236533      17.41162507
Ni       4.64824730       2.85357774       2.15825631
Ni       4.13281579       2.70318686      17.87311727
Ni       2.22679579       6.89464704       1.92143616
Ni       1.72370356       6.86081748      17.73650386
Ni       1.99283333       2.73870729      11.90088732
Ni       1.50309423       2.56595713      27.66756135
Ni      -0.50373517       6.79413070      11.65339973
Ni      -1.06054635       6.61363957      27.38389904
Ni       6.79343838       2.87734239      12.17997408
Ni       4.26081539       6.93268602      11.86869334
Ni       3.79803662       6.82457902      27.63912447
Ni       3.24477722       0.69027601      11.95086393
Ni       2.74801440       0.57714371      27.77267192
Ni       0.81656795       4.81216939      11.70798542
Ni       0.27035893       4.51869653      27.48381852
Ni       8.13600983       0.77485943      12.25354177
Ni       7.50089303       0.57312519      27.97903486
Ni       5.55696872       4.84702776      11.96273476
Ni       4.97100665       4.79380935      27.79703186
Ni       1.05443817       3.49251701       3.89136763
Ni       0.48270196       3.30826018      19.72354234
Ni      -1.47899400       7.53469123       3.74527903
Ni      -2.07840460       7.43093161      19.44170936
Ni       5.79091006       3.47352493       4.18115633
Ni       5.36408596       3.33988051      19.95928557
Ni       3.41432367       7.65469359       4.00512175
Ni       2.79524461       7.48020110      19.73310157
Ni       0.77412631       0.63441939      11.89723352
Ni       0.33384079       0.47639632      27.65111599
Ni      -1.65161311       4.78266219      11.55990365
Ni      -2.17939792       4.53392752      27.38420551
Ni       5.66788257       0.70233971      12.06491244
Ni       5.14309384       0.58489323      27.85537673
Ni       3.06246611       4.73117323      11.87873336
Ni       2.61521324       4.76337769      27.57983732
Ni      -0.19666742       1.43703678       3.92773404
Ni      -0.73117577       1.21884381      19.61693386
Ni      -2.64717846       5.50682395       3.70295473
Ni      -3.17707993       5.36459431      19.55499394
Ni       4.62620018       1.47338955       4.10758106
Ni       4.19471967       1.28698695      19.90094627
Ni       2.07706096       5.54725167       3.91471004
Ni       1.68997906       5.39465576      19.73259638
Ni      -1.37967740       3.42228621       3.69467619
Ni      -1.85495671       3.19176570      19.59830235
Ni      -3.84507731       7.48760808       3.65399640
Ni      -4.41358829       7.35437517      19.32117380
Ni       3.46671513       3.43253052       3.95377757
Ni       2.98470504       3.35706077      19.78227374
Ni       0.95940067       7.66763352       3.86214294
Ni       0.41867393       7.39162484      19.62596092
Ni       2.47678382      -0.02483910       0.10015670
Ni       1.96905428      -0.10061193      15.76707890
Ni      -0.09417031       4.09667802      -0.09862652
Ni      -0.57732092       3.98472093      15.74173925
Mg       7.22961810       0.09885570       0.29765299
Ni       6.68627892       0.02384210      16.02449913
Ni       4.71828850       4.31440994       0.10528367
Ni       4.28056960       4.13844014      15.87833045
Ni       1.16647202       2.08352437       0.08229515
Ni       0.59400928       1.87245859      15.80243148
Ni      -1.36028497       6.23775574      -0.20455577
Ni      -1.92097708       6.05252672      15.47264577
Ni       5.98144970       2.21546835       0.19353802
Ni       5.45608996       2.06329567      16.05097514
Ni       3.49584039       6.26413631       0.06552623
Ni       2.98110734       6.14731139      15.83829759
Ni      -1.61169481       1.94459226       7.78998671
Ni      -2.02715970       1.86934759      23.61293260
Ni      -4.01665694       6.11682324       7.52809044
Ni      -4.55091477       5.95097156      23.29988034
Ni       3.26402899       2.10736138       7.93473650
Ni       2.85079718       1.96213342      23.73558747
Ni       0.88626395       6.16590026       7.86003865
Ni       0.34900690       6.08747074      23.53955877
Ni       2.20945345      -0.06557773       8.04274751
Ni       1.68242899      -0.27929563      23.77935414
Ni      -0.36769122       4.05967569       7.80361534
Mg      -0.94856346       4.03816919      23.61491986
Ni       7.01544590      -0.02322596       8.24587832
Ni       6.55426060       0.03126347      24.00288910
Ni       4.51739535       4.24885657       7.95076986
Ni       4.04771517       4.11429207      23.81260144
Ni      -1.14216302       2.02549355      -0.08400712
Ni      -1.80310847       2.02642592      15.61281678
Ni      -3.74341665       6.17895621      -0.35064334
Ni      -4.29053867       6.09830540      15.40361738
Ni       3.55458530       2.18392217       0.08821598
Ni       3.12522807       1.99318745      15.94338819
Ni       1.05769490       6.29376287      -0.14511850
Ni       0.48422609       6.07651617      15.65786695
Ni       1.02969461       1.96484456       7.95503117
Ni       0.38525937       1.95582782      23.64973809
Ni      -1.60321062       6.13211669       7.72230606
Ni      -2.12435382       6.02632368      23.44761052
Ni       5.75546014       2.01603649       8.10528971
Ni       5.24776021       1.99675008      23.91387198
Ni       3.25807179       6.28214542       7.93430903
Ni       2.76060549       6.05724677      23.65215659
