189
Lattice="10.027732188522661 -0.08260555998675725 0.05760499094535409 -5.155334850408766 8.306441422436444 -0.0413499958234731 -0.4487848504740096 -1.0064001650140273 32.29683635084126" Properties=species:S:1:pos:R:3 pbc="T T T"
Mg      -0.23716482      -0.42113275      14.72026698
Mg      -0.40387104      -1.01886234      30.73994199
Mg      -2.73738179       3.70708028      14.61496219
Mg      -3.04739565       3.24840026      30.67853650
Mg       4.81725611      -0.36243807      14.61666516
Mg       4.56770617      -0.98478213      30.88539215
Mg       2.20339808       3.61508301      14.67939589
Mg       2.00633599       3.10865799      30.70606298
Mg      -0.09717872      -0.18150550       6.52963295
Ni      -0.26966209      -0.73445658      22.60369749
Mg      -2.70481955       3.91170575       6.51186266
Ni      -2.84378735       3.44871085      22.71457301
Mg       4.94869141      -0.24208980       6.66287347
Mg       2.30876078       3.92540173       6.62517563
Mg       2.07260356       3.30240209      22.73518075
Mg      -0.07285166      -0.24464385       9.64029502
Mg      -0.30850212      -0.88663509      25.70566288
Mg      -2.71034959       3.81699875       9.45472514
Mg      -2.96770402       3.35684862      25.71412776
Mg       4.92634491      -0.21710660       9.68604841
Mg       4.71351313      -0.83410676      25.76699255
Mg       2.21850004       3.77588891       9.55638581
Mg       2.06007999       3.25489360      25.72595520
Mg      -0.02772372      -0.08423494       1.52528954
Mg      -0.28069003      -0.50089587      17.66883173
Mg      -2.54890135       4.11806711       1.51729012
Mg      -2.83880377       3.48550282      17.63459310
Mg       4.95593619      -0.08152512       1.57161632
Mg       4.77803490      -0.54902142      17.70949403
Mg       2.43732526       4.09829130       1.43277817
Mg       2.17183541       3.54326077      17.63517118
Mg       2.40077227       1.29194066       2.49421610
Mg       2.20799408       0.71151538      18.70728015
Mg      -0.13501351       5.48964439       2.46994299
Mg      -0.31037691       4.88331405      18.68051608
Mg       7.48560106       1.20708229       2.56756654
Mg       7.22743249       0.72140143      18.80798693
Mg       4.99509810       5.42599758       2.52902985
Mg       4.63863587       4.93905745      18.66075749
Mg      -0.22671632       2.46346166      10.61518778
Mg      -0.49437748       1.92319289      26.73329055
Mg      -2.73885324       6.67994988      10.56653357
Mg      -2.95549582       6.13363563      26.68688909
Mg       4.84221889       2.36852465      10.65878369
Ni       4.61668469       1.91604791      26.77817408
Mg       2.20748389       6.44151516      10.57485200
Mg       2.12198790       5.91759688      26.76593325
Mg       2.27766121       1.20208610       5.55056857
Mg       2.17776757       0.65620384      21.61127501
Ni      -0.45655830       4.76233188      21.73724728
Mg       7.55174840       1.10859130       5.57204432
Mg       7.17507997       0.75058322      21.75437026
Mg       4.79533198       5.24817702       5.64815796
Mg       4.59871141       4.76964937      21.74372991
Mg      -0.45329788       1.94003716      29.72390454
Mg      -2.76141738       6.51440340      13.62948342
Mg      -3.08192000       5.97119905      29.80606123
Mg       4.84499223       2.24796400      13.65639000
Mg       4.51663420       1.74047470      29.84413946
Mg       2.18094645       6.40436642      13.60306804
Mg       2.01587358       5.90844234      29.70183443
Ni       2.33375677       0.89285541      14.18828266
Ni       2.03040765       0.41418054      30.21001247
Ni      -0.31226543       5.03441667      14.17498140
Ni      -0.48908198       4.54760212      30.24484478
Mg       7.27505345       0.90714343      14.11661882
Ni       7.05678061       0.37749911      30.28650439
Ni       4.70642138       5.12336384      14.23520041
Ni       4.43237184       4.63835179      30.29613482
Ni      -0.15070498       2.56428270       6.03677217
Mg      -0.38118893       2.09499428      22.23261672
Ni      -2.73986542       6.72297779       6.04145685
Ni      -2.95710023       6.26448964      22.15786400
Ni       4.90770854       2.48342658       6.09873075
Ni       4.62700415       2.01195181      22.18595684
Ni       2.27752996       6.62941131       6.02585272
Ni       2.04580316       6.21820007      22.19144374
Ni       2.24598055       1.09246914      10.12599155
Ni       2.12176777       0.56616292      26.25586278
Ni      -0.24085985       5.21706360      10.09790821
Ni      -0.45323433       4.72358780      26.20471901
Ni       7.44763002       0.96497195      10.09068326
Ni       7.08036722       0.53143696      26.30070100
Ni       4.78831383       5.14566422      10.14790354
Ni       4.56235170       4.59419667      26.32837189
Ni      -0.02994474       2.79214059       1.93481192
Ni      -0.27390393       2.18746818      18.20586917
Ni      -2.67191143       6.79723340       1.94798940
Ni      -2.90501005       6.23858223      18.11716264
Ni       4.85919743       2.65578905       2.04513167
Ni       4.75873899       2.05217789      18.18521996
Ni       2.37882128       6.79396819       1.91852296
Ni       2.22203673       6.28535357      18.14146904
Ni       2.27192541       2.39446927      12.06297735
Ni       2.10318324       1.84396857      28.26080094
Ni      -0.33230138       6.52482500      12.04270479
Ni      -0.59004111       6.03659958      28.21351132
Ni       7.35836624       2.26583633      12.12159295
Ni       7.10094595       1.79420005      28.26349931
Ni       4.73732899       6.49611061      12.12689499
Ni       4.54544789       5.92863483      28.23428466
Ni       3.56581445       0.29998332      12.08853006
Ni       3.30869024      -0.19639793      28.32219470
Ni       1.02640316       4.50214877      12.10883022
Ni       0.81934037       3.94516829      28.28511002
Ni       8.66827144       0.23981562      12.13905351
Ni       8.36554283      -0.22403075      28.31788643
Ni       6.05614283       4.35990339      12.09769181
Ni       5.76093068       3.85206010      28.35828461
Ni       1.18224327       3.24838442       3.90206852
Ni       0.90985047       2.79685535      20.21393259
Ni      -1.56197542       7.41300913       3.95450727
Ni      -1.73490287       6.94316145      20.15146159
Ni       6.07228740       3.28252606       4.01310038
Ni       5.93346062       2.80079248      20.19989957
Ni       3.52486672       7.45184806       4.07121312
Ni       3.26969475       6.89050915      20.23743964
Ni       1.04806387       0.26344201      12.16593804
Ni       0.82637897      -0.14352384      28.24559559
Ni      -1.49712016       4.46125884      12.14988937
Ni      -1.69439472       3.91046006      28.25632791
Ni       6.16938273       0.25451261      12.20873036
Ni       5.90335607      -0.35687182      28.29871763
Ni       3.42361937       4.41189967      12.09776031
Ni       3.25900414       3.85789674      28.29913017
Ni       0.02003948       1.25342602       4.04446665
Ni      -0.32890939       0.68086727      20.23811061
Ni      -2.61347512       5.28254427       3.99658588
Ni      -2.92135360       4.90988593      20.16670075
Ni       4.95963529       1.20018494       4.08076410
Ni       4.68298621       0.72992421      20.18520684
Ni       2.27750285       5.35880161       4.16724279
Ni       2.12305257       4.88930190      20.18447662
Ni      -1.36637157       3.27542363       4.00682337
Ni      -1.55412286       2.83234978      20.21038845
Ni      -3.95712637       7.48444993       3.98410795
Ni      -4.21362099       7.03197776      20.12764283
Ni       3.60186981       3.21673870       4.03562269
Ni       3.43474563       2.73132785      20.22236918
Ni       1.07114958       7.45586084       4.03697181
Ni       0.93406208       6.92343501      20.17953908
Ni       2.49875969      -0.08987392       0.01048330
Ni       2.31766738      -0.47734435      16.11868397
Ni      -0.03196316       4.15337036       0.00534248
Ni      -0.31221870       3.62431005      16.21634377
Ni       7.53466290       0.06139554       0.00490393
Ni       7.40096289      -0.60881928      16.17706876
Ni       4.85254489       4.12297397       0.00664917
Ni       4.69157920       3.59629154      16.08055068
Ni       1.22540887       2.07197034       0.01915104
Ni       1.06873330       1.47666650      16.09382950
Ni      -1.44329544       6.16263235       0.01565494
Ni      -1.63429609       5.63781767      16.07825311
Ni       6.31974546       2.06245870       0.04112366
Ni       5.98518500       1.55407121      16.20334052
Ni       3.67148165       6.16817799       0.08205170
Ni       3.39231195       5.57672813      16.13166305
Ni      -1.43922364       1.84143553       8.06450821
Ni      -1.60537896       1.32940478      24.18491617
Ni      -3.95716024       6.01338217       8.01263620
Ni      -4.15285802       5.51902581      24.18392354
Mg       3.65612988       1.78310909       8.06669915
Ni       3.46491962       1.24735622      24.17974301
Ni       0.99659935       5.92817247       8.07558937
Mg       0.85112453       5.43742343      24.19172381
Ni       2.47538300      -0.23543295       8.10681948
Ni       2.18074846      -0.79883738      24.28528312
Ni      -0.20043014       3.78067138       8.08911403
Ni      -0.41836086       3.29945797      24.18704588
Ni       7.49358571      -0.33789380       8.10702555
Ni       7.15680992      -0.82763070      24.29299300
Ni       4.82185285       3.89892624       8.09854108
Ni       4.60948124       3.38242512      24.27855622
Ni      -1.33542314       2.09185765       0.02241735
Ni      -1.58669432       1.60748425      16.16175636
Ni      -3.89989110       6.19245663      -0.07723132
Ni      -4.05272307       5.78475070      16.09345101
Ni       3.71979496       2.03167717       0.02682708
Ni       3.42242339       1.45653411      16.23967068
Ni       1.20634097       6.13176563      -0.06000296
Ni       0.92732673       5.77024257      16.17231218
Ni       1.18949031       1.77373239       8.12469250
Ni       0.87703568       1.32581650      24.16542048
Ni      -1.55273141       5.87242424       8.13594276
Ni      -1.76211540       5.52876406      24.24699860
Ni       6.08264010       1.65930146       8.06637153
Ni       5.92951734       1.28990093      24.30866675
Ni       3.51201011       5.92862858       8.04037432
Ni       3.30747672       5.35050719      24.18525815
