190
Lattice="9.606512383554886 0.09858368809732333 0.37515187207966766 -4.985092355188581 8.511562397538128 -0.02778725124317483 -0.6195725065964408 0.21102176075383727 32.06347085699068" Properties=species:S:1:pos:R:3 pbc="T T T"
Mg      -0.30136942       0.12685260      14.56425962
Mg      -0.65201162       0.22810669      30.52428319
Mg      -2.74707072       4.34008635      14.50653799
Mg      -3.06768262       4.44654930      30.54188328
Mg       4.50157411       0.19150622      14.84188027
Mg       4.12133912       0.23569087      30.74914694
Mg       2.05916779       4.35544075      14.68023520
Mg       1.81339695       4.49447095      30.67559368
Mg      -0.08981832       0.02365106       6.51861609
Mg      -0.37552222       0.15387883      22.45893212
Mg      -2.63719099       4.28790746       6.36834147
Mg      -2.96531427       4.40678392      22.52413368
Mg       4.71433304       0.07469003       6.64789997
Mg       4.40655735       0.20363418      22.67183777
Mg       2.18430195       4.24301917       6.73414606
Mg       1.89911024       4.46064505      22.67329436
Mg      -0.18759807       0.05314455       9.58664712
Mg      -0.46328975       0.24576516      25.63326421
Mg      -2.72813408       4.32095741       9.43671614
Mg      -2.93444220       4.43837395      25.46652671
Mg       4.60602403       0.11082713       9.64579028
Mg       4.27057041       0.20436354      25.70086338
Mg       2.20276036       4.35625652       9.78721204
Mg       1.86098149       4.45455896      25.62515855
Mg      -0.10826425       0.02153292       1.50552661
Mg      -0.30634093       0.12301556      17.55041876
Mg      -2.49347595       4.26452406       1.43430391
Mg      -2.77989665       4.35244048      17.55798745
Mg       4.77907305       0.05025366       1.71404432
Ni       4.45257247       0.17358700      17.72024005
Ni       2.31396992       4.32619798       1.61316732
Mg       1.92245498       4.47751428      17.61529756
Mg       2.36592989       1.43663587       2.60922467
Mg       1.96707981       1.50225756      18.64031954
Mg      -0.15452790       5.74463847       2.71644507
Mg      -0.46987574       5.85761032      18.65854663
Mg       7.15995665       1.52933730       2.80960602
Mg       6.85647730       1.61074982      18.78512046
Mg       4.62577872       5.84115898       2.79565373
Mg       4.36552874       5.89655770      18.81134533
Mg      -0.24048449       2.96217498      10.58446170
Mg      -0.51481264       3.03532740      26.60097594
Mg      -2.77102532       7.19665009      10.52682426
Mg      -3.05233536       7.29136139      26.57804570
Mg       4.52925741       2.90353981      10.77139592
Mg       4.24405800       3.03930101      26.76204453
Mg       1.96361217       7.24228380      10.76552169
Mg       1.73755907       7.29875040      26.78477853
Mg       2.24832530       1.46127013       5.65407629
Mg       1.90244726       1.58875863      21.67811045
Mg      -0.22673896       5.71397739       5.60320162
Mg      -0.48385109       5.83070509      21.64981395
Mg       7.04301374       1.56716104       5.77231218
Mg       6.76140409       1.78501771      21.81111973
Mg       4.53022931       5.77745632       5.83791137
Mg       4.20136871       5.85467074      21.85508282
Mg      -0.41872582       2.95777292      13.53916743
Mg      -0.58808026       3.03035433      29.53526656
Mg      -2.84309901       7.19286147      13.61453088
Mg      -3.12675813       7.36446529      29.65248818
Mg       4.54510923       3.04829605      13.74323134
Mg       4.01753461       3.13710621      29.89660948
Mg       2.02970979       7.28328962      13.77477228
Mg       1.69387460       7.28929071      29.85606020
Ni       2.11443634       1.58342125      14.16379780
Ni       1.83453635       1.60846629      30.19028552
Ni      -0.43187890       5.74555225      14.21654676
Ni      -0.71962866       5.98452681      30.14940663
Ni       6.86128167       1.63985569      14.33686538
Ni       6.65517893       1.65936318      30.44833543
Ni       4.36557040       5.84162449      14.32317787
Ni       4.09326494       6.00924752      30.31798779
Ni      -0.24447062       2.95572921       6.09542323
Ni      -0.54557959       2.93887729      22.07283471
Ni      -2.69450338       7.21478889       6.10203603
Ni      -2.99526029       7.27055354      22.15213438
Ni       4.67524609       2.98217647       6.23252111
Ni       4.36810425       3.01183856      22.24427060
Ni       2.09207526       7.16061787       6.24784241
Ni       1.83473563       7.19613655      22.20003293
Ni       2.15535367       1.52777332      10.18936705
Ni       1.90871603       1.57876500      26.17577497
Ni      -0.21426260       5.74627749      10.13710246
Ni      -0.65429584       5.88435917      26.07296432
Ni       6.94167822       1.54260186      10.34370748
Ni       6.72854818       1.69177574      26.31632906
Ni       4.50880924       5.74721804      10.33299094
Ni       4.16396542       6.01710829      26.35806688
Ni      -0.07202457       2.87986326       2.04680465
Ni      -0.41645038       3.01457864      18.00616340
Ni      -2.53757251       7.16201298       1.90412494
Ni      -2.91427100       7.15260781      18.10619524
Ni       4.67927792       2.86414999       2.22663742
Ni       4.39087194       3.03359859      18.24868431
Ni       2.26996453       7.17681787       2.15516895
Ni       1.96245154       7.22257979      18.33855179
Ni       2.09150711       2.85773011      12.03371956
Ni       1.84913389       3.07327455      28.25169618
Ni      -0.38912526       7.24998621      12.23831592
Ni      -0.70854528       7.27908811      28.11424960
Ni       6.84768057       3.01449284      12.30030327
Ni       6.61057231       3.07371158      28.35961138
Ni       4.11966982       7.33444509      28.33262642
Ni       3.36879409       0.88741337      12.13014509
Ni       3.04851564       0.92334734      28.20035550
Ni       0.82299055       5.00790040      12.16195675
Ni       0.49522471       5.14652044      28.16626664
Ni       8.13383324       0.79924476      12.39208267
Ni       7.87151259       0.99844549      28.36488311
Ni       5.73021967       5.10551899      12.34355297
Ni       5.32274751       5.25374285      28.35221024
Ni       0.99724368       3.64636742       4.10231802
Ni       0.68454951       3.73996808      20.12426173
Ni      -1.45464317       7.84504507       4.09545473
Ni      -1.68033340       7.96371414      20.09281128
Ni       5.85241320       3.68543566       4.31795138
Ni       5.47128454       3.71130659      20.21605021
Ni       3.29589445       7.87589853       4.29400570
Ni       2.96824300       7.91166170      20.32243383
Ni       0.93828648       0.70401675      12.12490513
Ni       0.66970843       0.97832989      28.18991396
Ni      -1.56798023       5.07536692      12.03052994
Ni      -1.95194116       5.10195271      28.14604139
Ni       5.79816798       0.86298308      12.28319706
Ni       5.45299184       0.88117372      28.33139349
Ni       3.27081761       5.12214443      12.28525456
Ni       3.05703244       5.17175771      28.30165247
Ni      -0.10005381       1.41063569       4.02945969
Ni      -0.42208808       1.46780417      20.09747080
Ni      -2.58655999       5.76066484       4.00941319
Ni      -2.86031113       5.80826099      19.95566603
Mg       4.72080122       1.51410481       4.18935673
Ni       4.42828876       1.56045929      20.32664641
Ni       2.13635839       5.69028861       4.20185347
Ni       1.88186574       5.85370433      20.19209430
Ni      -1.34203526       3.54947068       4.04778217
Ni      -1.68463633       3.67193750      20.10507741
Ni      -3.81471948       7.84161873       4.02315394
Ni      -4.09941806       7.85922945      20.02532666
Ni       3.35474386       3.71926381       4.25773350
Ni       3.15739909       3.68473554      20.14917864
Ni       0.90833478       7.90894629       4.20961466
Ni       0.60143755       8.00045092      20.19697277
Ni       2.38209441       0.12011237       0.16575501
Ni       2.15490036       0.26291019      16.21028784
Ni      -0.07777780       4.22348792       0.05887245
Ni      -0.43038148       4.37149136      16.03679905
Ni       7.07692119       0.07319547       0.29650235
Ni       6.87343386       0.11662179      16.33980011
Ni       4.68514568       4.26159972       0.27090409
Ni       4.40200583       4.37289131      16.24677034
Ni       1.13826894       2.13631696       0.11526225
Ni       0.80352775       2.25914424      16.08237776
Ni      -1.31415553       6.39582552       0.00337565
Ni      -1.70378465       6.50050760      16.21234750
Ni       5.94216616       2.22315857       0.30451697
Ni       5.59077651       2.21393017      16.25654589
Ni       3.43590435       6.45027000       0.26516685
Ni       3.17261348       6.53078085      16.35118321
Ni      -1.41869549       2.12020550       7.99362720
Ni      -1.71816100       2.27240375      24.06958785
Mg      -4.17921388       6.57640222      24.01503252
Ni       3.43727185       2.30816618       8.10609538
Ni       3.01547688       2.36926874      24.24033992
Ni       0.93477235       6.41673459       8.16253777
Ni       0.58162981       6.57661672      24.26454169
Ni       2.24241352       0.03970681       8.06115593
Ni       1.99803076       0.15995301      24.19047736
Ni      -0.25807815       4.24699477       8.08411219
Ni      -0.56828386       4.46520855      24.10506707
Ni       7.04010441       0.12544695       8.28224846
Ni       6.68439019       0.18706673      24.33560742
Ni       4.53770735       4.44966949       8.30557605
Ni       4.22499616       4.49400370      24.33003926
Ni      -1.27017567       2.09657327      -0.03623608
Ni      -1.64280168       2.12654665      16.00983013
Ni      -3.76431719       6.44073040      -0.09600589
Ni      -4.08860155       6.56601440      16.01647968
Ni       3.60532415       2.21215707       0.10240009
Ni       3.29531314       2.25930103      16.32251160
Ni       1.01109924       6.45943280       0.11894049
Ni       0.85334374       6.55423335      16.18085397
Ni       1.03594637       2.29880689       8.09369600
Ni       0.74902169       2.32912138      24.16284769
Ni      -1.57594295       6.58601987       8.03455494
Ni      -1.80117828       6.57109019      24.16228414
Ni       5.79255487       2.23454597       8.30454626
Ni       5.53093145       2.39908818      24.33272259
Ni       3.32215900       6.47114860       8.24949716
Ni       2.97527623       6.57652791      24.29519253
