189
Lattice="9.81557105293382 -0.2106580976476752 -0.3762890800137515 -4.825119659582987 8.609564064868621 0.175546232631263 -0.44728864975394306 0.17288659642922904 31.675687983186524" Properties=species:S:1:pos:R:3 pbc="T T T"
Mg      -0.24211874       0.06708059      14.24303317
Mg      -0.44787628       0.27346689      30.16724251
Mg      -2.60144522       4.37233179      14.46868402
Mg      -2.82071655       4.45706034      30.32410400
Mg       4.76588396      -0.00040313      14.20454732
Mg       4.43070478       0.12330235      30.05084182
Mg       2.20977149       4.17948039      14.20555691
Mg       2.03806085       4.37064757      30.15041231
Mg      -0.01993715       0.08125310       6.41628558
Mg      -0.36899216       0.15788894      22.28625391
Mg      -2.51400369       4.41927990       6.54154720
Mg      -2.76201290       4.47494930      22.35308192
Mg       4.88979368      -0.03157513       6.23212627
Mg       4.56279040       0.03870944      22.03086927
Mg       2.41117794       4.25583820       6.31736505
Mg       2.24701673       4.33156885      22.12743379
Mg      -0.20370237       0.02340868       9.47429858
Mg      -0.35698514       0.21207904      25.23672611
Mg      -2.55060290       4.34478732       9.46388647
Mg      -2.79779367       4.43002972      25.37019473
Mg       4.83540617      -0.05769102       9.26258690
Mg       4.57874358       0.03154142      25.04870978
Mg       2.32284610       4.21241138       9.21497224
Mg       2.17805077       4.30440469      25.16038612
Mg      -0.04860678       0.03224724       1.51840291
Mg      -0.30330174       0.06071296      17.39373577
Mg      -2.40292101       4.34015974       1.57163489
Mg      -2.65951259       4.34474199      17.40701769
Mg       4.97426461      -0.08699455       1.28971329
Mg       4.69188778      -0.03225372      17.08993843
Mg       2.48338778       4.26175775       1.34810676
Mg       2.23909164       4.35887845      17.24144662
Mg       2.45722111       1.34714948       2.41499491
Mg       2.25402716       1.37689400      18.21230380
Mg       0.08352123       5.67170999       2.44893712
Mg      -0.15554206       5.77487193      18.28960946
Mg       7.42514192       1.22403703       2.20995296
Mg       7.18361177       1.37748246      18.02300668
Ni       4.92941099       5.58440799       2.24552745
Mg       4.68772262       5.63137879      18.13576310
Mg      -0.17214034       2.84832671      10.32163289
Mg      -0.30999021       2.91767974      26.24679197
Mg      -2.69400889       7.31119983      26.30676955
Mg       4.79992888       2.75702103      10.26163711
Mg       4.60697349       2.89847416      26.04763915
Mg       2.30201058       6.97231121      10.31713636
Mg       2.11885321       7.10094755      26.04856315
Mg       2.32444886       1.45096969       5.42448110
Mg       2.11221401       1.46968303      21.17042324
Mg      -0.00997927       5.73477331       5.44372526
Mg      -0.23284473       5.74965741      21.36626764
Mg       7.29214329       1.28957306       5.08217247
Mg       7.15279981       1.45834027      21.05996071
Mg       4.95672034       5.58649008       5.27307294
Mg       4.64615016       5.71902149      21.10010926
Mg      -0.09537816       2.95298291      13.36023814
Mg      -0.35280708       2.92082136      29.23533879
Mg      -2.52886275       7.18192165      13.57087948
Mg      -2.83769510       7.36124658      29.31806959
Mg       4.81599501       2.83862242      13.14427291
Mg       4.52972727       2.94556690      29.06040092
Mg       2.41715117       7.09769413      13.32400687
Mg       2.02198793       7.20888960      29.12548063
Ni       2.13758581       1.46122929      13.82683551
Ni       2.02535036       1.48382628      29.52879949
Ni      -0.24765958       5.75431042      13.83307908
Ni      -0.34963448       5.85096337      29.72613409
Ni       7.19087621       1.36278359      13.52815718
Ni       4.74168788       5.58444589      13.61313533
Ni       4.54230470       5.77276880      29.47971484
Ni      -0.02558494       2.84709082       5.97004598
Ni      -0.19723956       2.99537288      21.77903284
Ni      -2.42554143       7.19429938       6.09392598
Ni      -2.77039020       7.21937735      21.83906472
Ni       4.89165879       2.71094345       5.82037514
Ni       4.61069648       2.87022339      21.64220888
Ni       2.37110491       7.10290487       5.79588688
Ni       2.12875682       7.12630163      21.64284628
Ni       2.31859589       1.39824275       9.75787241
Ni       2.17467266       1.55336063      25.60168838
Ni      -0.16982597       5.73194398       9.86899856
Ni      -0.32049835       5.82767685      25.69580328
Ni       7.24028562       1.25048358       9.67327120
Ni       6.88135450       1.31981500      25.47612788
Ni       4.83897919       5.67558243       9.59447480
Ni       4.58484208       5.76301110      25.65967315
Ni       0.01023348       2.84841136       1.97501194
Ni      -0.22299734       2.89515819      17.80684388
Ni      -2.38740624       7.13192337       1.99974326
Ni      -2.64711673       7.30617875      17.93066225
Ni       4.94147516       2.80718084       1.76852063
Ni       4.78210398       2.77985337      17.55987537
Ni       2.45972133       7.01170801       1.90099459
Ni       2.34205677       7.08943901      17.70307732
Ni       2.38884081       2.80066733      11.74729289
Ni       2.13442678       2.96695582      27.59740512
Ni      -0.09800077       7.19536650      11.88844267
Ni      -0.36545086       7.17832979      27.65987198
Ni       7.25721380       2.81171552      11.64915061
Ni       6.94714869       2.78304863      27.46496733
Ni       4.76319876       6.98856809      11.74319033
Ni       4.56722097       7.15404223      27.41112073
Ni       3.56586697       0.66673375      11.74625189
Ni       3.30697465       0.91559727      27.51879782
Ni       1.11320375       4.85578736      11.82879321
Ni       0.83849765       5.09878353      27.66944640
Ni       8.40249120       0.59620275      11.56440190
Ni       8.28259653       0.71243337      27.36266924
Ni       6.03086748       4.94898974      11.71326843
Ni       5.85404964       4.84470541      27.40273792
Ni       1.16371190       3.50665046       3.89407261
Ni       0.99301577       3.64465978      19.75368044
Ni      -1.21836177       7.94756579       3.94859038
Ni      -1.38940273       7.85628419      19.80759678
Ni       6.22804689       3.40230567       3.70806647
Ni       5.90292354       3.46981870      19.49833369
Ni       3.70787968       7.90321095       3.83308919
Ni       3.45279119       7.87714564      19.59826461
Ni       1.15957358       0.76126231      11.78105161
Mg       0.86683447       0.85493087      27.66686151
Ni      -1.34018253       5.02319964      11.97457043
Ni      -1.52792598       5.21219283      27.69512042
Ni       6.05159726       0.66775273      11.61110759
Ni       5.79123016       0.72055376      27.54904546
Ni       3.55395772       4.95263833      11.73542139
Ni       3.32395161       5.08704159      27.53806117
Ni      -0.08231214       1.35648911       3.96764759
Ni      -0.21592942       1.55279329      19.73603682
Ni      -2.44307834       5.68312305       4.04656491
Ni      -2.54886297       5.83250071      19.86357819
Ni       4.82594165       1.29434945       3.79221197
Ni       4.53704936       1.48167804      19.70067789
Ni       2.44176229       5.62301260       3.81514324
Ni       2.22780454       5.69969358      19.65530130
Ni      -1.20674878       3.59626988       3.99543527
Ni      -1.55300441       3.69847685      19.81957430
Ni      -3.63626085       7.84301409       4.07869684
Ni      -3.89479966       8.02136101      19.90363839
Ni       3.50553820       3.53804926      19.60662172
Ni       1.26133809       7.71494874       3.88804771
Ni       1.13879320       7.89134003      19.80149831
Ni       2.40495771      -0.13474743      -0.02295306
Ni       2.24386465       0.14735763      15.59003105
Ni      -0.02192585       4.25962604      -0.03814009
Ni      -0.20205098       4.37270026      15.76506009
Ni       7.40710028      -0.21171272      -0.27616910
Ni       7.16269840      -0.06454402      15.53045126
Ni       4.92395441       4.22113061      -0.19245843
Ni       4.79185783       4.19775260      15.61077552
Ni       1.25605952       2.06698409      -0.12427883
Ni       1.04852540       2.14396640      15.80752806
Ni      -1.15724014       6.46818629      -0.01315397
Ni      -1.43930513       6.49976389      15.81154679
Ni       6.09730212       2.06678961      -0.18571650
Ni       5.93981811       2.16807221      15.53463820
Ni       3.80746886       6.29408922      -0.23812765
Ni       3.42882277       6.44871517      15.70337310
Ni      -1.24416438       2.23766242       7.90977637
Ni      -1.53666461       2.30419617      23.82737629
Ni      -3.74360673       6.56695083       8.05106798
Ni      -3.95728927       6.60754934      23.86448260
Ni       3.60781184       2.17821375       7.80568752
Ni       3.34164531       2.08242149      23.64017633
Ni       1.18693157       6.40729512       7.87497062
Ni       0.90048100       6.46248934      23.71770285
Ni       2.30492491       0.08786047       7.83995127
Ni       2.12139003       0.07918709      23.68177167
Ni      -0.10972618       4.33228637       7.83742941
Ni      -0.35332570       4.42920938      23.75968179
Ni       7.20908890      -0.19144912       7.65716943
Ni       7.06138305      -0.02548081      23.43813962
Ni       4.83499695       4.23237526       7.79279533
Ni       4.60748168       4.29982940      23.44327761
Ni      -1.30964753       2.05234510       0.03920847
Ni      -1.47663266       2.37439886      15.79891777
Ni      -3.53379360       6.52341501       0.17600838
Ni      -3.83244431       6.47358046      15.92466199
Ni       3.67883212       2.02538667      -0.16787625
Ni       3.46526209       2.10661340      15.66224076
Ni       1.27010500       6.41547563      -0.05558298
Ni       1.17904281       6.48033891      15.72682026
Ni       1.13401878       2.12693623       7.82736373
Ni       0.84278366       2.22566310      23.61478206
Ni      -1.28441225       6.51910298       7.98600530
Ni      -1.46946153       6.50508491      23.85486384
Ni       5.96431388       2.03759790       7.69871018
Ni       5.83934246       2.18086972      23.47164348
Ni       3.55098864       6.43988886       7.76942839
Ni       3.40358690       6.46783742      23.60786971
