189
Lattice="9.943371767900118 0.20339100257638673 -0.3075354869431172 -4.784599145155335 8.545362133292748 0.21740503211392673 -0.5572824218827037 -0.0742367743826943 31.55824297683158" Properties=species:S:1:pos:R:3 pbc="T T T"
Mg      -0.29668312       0.03913242      14.35488958
Mg      -0.48425301      -0.07721235      30.11289917
Mg      -2.66588718       4.23155741      14.36317932
Ni      -2.93010017       4.29620067      30.18236875
Mg       4.69851845       0.02402019      14.18773521
Ni       4.48348394       0.04966595      29.86935365
Mg       2.35835349       4.29878923      14.17968026
Mg       2.07568009       4.26407001      30.06163936
Mg      -0.13934773       0.03235521       6.34094131
Mg      -0.38939188      -0.15490247      22.23217570
Mg      -2.42442893       4.27339893       6.50127650
Mg      -2.75529131       4.17309500      22.30122004
Mg       4.92842083      -0.00569609       6.23484071
Mg       4.65922045       0.04904427      21.97470757
Mg       2.52563169       4.38799371       6.37488817
Mg       2.16378478       4.39649314      22.08519341
Mg      -0.13582624      -0.05584390       9.34316440
Mg      -0.42610131      -0.00752724      25.16301376
Mg      -2.48455725       4.29251894       9.45971368
Mg      -2.88634892       4.33539929      25.21067145
Mg       4.79357410       0.06845893       9.23699058
Mg       4.56991410       0.04536109      25.04254777
Mg       2.52131356       4.39967277       9.27277277
Mg       2.12290303       4.32032085      25.11420899
Mg       0.04344044      -0.00421976       1.41767491
Mg      -0.29451075      -0.02186620      17.19738926
Mg      -2.43651443       4.22788660       1.52353758
Mg      -2.74960314       4.23566684      17.29485731
Mg       4.88140301       0.06497046       1.38017738
Mg       4.66555815       0.13151451      17.09872827
Mg       2.60716855       4.43571253       1.36911067
Mg       2.29361876       4.37485335      17.24831319
Ni       2.45901842       1.46975555       2.47971506
Mg       2.16937254       1.42908320      18.22960814
Mg       0.15897302       5.76193150       2.52345679
Mg      -0.20224300       5.78468105      18.29164986
Mg       7.48510634       1.55757254       2.13230130
Ni       7.18923928       1.58268864      17.98824423
Mg       5.08368714       5.84899963       2.38972694
Mg       4.73460061       5.73537557      18.19213958
Mg      -0.08322209       2.78121138      10.40084825
Mg      -0.27454967       2.73496636      26.20988898
Mg      -2.47121328       7.19387808      10.42302885
Mg      -2.69039667       7.11238968      26.24887746
Mg       4.92553561       3.00741240      10.26908353
Mg       4.53839743       2.88399112      26.08132574
Mg       2.39395398       7.21347062      10.40361869
Mg       2.23106298       7.20803233      26.14779245
Ni       2.47412508       1.39711254       5.29608989
Mg       2.12964386       1.39487691      21.13252349
Mg      -0.00057404       5.72444721       5.54870562
Mg      -0.15546660       5.73431824      21.28091390
Mg       7.34945870       1.67412017       5.09846065
Mg       7.05529227       1.57131744      20.89316563
Mg       4.98028855       5.89858692       5.34357912
Mg       4.71539814       5.82946246      21.16744397
Mg      -0.20778395       2.80035008      13.34565852
Mg      -0.42372220       2.81448115      29.07346892
Mg      -2.63230977       7.11227239      13.56274440
Mg      -2.82205275       7.15650297      29.19044801
Mg       4.82460178       2.96398528      13.18674543
Mg       4.55535917       2.85671901      28.96471888
Mg       2.38427829       7.25983622      13.30218283
Mg       2.19744803       7.19650441      29.09494714
Ni       2.23381633       1.50064411      13.77791999
Ni       1.93002648       1.35126300      29.51183075
Ni      -0.14269689       5.79321792      13.76463205
Mg      -0.44344727       5.70017996      29.63322615
Ni       7.27686976       1.44304798      13.55245740
Ni       6.97818557       1.53689350      29.41030159
Ni       4.83931099       5.90740308      13.65818050
Ni       4.63124869       5.81094587      29.53849723
Ni      -0.05130054       2.86620834       6.00925311
Ni      -0.36708975       2.84486266      21.68207160
Ni      -2.50136588       7.14656798       6.01684934
Ni      -2.73765174       7.04655289      21.74592997
Ni       4.99020276       3.01364078       5.81143219
Ni       4.64994004       2.91240158      21.54714148
Ni       2.57301379       7.23181721       5.95539447
Ni       2.21735735       7.22078977      21.60603757
Ni       2.26376495       1.47273051       9.78360591
Ni       2.03709197       1.35388407      25.52786331
Ni      -0.15552212       5.77131639       9.91623609
Ni      -0.30037944       5.71093817      25.64327465
Ni       7.38467193       1.50024408       9.61989140
Ni       7.10247185       1.67763065      25.37586227
Ni       4.89569944       5.76350558       9.72362272
Ni       4.69506121       5.85467672      25.54293243
Ni       0.01040370       2.88225796       1.93726787
Ni      -0.27041750       2.79056616      17.76693443
Ni      -2.35790399       7.17955010       2.11882644
Ni      -2.68123491       7.17537689      17.95968464
Ni       5.04350163       2.98662366       1.81321186
Ni       4.70388713       2.95558358      17.64015353
Ni       2.56176408       7.24851935       1.87080458
Ni       2.35423979       7.23706143      17.74773353
Ni       2.37658479       2.87697314      11.73123767
Ni       2.08884070       2.89650377      27.48844382
Ni      -0.04531141       7.23757184      11.85416723
Ni      -0.39063085       7.12709364      27.69274474
Ni       7.34362019       2.96098955      11.68996887
Ni       7.04630174       2.99524716      27.44426069
Ni       4.81064250       7.22096917      11.76072211
Ni       4.60863507       7.20519279      27.48897423
Ni       3.50046519       0.76741688      11.69028562
Ni       3.29599692       0.64140970      27.48905024
Ni       1.09828204       5.08554135      11.85785131
Ni       0.89168560       5.03772836      27.60154135
Ni       8.57579942       0.79150158      11.54744283
Ni       8.26514398       0.93240794      27.30001098
Ni       6.10575133       5.19430796      11.62111910
Ni       5.81539001       5.09683249      27.53027045
Ni       1.22920502       3.68430271       3.87839673
Ni       0.92705283       3.49408961      19.71523538
Ni      -1.09827682       7.80693287       4.08930923
Ni      -1.40577168       7.85010773      19.72628758
Ni       6.16883968       3.79038314       3.83947835
Ni       5.92153041       3.59444474      19.57103988
Ni       3.80003700       8.09334879       3.87963337
Ni       3.47732157       7.89253246      19.62240543
Ni       1.04561386       0.73930789      11.76251244
Ni       0.67631242       0.74175660      27.53046809
Ni      -1.30663925       4.91139193      11.91556029
Ni      -1.61419018       4.91709030      27.71663358
Ni       6.09780896       0.89805701      11.75392501
Ni       5.74895263       0.84371578      27.40656656
Ni       3.59307452       5.02902772      11.70687807
Ni       3.37825277       5.05171195      27.53295832
Ni      -0.08015079       1.49412531       3.96719536
Ni      -0.28320099       1.29166347      19.69197408
Ni      -2.44366443       5.76236789       4.09141063
Ni      -2.56895071       5.75514702      19.84905947
Ni       4.93847585       1.44617005       3.80327667
Mg       4.66724629       1.44199440      19.57384374
Ni       2.54955111       5.81884888       3.84460417
Ni       2.18180216       5.80911142      19.66745156
Ni      -1.16170408       3.65996560       4.04468055
Ni      -1.51911999       3.61841835      19.76958723
Ni      -3.62115054       7.83549274       4.07100150
Ni      -3.85515663       7.85584734      19.89760303
Ni       3.42514315       3.62574068      19.74526847
Ni       1.27981648       7.90439875       3.93058177
Ni       1.05847440       7.84929125      19.80815861
Ni       2.46088895       0.08403275      -0.03085293
Ni       2.23674790       0.06803281      15.66871167
Ni      -0.16086742       4.31469878      15.77599078
Ni       7.45995647       0.17038025      -0.22529279
Ni       7.18470604       0.04919519      15.53536162
Ni       5.09686652       4.41056523      -0.03598223
Ni       4.88076054       4.40307459      15.64329260
Ni       1.23863056       2.15667058       0.01500767
Ni       0.93227897       2.16030283      15.81775710
Ni      -0.96736108       6.46931877       0.06220888
Ni      -1.39216624       6.45782625      15.85841440
Ni       6.23789635       2.35785008      -0.14558039
Ni       5.99608544       2.27247367      15.65487147
Ni       3.89727822       6.57617540      -0.01194562
Ni       3.64666616       6.53454017      15.74875771
Ni      -1.34143039       2.11493699       7.92637641
Ni      -1.62600341       2.08964996      23.78300793
Ni      -3.73557493       6.28559023       8.05186385
Mg      -3.90948796       6.33783901      23.81978734
Ni       3.58305355       2.20847439       7.91339043
Ni       3.39068276       2.28122912      23.61329263
Ni       1.15657484       6.46926665       7.97198606
Ni       0.95401425       6.52148423      23.70082490
Ni       2.36678762       0.04033617       7.78431881
Ni       2.10740844      -0.00955355      23.51435518
Ni      -0.21914387       4.19941787      23.69533039
Ni       7.35068703       0.12204310       7.70564080
Ni       7.03620395       0.06403356      23.41830003
Ni       5.03646108       4.43837348       7.83017203
Ni       4.65347269       4.30777338      23.48014339
Ni      -1.15130564       2.07861406       0.12111187
Ni      -1.52477713       2.10015620      15.80072147
Ni      -3.56134177       6.38532149       0.13325576
Ni      -3.91733644       6.38595524      15.98906381
Ni       3.82420617       2.30360404      -0.13170155
Ni       3.53714953       2.19927771      15.70332390
Ni       1.39002357       6.50826874       0.11051880
Ni       1.16347573       6.44718429      15.80263006
Ni       1.19807888       2.21415777       7.78073282
Ni       0.86183187       2.09475493      23.65111100
Ni      -1.22826727       6.36694805       8.01425705
Ni      -1.56544832       6.37659877      23.74359127
Ni       6.08792917       2.34292988       7.74024681
Ni       5.87157067       2.17695228      23.50660283
Ni       3.70120693       6.60709941       7.85176770
Mg       3.46129195       6.54710137      23.63500597
