191
Lattice="9.476762940374941 -0.0647747257118506 0.15216394034146774 -4.745419608391412 8.827621420150285 -0.29620861401894866 -0.18012193077008418 -0.6580090358947881 33.225443338560154" Properties=species:S:1:pos:R:3 pbc="T T T"
Mg      -0.13143876      -0.25660773      15.03548976
Mg      -0.17449080      -0.62005888      31.66704756
Mg      -2.46552781       4.13663823      14.87058975
Mg      -2.58119686       3.76688147      31.50540728
Mg       4.65886021      -0.34199058      15.09576858
Mg       4.55836963      -0.62193469      31.67254037
Mg       2.26990722       3.94966589      14.95291515
Mg       2.19128429       3.79598232      31.67285451
Mg      -0.06114975      -0.13401765       6.67831315
Mg      -0.07835738      -0.44572641      23.26434047
Mg      -2.39962212       4.26714384       6.59852274
Mg      -2.50220312       3.99016374      23.12672415
Mg       4.71439205      -0.13544821       6.77291462
Mg       4.59698162      -0.50900230      23.40608972
Mg       2.24257573       4.22355765       6.57087949
Mg       2.19988430       3.94777734      23.31663575
Mg      -0.00661514      -0.15125199       9.94453970
Mg      -0.18645007      -0.50313420      26.46284926
Mg      -2.45046649       4.23626989       9.71676176
Mg      -2.50974230       3.90994893      26.30486141
Mg       4.66137407      -0.24586272       9.86458393
Mg       4.55217015      -0.62253737      26.56722431
Mg       2.28619288       4.12440710       9.73290943
Mg       2.23182414       3.82976484      26.46468610
Mg       0.07600611      -0.08790035       1.52306671
Mg      -0.09010730      -0.36303564      18.22717482
Mg      -2.32250236       4.42950628       1.37694745
Mg      -2.41238950       4.04446573      18.04132032
Mg       4.63408708      -0.08780932       1.67778461
Mg       4.70554259      -0.39979684      18.25843579
Mg       2.25733181       4.30555293       1.45958508
Mg       2.28676736       4.01779765      18.13241480
Mg       2.29539120       1.38562160       2.53823390
Mg       2.18164403       1.05029881      19.13094595
Mg       0.00166769       5.88647806       2.45976125
Mg      -0.15816445       5.41474368      18.98697484
Mg       7.04486693       1.35026363       2.66653052
Mg       7.03718770       1.04258303      19.34738089
Mg       4.67362761       5.79384170       2.47313788
Mg       4.66727688       5.44314524      19.16336312
Mg      -0.00286099       2.73299777      10.87817225
Mg      -0.14507403       2.37371868      27.47888900
Mg      -2.49736744       7.10371943      10.75760613
Mg      -2.57634458       6.94481251      27.37488239
Mg       4.74837159       2.71682599      10.89640375
Mg       4.58927337       2.34587424      27.55848471
Mg       2.30535163       7.10358796      10.77312582
Mg       2.18170895       6.68462902      27.34465258
Mg       2.28806767       1.28715996       5.72514037
Mg       2.30209512       1.01409775      22.37308347
Ni      -0.10448191       5.75534152       5.61279544
Mg      -0.10897700       5.31541239      22.29687321
Mg       7.05067513       1.28360485       5.86350861
Mg       7.01526000       0.96390655      22.49185374
Mg       4.64040838       5.71113326       5.61712666
Mg       4.68791987       5.34461052      22.25526317
Mg      -0.09019786       2.66170378      14.00363269
Mg      -0.20836023       2.32512112      30.43875512
Mg      -2.38119609       7.13502590      13.78925028
Mg      -2.58595016       6.79233087      30.47857230
Mg       4.61908195       2.66496145      13.99775509
Mg       4.57088450       2.35689411      30.60608927
Mg       2.30537544       7.06451108      13.86435919
Ni       2.23394696       6.65811383      30.51353395
Ni       2.21520730       0.83743017      31.13940896
Ni      -0.07073974       5.57399140      14.34322450
Ni      -0.04974370       5.17592505      31.01172363
Ni       7.05225083       1.19622228      14.71577916
Ni       6.89258855       0.77808449      31.21001057
Ni       4.64275417       5.51105557      14.41634971
Ni       4.61892107       5.28335715      31.04712134
Ni      -0.02407406       2.78070824       6.12172934
Ni      -0.14657179       2.59763385      22.74785876
Ni      -2.40542195       7.15633396       5.94368491
Ni      -2.55907364       6.90800053      22.52085124
Ni       4.67349430       2.80305616       6.24041451
Ni       4.63389610       2.54878913      22.91335693
Ni       2.39357433       7.14359244       6.09692988
Mg       2.25599029       6.84270263      22.69699791
Ni       2.32299706       1.24091906      10.36850948
Ni       2.27734691       1.01284874      27.03159567
Ni      -0.03515650       5.80826261      10.25636747
Ni      -0.19315146       5.34639127      26.93293825
Ni       7.10361881       1.15671459      10.51427618
Ni       6.94963289       0.91359961      26.96721624
Ni       4.69585125       5.63475837      10.26504289
Ni       4.53352923       5.38926265      26.99467664
Ni       0.04025665       2.83582951       2.01115136
Ni      -0.06541868       2.61614768      18.57137247
Ni      -2.38389921       7.29838138       1.84749780
Ni      -2.50716224       7.00930261      18.47051176
Ni       4.66776535       2.86428406       2.06317315
Ni       4.61577347       2.56975420      18.66382876
Ni       2.36170062       7.31895215       1.97338649
Ni       2.32266370       6.95064817      18.48188009
Ni       2.32484396       2.77893863      12.42919913
Ni       2.13736632       2.30421115      29.06481591
Ni      -0.14056546       7.14582392      12.24023650
Ni      -0.15585190       6.75557519      28.74785676
Ni       7.07116625       2.68996343      12.51371395
Ni       6.95594451       2.29810114      29.16333223
Ni       4.72797865       7.04638836      12.35748317
Ni       4.54531655       6.71164051      28.93942212
Ni       3.49634100       0.51050568      12.49953726
Ni       3.34536214       0.08958038      29.04618660
Ni       1.07817043       4.92322397      12.29394357
Ni       1.00220131       4.61258695      28.92773647
Ni       8.30780763       0.52945570      12.57828399
Ni       8.14688911       0.03353109      29.19283763
Ni       5.83497608       4.93313471      12.43281085
Ni       5.74709330       4.61615888      29.06653505
Ni       1.07300930       3.55128485       4.05086164
Ni       1.02734576       3.18503299      20.71052231
Ni      -1.17010098       7.97905634       3.94121318
Ni      -1.31806984       7.72042904      20.46145263
Ni       5.88960327       3.48702813       4.21844592
Ni       5.83974361       3.23743673      20.82687857
Ni       3.52734419       7.95145030       3.93865084
Ni       3.48603117       7.68415436      20.61738459
Ni       1.13383989       0.52540029      12.46719907
Ni       1.01730981       0.17264466      29.06519232
Ni      -1.32102163       4.87635087      12.34908777
Ni      -1.37590469       4.61603546      28.89634857
Ni       5.85436920       0.45550007      12.54112765
Ni       5.74736025       0.10629242      29.16467557
Ni       3.39868832       4.85120346      12.32419979
Ni       3.38308789       4.59132326      29.15151076
Ni      -0.00961646       1.43045197       4.18125787
Ni      -0.10561075       1.07133097      20.70168037
Ni      -2.42427672       5.79201581       3.95026538
Ni      -2.52883367       5.39312965      20.57093827
Ni       4.68117997       1.37852807       4.21711406
Ni       4.70212694       1.02905435      20.84765245
Ni       2.47314993       5.78066535       3.99659924
Ni       2.21829934       5.48557966      20.71601086
Ni      -1.29643279       3.66638980       4.00327829
Ni      -1.18037396       3.24920644      20.67457983
Ni      -3.62670489       7.95557077       3.89010071
Ni      -3.67252530       7.69575980      20.50191749
Ni       3.59614766       3.50121172       4.11514960
Ni       3.33041298       3.25974721      20.73174829
Ni       1.14081225       7.86832146       3.96892883
Ni       1.09161284       7.67716192      20.62439691
Ni       2.32900100      -0.01330842       0.03505385
Ni       2.33685197      -0.33457799      16.60221439
Ni       0.03046284       4.34024412      -0.15274158
Ni      -0.14667051       4.19091620      16.40670010
Ni       7.12552199      -0.06034287       0.08498136
Ni       7.11850020      -0.36192652      16.65243378
Ni       4.76910319       4.34405684      -0.04537773
Ni       4.61854113       3.95578882      16.57350425
Ni       1.22805498       2.27860292      -0.00992380
Ni       1.15267314       1.95440306      16.52486117
Ni      -1.13081639       6.65517980      -0.26009453
Mg      -1.29155534       6.24848654      16.40103630
Ni       5.85822790       2.24722721       0.00930971
Ni       5.78329351       1.90522788      16.52305454
Ni       3.52745631       6.55256066      -0.13339886
Ni       3.55034925       6.24901932      16.52426295
Ni      -1.26898738       2.02432205       8.24193217
Ni      -1.22611983       1.73986450      24.81396154
Ni      -3.57048362       6.53436695       8.11074673
Ni      -3.61044118       6.09214787      24.73975718
Ni       3.48687666       1.96498197       8.38051325
Ni       3.40538731       1.70614916      24.90433789
Ni       1.14903447       6.54807276       8.16602242
Ni       0.94411058       6.08717127      24.76550603
Ni       2.32476833      -0.16164401       8.26941950
Ni       2.18532506      -0.52210122      24.98198717
Ni      -0.07167497       4.23055061       8.26876719
Ni      -0.03918462       3.91892665      24.88173794
Ni       7.02661805      -0.15671651       8.43980315
Ni       6.91519910      -0.38764191      25.04075370
Ni       4.80910337       4.18360044       8.23069853
Ni       4.62843302       3.84624855      24.94394831
Ni      -1.10267609       2.22816123      -0.00492768
Ni      -1.24754535       1.95237142      16.50399331
Ni      -3.60718077       6.65269817      -0.35798497
Ni      -3.61210982       6.14205258      16.38573766
Ni       3.54554665       2.19137185      -0.01947764
Ni       3.38046127       1.96042241      16.57181566
Ni       1.15111468       6.61732286      -0.17733413
Ni       1.10338962       6.24167693      16.47563973
Ni       1.15635925       2.02191968       8.28582251
Ni       1.07873313       1.71432485      24.89895402
Ni      -1.16271821       6.43507122       8.15343987
Ni      -1.29650567       6.08951007      24.69649732
Ni       5.89365595       1.99164685       8.27949112
Ni       5.71755960       1.65351958      25.05426382
Ni       3.47712711       6.46329344       8.17849347
Ni       3.40604413       6.10663444      24.79476165
