191
Lattice="9.670215258413803 -0.06628204035264643 -0.22067243930637526 -4.675641048227639 8.76824471310851 -0.11294957922986118 0.01698755643526064 0.614545928346818 32.18563934727209" Properties=species:S:1:pos:R:3 pbc="T T T"
Mg      -0.03571035       0.25096655      14.55487164
Mg       0.02641961       0.49657513      30.69963387
Mg      -2.35624642       4.61781703      14.50485464
Mg      -2.36419871       5.02429023      30.52976796
Mg       4.72720111       0.38979376      14.42952231
Mg       4.86038077       0.51332619      30.49031487
Mg       2.45623358       4.60295162      14.39862017
Mg       2.47513402       4.90679405      30.53138094
Mg       0.02109814       0.14626247       6.61333803
Mg       0.08295145       0.34629768      22.66877844
Mg      -2.32455784       4.52648183       6.54611464
Mg      -2.30801530       4.83937603      22.55069561
Ni       4.81789615       0.11629684       6.54631494
Mg       4.84796917       0.39345073      22.52678886
Mg       2.50079917       4.45493114       6.25869310
Mg       2.51802610       4.77164555      22.42919635
Mg       0.02809276       0.28235763       9.58048523
Mg       0.04733782       0.48226262      25.68313599
Mg      -2.35635280       4.49259097       9.45945208
Mg      -2.34574429       4.89692191      25.49774908
Mg       4.84313778       0.17561075       9.54460903
Mg       4.86118550       0.30607752      25.58026779
Mg       2.52347925       4.57241912       9.32023705
Mg       2.60978169       4.75525975      25.52891900
Mg       0.01593999       0.11173719       1.47481507
Mg      -0.05162651       0.34204615      17.55627309
Mg      -2.24529282       4.40890631       1.33510164
Mg      -2.28244198       4.66625621      17.50949152
Mg       4.79688202      -0.02638244       1.42827844
Mg       4.82158278       0.32903430      17.46252758
Ni       2.46450372       4.40561092       1.32788727
Mg       2.44749599       4.74763631      17.40130650
Mg       2.52175550       1.45627964       2.33375550
Mg       2.57094827       1.77478174      18.43305440
Mg       0.07897487       5.85013608       2.40825685
Mg       0.13130064       6.20180851      18.36524291
Mg       7.23790780       1.53251518       2.29426759
Mg       7.26023347       1.78300310      18.32323084
Mg       4.93031161       5.88825384       2.20541479
Mg       4.96413003       6.12176210      18.37584349
Mg       0.09270746       3.04786412      10.42174985
Ni       0.12041536       3.43662316      26.60316441
Mg      -2.26666505       7.34826474      10.40476494
Mg      -2.30574383       7.88035390      26.53360518
Mg       4.90284843       3.21045245      10.28211689
Ni       4.92209570       3.47436277      26.49361465
Mg       2.54765826       7.43224704      10.37342947
Mg       2.60732075       7.72295956      26.42106797
Mg       2.42694898       1.57016220       5.46676510
Mg       2.39403840       1.86532934      21.49310480
Mg       0.11221386       5.89120320       5.48953052
Mg       0.11543828       6.27804508      21.45997493
Mg       7.41011330       1.48893132       5.33923748
Mg       7.31634521       1.84014304      21.39504691
Mg       5.02352070       5.92120284       5.25882702
Mg       4.92572086       6.26616784      21.41238418
Mg       0.09947923       3.12565416      13.49647872
Mg       0.11108701       3.40785005      29.64863116
Mg      -2.24662654       7.56400465      13.45607252
Mg      -2.31052697       7.94315460      29.54959313
Mg       4.78446835       3.12861487      13.22938423
Mg       4.83060978       3.44900858      29.55523673
Mg       2.58337235       7.54680806      13.30811980
Ni       2.49568323       7.89551148      29.44839343
Ni       2.44682780       1.75167832      14.02187866
Ni       2.49557977       2.04572762      30.02987283
Ni       0.13841994       6.06762926      13.99910359
Ni       0.19758381       6.41815379      30.00158661
Ni       7.25804626       1.68992429      13.80081963
Ni       7.22877469       1.98810484      30.01044232
Ni       4.90039644       6.00194204      13.86597128
Ni       4.98367830       6.35692546      29.84503004
Ni       0.05675640       3.00159538       6.00538685
Ni       0.04260879       3.27967911      22.08429681
Ni      -2.15162923       7.40201580       5.93359369
Ni      -2.23241633       7.68376522      22.06121998
Ni       4.90323324       3.02403641       5.85524358
Ni       4.93161184       3.24508960      21.89931626
Ni       2.48927353       7.29831674       5.80190773
Ni       2.56954720       7.69966956      21.89436246
Ni       2.47603664       1.62609531      10.05133085
Ni       2.43100120       1.88792408      25.95509204
Ni       0.02156625       6.01981207       9.85739805
Ni       0.11257903       6.42274691      26.06875244
Ni       7.23250999       1.62175191       9.88101393
Ni       7.35176069       1.93902312      25.94649643
Ni       4.82673513       6.02820221       9.74255411
Ni       4.93004212       6.38581159      25.82471121
Ni       0.16537517       3.00798442       2.00543956
Ni      -0.02839920       3.30828030      18.05240525
Ni      -2.25826397       7.30096535       1.85539087
Ni      -2.32591191       7.67070805      18.02988722
Ni       4.92096929       2.80900432       1.86622487
Ni       4.80590928       3.31934359      17.85175177
Ni       2.50933422       7.19765899       1.75692384
Mg       2.51125125       7.59152005      17.86289996
Ni       2.46776721       3.10841344      12.02099606
Ni       2.48902465       3.36968548      28.05403591
Ni       0.13994672       7.55034528      11.89862631
Ni       0.15971233       7.84728341      28.04116748
Ni       7.27329667       3.15377440      11.77013537
Ni       7.24730420       3.50077781      27.86257216
Ni       4.97497526       7.46015634      11.72837911
Ni       4.94090137       7.69226435      27.79230475
Ni       3.62557269       1.00914509      11.95619506
Ni       3.66497163       1.25300676      28.13749948
Ni       1.27028201       5.24814569      11.88887190
Ni       1.42706506       5.55507666      28.00275099
Ni       8.43492587       0.88560905      11.78078618
Ni       8.39982665       1.15962368      27.88719075
Ni       6.12725477       5.27535922      11.76461407
Ni       6.17142549       5.56250438      27.88287507
Ni       1.24365649       3.76375119       3.99773354
Ni       1.27769679       3.92057103      20.07321502
Ni      -1.11498305       8.13189432       3.93373993
Ni      -1.03713491       8.30801129      19.89175193
Ni       6.15098909       3.74754248       3.77981977
Mg       6.05810204       4.04998260      19.93715167
Ni       3.75186543       7.99233694       3.76272591
Ni       3.76186480       8.33123562      19.84136392
Ni       1.27182810       0.86663190      11.96783483
Ni       1.19353489       1.20835993      28.12265797
Ni      -1.17591938       5.39550070      12.01485564
Ni      -1.07563819       5.66527680      28.03804695
Ni       6.03537888       0.85639575      11.95052301
Mg       6.14114448       1.22168279      27.99257620
Ni       3.74686091       5.29633364      11.77810529
Ni       3.66686057       5.66427249      28.02363714
Mg      -0.01518447       1.62502352       3.94406456
Ni       0.13544775       1.88610426      20.05456253
Ni      -2.33043825       5.82155699       3.95497737
Ni      -2.23083057       6.24344404      20.00007915
Ni       4.94932536       1.44890402       3.86435088
Ni       4.84930277       1.81688181      19.96192164
Ni       2.55017626       6.18233276      19.95002103
Ni      -1.16230440       3.63776553       3.96591903
Ni      -1.15401438       3.96467895      20.01790865
Ni      -3.46107158       8.05538167       3.85051095
Ni      -3.45947719       8.41923429      19.93389395
Ni       3.66999992       3.68618957       3.87817213
Ni       3.71174748       4.04801024      19.97110125
Ni       1.44329463       8.05553742       3.82233009
Ni       1.29763440       8.37223967      19.93969621
Ni       2.41620588      -0.04360541      -0.11485548
Ni       2.36066053       0.13289422      16.10022997
Ni       0.10042299       4.29831529      -0.09044791
Ni       0.12357383       4.74289939      15.97468681
Ni       7.27194258      -0.02818841      -0.18451509
Ni       7.23927656       0.25448396      15.97388097
Ni       4.88669094       4.38154518      -0.19699290
Ni       5.00668104       4.71198937      15.90339046
Ni       1.29689721       2.18084700      -0.10012881
Ni       1.28068861       2.45348324      16.02497652
Ni      -1.12750548       6.48837055      -0.15131567
Ni      -1.06455485       6.88875771      15.99302640
Ni       6.12931479       2.06886344      -0.13211727
Ni       6.09896563       2.41791969      15.92899191
Ni       3.80327102       6.47570215      -0.18870943
Ni       3.72508542       6.75439533      15.82145683
Ni      -1.13991839       2.39486332       7.94274688
Ni      -1.18784677       2.64146356      24.17152608
Ni      -3.58004389       6.66946896       7.94737921
Mg      -3.46934100       7.05625621      24.07868034
Ni       3.66989210       2.36475362       7.90915215
Ni       3.59526088       2.64218698      23.99006108
Ni       1.34333826       6.70515148       7.83722194
Ni       1.32830640       7.03623957      24.00178501
Ni       2.38259893       0.09395617       7.96524468
Ni       2.36485615       0.45981678      24.15093590
Ni       0.06816334       4.52946365       7.87836426
Ni       0.03516888       4.79885106      24.00985482
Ni       7.24518079       0.02701832       7.95247104
Ni       7.23635615       0.40309964      24.03210099
Ni       4.93876033       4.54673531       7.72299109
Ni       4.93823687       4.82590226      23.85406700
Ni      -1.16335208       2.15182522       0.04805819
Ni      -1.13338295       2.45084631      16.07336000
Ni      -3.44565683       6.58963467      -0.13967481
Ni      -3.45557818       6.93786249      15.96636078
Ni       3.73636217       2.11777721      -0.12977609
Ni       3.58186621       2.37495181      16.02647839
Ni       1.36653242       6.56279492      -0.23036430
Ni       1.32255283       6.89612958      15.98331586
Ni       1.21189560       2.38405907       7.98791986
Ni       1.23172423       2.64891623      24.07863828
Ni      -1.17542763       6.68083567       7.86751769
Ni      -1.11816923       6.96601856      24.08157138
Ni       6.12602634       2.35375141       7.87218747
Ni       6.10748058       2.52119909      23.97933519
Ni       3.77359915       6.70787879       7.82491405
Ni       3.78039239       6.90592044      23.81720464
