189
Lattice="9.87756356794472 -0.31834334807955567 -0.2204710485838794 -5.14496110420371 8.485483965495211 0.49740906276905944 -0.7386305450312847 -0.061285343089008584 31.527361979093996" Properties=species:S:1:pos:R:3 pbc="T T T"
Mg      -0.33325210      -0.07093232      14.34270150
Ni      -0.62673337       0.06007567      30.04574063
Mg      -2.87355853       4.23454521      14.56497215
Mg      -3.33707451       4.11759746      30.28040209
Mg       4.66753285      -0.13334471      14.11252958
Mg       4.26875069      -0.16211457      29.94401809
Mg       1.94112184       3.99982030      14.44030188
Mg       1.58655352       4.01454296      30.22016006
Mg      -0.12983278      -0.11188817       6.35283157
Mg      -0.52330020      -0.07352309      22.19096624
Mg      -2.76921839       4.37084452       6.67744398
Mg      -3.07521646       4.17633083      22.41840364
Mg       4.78402731      -0.16232445       6.30035842
Mg       4.44098082      -0.09982027      22.03621626
Mg       2.28768415       4.02225601       6.57876750
Mg       1.86251214       4.01491721      22.39076825
Mg      -0.54377174      -0.03631460      25.13046645
Mg      -2.78340043       4.18303675       9.68317959
Mg      -3.21606060       4.25995425      25.36173071
Mg       4.72031826      -0.20085969       9.24523094
Mg       4.31815966      -0.20489851      25.00678442
Ni       2.09037664       4.00561951       9.54830053
Mg       1.81238946       4.05286673      25.24579479
Mg      -0.05211152      -0.07078579       1.45427557
Mg      -0.40453440      -0.02886785      17.28645867
Ni      -2.56503538       4.18396622       1.75905936
Mg      -3.00416806       4.15742004      17.47608860
Mg       4.87238301      -0.20433544       1.31387956
Mg       4.53100141      -0.16784043      17.18277217
Mg       2.34700685       4.07444337       1.69731692
Mg       1.90360589       4.06598237      17.37201312
Mg       2.27651806       1.39814318       2.50380476
Mg       2.05923637       1.22774633      18.26295860
Mg      -0.11659440       5.52962435       2.72973565
Mg      -0.45663160       5.46963440      18.45621021
Mg       7.24181334       1.09031323       2.32562044
Mg       6.92642509       1.10283283      18.08226638
Mg       4.73931892       5.33890751       2.57261185
Mg       4.30655023       5.40223586      18.30204685
Mg      -0.24040001       2.69850441      10.46938752
Mg      -0.76147001       2.78618346      26.23786722
Mg      -2.93898997       6.94614040      10.74578091
Mg      -3.27046166       7.00495759      26.54266100
Mg       4.69585220       2.61990934      10.43159741
Mg       4.13047432       2.60049302      26.10725089
Mg       2.08596069       6.86145705      10.62847576
Mg       1.70079556       6.77919571      26.33466703
Mg       2.25774015       1.28361430       5.42568233
Mg       1.98837447       1.09971767      21.20202639
Mg      -0.26167231       5.56452025       5.59439014
Mg      -0.58490106       5.46277682      21.43788576
Mg       6.89574371       1.11709506      21.01831939
Mg       4.57716446       5.29721413       5.52618945
Mg       4.33472430       5.26669656      21.35452021
Mg      -0.33883697       2.63029465      13.40912257
Mg      -0.79082836       2.70272526      29.19775740
Mg      -2.90519188       6.97158986      13.69823634
Mg      -3.38076823       6.99799289      29.52377491
Mg       4.54628641       2.54595630      13.29822004
Mg       4.22172815       2.64775573      29.14530271
Mg       2.00702863       6.78606862      13.47599630
Mg       1.55123285       6.77887765      29.32545035
Ni       2.06910361       1.27808284      13.85116533
Ni       1.74579050       1.27495072      29.55083210
Ni      -0.43820547       5.57950115      14.07338947
Ni      -0.82454558       5.44268063      29.72678756
Ni       7.02482098       1.17777485      13.70552164
Ni       6.69424717       1.10204161      29.48341363
Ni       4.46556459       5.27419201      13.99397364
Ni       4.06424883       5.29462898      29.68635501
Ni      -0.22243257       2.80331956       6.03668421
Ni      -0.65519098       2.81819643      21.78741944
Ni      -2.85603441       7.03996724       6.24351850
Ni      -3.23012645       7.07108155      22.01036281
Ni       4.73637875       2.72168712       5.91066322
Ni       4.39228667       2.55760168      21.73801646
Ni       2.08785729       6.83039004       6.21813625
Ni       1.79529069       6.76007934      21.96321483
Ni       2.17740963       1.27255367       9.83773655
Ni       1.79049281       1.26605536      25.61020301
Ni      -0.43898521       5.51365953      10.11138606
Ni      -0.77511083       5.49995813      25.78942002
Ni       7.23271609       1.12994246       9.77865564
Ni       6.69834604       1.07945211      25.55166061
Ni       4.43980649       5.42698478      10.04139131
Ni       4.22294791       5.35622726      25.75391287
Ni      -0.07877438       2.74830759       2.14973779
Ni      -0.52239421       2.63485921      17.93472146
Ni      -2.64530838       7.04456655       2.39264142
Ni      -3.02871111       6.96583272      18.15943647
Ni       4.88520719       2.67318586       1.99302820
Ni       4.43548972       2.53287437      17.76378139
Ni       2.29178124       6.91292253       2.26319382
Ni       1.84614375       6.87271749      18.00969130
Ni       2.01122020       2.69188587      11.89212706
Ni       1.70313424       2.65207731      27.76379101
Ni      -0.50785510       6.91022529      12.18070169
Ni      -0.82419192       6.89387388      27.92682066
Ni       7.10388831       2.50962630      11.77657726
Ni       6.74909237       2.54281565      27.59744893
Ni       4.39048577       6.78657790      12.07277116
Ni       4.15193935       6.72220441      27.78455683
Ni       3.37670153       0.46749716      11.77480219
Ni       3.02939250       0.54685572      27.56916292
Ni       0.88226993       4.79941904      12.07056935
Mg       0.45399306       4.73893033      27.75228762
Ni       8.31890971       0.38824622      11.67582150
Ni       7.88588844       0.37533853      27.43456565
Ni       5.81048122       4.62270865      11.96917215
Ni       5.42228290       4.61175597      27.55494805
Ni       1.10811402       3.34037095       4.09544528
Ni       0.69373287       3.42533206      19.90086217
Ni      -1.58724619       7.72973255       4.31026866
Ni      -1.87017708       7.61620787      20.12471143
Ni       6.00608821       3.23522734       3.98017675
Ni       5.57326068       3.35648336      19.70800043
Ni       3.31257658       7.45898880       4.16320396
Ni       2.97209759       7.49745170      20.01761952
Ni       0.92020694       0.59978280      11.78700936
Ni       0.65510988       0.62251924      27.54054308
Ni      -1.53660496       4.82837152      12.08857009
Ni      -1.95844279       4.80768666      27.80534599
Ni       5.87267726       0.37469117      11.67857930
Ni       5.54777384       0.42269942      27.52538309
Ni       3.34199965       4.65228698      11.92348387
Ni       2.90698071       4.71385353      27.68132223
Mg      -0.14028495       1.29551757       4.02346304
Ni      -0.51850962       1.26431399      19.81252803
Ni      -2.66869207       5.63925808       4.32090918
Ni      -3.14131655       5.67358717      20.08549096
Ni       4.83770271       1.18516297       3.89749121
Ni       4.48136103       1.25442859      19.68151484
Ni       2.23431644       5.45871190       4.17810797
Ni       1.86253165       5.44506445      19.84755468
Ni      -1.38395033       3.46268257       4.19220579
Ni      -1.76169556       3.46680037      19.95283150
Ni      -3.90540181       7.74332991       4.34186085
Ni      -4.31471121       7.74625845      20.18984358
Ni       3.57611066       3.37294135       4.03236789
Ni       3.04148603       3.22706148      19.79415196
Ni       0.96678212       7.55032725       4.28662512
Ni       0.61389279       7.48883333      20.05882728
Ni       2.46675118      -0.03706381       0.02065111
Ni       2.11342801      -0.18470862      15.71274264
Ni      -0.15479907       4.23522020       0.28572804
Ni      -0.44844677       4.08031214      16.01177189
Ni       7.42662408      -0.23701551      -0.16194176
Ni       7.15710716      -0.29776515      15.56292040
Ni       4.79545688       4.03284012       0.08052819
Ni       4.49468735       4.06095417      15.91179272
Ni       1.21704363       1.96209099       0.00339503
Ni       0.76357843       1.94952576      15.84193580
Ni      -1.44743880       6.29464555       0.35208174
Ni      -1.79752349       6.24239530      16.03671552
Ni       6.23778553       1.82829913      -0.11175591
Ni       5.73370378       1.86312932      15.74581488
Ni       3.59504113       6.10985379       0.20536072
Ni       3.07468112       6.13282476      15.98604001
Ni      -1.49163637       2.01352465       8.03659898
Ni      -1.84907897       2.10810811      23.78020977
Ni      -4.02950344       6.35330659       8.27311082
Mg      -4.40020264       6.36176200      24.08135000
Ni       3.50071923       1.95474462       7.94143702
Ni       3.12343890       1.89090181      23.64901223
Ni       0.92640591       6.15374478       8.11334202
Ni       0.51927225       6.21873020      23.96799457
Ni       2.32145170      -0.11934732       7.90554293
Ni       1.87113539      -0.06820456      23.59757191
Ni      -0.38789942       4.14877823       8.08565571
Ni      -0.74298906       4.10943468      23.85239316
Ni       7.19387745      -0.18799383       7.73800783
Ni       6.86839541      -0.24367857      23.47268776
Ni       4.62194631       3.97916864       7.98540302
Ni       4.29636002       3.97190553      23.78040199
Ni      -1.25497226       2.11215418       0.06578398
Ni      -1.75525310       2.20874780      15.97655600
Ni      -3.88268111       6.39551134       0.38424106
Ni      -4.23454658       6.41269190      16.23791063
Ni       3.63051882       1.92857604      -0.04488166
Ni       3.26103468       1.94130125      15.78018546
Ni       1.13187284       6.13467371       0.24527004
Ni       0.76290774       6.04253355      15.98882443
Ni       0.98522782       2.08268395       7.96269188
Ni       0.65208480       2.04273690      23.77327742
Ni      -1.56094673       6.29386158       8.14857140
Ni      -1.92635679       6.23126176      24.01321277
Ni       5.95933247       1.94584258       7.82641168
Ni       5.52867057       1.85548288      23.71299841
Ni       3.07919268       6.12064322      23.78020578
