192
Lattice="9.681170127280259 0.17294924536640982 -0.00947853941578161 -5.231048861585443 8.376869946220877 -0.17226684029536224 -0.8038668633876321 0.08043309059473586 31.61272722100603" Properties=species:S:1:pos:R:3 pbc="T T T"
Mg      -0.37894460      -0.01576409      14.35053360
Mg      -0.80517461       0.13475493      30.15059901
Mg      -2.90398742       4.16706111      14.15734112
Mg      -3.35248480       4.23894517      29.96720441
Mg       4.45804632       0.09762655      14.34245211
Mg       4.10611577       0.18078453      30.04677039
Mg       1.91294662       4.26255642      14.20897156
Mg       1.52440656       4.28114400      30.06876161
Mg      -0.18551579       0.08494619       6.46585265
Mg      -0.52596312       0.01391727      22.21436746
Mg      -2.72634290       4.18801783       6.34962716
Mg      -3.16970867       4.22381658      22.14058820
Mg       4.63853785       0.17596104       6.48104175
Mg       4.35479604       0.09831900      22.16063352
Mg       2.10822268       4.24808285       6.28842528
Ni       1.58728772       4.32585401      22.21076976
Mg      -0.29720309      -0.01284142       9.35318783
Mg      -0.66015777       0.03623937      25.16605709
Mg      -2.89617334       4.23847792       9.34493450
Mg      -3.30759928       4.24938119      25.07403880
Mg       4.54923697       0.10312705       9.44269377
Mg       4.20004308       0.22202875      25.21530164
Mg       1.90593899       4.22778646       9.27775198
Mg       1.59019199       4.31320327      25.19773020
Mg      -0.10775379      -0.02029694       1.50418472
Mg      -0.50573421       0.00491721      17.29655057
Mg      -2.60298619       4.18085714       1.36864277
Mg      -3.04086691       4.25680665      17.22161195
Ni       4.73579330       0.11743513       1.48868061
Mg       4.47388085       0.12815627      17.32723106
Mg       2.17778908       4.31208186       1.38791810
Mg       1.76816975       4.23248810      17.16635726
Mg       2.34929752       1.50734040       2.42741471
Mg       1.83165194       1.43603065      18.31135377
Mg      -0.31691805       5.62673205       2.37471687
Mg      -0.79151453       5.74900696      18.15359550
Mg       7.05395326       1.54215812       2.44351010
Mg       6.74806691       1.57867766      18.22566443
Mg       4.47481757       5.83759064       2.31605783
Mg       4.11250435       5.74970448      18.14690419
Ni      -0.39309660       2.76929440      10.30196465
Mg      -0.85372384       2.88845576      26.07574882
Mg      -2.98852651       7.07945654      10.19570008
Ni      -3.32804259       7.05547956      26.07876611
Mg       4.38147026       2.91919240      10.37416844
Mg       4.09733158       2.94321456      26.14772708
Mg       1.82349442       7.13338997      10.22488971
Mg       1.46439205       7.16871769      26.00566026
Mg       2.29030937       1.53193655       5.36090058
Mg       1.82873715       1.46878476      21.17409213
Mg      -0.40125235       5.61159342       5.39698281
Mg      -0.78345464       5.59535474      21.10788340
Mg       7.06274154       1.47153470       5.45485924
Mg       6.64505252       1.60633107      21.16926041
Ni       4.46937953       5.62600908       5.27550871
Mg       4.06698324       5.76418755      21.13618148
Mg      -0.46517957       2.82631903      13.33971330
Mg      -0.93612485       2.86653739      29.13281931
Mg      -3.07507110       7.12028926      13.20330245
Mg      -3.49257152       7.07500243      29.05711888
Mg       4.43325279       2.85377784      13.29521606
Mg       3.99478852       3.02727536      29.02193474
Mg       1.75865055       7.16032239      13.15632514
Mg       1.34352170       7.13023915      29.01822470
Ni       2.02243147       1.41171395      13.78991491
Ni       1.70475700       1.41547719      29.67308728
Ni      -0.53533471       5.69297353      13.70687609
Ni      -1.04805440       5.62962752      29.54626059
Ni       6.89808712       1.64510054      13.76944807
Ni       6.39110924       1.64121653      29.57895830
Ni       4.24669267       5.74167879      13.72265961
Ni       3.73562577       5.75652625      29.57612921
Ni      -0.31903723       2.79391304       5.82266700
Ni      -0.64789894       2.88001944      21.61852066
Ni      -2.90845082       7.07526210       5.87764780
Ni      -3.25025857       7.03824502      21.63155473
Ni       4.50206435       2.93609456       5.85954250
Ni       4.16500618       2.97699338      21.79873292
Ni       2.02867906       7.05496206       5.85472198
Ni       1.57565323       7.19315576      21.58681973
Ni       2.04704598       1.56146373       9.86930973
Ni       1.69392720       1.55707906      25.65697664
Ni      -0.64042997       5.69442629       9.84744497
Ni      -0.92278289       5.68303590      25.65805383
Ni       7.03280107       1.60760130       9.82933219
Ni       6.52355071       1.55027351      25.65376902
Ni       4.18695930       5.71030136       9.72724475
Ni       3.89948883       5.81223024      25.63672189
Ni      -0.11441895       2.82145367       1.91678108
Ni      -0.67616722       2.85959183      17.65454036
Ni      -2.83766381       6.93787180       1.88083512
Ni      -3.11893031       6.96983337      17.65302500
Ni       4.72528498       2.88677472       1.86998544
Ni       4.28844722       2.98699224      17.66259151
Ni       2.09288415       7.20226280       1.84064099
Ni       1.71875235       7.11768231      17.62764035
Ni       1.90550466       2.96174235      11.74300063
Ni       1.58261412       2.93819284      27.56205348
Ni      -0.65992651       7.08933744      11.64749493
Ni      -1.03203570       7.10077665      27.49543784
Ni       6.75744072       2.99188515      11.80668793
Ni       6.38547905       3.10750443      27.57578549
Ni       4.25548053       7.17721620      11.79650771
Ni       3.80599940       7.24630650      27.44207962
Ni       3.31534969       0.81665413      11.80927947
Ni       2.92025143       0.89122092      27.65092121
Ni       0.62978896       4.98526764      11.70517693
Ni       0.24841815       5.03045104      27.60611368
Ni       8.12452484       0.85501675      11.85635924
Ni       7.71934791       0.97573009      27.62689934
Ni       5.44830678       5.01894227      11.71223417
Ni       5.20799247       5.17516397      27.54429102
Ni       0.89604926       3.49267435       3.93951618
Ni       0.41930388       3.58110349      19.68821067
Ni      -1.72161565       7.74651460       3.82670723
Ni      -2.03365043       7.79904038      19.60098511
Ni       5.79052409       3.62098818       3.82690413
Ni       5.48699386       3.72971308      19.73030398
Ni       3.18372647       7.79976561       3.86888016
Ni       2.74378944       7.90076310      19.65461065
Ni       0.92281246       0.69196198      11.80206575
Mg       0.50207790       0.83710450      27.70420987
Ni      -1.73613613       4.89170775      11.81951320
Ni      -2.15359110       4.98518511      27.60045545
Ni       5.64775217       0.84548808      11.85346965
Mg       5.20173325       0.92020417      27.72142120
Ni       3.08329607       5.06040851      11.77131799
Ni       2.72137897       5.07670942      27.62020147
Ni      -0.19616687       1.42786234       3.92375836
Ni      -0.50683994       1.51370579      19.67093928
Ni      -2.80656080       5.61127258       3.77407805
Ni      -3.08525570       5.65315637      19.61474410
Ni       4.60800229       1.48235617       3.98621319
Ni       4.26297228       1.48671507      19.70896162
Ni       2.05673736       5.77225245       3.79641607
Ni       1.76155775       5.74889700      19.74168860
Mg      -1.49003677       3.49981399       3.91815890
Ni      -1.88883022       3.56926748      19.69978692
Ni      -4.10166872       7.67670685       3.80821989
Ni      -4.59186736       7.76791946      19.60488762
Ni       3.36343575       3.52747442       3.85432761
Ni       2.93351648       3.51387435      19.71797898
Ni       0.75870090       7.83246820       3.89915140
Ni       0.33541592       7.80996341      19.57392929
Ni       2.46753965       0.03051342      -0.04222668
Ni       2.04271568       0.05395373      15.86079957
Ni      -0.16042146       4.27952513      -0.03103793
Mg      -0.64857589       4.22363792      15.74920725
Ni       7.25616707       0.13496938      -0.07153520
Ni       6.82210442       0.11897191      15.77475127
Ni       4.63206047       4.33069339      -0.08001467
Ni       4.18766235       4.37509875      15.72635438
Ni       1.13150523       2.11495073      -0.10351301
Ni       0.74631338       2.20183404      15.78078504
Ni      -1.50984193       6.40287029      -0.06075311
Ni      -1.86830429       6.37286457      15.73141515
Ni       5.92388786       2.21562972       0.00388112
Ni       5.50174779       2.23492435      15.77918502
Ni       3.37293093       6.39036132      -0.14561724
Ni       2.92191609       6.38534777      15.66602736
Ni      -1.57144899       2.13139669       7.82808757
Ni      -1.92297215       2.19621445      23.74569757
Ni      -4.18570142       6.29986281       7.71567626
Ni      -4.47400203       6.34688797      23.60022281
Ni       3.25376052       2.21959843       7.87499303
Ni       2.99017978       2.24989442      23.62698433
Ni       0.72605031       6.45371040       7.77142206
Ni       0.31396460       6.45960271      23.53335831
Ni       2.16463817       0.01111079       7.95186152
Ni       1.91342509       0.12144100      23.67615880
Ni      -0.38941418       4.29655396       7.76101201
Ni      -0.81663425       4.34063357      23.61983097
Ni       7.01629460       0.26859317       7.84162251
Ni       6.67444930       0.12050834      23.66099420
Ni       4.50632031       4.34034176       7.83186177
Ni       4.04373235       4.44561293      23.54254019
Ni      -1.28894014       2.10325073      -0.06697308
Ni      -1.71850439       2.11022242      15.76146394
Ni      -3.98469626       6.27639305      -0.10263184
Ni      -4.29644813       6.33098335      15.71111638
Ni       3.51282127       2.12199887       0.00945252
Ni       3.13539603       2.18628459      15.77744414
Ni       0.88102839       6.32057651      -0.15827367
Ni       0.56654938       6.44996716      15.65755793
Ni       0.88454311       2.19548440       7.88975855
Mg       0.54550182       2.26003609      23.65448711
Ni      -1.75019453       6.37534605       7.73627164
Ni      -2.12172250       6.40376942      23.53299079
Ni       5.67794856       2.25510959       7.87887794
Ni       5.37473616       2.37020813      23.65090381
Ni       3.11052479       6.46496849       7.82428181
Ni       2.69066601       6.51690135      23.60124908
