192
Lattice="9.755191859923753 0.022010774844223598 0.1807672756841909 -4.92794484664698 8.27829854307029 -0.17508516823055692 0.721811694904985 0.09661311361888338 31.619969444706854" Properties=species:S:1:pos:R:3 pbc="T T T"
Mg       0.33650383       0.09096721      14.22954319
Ni       0.65692953       0.10758028      30.11392694
Mg      -2.10506102       4.17492606      14.28064527
Ni      -1.80404538       4.17621738      30.05057600
Mg       5.13623000       0.14599635      14.37519547
Mg       5.55325269       0.10598732      30.22562220
Mg       2.63081793       4.21778225      14.23934445
Mg       3.05706887       4.21721595      30.10415573
Mg       0.23509723       0.01748187       6.40343250
Mg       0.42127839       0.00783208      22.24652617
Mg      -2.33355019       4.13272534       6.37439794
Mg      -1.90399713       4.10406378      22.03334710
Mg       5.06474346       0.01927890       6.46565476
Mg       5.34903508       0.03040282      22.32719972
Mg       2.46020983       4.20233511       6.39846609
Mg       2.90508139       4.24336401      22.18667316
Mg       0.20859967      -0.05086827       9.36519004
Mg       0.59459992       0.02552399      25.20253093
Mg      -2.20541630       4.09810270       9.24619343
Mg      -1.88294942       4.22082884      25.16502989
Mg       5.14377803      -0.00341856       9.49197128
Mg       5.44613509       0.04458429      25.22528133
Mg       2.54036987       4.15731697       9.34272615
Mg       3.04792521       4.21732819      25.20580037
Mg       0.07851427      -0.06698365       1.44429249
Mg       0.39494493       0.00598242      17.38279147
Mg      -2.44653379       4.09409773       1.43378336
Mg      -2.10662282       4.18417248      17.21533974
Mg       4.84256765       0.02792912       1.50368121
Mg       5.23027854       0.03174147      17.40789212
Mg       2.29319131       4.13838509       1.53498392
Mg       2.81168153       4.15350203      17.25755338
Mg       2.45872761       1.33688849       2.57375184
Mg       2.83109205       1.42268559      18.42392110
Mg      -0.01334328       5.48493058       2.46741726
Mg       0.41352368       5.52441177      18.22498584
Mg       7.38957917       1.49908624       2.57916117
Mg       7.78329762       1.34333010      18.34084156
Mg       4.88329719       5.56240377       2.49238798
Mg       5.31663958       5.57940732      18.22875080
Mg       0.24190281       2.74905681      10.36683352
Mg       0.53174743       2.82112651      26.18308455
Mg      -2.26374945       6.94871561      10.29528492
Ni      -1.88457267       6.97739188      26.04522572
Mg       4.99732343       2.80716369      10.38747991
Mg       5.39129158       2.85759949      26.20759417
Mg       2.59992833       6.96898332      10.32262778
Mg       3.06609584       7.09985455      26.25607955
Mg       2.48101293       1.48596649       5.54061845
Mg       2.86493064       1.34304439      21.29759795
Mg       0.12790831       5.48177411       5.37599577
Mg       0.40982487       5.58088216      21.12247068
Ni       7.43879515       1.38365053       5.52355631
Mg       7.75826039       1.46148819      21.31016640
Mg       5.00214190       5.56967077       5.46944832
Mg       5.32738627       5.60287226      21.22600814
Mg       0.27272150       2.79715452      13.36308293
Mg       0.62634851       2.86827174      29.12535495
Mg      -2.22143863       6.84851571      13.18377898
Mg      -1.90089832       6.99214519      29.07145545
Mg       5.07962251       2.77682640      13.47554234
Mg       5.59060828       2.87843876      29.26132961
Mg       2.78349301       6.87356182      13.32116921
Mg       2.97524299       6.97879984      29.08223971
Ni       2.77051871       1.34062975      13.79823413
Ni       3.13154104       1.45694564      29.75487176
Ni       0.35505531       5.54321283      13.71739846
Ni       0.60333669       5.63552102      29.51347016
Ni       7.60930420       1.43806081      13.99990940
Ni       7.92417668       1.47817230      29.76390727
Ni       5.10554401       5.53946804      13.78466045
Ni       5.52859923       5.67876829      29.61886373
Ni       0.08450273       2.85191381       5.86662216
Ni       0.45563400       2.75423355      21.71064726
Ni      -2.43243696       6.86564998       5.79962506
Ni      -2.00713570       6.99545040      21.56387417
Ni       5.05872323       2.81161663       5.95962709
Ni       5.38847147       2.84240209      21.79642655
Ni       2.62718042       6.90453479       5.91767990
Ni       2.86149741       7.04299430      21.68316876
Ni       2.70055766       1.41499480       9.93595183
Ni       3.02789673       1.40654751      25.71749778
Ni       0.14363255       5.58887283       9.83127402
Ni       0.60346788       5.57202266      25.72018260
Ni       7.58985236       1.50964658      10.01699443
Ni       7.89796969       1.44462413      25.81019874
Mg       5.10856788       5.61504922       9.88566292
Ni       5.33146019       5.62822478      25.75383116
Ni      -0.00229767       2.77750110       1.90286581
Ni       0.45026902       2.83109727      17.71510218
Ni      -2.47768366       6.88090826       1.83911843
Mg      -2.00093760       6.94423914      17.68931682
Ni       4.88469135       2.77196439       2.04378456
Ni       5.23020856       2.82493947      17.88342998
Ni       2.44176476       6.91019291       1.93715707
Ni       2.81040341       6.92848797      17.75856277
Ni       2.70058973       2.80832515      11.86888789
Ni       3.05615787       2.81896411      27.65735167
Ni       0.14989755       6.97062278      11.75612888
Ni       0.56696085       6.98019861      27.50239197
Ni       7.60239448       2.81490617      11.97513466
Ni       7.95788226       2.82713792      27.72494118
Ni       5.18652831       6.95898772      11.88373921
Ni       5.39082331       6.94327673      27.77493759
Ni       3.83823108       0.87800150      11.87655212
Ni       4.28173042       0.83655126      27.74031733
Ni       1.49954818       4.88183632      11.77317161
Ni       1.81560604       4.84781949      27.63040780
Ni       8.80563280       0.76560041      12.04684286
Ni       9.12118964       0.79384099      27.86988499
Ni       6.36329015       4.87824976      11.98953074
Ni       6.63715191       4.94382215      27.80338549
Ni       1.35074792       3.47711435       3.95661487
Ni       1.58338780       3.46301563      19.69924203
Ni      -1.17118996       7.60274659       3.87407363
Ni      -0.85777948       7.61126461      19.67345880
Ni       6.11281709       3.48532259       3.93205691
Mg       6.47711309       3.43242227      19.86361327
Ni       3.64667124       7.55317961       3.97849694
Ni       4.09381910       7.71848562      19.81943851
Ni       1.51732849       0.67058498      11.88705109
Ni       1.90973104       0.81473370      27.70351118
Ni      -0.99016485       4.80018070      11.82008250
Ni      -0.63297072       4.96127766      27.52231459
Ni       6.34650865       0.75179134      11.89835204
Ni       6.75484831       0.75024443      27.75437514
Ni       3.85906909       4.81381613      11.97802964
Ni       4.23973238       5.00205358      27.70486041
Ni       0.15035086       1.38423928       3.86135531
Ni       0.46467555       1.48733060      19.75475081
Ni      -2.46853741       5.57986344       3.95504305
Ni      -1.92452492       5.50749902      19.63733576
Ni       4.95418811       1.40823003       4.04137463
Ni       5.31142640       1.47231848      19.81842317
Ni       2.49712413       5.50794957       3.95529237
Ni       2.76998828       5.65963296      19.66040896
Ni      -1.15160303       3.48676346       3.86381349
Ni      -0.77164886       3.51693241      19.68985456
Ni      -3.68578786       7.64088015       3.86551110
Ni      -3.25856946       7.64472047      19.61979738
Ni       3.73956757       3.49201291       3.95250994
Ni       4.08969873       3.51584338      19.83436114
Ni       1.23848005       7.57205351       3.88267944
Ni       1.59568884       7.72504232      19.79283093
Ni       2.30599602      -0.02428908       0.04554894
Ni       2.79668274      -0.00855895      15.85907181
Ni      -0.04703449       4.16299420      -0.01832225
Ni       0.38169566       4.26519516      15.70437388
Ni       7.31007604       0.04614528       0.11727858
Ni       7.69697809       0.03353966      15.88157130
Ni       4.86919553       4.19024567       0.06544085
Ni       5.30022556       4.22284615      15.80875095
Ni       1.20224219       2.13702543       0.01541155
Ni       1.54457274       2.17237778      15.73591556
Ni      -1.35365185       6.25709661      -0.17371595
Ni      -0.91387713       6.30481193      15.76085889
Ni       5.97989079       2.10198452       0.04379497
Ni       6.46077431       2.15888613      15.93512895
Ni       3.52785349       6.24355092       0.01268193
Ni       4.07545098       6.26640398      15.85128503
Ni      -1.08177531       2.13002339       7.81844175
Ni      -0.77581442       2.20223013      23.64194359
Ni      -3.43646017       6.24216663       7.68593330
Ni      -3.19205822       6.25858399      23.59049839
Ni       3.88633985       2.15442207       8.05238515
Ni       4.17201806       2.22661143      23.71256367
Ni       1.38703680       6.28376283       7.89571832
Ni       1.70779593       6.42034357      23.65021336
Ni       2.57499025       0.04658087       7.96871028
Ni       3.00053207       0.07062907      23.67699732
Ni       0.14976902       4.11826579       7.92232020
Ni       0.44456110       4.20989011      23.65423114
Ni       7.49236572       0.08418658       7.98430080
Ni       7.87916750       0.07192449      23.87277929
Ni       5.03100497       4.21655765       7.97897607
Ni       5.45384222       4.29765658      23.78916491
Ni      -1.21099136       2.02337160      -0.06840565
Mg      -0.86567671       2.04913702      15.77823047
Ni      -3.66370843       6.21581430      -0.09527036
Ni      -3.31901678       6.25490967      15.66032621
Ni       3.64446757       2.17941288       0.09353030
Ni       4.00234881       2.05739446      15.90913673
Ni       1.14940161       6.17597619      -0.03347711
Ni       1.56404819       6.24540705      15.74633563
Ni       1.46558360       2.05421893       7.85610872
Ni       1.70003708       2.14834473      23.68581966
Ni      -1.15620805       6.28461142       7.97054984
Ni      -0.83379096       6.36362100      23.59641863
Ni       6.34973826       2.03900802       7.98150964
Ni       6.62402933       2.13055463      23.74341159
Ni       3.79614303       6.26424721       7.83478451
Ni       4.12483687       6.28965327      23.69004783
