191
Lattice="9.874319731610967 0.35842212846353283 0.25224048938039484 -5.03767992622438 8.00492651338977 -0.07195833671330583 0.3987812826079782 0.8747765545269778 31.255009557555756" Properties=species:S:1:pos:R:3 pbc="T T T"
Mg       0.12303792       0.54072756      14.15958619
Mg       0.32752908       0.80874263      29.70870394
Mg      -2.45470951       4.40898528      14.08500412
Mg      -2.11040489       4.85709287      29.80061621
Mg       5.08207298       0.62236343      14.24526499
Mg       5.26663933       0.99316323      29.95452445
Mg       2.59824157       4.53295756      14.21819792
Mg       2.81737798       5.02203832      29.84272118
Mg       0.08378014       0.23717640       6.32725717
Mg       0.19971894       0.69058034      21.87342892
Mg      -2.40463321       4.19303707       6.35215261
Mg      -2.21731961       4.55154188      21.94886033
Mg       4.99230084       0.36838848       6.54249930
Mg       5.26706011       0.84990509      22.11243161
Mg       2.46630891       4.28560232       6.46504242
Mg       2.80079933       4.80331608      21.99870684
Mg       0.13805643       0.20442756       9.33983279
Ni       0.40783908       0.70975766      24.91925911
Mg      -2.44775147       4.28202651       9.24007105
Mg      -2.26718669       4.60697701      24.88067281
Mg       5.01524336       0.44128307       9.36240872
Ni       5.29229444       0.88651732      25.04403459
Mg       2.60742880       4.40765667       9.39417843
Mg       2.78186173       4.86458265      25.03220826
Mg       0.03232930      -0.04436703       1.51360609
Mg       0.30062213       0.44900420      17.07093712
Mg      -2.49634927       4.12635427       1.53241593
Mg      -2.33740145       4.51781707      17.01180427
Mg       4.89095644       0.16075815       1.59588211
Mg       5.20483763       0.63999243      17.21735056
Mg       2.38158887       4.22089943       1.54948466
Mg       2.64221960       4.64204882      17.22563375
Mg       2.41012675       1.58245433       2.47809966
Mg       2.62496075       1.97156766      18.16205257
Mg       0.03157291       5.47778420       2.45534039
Mg       0.20444003       5.92290580      18.02144290
Mg       7.47275719       1.63787526       2.69276545
Mg       7.61594169       2.19404237      18.30829207
Mg       4.97074227       5.71326222       2.62011835
Mg       5.12662962       6.15492820      18.27638785
Mg       0.07271838       3.01313758      10.27687078
Mg       0.17419595       3.47540171      25.89101870
Mg      -2.47728247       6.96970126      10.11847019
Mg      -2.25365895       7.50249429      25.76786203
Mg       5.00432810       3.10406273      10.56554356
Mg       5.15896178       3.61858101      26.01017755
Mg       2.43161517       7.22387928      10.32306864
Mg       2.76194652       7.60640156      25.92627830
Ni       2.51865841       1.65037044       5.43233341
Mg       2.74771631       2.10942481      21.04977497
Mg      -0.05163726       5.60146673       5.48998438
Mg       0.21088232       6.01890886      21.11415725
Mg       7.43267434       1.79675416       5.59691870
Mg       7.69783324       2.23483204      21.16602724
Mg       5.00180240       5.77183220       5.57680533
Ni       5.23178804       6.21518486      21.14706665
Mg       0.20437216       2.99706291      13.31540404
Mg       0.30625259       3.41850456      28.87149617
Mg      -2.34980215       7.13641045      13.13453715
Mg      -2.17724333       7.50503465      28.71271730
Mg       5.08702513       3.24498497      13.36293983
Mg       5.32857596       3.66603335      29.06291808
Mg       2.53636169       7.26512143      13.36383662
Mg       2.74936770       7.70248228      28.97429316
Ni       2.59496353       1.87623388      13.75821525
Ni       2.74492528       2.30091175      29.36323575
Ni       0.15481950       5.84233203      13.71078361
Ni       0.33643317       6.26895451      29.33884879
Ni       7.50282135       1.90287707      13.94330079
Ni       7.68520373       2.43086791      29.51956607
Ni       5.01373662       5.99268416      13.91594403
Ni       5.20231751       6.42009366      29.50493378
Ni       0.00688534       2.86724936       5.87697366
Ni       0.28177270       3.26433468      21.44304323
Ni      -2.51484171       6.89866306       5.85600689
Ni      -2.29846202       7.35815549      21.49349900
Ni       5.00484253       3.08428621       6.01383719
Ni       5.23346601       3.52246579      21.76046974
Ni       2.42876699       7.03167206       6.06056693
Ni       2.64886910       1.76813663       9.75117905
Ni       2.81341430       2.17447880      25.45260765
Ni       0.08380987       5.73115228       9.83654489
Ni       0.31157034       6.17824882      25.43183487
Ni       7.53875124       1.82865431      10.00339647
Ni       7.82273770       2.35850115      25.64908356
Ni       4.98339704       5.91185150       9.89306084
Ni       5.13040883       6.32357590      25.55859588
Ni      -0.01119343       2.78782262       2.05438772
Ni       0.28514901       3.24835758      17.55424793
Ni      -2.55792475       6.66577821       1.89000264
Ni      -2.27311365       7.21797211      17.51290511
Ni       4.93714057       2.97654530       2.10420470
Ni       5.18333922       3.41425491      17.73452043
Ni       2.40696016       6.91294044       2.00570953
Ni       2.60913979       7.46122600      17.63730537
Ni       2.62256981       3.27298133      11.87300738
Ni       2.70779224       3.58367509      27.32621601
Ni       0.16446288       7.14245229      11.74760306
Ni       0.27650571       7.53599267      27.40270023
Ni       7.53884282       3.37338244      11.85707599
Ni       7.66896275       3.92392763      27.51076157
Ni       4.97560994       7.32747569      11.94642734
Ni       5.12942993       7.73187537      27.59776305
Ni       3.79574590       1.15153494      11.77646140
Ni       4.05411275       1.62789797      27.47286881
Ni       1.34849170       5.18163096      11.74568472
Ni       1.56108459       5.64568864      27.52106351
Ni       8.74260394       1.26251572      11.96421503
Ni       9.00318056       1.77653132      27.62974018
Ni       6.26582751       5.32272783      11.93889252
Ni       6.41783974       5.74179323      27.52341547
Mg       1.19658687       3.52821566       4.03097630
Ni       1.44087004       4.00459624      19.69511740
Ni      -1.28499568       7.50070189       3.83992367
Ni      -1.10067135       8.00764992      19.50596406
Ni       6.19557181       3.70814232       4.12376517
Ni       6.39428888       4.18227091      19.74525181
Ni       3.63768132       7.67762770       4.05687347
Ni       3.87534888       8.13438120      19.68880232
Ni       1.36908138       1.03650839      11.67594952
Ni       1.64199848       1.51950915      27.37334594
Ni      -1.13404421       5.00517609      11.75465080
Ni      -0.98834917       5.54414770      27.35282828
Ni       6.33075029       1.25055727      11.93345727
Ni       6.59237137       1.74069294      27.46257535
Ni       3.73146849       5.29212988      11.80276791
Ni       4.04227979       5.67143929      27.40242436
Ni       0.03665408       1.44054101       3.99252675
Ni       0.18073206       1.87470263      19.55219982
Ni      -2.53813303       5.42681296       3.87585905
Ni      -2.32031864       5.87137015      19.51017893
Ni       4.98114537       1.64909780       4.07778416
Ni       5.22056441       2.12497098      19.64330567
Ni       2.39568584       5.65386647       4.03457382
Ni       2.64423151       6.09932215      19.62299889
Ni      -1.28959564       3.47081550       3.91991387
Ni      -1.05178838       3.91435050      19.47958102
Ni      -3.72590912       7.45899299       3.80159576
Ni      -3.53983759       7.90654967      19.47672169
Ni       3.65589115       3.63771143       4.04967215
Ni       3.88840230       4.15102911      19.62726972
Ni       1.21938915       7.71194220       3.99278232
Ni       1.41064032       8.04025978      19.58633592
Ni       2.42927570       0.08728983       0.13313083
Mg       2.69701349       0.54831335      15.65740205
Ni      -0.07908842       4.10413119       0.12922335
Ni       0.16612644       4.49512884      15.61199804
Ni       7.36325366       0.27508032       0.18554822
Ni       7.64792218       0.75304953      15.75362188
Ni       4.95325484       4.25803173       0.15480428
Ni       5.06597856       4.71996157      15.80868329
Ni       1.19216203       2.01193728       0.02521690
Mg       1.31662941       2.44387344      15.75036176
Ni      -1.26089769       6.12937420      -0.03537338
Ni      -1.16245368       6.55129570      15.67167750
Ni       6.14089958       2.26584762       0.16515434
Ni       6.34930497       2.74468679      15.87768804
Ni       3.65936408       6.35232949       0.06583764
Ni       3.75802620       6.66941244      15.77290114
Ni      -1.10749324       2.24382399       7.86573786
Ni      -0.88946474       2.52439019      23.45160316
Ni      -3.67833929       6.25617102       7.79248851
Ni      -3.48718861       6.64519459      23.36088798
Mg       3.76358589       2.32596621       7.92613404
Ni       3.89827572       2.88949526      23.52021874
Ni       1.28304438       6.35210871       7.88074022
Ni       1.37462681       6.83297817      23.51570777
Ni       2.58338248       0.33561858       7.87210917
Ni       2.80443047       0.73422521      23.50607235
Ni       0.05985052       4.26136871       7.78010039
Ni       0.18192697       4.72801713      23.52332898
Ni       7.45037407       0.51083229       8.07741874
Ni       7.66444605       1.01959520      23.65820127
Ni       5.06210120       4.45557903       7.98518868
Ni       5.17445296       5.02776957      23.63197411
Ni      -1.31075146       1.99323078      -0.02420816
Ni      -1.15318124       2.45161041      15.62972583
Ni      -3.72355260       6.07374200      -0.01898188
Ni      -3.52123207       6.38979093      15.61332137
Ni       3.69813285       2.23249588       0.08229106
Ni       3.83622865       2.60369129      15.71274180
Ni       1.06066868       6.18515419       0.18148253
Ni       1.36503335       6.60077225      15.67348303
Ni       1.25112851       2.31743857       7.93088013
Ni       1.57244785       2.81099621      23.42771500
Ni      -1.13787645       6.28926104       7.84911433
Ni      -1.06455874       6.76007474      23.54493210
Ni       6.26194440       2.48938626       7.88730394
Ni       6.42484667       2.93971646      23.61731948
Ni       3.70841115       6.48319783       7.99906805
Ni       3.92592895       6.97258839      23.51068948
