185
Lattice="9.740109612984385 0.33580173464842994 -0.15354724188275093 -4.840807627982595 8.370892134532163 -0.049158703476433196 0.20794872857738442 0.62878394447457 31.55210197483857" Properties=species:S:1:pos:R:3 pbc="T T T"
Mg       0.06108661       0.19749366      14.34109719
Mg       0.18213391       0.69962120      30.02525501
Mg      -2.41507789       4.47862258      14.33475094
Mg      -2.23798825       4.73785907      30.09635529
Mg       4.94595984       0.43201724      14.08725946
Mg       5.03836226       0.80169476      29.98619485
Mg       2.45521953       4.71443916      14.21158722
Mg       2.66586879       4.90621018      29.99619680
Mg      -0.05254263       0.04823582       6.49330608
Mg       0.12583787       0.44855847      22.13853001
Mg      -2.35820953       4.33999010       6.38343359
Ni      -2.22735575       4.64055302      22.21208895
Mg       4.83590904       0.36983381       6.32485993
Mg       5.06646358       0.65776749      22.09832528
Mg       2.49939880       4.42502622       6.29494013
Mg       2.55027491       4.83985801      22.02004702
Mg       0.07220000       0.05833036       9.33226744
Mg       0.12543994       0.54910426      25.19154724
Mg      -2.40370862       4.34829336       9.27949573
Mg      -2.30927266       4.63933516      25.09188560
Mg       4.94497042       0.41086075       9.33053136
Mg       5.07758472       0.64374739      25.06471283
Mg       2.43814997       4.64479432       9.36330853
Mg       2.67178672       4.84269583      25.08886665
Mg       0.00611936      -0.00602058       1.54583138
Mg       0.19797580       0.37445601      17.27397527
Mg      -2.38883377       4.31318264       1.46657839
Mg      -2.27578620       4.46961886      17.29488718
Mg       4.89522945       0.21734442       1.38347397
Mg       4.95050943       0.52813991      17.21818239
Ni       2.43158720       4.39035694       1.33639354
Mg       2.63945329       4.76966867      17.16123709
Mg       2.48901544       1.50687556       2.36052561
Mg       2.61707102       1.83213343      18.20959643
Mg       0.04308103       5.73138520       2.36948277
Mg       0.14974978       6.02684530      18.14321784
Mg       7.31536356       1.69781632       2.40833008
Mg       7.43277541       2.06015046      18.04675760
Mg       4.96219369       5.97481349       2.34191129
Mg       5.04653124       6.39516507      18.12660769
Mg       0.12616641       3.03292213      10.16782715
Mg       0.08450698       3.32664939      26.11261825
Mg      -2.36776257       7.24036498      10.30826278
Mg      -2.27266602       7.57537509      26.00260787
Ni       4.97155441       3.29307446      10.25339346
Mg       5.02839821       3.50197082      25.90709697
Mg       2.52971050       7.37585045      10.25617167
Mg       2.59924265       7.65887871      25.98998561
Mg       2.63202026       1.56982744       5.41004628
Mg       2.56108149       1.91399510      21.16491501
Mg      -0.05937691       5.88528417       5.28352868
Mg       0.13801825       6.13228355      21.19618874
Mg       7.36662603       1.82342437       5.28349821
Mg       7.49167868       2.11411403      21.05940673
Mg       4.90544872       6.05710859       5.26508075
Mg       5.01538198       6.23044070      21.05030690
Mg       0.04715192       3.11298070      13.24857158
Ni       0.20877361       3.46992635      28.98086116
Mg      -2.35163752       7.36179447      13.35546866
Mg      -2.29002230       7.63610982      29.05147059
Mg       5.01742551       3.25605183      13.19098461
Mg       4.98876330       3.64054401      29.08442912
Mg       2.63848800       7.73576062      28.99919973
Ni       2.55464143       1.82437545      13.72116354
Ni       2.56074641       2.05707198      29.54395243
Ni       0.08302320       5.95383820      13.73154881
Ni       0.20921754       6.28367533      29.49318028
Ni       7.51776664       1.90614353      13.72268547
Ni       7.53238666       2.22674355      29.43423326
Ni       4.87783735       6.20010589      13.64735276
Ni       5.00831543       6.43931984      29.40672535
Ni       0.09796504       2.95685531       5.86571775
Ni       0.11596796       3.23406760      21.63801590
Ni      -2.47509292       7.16892976       5.88674503
Ni      -2.29527829       7.50520969      21.61643264
Mg       4.91995415       3.16771790       5.81083953
Ni       2.53535392       7.33510703       5.71557075
Ni       2.55064001       7.65468753      21.56102190
Ni       2.45822174       1.75901986       9.82709212
Ni       2.67812079       1.93543100      25.60731493
Ni      -0.03526534       5.82574570       9.80036050
Ni       0.23306743       6.21666591      25.49144874
Ni       7.42528417       1.80771162       9.68569639
Ni       7.42562854       2.17634175      25.41740165
Ni       4.92187328       6.00738524       9.78650120
Ni       5.06636055       6.31392947      25.44020856
Ni      -0.04443535       2.85610321       2.01453580
Ni       0.17547591       3.25747933      17.73097002
Ni      -2.41198622       7.06391217       1.91502858
Ni      -2.36227896       7.37965072      17.76265518
Ni       4.91162955       3.14998272       1.92862078
Ni       5.00634518       3.34834381      17.75483053
Ni       2.39714641       7.27609376       1.76695897
Ni       2.47409704       3.04758964      11.74331313
Ni       2.63585698       3.48831600      27.41614246
Ni       0.16316387       7.41124918      11.73735856
Ni       0.26228577       7.68225208      27.46412209
Ni       7.44659263       3.24825280      11.57215521
Ni       7.51747552       3.61418887      27.49953741
Ni       5.03325250       7.46850189      11.66703401
Ni       5.02460775       7.80904743      27.37157993
Ni       3.74416628       1.09334451      11.70824774
Ni       3.75763852       1.37173002      27.53640713
Ni       1.26946105       5.26631182      11.79162086
Ni       1.36380418       5.61148979      27.40965178
Ni       8.60893962       1.17506036      11.67675611
Ni       8.78553228       1.47567356      27.41175778
Ni       6.13405979       5.36564374      11.71563051
Ni       6.25824277       5.78011300      27.51675586
Ni       1.34617666       3.71117722       3.88109579
Ni      -1.20181963       7.94618422       3.91804844
Ni      -1.07736949       8.13551485      19.55894814
Ni       6.11268986       3.94695695       3.83900194
Ni       6.30741357       4.18256154      19.61657679
Ni       3.73306801       8.05237437       3.73034397
Ni       3.80282152       8.33272048      19.57689309
Ni       1.30372000       0.97698407      11.75516296
Ni       1.41711718       1.27025489      27.61471592
Ni      -1.07884855       5.22627150      11.80081044
Ni      -0.98648731       5.48482703      27.58815742
Ni       6.18910535       1.13329108      11.68486552
Ni       6.23410864       1.42540518      27.45339792
Ni       3.83504442       5.24881584      11.73558942
Ni       3.81740284       5.70630846      27.47901248
Ni       0.03521779       1.47064798       3.97241761
Ni       0.25230180       1.91606815      19.72820462
Ni      -2.34350845       5.66446093       3.90233812
Ni      -2.23632615       6.08427377      19.81362149
Ni       4.95319689       1.62313261       3.82221666
Ni       5.02311598       1.97709433      19.65960789
Ni       2.45115156       5.89091868       3.80093689
Ni       2.64344663       6.13523555      19.60248607
Mg      -1.16556766       3.60337052       3.88429740
Ni      -1.12601707       3.89047971      19.74031314
Ni      -3.60508101       7.80176416       3.86796858
Ni      -3.56432965       8.08575429      19.60285033
Ni       3.64497690       3.69069335       3.88444945
Ni       3.74799598       4.12005145      19.66468638
Ni       1.32086270       7.97618393       3.95332814
Ni       1.37216087       8.23357283      19.62812083
Ni       2.47505648       0.16984506       0.00774591
Ni       2.53597930       0.33970941      15.78045066
Ni       0.01826230       4.31709978      -0.04129736
Ni       0.03289411       4.64729295      15.73742867
Ni       7.32431863       0.17641004      -0.16894545
Ni       7.43489802       0.50975148      15.65578163
Ni       4.90699545       4.45073841      -0.10256531
Ni       4.94993085       4.66818618      15.66917727
Ni       1.14430291       2.33259401      -0.03439636
Ni       1.29211058       2.55136330      15.76044267
Ni      -1.04404770       6.71240953      15.64304233
Ni       6.29472154       2.63130622      15.68191297
Ni       3.65228561       6.53166435      -0.20907623
Ni       3.75318967       6.80221429      15.54965198
Ni      -1.19263775       2.26195995       7.83620921
Ni      -1.06729723       2.65421506      23.67061427
Ni      -3.51130125       6.43994430       7.83345179
Ni      -3.46156047       6.71756391      23.65863451
Ni       3.76952183       2.51690898       7.72937150
Ni       3.87567741       2.72523706      23.59356878
Ni       1.32693319       6.63934629       7.74186576
Ni       1.46971658       6.92015415      23.57902756
Ni       2.44075436       0.22802836       7.85109168
Ni       2.51345779       0.59370577      23.58662133
Mg       0.08466661       4.47933442       7.80592522
Ni       7.42507446       0.40157340       7.77475559
Ni       7.48722696       0.65673194      23.52086456
Ni       4.93230782       4.55074467       7.75655894
Ni       5.10696720       4.78483947      23.48316198
Ni      -1.18827792       2.13203128      -0.15094427
Ni      -1.12639997       2.47610849      15.72027816
Ni      -3.57252862       6.24431762      -0.08869003
Ni      -3.69927346       6.53416953      15.75565538
Ni       3.74558434       2.28402138      -0.04988072
Ni       3.81462983       2.51015751      15.71073263
Ni       1.30096989       6.39670961      -0.09508476
Ni       1.40098121       6.65648718      15.57060374
Ni       1.21714895       2.35951385       7.86316255
Ni       1.34703674       2.65309048      23.67440936
Ni      -1.19325881       6.52927298       7.85485007
Ni      -1.11092144       6.83088671      23.60007602
Ni       6.09001729       2.48144602       7.72508245
Ni       6.25856506       2.77360306      23.60781197
Ni       3.67112459       6.70117125       7.76726380
Ni       3.84207876       7.01798533      23.55717550
