191
Lattice="9.93675911547251 0.060034247864716415 0.24057759333431292 -4.837587158178415 8.503475451140552 -0.013074407217920109 -0.364889851792781 0.16694254237176048 31.5219105721881" Properties=species:S:1:pos:R:3 pbc="T T T"
Mg      -0.06838273       0.05928708      14.23863671
Mg      -0.40317225       0.17501471      30.05695306
Mg      -2.58148829       4.43682624      14.20349770
Mg      -2.82035604       4.44459400      30.05413868
Mg       4.80523503       0.15048603      14.43655019
Mg       4.63895776       0.26888972      30.15943171
Mg       2.41368625       4.44571136      14.43932372
Ni       2.21095982       4.44079294      30.16653200
Mg      -0.04743674       0.01005011       6.42967692
Mg      -0.23998093       0.05983368      22.21360273
Mg      -2.53711620       4.33920199       6.36665107
Mg      -2.64699515       4.40005762      22.15899125
Mg       4.83747883       0.04372929       6.57916965
Mg       4.67476910       0.17936234      22.31555450
Mg       2.41338912       4.31239258       6.52060466
Mg       2.33397525       4.37067838      22.28192116
Mg      -0.07578282       0.01353402       9.40009860
Mg      -0.31810337       0.17108607      25.14884773
Mg      -2.49087119       4.33002717       9.42968645
Mg      -2.74032873       4.32745416      25.03419816
Mg       4.92053952       0.02755381       9.56403663
Mg       4.70946055       0.14288193      25.19282996
Mg       2.41270546       4.26884024       9.40557606
Mg       2.20646377       4.43315452      25.31185531
Mg       0.02241790      -0.01319105       1.46317930
Mg      -0.22113903       0.22520396      17.23528900
Mg      -2.39192737       4.21521627       1.45543801
Mg      -2.62674410       4.23068022      17.17223025
Mg       4.93044104      -0.01603474       1.66674480
Mg       4.78237129       0.25090882      17.36833222
Mg       2.48557948       4.26744496       1.60098098
Mg       2.31739443       4.40725104      17.43172125
Mg       2.52668161       1.42523260       2.45004022
Mg       2.34989879       1.49747941      18.24508154
Mg       0.03051558       5.57099278       2.47359057
Mg      -0.05262145       5.78588172      18.22381357
Mg       7.37410214       1.60481134       2.66411887
Mg       7.20372906       1.50140826      18.44202419
Mg       5.00631525       5.73949549       2.63894022
Mg       4.85798504       5.79874233      18.46301771
Mg      -0.12354464       2.89014008      10.38563309
Mg      -0.21086501       3.01247872      26.07258622
Mg      -2.45182316       7.16726464      10.34455762
Mg      -2.73299037       7.34614733      26.16905147
Mg       4.79348788       3.02281970      10.38194296
Mg       4.63929811       3.04088163      26.30480044
Mg       2.44563163       7.21355285      10.47575899
Mg       2.33360060       7.15132986      26.24499686
Mg       2.54146691       1.56083544       5.45728956
Mg       2.20647629       1.49138046      21.27185525
Mg      -0.02045463       5.75200204       5.54446071
Mg      -0.11825695       5.78719091      21.20865479
Mg       7.34924108       1.41239046       5.64396034
Mg       7.13029544       1.60665361      21.43677020
Mg       4.96408889       5.70753581       5.59386443
Mg       4.78821751       5.90956334      21.34337510
Mg      -0.18222055       2.91174376      13.39434889
Mg      -0.28860264       3.02545904      29.15231535
Ni      -2.51687887       7.20445906      13.40341823
Mg      -2.75590497       7.17893297      29.14944514
Mg       4.82889589       2.97863046      13.51210796
Mg       4.68941505       3.02728766      29.27407764
Mg       2.50789669       7.19074209      13.50183210
Mg       2.28017935       7.38265535      29.20650857
Ni       2.39457474       1.48754971      13.91301522
Ni       2.23002257       1.61792970      29.67998690
Ni      -0.07528189       5.73891410      13.83736127
Ni       7.32398253       1.44741993      13.89922581
Ni       7.12036731       1.60887431      29.74248550
Ni       4.96880062       5.85815425      14.04474746
Ni       4.75557073       5.91090422      29.75113339
Ni      -0.05678231       2.97805050       5.89056042
Ni      -0.22123492       2.88560492      21.67192806
Ni      -2.50214455       7.09117999       5.93176214
Ni      -2.62461343       7.20513055      21.70891769
Ni       4.90879194       2.98321702       6.04826638
Ni       4.72178896       2.99704273      21.85587645
Ni       2.41718421       7.23352520       6.06116884
Ni       2.36290700       7.19786949      21.82813063
Ni       2.43675239       1.55858095       9.87294442
Ni       2.24384641       1.57045132      25.64591999
Ni       0.00533835       5.66663950       9.97055027
Ni      -0.19999409       5.89829787      25.66229075
Ni       7.42217904       1.62902497      10.02466265
Ni       7.15857162       1.59815057      25.84460095
Ni       4.83258844       5.81088053      10.03537293
Ni       4.84520455       5.83860203      25.77722261
Ni       0.07903820       2.92880000       1.96615533
Ni      -0.10252882       2.92230720      17.76760339
Ni      -2.26990918       7.05829775       2.10953634
Ni      -2.49324145       7.17057950      17.72430616
Ni       5.09527686       2.90592035       2.18256141
Ni       4.79123874       3.04487871      17.91457042
Ni       2.61905744       7.15138626       2.00164734
Ni       2.40342655       7.22271313      17.84130458
Ni       2.39333906       2.94296748      11.99361607
Ni       2.26817649       2.93141280      27.66659423
Ni      -0.05224764       7.07345200      11.85588625
Ni      -0.23219864       7.24283603      27.69380127
Ni       7.39464160       2.93998893      12.00720256
Ni       7.09927188       3.04420409      27.87396550
Ni       4.93177273       7.25726936      12.04556597
Ni       4.79980331       7.33433173      27.73036301
Ni       3.52329953       0.72714162      11.83118872
Ni       3.41120393       0.91861341      27.60805709
Ni       1.12912451       5.09906735      11.88910152
Ni       1.03508104       5.08954211      27.67531661
Ni       8.53670161       0.85930989      11.93323154
Ni       8.34457440       0.83272206      27.80370069
Ni       6.26579517       5.08638850      12.05767344
Ni       6.02634775       5.10134472      27.73660488
Ni       1.25503587       3.61405552       4.00649771
Ni       1.15672812       3.65965257      19.73530331
Ni      -1.07644833       7.89052580       4.01154085
Ni      -1.34315328       7.93613472      19.76741644
Ni       6.20669801       3.64270490       4.18096900
Ni       6.00043466       3.72996945      19.87021655
Ni       3.78115085       7.90299104       4.21946120
Ni       3.63519525       7.96204383      19.92207525
Ni       1.11185572       0.76771845      11.92140037
Ni       0.95268832       0.83055144      27.73884944
Ni      -1.25296922       5.06885416      11.91621342
Ni      -1.49013608       5.06079853      27.59271516
Ni       6.08256607       0.82186984      12.04120543
Ni       5.96180567       0.89804828      27.71028154
Ni       3.64021339       5.03223796      11.96674478
Ni       3.51890810       5.10961127      27.74000589
Ni      -0.11482595       1.37275503       3.93654962
Ni      -0.23149178       1.43177767      19.79341366
Ni      -2.53241498       5.63521719       3.99642924
Ni      -2.55902917       5.80773539      19.78012282
Ni       4.93245832       1.51874237       4.02017966
Ni       4.80188185       1.60832076      19.79899142
Ni       2.44074851       5.77281501       4.07346605
Ni       2.25878354       5.79371538      19.80846771
Ni      -1.14349276       3.59345588       3.92671096
Ni      -1.39104868       3.75178907      19.69632092
Ni      -3.73506177       7.80224988       3.95606525
Ni      -3.86959063       7.90452469      19.67208014
Ni       3.73392848       3.56221311       4.08680615
Ni       3.56149143       3.69529181      19.86364596
Ni       1.40989116       7.83658873       4.17207794
Ni       1.12127465       7.94858481      19.76844435
Ni       2.49678886      -0.03133401       0.10003527
Ni       2.29864592       0.08315598      15.82694871
Ni       0.08318004       4.28784522       0.05766501
Ni      -0.13940447       4.32969850      15.85728687
Ni       7.46213704      -0.02241650       0.21712194
Ni       7.42051721       0.24129290      15.92650975
Ni       5.04512492       4.33180366       0.15567920
Ni       4.87996983       4.41057251      15.98764309
Ni       1.23658024       2.16894289       0.14032602
Ni       1.05031605       2.20934259      15.84130629
Ni      -1.05575868       6.35642178       0.03170811
Ni      -1.37003312       6.51134278      15.81582232
Ni       6.20857534       2.19220385       0.25097243
Ni       6.13027589       2.28918877      15.88154507
Ni       3.76465500       6.37750542       0.26262792
Ni       3.64688923       6.47250988      15.90613743
Ni      -1.24203507       2.11577842       7.92642879
Ni      -1.54169062       2.16528502      23.64797413
Ni      -3.72084816       6.37163269       7.84464685
Ni      -3.90772155       6.58540342      23.58455286
Ni       3.64111381       2.23874181       8.05887776
Ni       3.54353787       2.25886559      23.79294979
Ni       1.36413081       6.47802344       7.94959105
Ni       1.02303627       6.53707225      23.75263201
Ni       2.27246428       0.03947377       8.01147604
Ni       2.22007269       0.08849080      23.73048756
Ni       0.03394964       4.27342602       7.91603476
Ni      -0.21157640       4.32562652      23.69182730
Mg       7.47250482       0.05957917       8.10808066
Ni       7.20701596       0.17047022      23.88078281
Ni       4.92893069       4.25761735       8.05943147
Ni       4.73492723       4.47284027      23.82944011
Ni      -1.20871300       2.09721062       0.08071001
Mg      -1.46984154       2.24783039      15.79557765
Ni      -3.54925073       6.40185638      -0.09842105
Ni      -3.81595823       6.41056256      15.73986563
Ni       3.74030905       2.12583591       0.10708782
Ni       3.62935899       2.25962559      15.93546667
Ni       1.34264869       6.44359504       0.03645283
Ni       1.17535301       6.45585913      15.82361082
Ni       1.23741246       2.11166924       7.86406651
Ni       1.03577748       2.24002807      23.67901692
Ni      -1.27203768       6.50333625       7.96639185
Ni      -1.39066795       6.62643314      23.65478776
Ni       6.17933734       2.15422054       8.08041334
Ni       6.01445935       2.31946676      23.86916895
Ni       3.79071126       6.49457968       8.09319744
Ni       3.59131387       6.49550289      23.90116059
