190
Lattice="9.83880530668198 -0.19378876859118893 0.14408454592366446 -4.931348343788362 8.647861839091172 0.27308716208785666 0.5223040096875642 1.098633105581002 31.739785702251567" Properties=species:S:1:pos:R:3 pbc="T T T"
Mg       0.27834687       0.59705028      14.32578228
Mg       0.50225983       1.05854035      30.31773802
Mg      -2.25958154       4.83172149      14.52284987
Mg      -1.94259525       5.34360428      30.42412551
Mg       5.17391863       0.35962985      14.56876293
Mg       5.45555370       0.79849223      30.28402702
Mg       2.74477867       4.70230290      14.58243592
Mg       2.92658195       5.26902945      30.42225880
Mg       0.11442545       0.21886187       6.39426962
Ni       0.42493349       0.73186485      22.31231839
Mg      -2.45240085       4.52944283       6.64710707
Mg      -2.11606919       5.02880662      22.50408428
Mg       4.93216063       0.09281539       6.44264282
Mg       5.18086928       0.66938548      22.29966771
Mg       2.53607458       4.51201609       6.68519977
Ni       2.88073135       5.06505611      22.57583499
Mg       0.20942353       0.52253870       9.43921184
Mg       0.49882956       0.91088149      25.33208558
Mg      -2.29877342       4.71157804       9.50384821
Mg      -2.08348305       5.13404131      25.42697694
Mg       5.10649142       0.18296763       9.44833671
Mg       5.35377799       0.69655832      25.29604912
Mg       2.57031046       4.52961042       9.69476418
Mg       2.84564559       5.10287535      25.53765195
Mg       0.11813168       0.10231557       1.51548787
Mg       0.14774778       0.57409520      17.28861165
Mg      -2.36717612       4.46769607       1.60066094
Mg      -2.24136189       4.87982798      17.47311584
Ni       4.91607632       0.06917822       1.52954711
Mg       5.13957023       0.49177875      17.39400254
Mg       2.47027434       4.32563303       1.70622684
Mg       2.77617133       4.87285643      17.49523583
Ni       2.49932360       1.38881897       2.53492404
Mg       2.75652183       1.99991192      18.38431267
Mg       0.06700145       5.76566638       2.78319633
Mg       0.28503768       6.32109109      18.54698132
Mg       7.39812990       1.28805148       2.62686396
Mg       7.71236458       1.99009831      18.54224158
Mg       4.98029380       5.64963115       2.72103058
Mg       5.20986446       6.23744471      18.59877326
Mg       0.16928359       3.13381862      10.49115976
Mg       0.45609242       3.77704372      26.46388449
Mg      -2.26717915       7.51471999      10.68365289
Mg      -2.02496235       8.06664744      26.44138349
Mg       5.14281099       3.15571015      10.64060847
Mg       5.34421379       3.72130499      26.48237273
Mg       2.65280379       7.46997025      10.75754528
Mg       2.86054812       7.93502087      26.58690835
Mg       2.43421432       1.51840169       5.44879955
Mg       2.79454502       2.04951632      21.47998673
Mg      -0.01179567       5.95664583       5.67601892
Mg       0.32647310       6.39431028      21.55779561
Ni       7.45529696       1.52164306       5.61328748
Mg       7.81006302       2.04596929      21.50556731
Mg       5.05263364       5.78265954       5.74489173
Mg       5.21143829       6.33708623      21.67795702
Mg       0.14856032       3.31177192      13.41484368
Mg       0.51385495       3.89946642      29.37732365
Mg      -2.17323662       7.60964554      13.63909944
Mg      -1.95368011       8.31280286      29.47870055
Mg       5.18776274       3.23380501      13.63559489
Mg       5.37159336       3.74949857      29.38870961
Mg       2.63990069       7.62308863      13.70269988
Ni       2.94916544       8.12532856      29.50117080
Ni       2.65397189       1.85210475      13.97530972
Ni       2.88311195       2.43183423      29.85156762
Ni       0.34279607       6.17447706      14.03780896
Ni       0.48587845       6.76646530      30.01050732
Ni       7.58886410       1.75204190      14.00964459
Ni       7.84120879       2.35411796      29.91835495
Ni       5.06881580       6.09967073      14.21343805
Ni       5.37307905       6.56625144      30.04807483
Ni       0.10317056       3.11899646       6.01656816
Ni       0.36991064       3.51923898      21.95200874
Ni      -2.35729894       7.29861865       6.21132400
Ni      -2.18979258       7.94522968      22.07864137
Ni       4.95369630       2.90171500       6.08524957
Ni       5.21124821       3.55479164      21.94478059
Ni       2.59312022       7.22075454       6.21458788
Ni       2.81020607       7.78961178      22.22133020
Ni       2.57865457       1.72331623      10.10667152
Ni       2.90039513       2.31322938      25.89244097
Ni       0.14776072       6.05685700      10.20096148
Ni       0.34747262       6.68657362      25.93886412
Ni       7.56136983       1.62175912      10.01043167
Ni       7.83850611       2.22220009      25.86596300
Ni       5.18667148       6.00131022      10.27812673
Ni       5.27556992       6.56164938      26.12380660
Ni       0.03238934       2.93670361       2.11815155
Ni       0.21205649       3.42145112      17.99981180
Ni      -2.56556963       7.34796715       2.14038736
Ni      -2.19380390       7.77741412      18.08830927
Ni       4.90134410       2.86009967       2.09671690
Ni       5.25563831       3.34180229      18.01438185
Ni       2.44038853       7.09397628       2.32530753
Ni       2.78589158       7.65913037      18.13262729
Ni       2.66699729       3.12028854      12.02715821
Ni       2.92405023       3.78159860      27.94773840
Ni       0.06514830       7.52673927      12.09244024
Ni       0.46110790       8.03345161      28.09285013
Ni       7.49423877       3.16808753      12.08052090
Ni       7.93040876       3.69050997      28.02132817
Ni       5.12663209       7.37614139      12.37331270
Ni       5.35259216       8.00437240      28.15919585
Ni       3.86624228       1.11728962      11.99102670
Ni       4.13816175       1.57966827      27.82328973
Ni       1.38043411       5.46295404      12.11181473
Ni       1.67508321       5.87030867      27.97152867
Ni       8.82214907       1.03115067      11.96406333
Ni       8.91410917       1.45863883      27.86677380
Ni       6.43183978       5.28582104      12.19122043
Ni       6.55624304       5.76047395      28.07547308
Ni       1.56834819       4.17495738      19.97610374
Ni      -1.14459294       7.96156632       4.31030969
Ni      -0.86052514       8.55076740      20.06314714
Ni       6.22755677       3.54853396       4.22569132
Ni       6.52674854       4.07802263      20.04546678
Ni       3.75131810       7.86856496       4.37255085
Ni       3.97500086       8.44480484      20.28370330
Ni       1.41279237       1.14889756      11.95953446
Ni       1.68697208       1.64154316      27.74613756
Ni      -1.07555717       5.42041425      12.09067673
Ni      -0.72269928       6.00778655      27.88212254
Ni       6.38642315       1.03175739      12.05454830
Ni       6.50942684       1.53513076      27.84384794
Ni       3.85368457       5.33486526      12.16846420
Ni       4.09968976       5.89576910      27.90065151
Ni       0.03588286       1.59269117       4.06528594
Ni       0.27959386       2.20390068      19.90449528
Mg      -2.44311983       5.90081216       4.16160033
Ni      -2.15149443       6.49376270      20.10298706
Ni       5.00540143       1.38362793       4.05093792
Ni       5.36374482       2.07450233      19.97042914
Ni       2.54445883       5.69571915       4.26560845
Ni       2.72741684       6.38141823      20.09263677
Ni      -1.11632395       3.67547491       4.10479442
Ni      -0.94453840       4.28355011      19.98818580
Ni      -3.67607062       8.00149045       4.21887135
Ni      -3.31252926       8.66609814      20.14911276
Ni       3.80202872       3.70350972       4.15126163
Ni       3.98425653       4.08332277      19.92569947
Ni       1.46885243       7.92551569       4.27897245
Ni       1.49752709       8.50672255      20.24443590
Ni       2.67615316       0.46894600      15.86527756
Mg       0.02839076       4.26035625       0.10513499
Ni       0.29340785       4.85842949      16.04565080
Ni       7.37847849      -0.15428494       0.09145062
Ni       7.70497070       0.48922903      15.93751282
Ni       4.87179028       4.23637186       0.21935809
Ni       5.18274871       4.71948850      16.08667850
Mg       1.14917636       2.11242633       0.11670648
Ni       1.42348911       2.68423875      15.99623673
Ni      -1.26936409       6.47673959       0.19767020
Ni      -1.05430535       6.91462552      16.06870975
Mg       6.10416742       2.05479482       0.26488563
Ni       6.34594048       2.57789370      15.97262919
Ni       3.60157492       6.32917123       0.38068239
Ni       3.94855497       6.88556072      16.15193947
Ni      -1.11192388       2.48577163       8.00602965
Ni      -0.78229019       2.94270872      23.83817021
Ni      -3.57108588       6.79720230       8.11380839
Mg      -3.32990562       7.25401572      23.91107800
Ni       3.90978363       2.33990959       8.12814219
Ni       4.04697905       2.87576047      23.96325552
Ni       1.45471317       6.71657624       8.12576888
Ni       1.66619084       7.17665932      24.04637163
Ni       2.57999113       0.20890178       7.87923058
Ni       2.87573390       0.82729131      23.93124072
Ni       0.04846952       4.58406288       8.12851736
Ni       0.31948668       5.12515481      23.98708042
Ni       7.43458272       0.11759700       8.01493433
Ni       7.75882995       0.60936442      23.82558062
Ni       5.04254804       4.47417957       8.21068051
Mg       5.33016855       4.96387359      24.06333055
Ni      -1.34962206       2.13081426       0.12610143
Ni      -1.05240086       2.74903238      16.01619839
Ni      -3.70642617       6.47074351       0.24113761
Ni      -3.60461627       7.06387754      16.02634247
Ni       3.66357291       2.03686952       0.07896874
Ni       3.99943726       2.54093539      16.01800278
Ni       1.11938200       6.48606129       0.33590036
Ni       1.54935509       6.89234932      16.19381759
Ni       1.38374008       2.39069915       8.05573739
Ni       1.62094152       2.93150174      23.93103440
Ni      -1.10891315       6.76430915       8.22780970
Ni      -0.83347397       7.24766067      24.12539068
Ni       6.25207630       2.26399253       8.10498021
Ni       6.49390043       2.82241243      24.03692429
Ni       3.86367932       6.57061638       8.19587257
Ni       4.08484007       7.09637754      24.09135036
