187
Lattice="9.810922061270018 0.23453084588331136 0.17521622521250965 -4.740596745986827 8.54047892072041 -0.3292909828718247 -0.9558296652771961 0.38083458572949086 32.153739837695426" Properties=species:S:1:pos:R:3 pbc="T T T"
Ni      -0.81812937       0.32145706      30.65492539
Mg      -2.78042542       4.45929414      14.41000814
Mg      -3.24747193       4.70540449      30.42871143
Mg       4.54295481       0.28842652      14.59765712
Mg       3.97035445       0.53654352      30.70498236
Mg       2.04911825       4.43151138      14.48878657
Mg       1.55427221       4.77094140      30.56014617
Mg      -0.24260694       0.12656735       6.55411562
Mg      -0.65269467       0.34204082      22.66811807
Mg      -2.54805978       4.26513295       6.46326562
Mg      -3.03899575       4.49725782      22.45053659
Mg       4.71543052       0.19738585       6.59216842
Mg       4.25139545       0.43325400      22.65127384
Mg       2.37164094       4.51842610       6.40446448
Mg       1.80771062       4.72946487      22.53119916
Mg      -0.31064877       0.19414516       9.59659021
Mg      -0.74997307       0.33858415      25.65339584
Ni      -2.73765773       4.43612082       9.40943372
Mg      -3.21945031       4.43259003      25.46894645
Mg       4.60782568       0.24138130       9.79712695
Mg       4.07302622       0.46073873      25.71560729
Mg       2.26206105       4.48110737       9.47077153
Mg       1.86535196       4.72810102      25.59361909
Mg      -0.01359620       0.03963375       1.47482308
Mg      -0.56398191       0.15800787      17.56695485
Mg      -2.43376384       4.30925152       1.30982111
Mg      -2.87811666       4.47113069      17.39546898
Mg       4.82846685       0.12751508       1.63222617
Mg       4.36918675       0.28935244      17.70810363
Mg       2.45498865       4.39545816       1.51719464
Mg       2.00731848       4.57458709      17.56830046
Mg       2.49530134       1.61338098       2.56095174
Mg       1.88408442       1.75247644      18.61976892
Mg       0.03054640       5.74886671       2.32926507
Mg      -0.42952647       6.05897476      18.50014661
Mg       7.25404658       1.59828357       2.60784285
Mg       6.79833621       1.84354243      18.65894350
Mg       4.88081000       5.94316502       2.44737927
Mg       4.50116666       6.19785187      18.47441650
Mg      -0.24054373       3.06884728      10.45044981
Mg      -0.74557092       3.19320066      26.58542868
Mg      -2.67938280       7.34701267      10.36557502
Mg      -3.06079338       7.48092401      26.37235338
Mg       4.65169342       3.13060848      10.52770420
Mg       4.17882795       3.36120789      26.60338590
Mg       2.19234978       7.27824903      10.44500515
Ni       1.79230129       7.56650864      26.53369540
Mg       2.27823331       1.61447279       5.48377513
Mg       1.82336789       1.71151532      21.58100250
Mg      -0.11767624       5.89144377       5.37634661
Mg      -0.53214221       5.99565594      21.42828714
Ni       7.24730892       1.67386243       5.61354446
Mg       6.70259298       1.90211782      21.78302635
Mg       4.84658535       5.91507349       5.48050754
Mg       4.37374189       6.07283404      21.52340603
Mg      -0.32249146       2.97493557      13.46240432
Mg      -0.86263561       3.19217721      29.57332289
Mg      -2.70562706       7.29306435      13.32262294
Mg      -3.28657830       7.54344419      29.42294922
Mg       4.61505578       3.18150002      13.60042163
Mg       4.03270789       3.40719270      29.66871178
Mg       2.17918533       7.43045471      13.50095601
Mg       1.65519806       7.61236794      29.47816590
Ni       1.99022869       1.52739710      14.01598722
Ni       1.65730692       1.86867071      30.09044484
Ni      -0.37356273       5.87032923      13.97411374
Ni      -0.78900167       6.10897944      29.95633740
Ni       6.96623077       1.73464217      14.15478036
Ni       6.39495180       1.99954596      30.15380270
Ni       4.57776428       5.97007054      13.99819620
Ni       4.19120932       6.29162445      30.01770295
Ni      -0.14999095       2.98092572       5.92421574
Ni      -0.52496102       3.14015644      22.03581949
Ni      -2.42892808       7.22201902       5.73578247
Ni      -2.97424777       7.46349705      21.91688779
Ni       4.78088432       3.13228105       6.03698321
Ni       4.37762699       3.27406726      22.12312245
Mg       2.38702857       7.32813868       5.85398554
Ni       1.91749972       7.58012628      21.98313897
Ni       2.21661983       1.69816947       9.99333667
Ni       1.65020002       1.81507645      26.08813769
Ni      -0.14098268       5.87898886       9.88517407
Ni      -0.57375190       6.04280343      25.96109415
Ni       7.11809081       1.80824895      10.25924805
Ni       4.67094019       5.93237734       9.90356682
Ni       4.26332545       6.21813028      26.06243880
Ni       0.02884476       2.91879614       1.91323052
Ni      -0.44668746       3.14548258      18.01100246
Ni      -2.38023208       7.15433165       1.79539367
Ni      -2.85914658       7.42390439      17.78885444
Ni       4.98919296       2.94327119       2.05984967
Ni       4.38423521       3.25753512      18.04158426
Ni       2.54409686       7.39085394       1.80911405
Ni       2.06492886       7.44895648      17.89054382
Ni       2.09896546       3.04612328      12.07317626
Ni       1.59833578       3.17567576      28.01610791
Ni      -0.17850306       7.37899248      11.87321674
Ni      -0.67937846       7.60456593      27.91865286
Ni       7.05771230       3.24134726      12.12803843
Ni       6.46027857       3.41882037      28.16541463
Ni       4.72382215       7.50178371      11.98040234
Ni       4.19978846       7.74717273      27.86303682
Ni       3.38210893       1.04816611      12.12109421
Ni       2.83576149       1.08804844      28.14145427
Ni       1.03827604       5.24875667      11.93359293
Ni       0.39032451       5.39301589      27.96789725
Ni       8.29044910       1.02132441      12.23081823
Ni       7.76722322       1.33100123      28.19652120
Ni       5.77894040       5.30949934      12.02058277
Ni       5.41700662       5.58808005      28.01276788
Ni       1.15293416       3.68215102       3.90788432
Ni       0.64574584       3.83631760      20.01792088
Ni      -1.13296157       7.95891007       3.82828270
Ni      -1.65205332       8.14364953      19.90652896
Ni       6.06176577       3.93657918       3.93978713
Ni       5.61390153       3.98038742      20.07334702
Ni       3.64431289       8.09785391       3.86476574
Ni       0.90202483       0.83497399      12.11395599
Ni       0.40305521       1.08046898      28.19678654
Ni      -1.50214508       5.25087342      11.83427092
Ni      -1.98912538       5.31452562      27.99473569
Ni       5.81834841       0.96821349      12.12671344
Ni       5.30778988       1.19276233      28.20588778
Ni       3.36012114       5.20006563      12.12156340
Ni       2.81286692       5.48859977      28.06205149
Ni      -0.61289060       1.65417137      20.06836655
Ni      -2.45863120       5.83797563       3.75794553
Ni      -2.92609023       5.96316574      19.86242458
Ni       4.73177909       1.59622535       4.10012843
Ni       4.29942085       1.79464587      20.03170983
Ni       2.43171046       5.87344914       3.90256534
Ni       1.95423721       6.11979092      20.04088215
Ni      -1.22437052       3.55721821       3.91300628
Ni      -1.86369939       3.82019725      19.93968074
Ni      -3.54941494       7.98865487       3.76889239
Ni      -4.04972222       8.07300186      19.78445085
Mg       3.68646790       3.80408493       3.94208211
Ni       3.26070146       3.93265756      20.08676925
Ni       1.24005265       8.05936255       3.81385479
Ni       0.76289308       8.17377323      19.89682188
Ni       2.59330919       0.06484046       0.12559127
Ni       1.97367932       0.27938112      16.21684497
Ni       0.11492699       4.35271188      -0.07393789
Ni      -0.35796990       4.52923854      16.01334010
Ni       7.37170815       0.13575872       0.09042063
Ni       6.84323504       0.30698383      16.19464051
Ni       4.94170713       4.47637401      -0.12263486
Ni       4.61099033       4.62096768      16.04039840
Ni       1.18853213       2.15972740      -0.01634856
Ni       0.78697107       2.39851773      16.01275173
Ni      -1.12634699       6.48967238      -0.20152940
Ni      -1.52873401       6.67471154      15.91490332
Ni       6.21455205       2.36185584       0.00072002
Ni       5.68320674       2.39473200      16.17040970
Ni       3.80732399       6.60384652      -0.22529326
Ni       3.40728697       6.78792525      15.90507571
Ni      -1.38469870       2.23248344       7.97017463
Ni      -1.82637529       2.41608109      24.02065519
Ni      -3.75136490       6.51072017       7.86303638
Ni      -4.32115250       6.67923321      23.87960483
Ni       3.54550111       2.39342523       7.99295770
Ni       1.11619312       6.61261384       7.83326531
Ni       0.62312461       6.74230295      24.01065860
Ni       2.18553601       0.03957313       8.10813465
Ni       1.68479077       0.38627479      24.17193481
Ni      -0.24741468       4.38055078       7.92660660
Mg      -0.67815314       4.58308928      23.99914248
Ni       7.10629845       0.36635848       8.18344925
Ni       6.68254057       0.38367207      24.34311123
Ni       4.86769088       4.57677515       7.90481222
Ni       4.23692215       4.75477415      24.04048573
Ni      -1.14680483       2.13979631      -0.05389226
Ni      -1.59813747       2.28773151      16.02568671
Ni      -3.67704766       6.39551054      -0.19604976
Ni      -4.04309547       6.55300700      15.81470515
Ni       3.82884698       2.25881559       0.02297940
Ni       3.20167334       2.42013030      16.12665537
Ni       1.37753322       6.58597962      -0.15058458
Ni       0.79298297       6.73525191      15.91511625
Ni       1.03680934       2.20696506       7.94703455
Ni       0.66966952       2.42087633      24.10883849
Ni      -1.33465649       6.53296515       7.78374111
Ni      -1.79006117       6.77673855      23.92975944
Ni       5.97362089       2.35934812       8.01559467
Mg       5.43201584       2.62777694      24.15848662
Ni       3.60592436       6.65039276       7.93211118
Ni       3.09417154       6.87028506      24.03451349
