192
Lattice="9.708527679463888 0.1410488120760163 -0.12851104849130116 -4.3781458802551985 8.549745615893162 0.022023091269902702 -0.4152723556772845 -0.4491771242283679 31.91279932484451" Properties=species:S:1:pos:R:3 pbc="T T T"
Mg      -0.17678055      -0.25045315      14.53845264
Mg      -0.36002547      -0.28223894      30.44526361
Mg      -2.33355006       4.04102750      14.47175381
Mg      -2.57986251       3.91302616      30.43962695
Mg       4.59596862      -0.14891879      14.44890212
Mg       4.52064019      -0.32362109      30.34030503
Mg       2.57803196       4.19762043      14.42706661
Mg       2.21971165       3.97386559      30.33547730
Mg      -0.14921069      -0.11925480       6.47629247
Mg      -0.30493783      -0.33536944      22.41953445
Mg      -2.23877910       4.27727988       6.45064229
Mg      -2.44929794       3.93255715      22.45234930
Mg       4.71317578      -0.05168539       6.48252983
Mg       4.58267073      -0.33859313      22.39322585
Mg       2.59770595       4.24734926       6.40427561
Mg       2.34650698       4.02461265      22.43665872
Mg      -0.13366450      -0.04444018       9.40702531
Mg      -0.31066303      -0.38183040      25.39799364
Mg      -2.31721269       4.21822110       9.53976977
Mg      -2.52987335       3.91569592      25.39844264
Ni       4.76034238      -0.07865457       9.42727252
Mg       4.54486661      -0.24436308      25.43510208
Mg       2.57876725       4.10548909       9.42593975
Mg       2.39705146       3.94527472      25.35884801
Mg      -0.00410867       0.02348092       1.45283848
Mg      -0.20005286      -0.14668424      17.40297139
Mg      -2.27615395       4.24210694       1.47759877
Mg      -2.44357502       4.09700042      17.55566348
Mg       4.78221965       0.07613635       1.49899064
Mg       4.63405784      -0.18653029      17.33179518
Mg       2.69078182       4.34719997       1.50489489
Mg       2.36140418       4.12447695      17.43389343
Mg       2.44953754       1.40386366       2.49137504
Mg       2.27862655       1.10689446      18.43603428
Mg       0.30814029       5.71291323       2.48383025
Mg       0.13997043       5.53807246      18.41453644
Mg       7.28563832       1.46549486       2.34962973
Mg       7.01882580       1.18516810      18.41834155
Mg       5.16395801       5.81261712       2.33857669
Mg       4.88451454       5.56715613      18.34811717
Mg       0.08396610       2.76046720      10.53433990
Mg      -0.14213296       2.63484999      26.37444587
Mg      -2.10802599       7.00033647      10.49527263
Mg      -2.40704406       6.82306354      26.31554473
Mg       4.85699342       2.76269281      10.38671952
Mg       4.72671324       2.60482714      26.34501283
Mg       2.66313634       7.03465639      10.41712404
Mg       2.45723697       6.95531445      26.27274036
Mg       2.42628820       1.44821109       5.47229298
Mg       2.21886180       1.15100719      21.34139111
Mg       0.18075784       5.62552426       5.52170090
Mg       0.05153772       5.50927019      21.45829734
Mg       7.32486952       1.50126478       5.38186443
Mg       7.06883282       1.26787855      21.25337463
Mg       5.16329837       5.67854367       5.41000923
Mg       4.88684714       5.46289641      21.38865113
Ni       0.02461422       2.67095220      13.54583143
Mg      -0.25887537       2.39305159      29.38469307
Mg      -2.09969133       6.95046168      13.44316671
Mg      -2.37354436       6.68226123      29.45936266
Mg       4.90201922       2.70182569      13.32296349
Mg       4.57502886       2.54847173      29.36007381
Mg       2.71398838       7.08054334      13.35786208
Mg       2.44491239       6.78472832      29.31279320
Ni       2.36651065       1.28251478      13.90703102
Ni       2.14405896       1.08131481      29.87630248
Ni       0.18423351       5.54798500      13.87508056
Ni      -0.19072450       5.29909393      29.89834789
Ni       7.28066996       1.25995746      13.76533527
Ni       7.01748499       1.11057367      29.79971345
Ni       4.97918208       5.64023590      13.79911538
Ni       4.84059238       5.37629920      29.77910621
Ni       0.06497302       2.77339020       6.00600194
Ni      -0.07715874       2.56279148      21.93024848
Ni      -2.08969713       7.12184594       5.95027449
Ni      -2.25984909       6.84185571      21.90577573
Ni       4.97426095       2.88148844       5.87431889
Ni       4.75212174       2.64475739      21.89217742
Ni       2.69344474       7.06999897       5.88025533
Ni       2.59621376       6.98480229      21.92666008
Ni       2.44752510       1.29203815       9.95005054
Ni       2.20544103       1.13163281      25.93319905
Ni       0.22053656       5.62200276       9.95632349
Ni      -0.00404832       5.37808196      25.87140738
Ni       7.20847666       1.35250387       9.93112935
Ni       7.00595326       1.13246980      25.92254657
Ni       5.01675742       5.57508727       9.85995149
Ni       4.78307558       5.43886569      25.89710919
Ni       0.03183378       2.88094399       1.95735208
Ni      -0.05450247       2.54888993      17.90193078
Ni      -2.09435323       7.08749123       1.95930899
Ni      -2.27981826       7.01133764      17.96742200
Ni       5.04607273       2.93240467       1.94001780
Ni       4.75065816       2.66748893      17.82200797
Ni       2.78954054       7.12758054       1.89128045
Ni       2.49926815       6.98167145      17.91247479
Ni       2.43380894       2.75168188      11.92712320
Ni       2.22133050       2.50006366      27.79191876
Ni       0.35241866       7.00168722      11.88367468
Ni       0.09402631       6.78593765      27.95386854
Ni       7.31818001       2.77140307      11.88946813
Ni       7.08846029       2.56602217      27.81695493
Ni       5.06662304       7.13404053      11.81137696
Ni       4.99675603       6.84265872      27.78306679
Ni       3.49879380       0.56472028      11.94302988
Ni       3.28189343       0.37178152      27.90847223
Ni       1.43062746       4.91845997      12.02335169
Ni       1.13198205       4.63991088      27.88581713
Ni       8.33401177       0.74923843      11.84504296
Ni       8.19887108       0.46599793      27.75151953
Ni       6.14044769       4.92022675      11.81070818
Ni       5.96315918       4.74423007      27.84864619
Ni       1.34468887       3.55036404       3.97908714
Ni       1.16063473       3.28447137      19.91615439
Ni      -0.89245934       7.83098579       3.97242716
Ni      -1.07802311       7.65142463      19.92110755
Ni       6.27717237       3.50113176       3.97335693
Ni       6.00868996       3.41593086      19.90614875
Ni       3.98494217       7.84102427       3.85724325
Ni       3.74611025       7.73451420      19.85458195
Ni       1.07769596       0.46300483      11.96284966
Ni       0.93106669       0.33672541      27.92544166
Ni      -1.08919334       4.86159798      12.03068499
Ni      -1.31025819       4.63993830      27.84648057
Ni       5.89277420       0.58318303      11.92020148
Ni       5.64199497       0.37448761      27.82593729
Ni       3.77936883       4.82448911      11.89564362
Ni       3.59701385       4.75837997      27.85545593
Ni       0.02211575       1.36771234       3.94662581
Ni      -0.10658277       1.15663566      19.87498142
Ni      -2.19471866       5.75581758       3.95551807
Ni      -2.35806347       5.43803966      19.89822027
Ni       4.89142350       1.50900187       3.97737428
Ni       4.66946621       1.28722510      19.86236634
Ni       2.70567190       5.64798125       3.83105630
Ni       2.50092648       5.48498341      19.84553255
Ni      -1.16483602       3.50947988       4.00393979
Ni      -1.23756298       3.30351766      19.94144457
Ni      -3.26088108       7.83134106       3.94183802
Ni      -3.49559818       7.61388539      19.85400057
Ni       3.77121301       3.62431813       3.95842199
Ni       3.53409680       3.32813860      19.82031982
Ni       1.56161054       7.82123381       3.92100803
Ni       1.43891647       7.65666900      19.90191318
Ni       2.42337504       0.02968582       0.00392374
Ni       2.24507393      -0.13298229      15.93520885
Ni       0.21935301       4.31841793       0.07374950
Ni      -0.05352622       4.10312453      15.98985507
Ni       7.31621830       0.02596116      -0.15391595
Ni       7.10423664      -0.07686960      15.95580442
Ni       5.13751154       4.42869590       0.00683205
Ni       4.88067570       4.17560832      15.87659710
Mg       1.37286817       2.20731477      -0.04025451
Ni       1.12940901       1.82135992      15.86422495
Ni      -0.94874304       6.46501427      -0.01188416
Ni      -1.05662440       6.20461620      15.96452762
Ni       6.15263397       2.19092583      -0.09026086
Ni       5.91663871       2.01758656      15.92429357
Ni       4.10259519       6.60347299       0.00776756
Ni       3.80010891       6.30525825      15.97440620
Ni      -1.24296946       1.97899025       7.93698516
Ni      -1.44985108       1.70839508      23.97848093
Ni      -3.46958903       6.26151325       8.01942083
Ni      -3.64980189       6.11843309      23.94657693
Ni       3.64194896       2.15534081       7.87178910
Ni       3.41348940       1.88428970      23.86324484
Ni       1.43750663       6.36545339       8.02839013
Ni       1.24847497       6.18736831      23.92353240
Ni       2.34349317      -0.19020557       7.96829947
Ni       2.06591300      -0.36877810      23.90033663
Ni       0.13184019       4.22786783       8.03174825
Ni      -0.05914842       3.97158293      23.87841799
Ni       7.17057417      -0.11907628       7.80714833
Ni       6.89441190      -0.13316139      23.78844582
Ni       4.98374193       4.26615133       7.96437170
Ni       4.89173233       4.12309741      23.80720580
Ni      -1.08671990       2.20962499       0.00462720
Ni      -1.27493841       1.93340288      16.02074169
Ni      -3.27983682       6.36968673       0.07186818
Ni      -3.53764039       6.22016864      16.00607060
Ni       3.71597714       2.20654537      -0.00474259
Ni       3.57514348       1.94367805      15.93123871
Ni       1.58263055       6.47583857      -0.06485678
Ni       1.34058317       6.24657866      15.92398266
Ni       1.24049723       2.00964766       7.95943491
Ni       0.94608671       1.85050619      23.97066356
Ni      -0.99327090       6.34852030       7.93828760
Mg      -1.17347436       5.95158921      23.96244400
Ni       6.02687130       2.19211752       7.85312288
Ni       5.81248073       1.91534012      23.87115795
Ni       3.87470354       6.39298054       7.99113407
Ni       3.79778912       6.19345323      23.80397502
