191
Lattice="9.837614848795338 -0.08506789752156728 -0.32949874123673184 -4.87702917927888 8.53146329144426 0.24596226560524034 -0.6461225810629847 -0.6445774287725207 32.58065779354752" Properties=species:S:1:pos:R:3 pbc="T T T"
Mg      -0.28784767      -0.35152798      14.72066584
Mg      -0.69372155      -0.60192527      31.01848460
Mg      -2.82296694       3.96873455      14.95640514
Ni      -3.10962065       3.62624916      31.21733338
Mg       4.60219068      -0.28671311      14.56961002
Mg       4.28215452      -0.62473778      30.79977107
Mg       2.22264364       3.93791290      14.72249099
Mg       1.80927188       3.63092991      31.03990198
Mg      -0.09915989      -0.15057407       6.66486825
Mg      -0.56984823      -0.47825932      23.01624561
Mg      -2.52896648       4.08738216       6.62296931
Mg      -2.92445147       3.83151844      23.06837283
Mg       4.80506732      -0.11428682       6.37695184
Mg       4.38531773      -0.53500485      22.69365907
Mg       2.33714898       4.08858834       6.61883847
Mg       2.00804865       3.74233303      22.81750118
Mg      -0.19427751      -0.17350121       9.75163954
Mg      -0.44979663      -0.52761256      25.94651886
Mg      -2.58254569       4.00323360       9.75291891
Mg      -2.91201973       3.75788603      26.08814960
Mg       4.74657445      -0.16230530       9.51135037
Mg       4.37348881      -0.59255521      25.84795914
Mg       2.26873640       3.96389336       9.64731800
Mg       1.95204341       3.70974238      25.90637372
Mg      -0.05474907      -0.06000840       1.58445658
Ni      -0.38136018      -0.40082994      17.76352009
Mg      -2.38986362       4.23239822       1.67125088
Mg      -2.80904454       3.86131949      17.94856726
Mg       4.94668372      -0.15695763       1.35807602
Mg       4.62025049      -0.40035695      17.59948007
Mg       2.45226304       4.12472462       1.54979842
Ni       2.13521101       3.91613258      17.81856462
Mg       2.30819817       1.34729491       2.54256094
Mg       2.15519530       1.07014500      18.73807925
Mg      -0.07337858       5.60060200       2.61087423
Mg      -0.31021024       5.38197256      18.74347751
Mg       7.38734947       1.34800501       2.22598318
Mg       7.07914156       1.03631795      18.65640670
Mg       4.96718225       5.46195561       2.47426307
Mg       4.55817691       5.25098273      18.78627205
Mg      -0.25426474       2.60114617      10.75896367
Mg      -0.50187111       2.32199245      26.95459196
Mg      -2.61296158       6.85323614      10.77176474
Mg      -2.93123689       6.63337920      27.05904580
Mg       4.74976428       2.60081028      10.63923397
Mg       4.38445809       2.32125295      26.86225523
Mg       2.28511799       6.85267090      10.59806969
Mg       1.91561786       6.54142425      26.88145020
Mg       2.28381892       1.36325034       5.63975532
Mg       2.06243563       1.03170344      21.81666414
Mg      -0.13467726       5.49677169       5.69059164
Mg      -0.50687198       5.17475097      21.89832337
Mg       7.34150411       1.18947774       5.37960633
Mg       6.93928226       0.94419513      21.70725183
Mg       4.81778738       5.51674487       5.47066722
Mg       4.45006723       5.23885331      21.84573456
Mg      -0.25924122       2.55600036      13.83147270
Mg      -0.46005538       2.20217831      30.06720445
Mg      -2.66919007       6.79561016      14.01936589
Mg      -3.02761075       6.50093665      30.16851724
Mg       4.65455087       2.45470877      13.54171123
Mg       4.20724281       2.19692616      29.84002686
Mg       2.22569013       6.70780361      13.74483828
Mg       1.87813225       6.49354180      30.05488739
Ni       2.16373598       1.11139754      14.20232929
Ni       1.87058706       0.79259794      30.46553197
Ni      -0.26466912       5.41654387      14.23769781
Ni      -0.55871441       4.97544437      30.62399220
Ni       7.21811863       1.08369075      14.05055430
Ni       6.81271836       0.82687046      30.38357605
Ni       4.64055256       5.30408456      14.14890846
Ni       4.34503782       5.06215132      30.43136508
Ni      -0.05303453       2.59118764       6.11725546
Ni      -0.45785294       2.36719438      22.38482493
Ni      -2.53366644       6.98094639       6.26200539
Ni      -2.94961765       6.72005614      22.58437542
Ni       4.81699087       2.64572041       5.97859013
Ni       4.45011873       2.28920182      22.28052291
Ni       2.40274594       6.94801077       6.08721246
Ni       2.09978989       6.53816136      22.31648683
Ni       2.32639446       1.19866429      10.02104066
Ni       1.93628474       0.90668993      26.41267338
Ni      -0.13163430       5.41819732      10.18869854
Ni      -0.50639549       5.11404620      26.51856701
Ni       7.21232428       1.15075221      10.05942010
Ni       6.95828326       0.74359019      26.26687348
Ni       4.69316045       5.45212600      10.10842607
Ni       4.48651179       5.01799425      26.27115490
Ni      -0.08235606       2.79818351       2.11207992
Ni      -0.35873571       2.50139960      18.37615488
Ni      -2.49766210       7.10086398       2.16808968
Ni      -2.77936386       6.71707670      18.49954042
Ni       4.88082577       2.73652230       1.96141530
Ni       4.53944949       2.46692608      18.16470216
Ni       2.40229649       6.95906598       1.92584105
Ni       2.07951754       6.67740494      18.31936512
Ni       2.27155803       2.59853980      12.16894725
Ni       1.95513159       2.23414902      28.52563608
Ni      -0.28348327       6.84026666      12.34051962
Ni      -0.48643830       6.53191362      28.54874943
Ni       7.13092074       2.47028864      11.89657394
Ni       6.83746832       2.26303006      28.30286779
Ni       4.62585073       6.82854329      12.08462854
Ni       4.31579047       6.45846492      28.46476415
Ni       3.50319473       0.41444931      12.12541832
Ni       3.15341894       0.09553689      28.34943260
Ni       1.03464893       4.66775318      12.21921573
Ni       0.64343823       4.32600846      28.49818958
Ni       8.38555998       0.43054850      11.91905745
Ni       8.04659497       0.07538154      28.15593257
Ni       5.89553907       4.57909154      12.18416195
Ni       5.48840134       4.39740944      28.40242346
Ni       1.13087205       3.45621486       4.11597682
Ni       0.85268303       3.08339885      20.36920325
Ni      -1.24553789       7.72931950       4.17630619
Ni      -1.54014859       7.43323705      20.42615337
Ni       6.28121107       3.46785729       3.92535209
Ni       5.80555555       3.09323852      20.21199807
Ni       3.62144414       7.67714429       3.98196362
Ni       3.34570339       7.29508077      20.33181013
Ni       1.02194694       0.38646776      12.09583367
Ni       0.50748654      -0.01696352      28.50533599
Ni      -1.40449406       4.74193211      12.41430636
Ni       5.91336789       0.38397109      12.09910905
Mg       5.55540888       0.07563619      28.30573022
Ni       3.49601407       4.66219778      12.18426535
Ni       3.20247164       4.31870125      28.41680336
Ni      -0.09883114       1.32527310       4.09792212
Ni      -0.38031978       1.13332604      20.31511191
Ni      -2.46231185       5.61412652       4.33257106
Ni      -2.92296224       5.16804813      20.39803755
Ni       4.80314940       1.26835237       4.00542095
Ni       4.54401540       0.96341037      20.17122556
Ni       2.43428763       5.52494467       4.01701909
Ni       2.14983466       5.27728434      20.25689618
Ni      -1.26722078       3.41968858       4.21195287
Ni      -1.71037551       3.12549208      20.43487531
Ni      -3.67958567       7.72823855       4.25103280
Ni      -4.07463104       7.46133226      20.52000385
Ni       3.66704262       3.32365156       3.98104332
Ni       3.35471625       3.08422848      20.25632521
Ni       1.17052865       7.70534495       4.04957566
Ni       0.83349685       7.33662531      20.42098385
Ni       2.48327189       0.05080696      -0.04363931
Ni       2.10443716      -0.36193799      16.20824484
Ni       0.01504600       4.12137371      -0.00222087
Ni      -0.34975050       3.95591206      16.28422852
Ni       7.38639994      -0.07914154      -0.16869951
Ni       7.06187078      -0.31525213      16.09258082
Ni       4.87031308       4.24057902      -0.17176471
Ni       4.62081887       3.88146401      16.21232426
Ni       1.37984532       2.02178171      -0.04223779
Ni       0.88867391       1.76033274      16.14628370
Ni      -1.22069060       6.32480457       0.11573376
Ni      -1.52392934       6.00606166      16.42587617
Ni       6.17224696       2.11598695      -0.20617637
Ni       5.82741769       1.84826092      16.07850082
Ni       3.79659503       6.39240572      -0.14491277
Ni       3.39448034       6.02194372      16.12054668
Ni      -1.29664887       2.01106930       8.15745229
Ni      -1.73660518       1.69344899      24.52335701
Ni      -3.77188677       6.35081716       8.36408272
Ni      -4.13970580       5.87656414      24.70324493
Mg       3.48564011       1.88720833       8.01410600
Ni       3.17747268       1.54789788      24.31733228
Ni       1.08118647       6.20455014       8.17439227
Ni       0.79023996       5.83769562      24.56593919
Ni       2.28444577      -0.20564683       8.00820761
Ni       1.98351364      -0.48694420      24.41050028
Ni      -0.18661424       4.12715780       8.14454221
Ni      -0.42189258       3.75588916      24.50051674
Ni       7.29825440      -0.20466206       7.75209590
Ni       6.87663152      -0.58827146      24.25435889
Ni       4.80086358       4.09530036       8.00000163
Ni       4.41927844       3.70998077      24.28212711
Ni      -1.25596548       2.13888093      -0.04557939
Ni      -1.57097490       1.75301254      16.39831072
Ni      -3.62850081       6.34246851       0.21691228
Ni      -4.03787234       6.04480709      16.51268759
Ni       3.69372655       2.12501095      -0.02880731
Ni       3.37022716       1.79181962      16.23516062
Ni       1.28636143       6.33029798       0.06188789
Ni       0.83067880       6.03262539      16.32698446
Mg       1.16671847       2.04942171       8.15674347
Ni       0.80410498       1.61968285      24.41845603
Ni      -1.38916045       6.22085917       8.27766028
Ni      -1.67772078       5.97037604      24.48996557
Ni       5.92990083       1.85486591       7.91028095
Ni       5.68920817       1.56866389      24.34429551
Ni       3.50194843       6.25126075       8.12789646
Ni       3.25083878       5.87488881      24.34234369
