189
Lattice="9.936617761994997 0.19809841034039477 0.31824828809382205 -4.812558525011739 8.452820769221123 -0.08473129899859946 0.6758795484850685 0.3278691763728378 32.0296302769398" Properties=species:S:1:pos:R:3 pbc="T T T"
Mg       0.32978194       0.08217190      14.56676546
Mg       0.62708311       0.45169611      30.56192242
Mg      -2.10941997       4.38863675      14.47201919
Mg       5.23389084       0.24834220      14.61687379
Ni       5.63623670       0.41343263      30.75089715
Mg       2.82264120       4.41578956      14.63967017
Mg       3.30671476       4.48081732      30.68942844
Mg       0.12184437       0.10080906       6.51279554
Mg       0.43831422       0.24145715      22.45334989
Mg      -2.15451629       4.25598543       6.46946895
Mg      -1.96056274       4.39102657      22.41953092
Mg       5.12013581       0.24641906       6.72007559
Mg       5.36365538       0.31776127      22.59586527
Mg       2.68182171       4.31752712       6.74908471
Mg       3.00980336       4.56740536      22.69036469
Mg       0.21885903       0.06854563       9.57536901
Mg       0.55981739       0.30058599      25.55415659
Mg      -2.23350831       4.27368255       9.55760926
Mg      -1.93188024       4.54253873      25.54017922
Mg       5.11446155       0.14501956       9.66136228
Mg       5.51591231       0.42832575      25.61171992
Mg       2.81049422       4.45877257       9.71541369
Mg       3.00608757       4.53982758      25.64233198
Mg       0.10099615       0.00307494       1.49486904
Mg       0.38572498       0.19863115      17.46805503
Mg      -2.40802530       4.18930997       1.43643923
Mg      -1.91960476       4.43558960      17.42270456
Mg       4.98406302       0.13138426       1.80542913
Mg       5.42189568       0.32747758      17.67821314
Mg       2.61564352       4.29416175       1.55242861
Mg       2.85456553       4.47286629      17.53063403
Mg       2.49418712       1.45794621       2.50632351
Mg       2.84942946       1.70059340      18.60381554
Mg       0.14544242       5.72430851       2.50757695
Mg       0.51731297       5.89956303      18.56678176
Mg       7.51055458       1.55286157       2.75393822
Mg       7.88147839       1.75092917      18.79257852
Mg       5.11452312       5.82924905       2.68567590
Ni       5.41300065       6.01122108      18.79141715
Mg       0.24619468       2.95436879      10.49215659
Mg       0.55892165       3.14019118      26.46200667
Mg      -2.15481344       7.18571713      10.38792569
Mg      -1.69004470       7.35741809      26.53093819
Mg       5.21449845       3.14311410      10.53091538
Mg       5.58438854       3.21090470      26.65488719
Mg       2.82906217       7.25346702      10.61314859
Mg       3.15991816       7.48554909      26.68211661
Mg       2.57734805       1.51561436       5.58396223
Mg       3.01218195       1.66702236      21.72615584
Mg       0.04559355       5.80259184       5.50435356
Mg       0.60243793       5.91522288      21.53319115
Mg       7.58778368       1.64852620       5.69299170
Mg       7.83956546       1.90927905      21.82351846
Mg       5.13584987       5.83080634       5.75599184
Mg       5.50374335       6.05196498      21.72539876
Mg       0.35850485       2.90631896      13.56747771
Mg       0.68145119       3.18624463      29.51948061
Mg      -2.01995052       7.17702108      13.50173105
Mg      -1.70831334       7.29366620      29.46106960
Mg       5.32755158       3.20668375      13.72483630
Mg       5.68511126       3.18412573      29.70726671
Mg       2.80370225       7.28145495      13.68307699
Mg       3.20151770       7.43860780      29.66153555
Ni       2.81806708       1.51250600      14.13745204
Ni       3.20114272       1.75573044      30.17138354
Ni       0.35978193       5.86252375      14.03639677
Ni       0.72694396       5.92124402      30.02767942
Ni       7.64845449       1.65947700      14.29402423
Ni       8.01345815       1.90448240      30.27237633
Ni       5.43061079       5.97892711      14.28177783
Ni       5.69691085       6.02130020      30.21250039
Ni       0.19285357       2.93019421       6.03090392
Ni       0.54030546       3.09334618      21.97927630
Ni      -2.24997926       7.09851696       6.09757118
Ni      -1.84237547       7.28913449      22.08093491
Ni       5.11428721       3.05536311       6.15479938
Ni       5.48180381       3.21564238      22.22425678
Ni       2.81747979       7.25722848       6.15196675
Ni       3.05431337       7.39630779      22.14818157
Ni       2.72254690       1.57037695      10.05112099
Ni       3.03144546       1.80358861      26.14320131
Ni       0.30647786       5.70436848      10.05802247
Ni       0.62479566       6.00111817      26.08315367
Ni       7.67297213       1.57859330      10.29411963
Ni       8.05572325       1.88908949      26.19656369
Ni       5.14712046       5.87092202      10.27326253
Ni       5.52455429       6.03513343      26.31174979
Ni       0.12877758       2.80339025       2.01268715
Ni       0.33267907       2.99664445      17.97890921
Ni      -2.33357171       7.10272075       2.03032541
Ni      -2.04324175       7.25304606      18.00981751
Ni       5.08964922       3.05163413       2.16898805
Ni       5.32223534       3.05938823      18.16776323
Ni       2.56321059       7.24438860       2.17520882
Ni       2.99769631       7.35570553      18.11994737
Ni       2.73209352       3.05744031      12.15506223
Ni       3.11095336       3.18286311      28.00954243
Ni       0.36722204       7.18399595      12.03181069
Ni       0.74483912       7.49108836      28.04793792
Ni       7.75099814       3.13248442      12.24961064
Ni       8.10957171       3.32939470      28.27526237
Ni       5.30184732       7.28129216      12.21677976
Ni       5.69723835       7.57647660      28.23230318
Ni       3.90858637       0.93097381      12.14316736
Ni       4.45395904       1.05164951      28.16418259
Ni       1.56907576       5.26165863      12.11693897
Ni       1.97786072       5.25596954      28.11978216
Ni       8.91184265       0.96623082      12.30436822
Ni       9.29405071       1.13778340      28.32000399
Ni       6.57648128       5.27123781      12.32021145
Ni       6.90463836       5.37298692      28.34213778
Ni       1.40051052       3.62751187       3.95938083
Ni       1.78065472       3.84229614      20.06674141
Ni      -1.07697597       7.85191242       3.92714014
Ni      -0.67376476       8.03307240      20.07008430
Ni       6.39082701       3.70944178       4.25177215
Ni       6.68271457       3.88241708      20.24799721
Ni       3.88913127       7.89195485       4.25397463
Ni       4.32851865       8.10817416      20.20370043
Ni       1.44999359       0.87492832      12.06195924
Ni       1.83484942       1.06692210      27.99274702
Ni      -0.81581508       5.08195800      11.92471227
Ni      -0.54079363       5.21500489      27.91758897
Ni       6.47383887       0.90763512      12.18202384
Ni       6.84045113       1.00203164      28.25223396
Ni       3.97074430       5.22129294      12.16752381
Ni       4.43088975       5.44382980      28.13511134
Ni       0.02856894       1.42869708       4.09036162
Ni       0.50833401       1.70283471      20.02157668
Ni      -2.26921198       5.59214152       3.96839998
Ni      -2.07045226       5.81389007      19.95652004
Ni       5.03933470       1.60706022       4.15500551
Ni       5.39209479       1.76494148      20.22358891
Ni       2.70317762       5.76124882       4.11630159
Ni       3.03909851       5.90880831      20.15540753
Ni      -1.08237730       3.59166594       4.02143136
Ni      -0.85518760       3.83530224      19.98561873
Ni      -3.50003843       7.88910223       3.96595518
Ni      -3.17994310       7.97863125      19.98984901
Ni       3.94106746       3.69802726       4.10339218
Ni       4.28639762       3.87248910      20.12170816
Ni       1.48595517       7.92824520       4.15045961
Ni       1.77310093       8.04687562      20.10374916
Ni       2.44713997       0.06624669       0.07554026
Ni       2.79717483       0.19798185      16.06068820
Ni       0.01834225       4.24929222      -0.03234095
Ni       0.39619888       4.38615507      16.10344308
Ni       7.47778382       0.11761604       0.18538929
Ni       7.82158108       0.38385804      16.25792738
Ni       5.05318997       4.32811859       0.22098673
Ni       5.32290841       4.56128922      16.23979404
Ni       1.34477538       2.24573358       0.03606655
Ni       1.50120389       2.31314372      16.10152216
Ni      -1.10254012       6.32573993       0.02487066
Ni      -0.81698436       6.62302834      16.06096053
Ni       6.19829398       2.25143797       0.19000155
Ni       6.50772042       2.43404481      16.25603097
Ni       3.81813168       6.52458888       0.13469491
Ni       4.16037560       6.69813644      16.19157409
Ni      -0.99805226       2.21097167       8.01437970
Ni      -0.68876275       2.40690284      24.04003495
Ni      -3.34970387       6.49439196       7.90357913
Ni      -3.13565506       6.55141144      24.01145653
Ni       3.88827663       2.34300031       8.02834441
Ni       1.52160424       6.57667868       8.13261086
Ni       1.82932285       6.66148054      24.10254481
Ni       2.59019221       0.07895715       8.08253431
Ni       2.99966636       0.39943784      24.05698995
Ni       0.45702588       4.37981263       8.10855256
Ni       0.56473543       4.48243154      24.02189558
Ni       7.65790783       0.29820955       8.22175370
Ni       7.86104312       0.39507180      24.30718864
Ni       5.24245886       4.52053624       8.25653279
Ni       5.51779630       4.64049885      24.22569337
Ni      -1.16710041       2.12882558      -0.04065150
Ni      -0.88427089       2.22280669      15.99335769
Ni      -3.58444026       6.41533584      -0.08491349
Mg      -3.22345140       6.51469582      15.88966782
Ni       3.67700407       2.15084841       0.14423885
Ni       4.10136047       2.38285671      16.10851607
Ni       1.39062614       6.42812239       0.11223562
Ni       1.63141742       6.51491495      16.07895096
Ni       1.44688416       2.25570108       8.08343905
Ni       1.78211494       2.43280870      24.13625364
Ni      -0.64572130       6.59595729      24.10006833
Ni       6.46593168       2.31212663       8.20371237
Ni       6.72559382       2.45377173      24.26333906
Ni       3.99196178       6.59607924       8.18516758
Ni       4.30644181       6.72632106      24.21561424
