191
Lattice="9.770581412816176 -0.03177299213321468 0.08151518497510599 -4.844613222845363 8.50582212244117 -0.06125233793414545 0.27232211356349345 -0.3495470263266014 31.610258053324216" Properties=species:S:1:pos:R:3 pbc="T T T"
Mg       0.12419146      -0.15487784      14.28866198
Mg       0.27054002      -0.39738150      30.05372779
Mg      -2.23770514       4.11827959      14.34395202
Mg      -2.18799452       3.96461590      30.06864454
Mg       4.98241203      -0.12253177      14.35900836
Mg       5.11986497      -0.36938506      30.25812751
Mg       2.60582225       4.13741403      14.34669743
Mg       2.72812892       3.93127603      30.14201608
Mg       0.09060007      -0.18854373      22.25695024
Mg      -2.37342794       4.18880839       6.37400640
Mg      -2.25304240       4.09938175      22.14910542
Mg       4.91331669      -0.05792836       6.54576692
Mg       5.03028098      -0.27839967      22.25233934
Mg       2.49046521       4.17478448       6.45295458
Mg       2.62528036       3.98039468      22.28370254
Mg       0.08235883      -0.09407763       9.29196137
Mg       0.16178095      -0.21789552      25.16500931
Mg      -2.36072716       4.13337200       9.39733449
Mg      -2.12051056       4.02337820      25.23612232
Mg       4.97861010      -0.20094284       9.37240259
Mg       5.05324897      -0.34459819      25.35169783
Mg       2.54342332       4.12583065       9.35747263
Mg       2.68521852       4.02727718      25.17164960
Mg       0.01670240      -0.02000196       1.53375962
Mg       0.10788984      -0.24082185      17.29927539
Mg      -2.43253101       4.27576368       1.42576891
Mg      -2.20347246       3.97921802      17.36377413
Mg       4.83962306      -0.05712098       1.50462626
Mg       5.07265464      -0.22279160      17.31993523
Mg       2.50106921       4.30049680       1.47179590
Mg       2.68800794       4.07150239      17.22792478
Mg       2.52312946       1.44089225       2.51754379
Mg       2.54495348       1.22935069      18.29532703
Mg       0.07012596       5.69266722       2.41349028
Mg       0.12887825       5.50377375      18.25813420
Mg       7.37596698       1.37051595       2.47527590
Mg       7.48917115       1.26571222      18.24746430
Mg       4.97234679       5.65673448       2.54528941
Mg       5.18679998       5.42991116      18.33462928
Mg       0.20727298       2.74530317      10.38334432
Mg       0.25137803       2.57313869      26.17333415
Mg      -2.34323540       6.98029569      10.33517557
Mg      -2.24522322       6.74707714      26.05939463
Mg       4.93828161       2.70412459      10.24088081
Mg       5.15920330       2.48510295      26.23696154
Mg       2.62875062       6.98773449      10.34548406
Mg       2.63752013       6.72761906      26.14310123
Mg       2.52275609       1.31400380       5.46216802
Mg       2.66737107       1.20338470      21.24811376
Mg       0.08778643       5.57595876       5.47325013
Mg       0.16187325       5.50724923      21.21687899
Mg       7.35865844       1.31474543       5.44198491
Mg       7.56212397       1.16150834      21.27896368
Mg       5.06484826       5.56573581       5.44241023
Mg       5.09000265       5.45868096      21.26436129
Mg       0.16106026       2.60126698      13.25075167
Mg       0.30120066       2.52564324      29.06649738
Mg      -2.33359651       7.00003860      13.29996630
Mg      -2.22691830       6.78655227      29.09457002
Mg       5.02486056       2.63914191      13.39041846
Mg       5.08194700       2.44758695      29.19951484
Mg       2.62841964       6.90569616      13.31860866
Mg       2.83260367       6.79716685      29.16904260
Ni       2.55525210       1.24005863      13.84598139
Ni       2.68474012       1.06677732      29.56663511
Ni       0.18308186       5.52831684      13.88722963
Ni       0.15867231       5.36217003      29.66911832
Ni       7.41636401       1.26465906      13.87558889
Ni       7.57676349       1.03280634      29.67659303
Ni       5.05075451       5.54532759      13.96309767
Ni       5.11672773       5.36167949      29.63395912
Ni       0.05987013       2.67808504       5.92362869
Ni       0.22629426       2.60316178      21.78804621
Ni      -2.33232390       7.01786649       5.85354431
Ni      -2.18497964       6.75636696      21.68441758
Ni       4.95665449       2.81804866       5.98571027
Ni       5.06888961       2.59552389      21.67625761
Ni       2.45952491       7.03868212       5.92663843
Ni       2.66374479       6.77967710      21.75827194
Ni       2.52540637       1.32356942       9.92566012
Ni       2.65495911       1.14907797      25.61366415
Ni       0.18030076       5.49918145       9.84410737
Ni       0.33594959       5.51065769      25.72973201
Ni       7.50400112       1.31046512       9.95840706
Ni       7.54058753       1.14167738      25.81883237
Ni       4.96381142       5.51079739       9.91917936
Mg       5.09298401       5.38766270      25.68882027
Ni       0.03476172       2.74532294       1.95319421
Ni       0.10870326       2.61991436      17.73876659
Ni      -2.34832110       7.10990062       1.93313610
Ni      -2.24195097       6.77889309      17.82725750
Ni       4.87398677       2.84250935       2.01826986
Ni       5.01030378       2.66188607      17.89223095
Ni       2.49625855       7.03118282       2.02692261
Ni       2.65931945       6.79808454      17.76013773
Ni       2.53882660       2.72462438      11.86689797
Ni       2.72880017       2.54661594      27.72102326
Ni       0.18507645       6.83019543      11.94167474
Ni       0.25367245       6.80221196      27.64703754
Ni       7.51349301       2.73853930      11.87182459
Ni       7.59938876       2.46884422      27.75725194
Ni       5.03017274       6.91025590      11.89984636
Ni       5.16803503       6.75647309      27.65843809
Ni       3.72774827       0.61296412      11.89033931
Ni       3.83808238       0.43692958      27.61796615
Ni       1.30183760       4.87570133      11.84996021
Ni       1.47730078       4.68899420      27.72791032
Ni       8.64753785       0.58756581      11.94916860
Ni       8.78868748       0.34749772      27.69197698
Ni       6.23477736       4.73158056      11.89601481
Ni       6.34627386       4.65392926      27.64894376
Ni       1.29650461       3.52003111       3.92133567
Ni       1.38740932       3.34910375      19.76437398
Ni      -1.16118770       7.65935432       3.92794792
Ni      -0.97773997       7.57579863      19.74509561
Ni       6.16588310       3.55865640       3.99101630
Ni       6.33007549       3.25625901      19.79696204
Ni       3.65112979       7.66719306       3.97595083
Ni       3.85846431       7.56424790      19.82394221
Ni       1.28840593       0.55389806      11.75958137
Ni       1.46069750       0.43026690      27.73229057
Ni      -1.10988602       4.77669959      11.95589447
Ni      -0.96031237       4.68304511      27.65424553
Ni       6.18697225       0.49032987      11.87340410
Ni       6.43274997       0.37503116      27.76861619
Ni       3.85140952       4.76655191      11.85165766
Ni       3.94593235       4.73423724      27.75120092
Ni       0.07039613       1.37489371       3.94313574
Ni       0.13257458       1.14929954      19.77752769
Ni      -2.38109403       5.67305921       3.86272374
Ni      -2.23964407       5.48881226      19.88460193
Ni       4.87892979       1.37138350       4.04674787
Ni       5.04508462       1.18757961      19.79331378
Ni       2.56463511       5.65205660       3.96537097
Ni       2.62316470       5.31650930      19.81381530
Ni      -1.03744688       3.54655379       4.00297657
Ni      -0.94160868       3.28814869      19.75298885
Ni      -3.44485944       7.76934273       3.90882369
Ni      -3.43840760       7.68255311      19.67543370
Ni       3.72040466       3.41389309       4.07260380
Ni       3.80626521       3.43439959      19.72970090
Ni       1.33341506       7.69129184       4.00249032
Ni       1.47487665       7.62730004      19.77297640
Ni       2.40773322      -0.02978109       0.12165873
Ni       2.67502237      -0.20343622      15.88062296
Ni       0.07165763       4.25738323      -0.08662799
Ni       0.17710197       4.08173579      15.79275737
Ni       7.31456989      -0.05609929       0.07244240
Ni       7.46372669      -0.21646768      15.82469039
Ni       4.85574665       4.20136133       0.07263756
Ni       4.99540243       4.03880747      15.86201304
Ni       1.26760197       2.16114704      -0.03380984
Ni       1.29092518       1.98029397      15.89613909
Ni      -1.14350812       6.37229059      -0.17713508
Ni      -1.05056109       6.21851011      15.80126278
Ni       6.08446518       2.21209256       0.03543777
Ni       6.32307119       1.87311469      15.77829072
Ni       3.72172835       6.27847060      -0.05724452
Ni       3.88606418       6.09322810      15.76259143
Ni      -1.12367226       2.08988766       7.95971451
Ni      -0.97128469       1.83323243      23.68541708
Ni      -3.54637783       6.20871785       7.86128572
Ni      -3.50620259       6.17861447      23.67957913
Ni       3.72809931       1.97572511       7.88057069
Ni       3.83789900       1.80650038      23.66986246
Ni       1.30949788       6.25684941       7.85779730
Ni       1.42306284       6.12146887      23.70612623
Ni       2.51156591      -0.09177612       7.91124182
Ni       2.71880103      -0.23893890      23.65936568
Ni       0.18765662       4.28440083       7.81004224
Ni       0.24451238       3.97731490      23.61871205
Ni       7.44780996      -0.17739548       7.98216257
Ni       7.54050003      -0.39607653      23.73639487
Ni       5.04331634       4.10537076       7.92249763
Ni       5.11612135       3.95171825      23.70649770
Ni      -1.18802121       2.11245566       0.07779852
Ni      -1.12101780       1.97146362      15.82798624
Ni      -3.58478707       6.47469736      -0.00471637
Ni      -3.42627723       6.13145523      15.70854515
Ni       3.60373282       2.08179207       0.00157057
Ni       3.81312526       1.91660782      15.87495165
Ni       1.23753993       6.35265261      -0.07105329
Ni       1.44120100       6.06993014      15.92292981
Ni       1.34094843       2.10056422       8.00500651
Ni       1.43881553       1.94494948      23.73136958
Ni      -1.17384019       6.28450698       7.83276106
Ni      -0.94655368       6.02191304      23.75734460
Ni       6.10577111       1.92499024       7.94839622
Ni       6.32847672       1.89628371      23.72798335
Ni       3.74865702       6.25103196       7.91207369
Ni       3.94418787       6.02560860      23.68347083
