192
Lattice="9.380012413363712 -0.009735240122188604 0.39941070532540246 -4.601144277523284 8.426796694006725 -0.1742861280958976 -0.500147338025325 -0.253828131513927 31.47522880681475" Properties=species:S:1:pos:R:3 pbc="T T T"
Mg      -0.29495031      -0.12021210      14.23714052
Mg      -0.48902597      -0.18962233      30.02705235
Mg      -2.58709616       4.13035483      14.08902832
Mg      -2.77821083       3.97537209      29.80968680
Mg       4.46162491      -0.13475882      14.45428037
Mg       4.17301033      -0.18379443      30.21062932
Mg       2.19826696       4.09709764      14.30477225
Mg       1.88697485       3.97288744      30.09853834
Mg      -0.09593395      -0.01804418       6.42259891
Mg      -0.31073881      -0.14007521      22.07814484
Mg      -2.44344251       4.19736499       6.32984195
Mg      -2.70153129       4.03919231      22.04679609
Mg       4.55758364      -0.02554650       6.64744195
Mg       4.37557207      -0.14408884      22.38906827
Mg       2.31546890       4.14987515       6.55350957
Mg       2.13327112       3.93638206      22.31432902
Mg      -0.17512276      -0.06774706       9.36493286
Mg      -0.37352204      -0.15113017      25.10940103
Mg      -2.49268831       4.14158355       9.26371339
Mg      -2.65347923       4.00614039      25.07830224
Mg       4.49021098      -0.03787864       9.57436404
Mg       4.21442344      -0.19552729      25.34111229
Mg       2.18800478       4.04865842       9.51600185
Mg       2.00470910       4.00823349      25.17330887
Mg      -0.00998341      -0.01036332       1.51697889
Mg      -0.36587564      -0.11160405      17.24402110
Mg      -2.28359967       4.25459142       1.41883762
Mg      -2.53430177       4.10638536      17.14680418
Mg       4.70301609      -0.03303793       1.67142762
Mg       4.42121163      -0.17567826      17.37580923
Mg       2.39620392       4.15757449       1.58408027
Mg       2.12133695       4.09578573      17.31324377
Mg       2.42283257       1.40831099       2.54958613
Mg       2.12589720       1.17250993      18.18323225
Mg       0.08498513       5.62404738       2.51559508
Mg      -0.23898976       5.48896836      18.25537586
Mg       7.02702447       1.34498357       2.77718487
Ni       6.73464045       1.25359909      18.55132729
Mg       4.66840785       5.64438714       2.61232864
Mg       4.32564196       5.44058293      18.40474760
Mg      -0.10407963       2.65732280      10.39421085
Mg      -0.39059234       2.57105676      26.08999772
Mg      -2.43664825       6.91691406      10.26958524
Ni      -2.68004134       6.88045031      25.96853019
Mg       4.46741797       2.67667511      10.65300778
Mg       4.28370069       2.61954145      26.21929466
Mg       2.19455499       6.94760574      10.36781170
Mg       2.01924140       6.69842503      26.19393412
Ni       2.33215893       1.22282122       5.47062563
Ni       2.01742732       1.25369114      21.16500161
Mg       0.01589679       5.57460508       5.46477296
Mg      -0.20043271       5.56108814      21.18249501
Mg       6.97261634       1.44184439       5.65061105
Mg       6.68018691       1.17417693      21.48472571
Mg       4.63462344       5.48090580       5.59158721
Mg       4.37850395       5.47431304      21.41565570
Mg      -0.16464231       2.64195646      13.22854984
Mg      -0.41684917       2.61519778      29.00821946
Mg      -2.48138424       6.93288310      13.27852249
Mg      -2.69204593       6.77989532      28.91936088
Mg       4.48941307       2.74750058      13.45903815
Mg       4.22437735       2.52579640      29.12882531
Mg       2.26662031       6.88726193      13.41535263
Mg       1.97258971       6.78516682      29.11285803
Ni       2.14315709       1.23955600      13.85907604
Ni       1.83959951       1.15430264      29.60205466
Ni      -0.09009311       5.50087547      13.82856421
Ni      -0.42367095       5.40613353      29.48957265
Ni       6.79853623       1.23043410      14.07907319
Ni       6.65664574       1.15436526      29.86655484
Ni       4.56452247       5.54156268      13.98812195
Ni       4.38776550       5.33873981      29.63043279
Ni      -0.14316572       2.74276993       5.95362720
Ni      -0.33414684       2.63691081      21.59671763
Ni      -2.33927150       6.97513098       5.80241350
Ni      -2.54987961       6.81915390      21.57301218
Ni       4.57202053       2.80238497       6.00377982
Ni       4.40605866       2.66189313      21.94999701
Ni       2.32567569       6.89757401       6.03565600
Ni       2.04478955       6.82920391      21.78862698
Ni       2.27270064       1.43250276       9.93686910
Ni       1.92852663       1.12727928      25.60420985
Ni      -0.09998968       5.58330331       9.87823815
Ni      -0.32225396       5.38013807      25.54064229
Ni       6.87816827       1.38575730      10.24772261
Ni       6.68345381       1.20806494      25.97018109
Ni       4.67334917       5.51325962      10.07085463
Ni       4.35450102       5.34518545      25.71993766
Ni      -0.03555545       2.80764273       2.04262792
Ni      -0.34389185       2.62065351      17.71319820
Ni      -2.27119542       7.02366314       1.84581010
Ni      -2.54118373       6.97449213      17.70523820
Ni       4.72660614       2.77270231       2.14403279
Ni       4.37102525       2.70262341      17.94744394
Ni       2.36676242       7.02573586       2.17158031
Ni       2.10061860       6.92076323      17.79547168
Ni       2.16984985       2.65172781      11.81797287
Ni       1.94287279       2.62183180      27.70052745
Ni      -0.06217830       6.87983192      11.84442822
Ni      -0.37244970       6.70943478      27.51191431
Ni       6.84021987       2.65113818      12.09618969
Ni       6.59005318       2.59387540      27.89032763
Ni       4.57955559       6.85484434      11.99640101
Ni       4.29012333       6.76196765      27.74664334
Ni       3.36188074       0.60875848      12.05753653
Ni       3.11313409       0.56262103      27.73676404
Ni       1.04564259       4.87446379      11.87918909
Ni       0.74915849       4.61882212      27.63496221
Ni       8.01699858       0.59659293      12.04557085
Ni       7.76386908       0.44487042      27.88486410
Ni       5.71742016       4.82657312      12.06220115
Ni       5.48266034       4.63820115      27.76957414
Ni       1.20271130       3.40987758       4.05244052
Ni       0.93565269       3.33037914      19.71545791
Mg      -1.07813258       7.73052709       3.94233170
Ni      -1.43673192       7.59805719      19.68300917
Ni       5.80840512       3.52181176       4.13487241
Ni       5.58974525       3.37365032      19.98410862
Ni       3.50426616       7.71122515       4.13411236
Ni       3.26823989       7.47220350      19.90197548
Ni       0.95817922       0.58865491      11.85548582
Ni       0.72440606       0.49484990      27.54975820
Ni      -1.27550548       4.72053561      11.87177131
Ni      -1.63822038       4.73318323      27.47806878
Ni       5.64757137       0.58630779      12.04777760
Ni       5.44236355       0.51231151      27.76874488
Mg       3.35135854       4.82470058      11.96094723
Ni       3.14822047       4.71276671      27.73248287
Ni      -0.10167731       1.27962679       3.99319150
Ni      -0.23198024       1.19910852      19.67969931
Ni      -2.37364273       5.70309929       3.90159370
Ni      -2.55757765       5.51215252      19.60337050
Ni       4.68088409       1.41040610       4.20847143
Ni       4.37614462       1.24675098      19.92733063
Ni       2.36817595       5.53611061       4.04657531
Ni       2.07956427       5.47685671      19.79591417
Ni      -1.24459715       3.44275264       3.90424583
Ni      -1.43227573       3.34162040      19.65614791
Ni      -3.46337834       7.59511296       3.76170107
Ni      -3.80374069       7.48219942      19.63097791
Ni       3.49153988       3.47402126       4.20786277
Ni       3.24327715       3.32243109      19.82656072
Ni       1.13163297       7.63662514       4.08063902
Mg       0.90054654       7.56907916      19.71719817
Ni       2.31625677      -0.06150981       0.05269897
Ni       2.03512235      -0.06781373      15.82627107
Ni       0.07427035       4.12366736      -0.02660067
Ni      -0.24309510       4.14193533      15.73426288
Ni       7.01666464      -0.03024526       0.28747276
Ni       6.74581656      -0.02588650      16.06962867
Ni       4.73830964       4.19028610       0.23578979
Ni       4.49106782       4.09777571      15.91604008
Ni       1.23098322       2.04546731      -0.00301538
Ni       0.94194289       1.96397349      15.82550811
Ni      -1.14564934       6.35224448      -0.01500859
Ni      -1.39381042       6.17236841      15.66835021
Ni       5.96431291       2.11441451       0.29360525
Ni       5.62794871       1.97330617      15.88635703
Ni       3.56092867       6.40281416       0.14798869
Ni       3.35280081       6.22001946      15.85896519
Ni      -1.31681853       1.99006440       7.80785104
Ni      -1.50450780       1.93909090      23.49115764
Ni      -3.58481233       6.25539029       7.72659728
Ni      -3.85860213       6.09393617      23.50287970
Ni       3.39958747       2.08108529       7.92702710
Ni       3.15280341       1.86073441      23.71582735
Ni       1.12933967       6.22105917       7.93613601
Mg       0.87352357       6.18652335      23.67370334
Ni       2.24046366      -0.19777926       8.01349524
Ni       2.00521791      -0.20400152      23.72211091
Ni      -0.12482598       4.17451808       7.84225300
Ni      -0.27039090       4.10751235      23.64281909
Ni       6.95592773      -0.11279618       8.16788405
Ni       6.63153377      -0.17315360      24.00997342
Ni       4.58806327       4.14892991       8.17996948
Ni       4.34887663       4.07622109      23.85818251
Ni      -1.14156748       2.04611718      -0.02190962
Ni      -1.45126548       1.92209676      15.66653079
Ni      -3.51346753       6.27852498      -0.10405503
Ni      -3.67298849       6.20104758      15.56294669
Ni       3.56396835       2.01755704       0.16192254
Ni       3.33771756       2.00485423      15.87663593
Ni       1.30833312       6.36944201       0.06336892
Ni       0.92955093       6.22318685      15.79556310
Ni       1.09521410       2.02972692       7.91482204
Ni       0.83316172       1.95017892      23.64959858
Ni      -1.25432073       6.27154011       7.87066772
Ni      -1.42268776       6.12861799      23.59279078
Ni       5.77810731       2.09063032       8.21469756
Ni       5.48276755       1.98751073      23.88421163
Ni       3.51620450       6.23439790       8.05088317
Ni       3.29972658       6.09480884      23.72316190
