189
Lattice="9.967151916694368 -0.2945372151991188 0.27651859771428766 -5.170006090871807 8.651124699813694 -0.026409176434570112 0.761348706254701 -0.7107056363115549 32.50868278930738" Properties=species:S:1:pos:R:3 pbc="T T T"
Mg       0.35560937      -0.36104272      14.72981488
Mg       0.80296394      -0.63072907      30.93249559
Mg      -2.26519235       4.00768780      14.73124308
Mg      -1.83374588       3.64058714      30.98769501
Mg       5.32731636      -0.46968216      14.90104927
Mg       5.73840143      -0.81071071      31.15011505
Mg       2.76058828       3.74917521      14.86439042
Mg       3.19468835       3.45267954      31.07567368
Mg       0.09003980      -0.13541297       6.53936059
Mg       0.53612433      -0.51073041      22.78893886
Mg      -2.47665418       4.13470791       6.64586275
Mg      -1.98837324       3.86559056      22.73271749
Mg       5.18870090      -0.28289202       6.70037575
Ni       5.57526980      -0.68443436      22.97141144
Mg       2.55516003       3.94864011       6.75727443
Mg       2.84588515       3.69061465      22.93958836
Mg       0.26007268      -0.31370701       9.72951642
Mg       0.57979147      -0.53046018      25.83663714
Mg      -2.36615001       4.15281147       9.67309734
Mg      -1.82978808       3.73735418      25.86134297
Mg       5.15016804      -0.34107566       9.77524791
Mg       5.51753708      -0.67618406      26.01126490
Mg       2.58544052       4.04391362       9.85832196
Mg       3.05179838       3.56095998      25.99203772
Mg       0.07096832      -0.05002594       1.50489364
Mg       0.33433098      -0.35027528      17.77464647
Mg      -2.50286048       4.30981824       1.49633726
Mg      -2.15667563       3.96804070      17.96599296
Mg       4.95499009      -0.16876325       1.61332702
Mg       5.34625795      -0.67201506      17.88478447
Mg       2.39931280       4.18356478       1.70921164
Ni       2.86471047       3.83761435      17.97640429
Mg       2.85329016       1.02215214      18.96590298
Mg      -0.10613265       5.59974446       2.70690887
Mg       0.33997314       5.19245686      18.95082565
Mg       7.50239620       1.08892300       2.71067360
Mg       7.93077897       0.83377356      18.99893546
Mg       4.92031926       5.43902317       2.71073887
Mg       5.35591644       5.07866065      18.93285756
Ni       0.12871065       2.61360075      10.73377824
Mg       0.54262580       2.25229496      26.97808384
Mg      -2.43427253       6.94707778      10.65939314
Mg      -1.98787000       6.55135740      26.93491113
Mg       5.24155676       2.46357155      10.77360178
Mg       5.51755758       2.04912941      27.04566436
Mg       2.58190686       6.64884874      10.97051065
Mg       2.97128165       6.42523068      27.09274844
Mg       2.57260993       1.19818841       5.68891199
Mg       3.03116172       0.72901818      21.98554443
Mg      -0.08486094       5.48909156       5.63038690
Mg       0.38954099       5.23742320      21.95479080
Mg       7.51459165       1.10094249       5.78037445
Mg       8.01962141       0.73887517      22.15594883
Mg       5.36682576       5.05241180      22.04124832
Mg       0.30628680       2.53672264      13.74126084
Mg       0.67276692       2.22344233      30.03138451
Mg      -2.27976449       6.90779554      13.65566978
Mg      -1.94880041       6.53665863      30.02599131
Mg       5.22788922       2.46495601      13.92157377
Mg       5.62756091       2.05665810      30.07906003
Ni       2.70042402       6.83532389      13.87104891
Mg       3.00987973       6.32975418      30.15710403
Ni       2.86407374       1.06102314      14.38019118
Ni       3.10451803       0.63394989      30.59746967
Ni       0.12093300       5.37503872      14.33360541
Ni       0.63553725       5.00030227      30.54160480
Ni       7.75842596       0.95324855      14.36916864
Ni       8.12567307       0.48993398      30.69950726
Ni       5.07787482       5.26366843      14.40823670
Ni       5.57676281       4.87012963      30.68834930
Ni       0.05751623       2.67962476       6.07182207
Ni       0.48619533       2.30591163      22.42928742
Ni      -2.40616094       6.97568845       6.04535967
Ni      -2.08231765       6.65373486      22.29342273
Ni       5.09464083       2.60987986       6.27507676
Ni       5.44072268       2.17584016      22.54665045
Ni       2.45276063       6.98601436       6.18272480
Ni       2.77619770       6.54881253      22.54602977
Ni       2.68462359       1.07087257      10.27190755
Ni       3.12320054       0.73946199      26.55098601
Ni       0.03887637       5.49014561      10.25355651
Ni       0.49030515       5.08687084      26.50346464
Ni       7.67161612       1.05381130      10.47451677
Ni       8.03595359       0.62512978      26.66386511
Ni       5.11888235       5.30913792      10.40069208
Ni       5.49384563       4.95656259      26.59199262
Ni       0.02524838       2.80781092       2.10830167
Ni       0.42967069       2.49233034      18.31679502
Ni      -2.48229508       7.05726984       2.17233372
Ni      -2.16731226       6.78296985      18.27000224
Ni       4.89235058       2.59321718       2.20918056
Ni       5.30196836       2.23175001      18.45383178
Ni       2.33331062       6.94794839       2.22773119
Ni       2.78251487       6.63303308      18.48878443
Mg       3.03024552       2.18945824      28.46920640
Ni       0.19155981       6.86045958      12.23492110
Ni       0.51026792       6.36039906      28.62765488
Ni       7.72249784       2.36892628      12.40975335
Ni       8.07809377       1.98269946      28.70983766
Ni       5.16915791       6.61103997      12.37233093
Ni       5.45454718       6.25024023      28.59799902
Ni       3.94029324       0.39445395      12.22907279
Ni       4.36035925      -0.13139747      28.62153208
Ni       1.50044244       4.70065131      12.28834664
Ni       1.87024534       4.18945850      28.48325668
Ni       8.91448498       0.14245355      12.46720492
Mg       9.45923650      -0.21867898      28.68396474
Ni       6.36135127       4.45742748      12.38441222
Ni       6.72019452       4.29398539      28.62218131
Ni       1.30021692       3.27813800       4.14160551
Ni       1.64104515       3.13309774      20.37454906
Ni      -1.30056283       7.67127050       4.21885162
Ni      -0.92898057       7.42167116      20.35856747
Ni       6.17247400       3.21432672       4.34677327
Ni       6.58235895       2.90979877      20.55856209
Ni       3.70258808       7.59153360       4.31116779
Ni       4.01534675       7.25231802      20.43044251
Ni       1.57049486       0.41278586      12.24190870
Ni       1.89981525       0.05266454      28.46142424
Ni      -1.07023133       4.76534443      12.14243565
Ni      -0.69765197       4.42207727      28.43667370
Ni       6.46450569       0.19556051      12.43191604
Ni       6.89287031      -0.08544586      28.66422029
Ni       3.83890425       4.58255821      12.39244075
Ni       4.25017093       4.12206774      28.60347696
Ni      -0.00491872       1.34645769       4.00069650
Ni       0.47143138       0.94227534      20.33262043
Ni      -2.50589385       5.65724837       4.16470670
Ni      -2.12030564       5.35791343      20.31431463
Ni       5.05716993       1.16913012       4.25838226
Ni       5.39967999       0.83808984      20.47469828
Mg       2.44198284       5.51876956       4.20554321
Ni       2.91436911       5.14324650      20.55161065
Ni      -1.21539778       3.46431441       4.08405456
Ni      -0.87930784       3.11993729      20.30212831
Ni      -3.87015191       7.83112505       4.12483948
Ni      -3.38281802       7.45925307      20.36471512
Ni       3.69011207       3.36661869       4.18843124
Ni       4.16275728       2.95409708      20.42474051
Ni       1.11683084       7.66273380       4.22294788
Ni       1.61851296       7.31028300      20.49222907
Ni       2.50017242      -0.05036732       0.11967498
Ni       2.89403627      -0.46867553      16.36691263
Ni      -0.05967733       4.19266700       0.07675350
Ni       0.33365496       3.95418068      16.17606188
Ni       7.49561333      -0.21617497       0.14796382
Ni       7.82130731      -0.58495094      16.36265347
Ni       4.96300609       4.01024193       0.16457098
Ni       5.26031262       3.66280845      16.47620579
Ni       1.21742653       2.06403216       0.07180961
Ni       1.62297985       1.71454850      16.25022540
Ni      -1.37095931       6.41528735       0.07441852
Ni      -1.05704507       5.99184615      16.32676671
Ni       6.19051824       1.85728248       0.21430218
Ni       6.64845227       1.59063237      16.48353460
Ni       3.68696608       6.18152762       0.18818919
Ni       3.93819794       5.89546761      16.46546046
Ni      -1.13945841       1.96120762       8.11074785
Ni      -0.70907023       1.54084401      24.34383307
Ni      -3.75583493       6.31868305       8.18442888
Ni      -3.24614289       6.10698520      24.34874262
Ni       3.94395496       1.78048534       8.31694020
Ni       4.29560490       1.39040560      24.50414230
Ni       1.32625737       6.20428866       8.26851910
Ni       1.61816284       5.78485456      24.41284176
Ni       2.66293975      -0.29000390       8.13927581
Ni       3.04662697      -0.59102522      24.42589553
Ni       0.10194751       4.04135052       8.18082970
Ni       0.47618996       3.73974360      24.35726139
Ni       7.56980871      -0.45075134       8.31496483
Ni       8.04062065      -0.75683014      24.68036297
Ni       5.19756575       4.01138958       8.30477674
Ni       5.47766241       3.59660510      24.50563196
Ni      -1.28796002       2.20290849       0.00239388
Ni      -0.92431193       1.84053271      16.14178024
Ni      -3.84472984       6.47792738       0.06638637
Mg      -3.42361399       6.16557523      16.23135068
Ni       3.69480956       1.97918792       0.09806016
Ni       4.20639719       1.71428315      16.46219312
Ni       1.13721110       6.28530270       0.08830304
Ni       1.49091034       6.04085689      16.36556595
Ni       1.46254075       1.88374770       8.19050530
Ni       1.78543427       1.55333098      24.41164030
Ni      -1.14903183       6.18479350       8.28618325
Ni      -0.79299426       5.86055475      24.43525297
Ni       6.32945808       1.76148753       8.39443066
Ni       6.72683088       1.50390383      24.59519024
Ni       3.75074661       6.03463631       8.33665747
Ni       4.16907425       5.69979289      24.57995166
