188
Lattice="9.652692046675783 -0.08694320732071287 0.1650152387055914 -4.970915990792672 8.673566256632215 -0.1524690641608682 -0.7665511573540691 0.3463739123035119 32.814518097301836" Properties=species:S:1:pos:R:3 pbc="T T T"
Mg      -0.22268281       0.09529742      14.78216581
Mg      -0.65531746       0.37658122      31.32437136
Mg      -2.81866484       4.55721300      14.76624880
Mg      -3.21591751       4.71955050      31.20274042
Mg       4.42994685       0.06472054      14.92532639
Mg       4.15098476       0.34793371      31.28418466
Mg       1.99794243       4.38504219      14.85040777
Mg       1.56075552       4.65365177      31.29566028
Mg      -0.07066905       0.06198691       6.67042969
Mg      -0.56771434       0.25604275      23.12094562
Mg      -2.68793443       4.32902197       6.64039439
Mg      -3.02475120       4.43207897      22.92488837
Mg       4.64965260       0.03705955       6.68177570
Mg       4.37974651       0.23629153      23.09995429
Mg       2.19150670       4.31267686       6.69064053
Mg       1.81198631       4.48715000      23.11330108
Mg      -0.62993037       0.31155277      26.12778664
Mg      -2.71124428       4.43734979       9.68177920
Mg      -3.10733348       4.62918573      26.01449118
Mg       4.58580829       0.07607996       9.79007471
Mg       4.20554889       0.21522092      26.17716869
Mg       2.19039161       4.41288327       9.67780665
Mg       1.70667851       4.51109412      26.08563898
Mg       0.00671193      -0.01673995       1.56058850
Mg      -0.41663426       0.23603651      17.99241156
Mg      -2.53308391       4.34087559       1.46119642
Mg      -2.88627285       4.56679507      17.79595288
Mg       4.73954059       0.07022927       1.59455285
Mg       4.45202017       0.10981006      17.98894612
Mg       2.34520913       4.36051760       1.60201533
Mg       1.89324034       4.40418328      17.98329297
Mg       2.40069461       1.43263544       2.57213249
Mg       1.84445852       1.69857822      18.89725381
Mg      -0.21826723       5.81314846       2.45128826
Mg      -0.60773444       6.02323220      19.01839888
Mg       7.17943024       1.51129451       2.60719565
Mg       6.77685662       1.51809857      19.06327258
Mg       4.72640821       5.82649516       2.50379882
Mg       4.26887556       5.83483527      18.95013757
Mg      -0.41684104       3.10516485      10.71267257
Mg      -0.66909371       3.15475688      27.11745836
Mg      -2.82236283       7.30680641      10.65008172
Mg      -3.18089694       7.49399853      26.96420442
Mg       4.49671873       2.95871663      10.85460324
Mg       4.18043310       3.10512394      27.17933045
Mg       1.95120893       7.19461735      10.77024919
Mg       1.61075485       7.47211412      27.12249467
Mg       2.28416083       1.58370206       5.74632943
Mg       1.88544976       1.67522061      22.06717563
Mg      -0.18841521       5.86914544       5.58439524
Mg      -0.71892514       6.00448769      21.98389438
Mg       6.72075554       1.59442798      22.14590412
Ni       4.60399436       5.71473671       5.67665259
Mg       4.21009811       5.90221178      22.12496013
Mg      -0.32352208       3.02284586      13.81478433
Mg      -0.77608118       3.18185194      30.24555188
Mg      -2.82982425       7.35800356      13.71165676
Mg      -3.24813501       7.54028695      30.21299519
Mg       4.49345836       2.95774790      13.88579259
Mg       4.08384784       3.07110713      30.29013460
Mg       1.93377353       7.27092229      13.82289622
Mg       1.64201296       7.49584907      30.19730324
Ni       2.03281632       1.61996175      14.45330169
Ni       1.67985428       1.74377698      30.80810017
Ni      -0.43416348       5.87267320      14.28530909
Ni      -0.82046672       6.08887192      30.74350722
Ni       6.89295128       1.56980434      14.47040070
Ni       6.54963343       1.67611952      30.89550605
Ni       4.45190353       5.81328685      14.36437603
Ni       4.00741979       5.97022244      30.82664740
Ni      -0.18608107       2.88489579       6.01866699
Ni      -0.62644475       3.08272299      22.47626734
Ni      -2.65197592       7.29154250       5.99135208
Ni      -3.13803694       7.37847498      22.44349505
Ni       4.68333434       2.94265738       6.20724002
Ni       4.27175640       3.11096055      22.66772490
Ni       2.24688176       7.18501713       6.02806273
Ni       1.79189501       7.40822391      22.63579387
Ni       2.13253058       1.54343049      10.25303664
Ni       1.78367087       1.66271511      26.72900711
Ni      -0.40322337       5.89949818      10.13877602
Ni      -0.71886747       5.90386852      26.61553625
Ni       7.04472725       1.48264651      10.41490054
Ni       6.57566320       1.74219713      26.78566075
Ni       4.50587906       5.82228670      10.37395401
Ni       4.04965876       5.96837447      26.63181583
Ni      -0.02890796       2.88361993       2.10163725
Ni      -0.52885348       3.12866199      18.45489673
Ni      -2.61069879       7.26738858       1.92301741
Ni      -2.99215564       7.43402359      18.35206674
Mg       4.67673204       2.86671746       2.12192239
Ni       4.41658328       2.97729475      18.58613367
Ni       2.24046924       7.32067783       2.06699986
Ni       1.82076856       7.30048177      18.42580442
Ni       2.03051602       2.96901733      12.28363881
Ni       1.66858332       3.09328696      28.67768110
Ni      -0.38407842       7.23246087      12.23732558
Ni      -0.72017834       7.50666574      28.63822846
Ni       6.97544810       2.91995311      12.42477819
Ni       6.59394366       3.02725253      28.76369075
Ni       4.39797907       7.38741373      12.32963661
Ni       4.03657433       7.40022563      28.74729002
Ni       3.22846099       0.79210192      12.32156683
Ni       2.85460544       0.98174000      28.76178338
Ni       0.94108013       5.09710552      12.31617899
Ni       0.50918265       5.32511817      28.72929856
Ni       8.07742707       0.67381862      12.51798910
Ni       7.60248146       1.03802901      28.87607706
Ni       5.66763890       5.02555932      12.40640473
Ni       5.26251852       5.30341953      28.79658672
Ni       1.00276897       3.63478016       4.07262220
Ni       0.76645625       3.74058273      20.59333811
Ni      -1.37144264       7.92449573       4.13003016
Ni      -1.81649693       8.13325590      20.35610821
Ni       5.87061365       3.51856716       4.21811560
Ni       5.56026096       3.66810029      20.48703848
Ni       3.39939994       7.95465449       3.93811432
Ni       2.97748278       8.16336223      20.58340834
Ni       0.95076298       0.90219437      12.26511150
Ni       0.38881742       1.02041864      28.71332266
Ni      -1.60538204       5.09892949      12.27909701
Ni      -1.99817815       5.30131607      28.66288478
Ni       5.75251419       0.77804269      12.44900549
Ni       5.31932072       0.95574226      28.83204054
Ni       3.25585049       5.18000169      12.18594342
Ni       2.91280462       5.30168389      28.79913288
Ni      -0.11917926       1.49173054       4.14087310
Ni      -0.51769151       1.60114552      20.43390971
Ni      -2.66376668       5.82858942       3.93106456
Ni      -3.08780421       6.00304919      20.43611094
Ni       4.76516005       1.47029623       4.12972346
Ni       4.36565851       1.55906149      20.59410738
Ni       2.29084369       5.76272559       4.09808229
Ni       1.88330746       5.90872703      20.47538875
Ni      -1.39527402       3.62416365       4.02152410
Ni      -1.70562282       3.74240892      20.46870650
Ni      -3.79590844       8.01608881       3.98762456
Ni      -4.25897064       8.19295425      20.32904988
Ni       3.48626652       3.64290419       4.11375893
Ni       3.08231448       3.79993765      20.48030480
Ni       1.01677077       7.94449468       3.92946994
Ni       0.60933470       8.05487500      20.44066017
Ni       2.33293612       0.03708408       0.03660700
Ni       1.99577622       0.20614961      16.48150316
Ni      -0.12528002       4.40694018      -0.03487050
Ni      -0.55301046       4.49814473      16.47004957
Ni       7.28053690      -0.02760936       0.05034925
Ni       6.92214256       0.12302100      16.53634640
Ni       4.75108150       4.25552008       0.14224312
Ni       4.39643447       4.45335548      16.48607523
Ni       1.23499414       2.14642362      -0.02966907
Ni       0.80070430       2.28547857      16.35632427
Ni      -1.37700290       6.46397334      -0.03343143
Ni      -1.73469420       6.60460358      16.32000326
Ni       5.99749158       2.07845469       0.05136875
Ni       5.55396770       2.35557313      16.49380081
Ni       3.51721108       6.47343339       0.04767868
Ni       3.05487735       6.61865187      16.33945888
Ni      -1.40602662       2.24522063       8.20881021
Ni      -1.87983398       2.43664384      24.58888806
Ni      -3.93313695       6.62705353       8.00984880
Ni      -4.37946990       6.75525013      24.54301589
Ni       3.45056650       2.12946407       8.21267358
Ni       2.96174353       2.44865495      24.58922268
Ni       0.81803839       6.50358121       8.18740753
Ni       0.52010044       6.65897208      24.58912475
Ni       2.24109960       0.06535186       8.26614659
Ni       1.78781414       0.19476399      24.60702421
Ni      -0.31853059       4.47804328       8.21426602
Ni       7.12442372       0.02900736       8.35719433
Ni       6.69502001       0.19295950      24.82262376
Ni       4.61588897       4.33141256       8.21296608
Ni       4.23660557       4.54195536      24.70096801
Ni      -1.28680134       2.12304660       0.00774092
Ni      -1.63349675       2.31864051      16.30479540
Ni      -3.74465461       6.40143060      -0.12195578
Ni       3.61272038       2.04236370       0.08229652
Ni       3.22671635       2.28897510      16.49978216
Ni       1.07767910       6.47379326       0.02090868
Ni       0.70931603       6.66174893      16.41174690
Ni       1.01999596       2.23163327       8.23694434
Ni       0.65195911       2.38802536      24.61258018
Ni      -1.49585662       6.61838083       8.13921227
Ni      -1.83713281       6.85038845      24.58078464
Ni       5.81846559       2.29962823       8.29320816
Ni       5.34759182       2.43360559      24.65968683
Ni       3.33735224       6.53738390       8.22530190
Ni       3.01732676       6.65373579      24.56811074
