192
Lattice="9.955678157917175 0.046235900475788454 0.11973528366614011 -5.2475138596352915 8.309450267546437 0.11656084766638292 -0.159895285839582 -0.2402657568442814 31.47356349246779" Properties=species:S:1:pos:R:3 pbc="T T T"
Mg      -0.01526939      -0.08484217      14.25274578
Mg      -0.17694668      -0.19982316      30.06103952
Mg      -2.66923768       4.00590696      14.38085403
Mg      -2.81283486       3.93841835      29.99205648
Mg       4.92870194      -0.11366480      14.31841041
Mg       4.89336866      -0.17269923      30.00428703
Mg       2.32330829       4.11454480      14.40901749
Mg       2.14356073       3.87923959      30.05744811
Mg      -0.01595408      -0.04386563       6.40936419
Mg      -0.15188541      -0.08647965      22.09264934
Mg      -2.70164258       4.17957030       6.44428552
Mg      -2.78690856       4.01194948      22.22779593
Mg       4.99786484      -0.05349350       6.47584417
Mg       4.84176414      -0.16063186      22.26762984
Mg       2.24725165       4.15794892       6.54269917
Mg       2.27887495       4.08038238      22.21364804
Mg      -0.13200319      -0.03046890       9.29160805
Mg      -0.19142666      -0.22149907      25.20160769
Mg      -2.71673783       4.07363067       9.43271008
Mg      -2.73592291       3.94624755      25.15179946
Mg       4.84455322      -0.01419718       9.37892343
Mg       4.85316556      -0.16417539      25.14946092
Mg       2.28427846       4.13163163       9.49514267
Mg       2.15895954       4.05715751      25.19590665
Mg      -0.04934078      -0.00651861       1.45247003
Mg      -0.11220280      -0.11959353      17.23181323
Mg      -2.71836372       4.20820507       1.53418771
Mg      -2.73257177       4.07855315      17.23353135
Mg       4.91482494      -0.06228402       1.52019097
Mg       4.90671542      -0.09332370      17.26772010
Mg       2.43790876       4.16702563       1.57890730
Mg       2.16267164       4.02312890      17.40248384
Mg       2.38597075       1.36633608       2.51991470
Mg       2.37998565       1.12490132      18.25760891
Mg      -0.16987214       5.48279557       2.51237366
Mg      -0.28742974       5.33949892      18.24494084
Mg       7.49533747       1.36435239       2.50975591
Mg       7.34086524       1.28941252      18.21906794
Mg       4.71181578       5.60763417       2.65903040
Ni       4.71253380       5.41094182      18.45616697
Mg      -0.14955181       2.70724953      10.37333776
Mg      -0.22996244       2.60306377      26.03451077
Mg      -2.67811316       6.81784131      10.50950700
Mg      -2.81452087       6.68552575      26.24275606
Mg       4.72292405       2.61394349      10.46008687
Mg       4.78086040       2.69159623      26.21826070
Mg       2.20563348       6.89151821      10.52972076
Mg       2.07977575       6.73601935      26.29085776
Mg       2.40978013       1.40043544       5.43836559
Mg       2.36182990       1.19079367      21.23360572
Mg      -0.21813946       5.60042792       5.56485797
Mg      -0.31993661       5.40887415      21.24268790
Mg       7.33058397       1.45328564       5.54447908
Mg       7.37511819       1.27423867      21.35957966
Mg       4.61988458       5.58904244       5.60453854
Mg       4.67561017       5.39716061      21.27253704
Mg      -0.07791359       2.70742604      13.30309500
Mg      -0.31204518       2.45240753      29.17177430
Mg      -2.77261750       6.78846521      13.45168944
Mg      -2.86675270       6.71294769      29.15887534
Mg       4.83006134       2.70961540      13.37959021
Mg       4.64053329       2.60023821      29.18157239
Mg       2.21571758       6.91698368      13.44892821
Mg       2.12938102       6.71874302      29.16223782
Ni       2.33812161       1.35605773      13.89985523
Ni       2.21021651       1.14095643      29.64013151
Ni      -0.35345181       5.42011587      13.85928278
Ni      -0.25961953       5.43927091      29.66482082
Ni       7.33237121       1.34944175      14.00742877
Ni       7.25538218       1.25566265      29.52099036
Ni       4.79793867       5.46017843      13.90096224
Ni       4.75537887       5.36144217      29.66350220
Ni      -0.13419211       2.72207834       5.91742911
Ni      -0.15467335       2.60549539      21.59481782
Ni      -2.74907703       6.93379339       6.03157325
Ni      -2.77405373       6.73484467      21.77120453
Ni       4.89321396       2.68824117       6.00123334
Ni       4.79437107       2.62469745      21.75916747
Ni       2.16903033       6.92327370       6.14383112
Ni       2.09222160       6.76133932      21.83617820
Ni       2.41448217       1.34356227       9.85664921
Ni       2.32192249       1.20529149      25.60575662
Ni      -0.20863993       5.55934167       9.85228047
Ni      -0.25972197       5.39643995      25.68534090
Ni       7.37766195       1.21075774       9.91715077
Ni       7.37378690       1.28184628      25.64017136
Ni       4.71931660       5.54816710      10.02714892
Ni       4.66019809       5.29876585      25.75666740
Ni      -0.04137100       2.73901220       1.99734073
Ni      -0.26818984       2.62491662      17.82924565
Ni      -2.79484079       6.95255455       1.99573417
Ni      -2.81662179       6.76124295      17.77816394
Ni       4.94057740       2.77015953       2.10789774
Ni       4.76319537       2.71638325      17.77363186
Ni       2.31229970       6.86982329       2.14876267
Ni       2.11766616       6.78654156      17.90231313
Ni       2.38899326       2.72512362      11.79797529
Ni       2.23572610       2.59763640      27.68247032
Ni      -0.28603921       6.90356758      11.99355576
Ni      -0.37392258       6.73197913      27.57910818
Ni       7.28216497       2.76699784      11.98762796
Ni       7.24617146       2.59147741      27.63705007
Ni       4.61568778       6.90762614      11.99334939
Ni       4.63805156       6.73073443      27.71923617
Ni       3.62339143       0.60968168      11.83919784
Ni       3.57100372       0.46972192      27.60157653
Ni       1.04050979       4.76194664      11.90541957
Ni       0.95482997       4.66120333      27.71044814
Ni       8.55330319       0.63295880      11.94729708
Ni       8.63083246       0.51928194      27.76590549
Ni       5.91023639       4.83312669      12.02142663
Ni       6.02459214       4.61524009      27.79592823
Ni       1.07142801       3.49700821       3.93526866
Ni       1.00720631       3.29575837      19.76180058
Ni      -1.43992053       7.47736221       4.02015489
Ni      -1.66271098       7.37284197      19.88671627
Ni       6.08909565       3.48939777       4.01373895
Ni       5.96516653       3.43135190      19.82113524
Ni       3.60684013       7.59655820       4.23250279
Ni       3.40144379       7.53933618      19.79653731
Ni       1.13014869       0.63627289      11.85510331
Ni       1.01072358       0.54166659      27.60976057
Ni      -1.42899733       4.77796017      11.97944436
Ni      -1.49385417       4.61721594      27.66656868
Ni       6.12818903       0.72051141      11.81907779
Ni       5.98271348       0.56640308      27.62820453
Ni       3.48464110       4.71450667      11.90874929
Ni       3.42189055       4.63529272      27.69314223
Ni      -0.09362084       1.33068208       3.97918851
Ni      -0.16822250       1.17357461      19.69229105
Ni      -2.66476701       5.46002348       4.06934559
Ni      -2.72725293       5.33248125      19.79152291
Ni       4.90497910       1.32105682       4.03351276
Ni       4.84539459       1.20957304      19.77350389
Ni       2.27314274       5.49090370       4.09169364
Ni       2.09304141       5.41336265      19.86567544
Ni      -1.36376429       3.45778171       3.98797631
Ni      -1.45632081       3.25211426      19.74026740
Ni      -4.01728538       7.50389657       4.10640607
Ni      -4.14545515       7.35590132      19.73769531
Ni       3.59942731       3.42911551       4.03006665
Ni       3.52052037       3.30889558      19.79759084
Ni       0.93414905       7.63570891       4.14950123
Ni       0.88733790       7.44545656      19.81254071
Ni       2.47461135       0.03346576       0.05185113
Ni       2.37261512      -0.10574542      15.75731747
Ni      -0.06766556       4.11809614       0.11791345
Ni      -0.32219101       4.06732924      15.84294470
Ni       7.53087127       0.01047400       0.06006764
Ni       7.45281174      -0.09756166      15.82546158
Ni       4.86480119       4.14007927       0.14770289
Mg       4.72883901       4.12394016      15.82974349
Ni       1.18985323       2.19217848       0.02895908
Ni       1.13342683       1.99669929      15.83134177
Ni      -1.45887452       6.30810319       0.23030544
Ni      -1.51701642       6.14750921      15.90645222
Ni       6.07589499       2.07930737       0.06832537
Ni       6.04994020       2.05639652      15.78288312
Ni       3.53853852       6.33477670       0.19475315
Ni       3.42246353       6.08852943      15.84432207
Ni      -1.14123619       2.02675472       7.90394063
Ni      -1.44362331       1.97908739      23.57318774
Ni      -3.92006289       6.13992948       7.91204604
Ni      -4.00728709       6.07685009      23.75140968
Ni       3.64489941       1.90588553       7.82339204
Ni       3.46500346       1.86736192      23.71925180
Ni       0.96374257       6.21570900       7.92993647
Ni       0.99502037       6.13864149      23.82264306
Ni       2.45464693      -0.08071029       7.86866778
Ni       2.39225154      -0.15078646      23.54899931
Ni      -0.16707865       4.20708086       7.95037753
Ni      -0.27762221       4.09282159      23.63275340
Ni       7.37661445      -0.00438638       8.04045266
Ni       7.32727026      -0.13256257      23.72534677
Ni       4.73170703       4.18238700       8.08198125
Ni       4.67528837       3.94786715      23.75559602
Ni      -1.29404309       2.13590031       0.09460157
Ni      -1.48585082       1.98235733      15.76995794
Ni      -3.78526399       6.15300666       0.09837130
Ni      -4.01576334       6.09369214      15.65853520
Ni       3.61149412       2.12665065       0.09180971
Ni       3.62476000       2.07691391      15.86244818
Ni       1.16307784       6.26078616       0.15343935
Ni       1.07294207       6.02699160      15.84743575
Ni       1.14876084       1.93838958       7.92324422
Ni       1.11718478       1.98034244      23.67522394
Ni      -1.49255585       6.18367179       7.96952061
Ni      -1.53022342       6.08920592      23.74114112
Ni       6.16770537       2.10494515       8.03781075
Ni       6.06643503       1.86926970      23.72943795
Ni       3.46133676       6.21805238       8.00497063
Ni       3.44995165       5.99747479      23.83858651
