188
Lattice="9.726282740301786 -0.10922112369061426 -0.09062191386590437 -5.2291697432619655 8.29512836670516 -0.21360016266657844 0.039794776710423335 0.19160979157906496 30.527070115202555" Properties=species:S:1:pos:R:3 pbc="T T T"
Mg      -0.00131812       0.17311483      13.84369116
Mg       0.01784056       0.23789075      29.13481187
Mg      -2.57707182       4.23258664      13.76288497
Mg      -2.58355091       4.38679335      28.94848028
Mg       4.80861666       0.10345283      13.77924122
Mg       4.93320576       0.13984177      29.00436836
Mg       2.32393772       4.15029634      13.61732417
Mg       2.35403537       4.21119895      28.89446962
Mg       0.03070204      -0.01085842       6.23154482
Mg       0.01810588       0.12215259      21.47891402
Mg      -2.59993496       4.24062665       6.06577469
Mg      -2.61443927       4.24359188      21.37644735
Mg       4.87063525      -0.06884757       6.06482242
Mg       4.85493979       0.10831405      21.38770982
Mg       2.25818752       4.14398551       5.98840302
Mg       2.31629274       4.23025384      21.27140500
Mg      -0.07322990       0.14658879       9.11114104
Mg       0.04402372       0.15763503      24.36287624
Mg      -2.54882649       4.19302166       8.89021217
Mg      -2.64029161       4.28695916      24.25758317
Mg       4.85001515      -0.01654101       8.99808962
Mg       4.85390838       0.11261878      24.28849953
Mg       2.25388788       4.14279830       8.80850691
Mg       2.22672754       4.19124909      24.29532297
Mg      -0.03000419      -0.03308420       1.44591687
Mg      -0.06782649       0.13977163      16.73668696
Mg      -2.61601733       4.13840145       1.30265856
Mg      -2.66845808       4.37678544      16.61255394
Mg       4.85725947      -0.07231599       1.44629145
Mg       4.80482115       0.01818580      16.65493663
Mg       2.23699971       4.06087528       1.22629498
Mg       2.32120580       4.14006087      16.62748152
Mg       2.40258674       1.36488450       2.31051245
Mg       2.42787150       1.49914221      17.52424591
Mg      -0.32837830       5.56653896       2.16272955
Mg      -0.22895602       5.59354368      17.48035630
Mg       7.18489304       1.35109987       2.28581905
Mg       7.24291168       1.39031081      17.51869356
Ni       4.52072028       5.45709245       2.12161901
Mg      -0.11911253       2.82935457       9.89429330
Mg      -0.01645809       2.92649005      25.20737969
Mg      -2.73511528       7.03302328       9.80007638
Mg      -2.76925232       6.98679473      25.07925492
Mg       4.76612695       2.70564455      10.00335965
Mg       4.76475716       2.85196227      25.07288185
Mg       2.08252703       6.90107430       9.67316547
Ni       2.17150547       7.03072865      24.93762980
Mg       2.35664498       1.34427822       5.14737485
Mg       2.34184071       1.43758357      20.44756154
Mg      -0.25394580       5.54316675       5.12578677
Mg      -0.14617263       5.68124956      20.31144567
Mg       7.22271241       1.47566681      20.36333910
Mg       4.61726040       5.40190047       4.96409907
Mg       4.60928732       5.59888072      20.23221319
Mg      -0.07470664       2.81784123      12.77299019
Mg      -0.15845253       2.82628876      28.05364549
Mg      -2.66622532       6.91483214      12.69491089
Mg      -2.76346579       7.01552223      27.91997641
Mg       4.73545205       2.78971148      12.67470090
Mg       4.74609884       2.79286702      28.00731898
Mg       2.08637420       6.93130472      12.69606207
Mg       2.12110159       7.12089884      27.92142294
Ni       2.42429826       1.38707585      13.35471138
Ni       2.46380712       1.54576345      28.53855236
Ni      -0.26978163       5.55939874      13.17898250
Ni      -0.30075620       5.71818145      28.46089129
Ni       7.28915528       1.43915541      13.23699127
Ni       7.25435690       1.42684920      28.60154646
Ni       4.55334888       5.54695829      13.12440297
Ni       4.64343175       5.61476226      28.38402678
Ni      -0.02625602       2.83389599       5.61024177
Ni      -0.00749970       2.85362051      20.81893206
Ni      -2.68306914       6.96007074       5.57162178
Ni      -2.75462405       7.03510397      20.71037773
Ni       4.76959368       2.72076732       5.59104062
Ni       4.78683871       2.83171376      20.80126995
Ni       2.15142251       6.84682225       5.40221913
Ni       2.13662596       7.05196760      20.76360519
Ni       2.35232767       1.42356439       9.46156486
Ni       2.39826020       1.61930499      24.65275823
Ni      -0.23703332       5.58682168       9.26768848
Ni      -0.26326554       5.63958309      24.57850780
Ni       7.17913175       1.38921892       9.39334342
Ni       7.27309276       1.43420296      24.67289066
Ni       4.60699432       5.61221464       9.35236847
Ni       4.68055587       5.51038952      24.69968895
Ni      -0.12461104       2.73929712       1.85832670
Ni      -0.07726999       2.84257797      17.11713349
Ni      -2.86068566       6.94244347       1.71888232
Ni      -2.70584212       7.01213790      17.06310435
Ni       4.81511489       2.74970170       1.76065243
Ni       4.79454485       2.81669498      17.05513725
Ni       2.14107940       6.78058888       1.80091609
Ni       2.10077423       6.92583111      17.03108707
Ni       2.33597733       2.83928297      11.27624605
Ni       2.28534644       2.90578599      26.61419939
Ni      -0.28256519       6.93991072      11.21597699
Ni      -0.14599395       7.03828228      26.53685627
Ni       7.19092920       2.77109620      11.25842373
Ni       7.24784512       2.75906659      26.58017842
Ni       4.51429605       6.87729953      11.11222161
Ni       4.65294682       6.99474523      26.49822779
Ni       3.60392410       0.81423333      26.66590158
Ni       0.98631356       4.93591042      26.61647285
Ni       8.41384371       0.57140564      11.48739277
Ni       8.53103092       0.76361797      26.59653488
Ni       5.83975731       4.73777287      11.19121197
Ni       5.85834154       4.84510057      26.50439409
Ni       1.09788731       3.47941275       3.72659853
Ni       1.09817747       3.56220619      18.93616913
Ni      -1.54252140       7.49993003       3.55017269
Ni      -1.42618249       7.69511976      18.87866084
Ni       6.02671237       3.40723456       3.64949935
Ni       5.92337666       3.55306332      18.94067808
Ni       3.25240759       7.53043166       3.52084264
Ni       3.39628568       7.64890827      18.81622771
Ni       1.16289782       0.74631130      11.30998080
Ni       1.13626651       0.89046660      26.66496215
Ni      -1.40119919       4.86967440      11.34246583
Ni      -1.48555792       5.00896626      26.57872978
Ni       6.01867275       0.66649882      11.41447875
Ni       6.14860045       0.75293763      26.63244162
Ni       3.39345035       4.88382968      11.31933943
Ni       3.47032218       4.91883387      26.49537134
Ni      -0.05720508       1.34855601       3.78897819
Mg      -0.03502236       1.53497228      18.98073035
Ni      -2.72573603       5.51133128       3.66422582
Ni      -2.73192097       5.62617929      18.91494624
Ni       4.78654160       1.28606051       3.70544634
Ni       4.88355799       1.42188972      18.91704069
Ni       2.17200689       5.46965904       3.63984659
Ni       2.21781016       5.58857404      18.97475625
Ni      -1.40583087       3.50333276       3.74260008
Ni      -1.37564124       3.54707521      19.09971598
Ni      -3.98662214       7.64042858       3.63693397
Ni      -3.90539522       7.66724528      18.90164277
Ni       3.49603329       3.47298380       3.69577945
Ni       3.44110575       3.49261741      18.87715989
Ni       0.88864554       7.58170983       3.50991851
Ni       0.84379569       7.58781047      18.85355252
Ni       2.47216047      -0.08929249      -0.03180069
Ni       2.52234523       0.03470849      15.17788309
Ni      -0.21732980       4.04500963      -0.09570049
Ni      -0.21031470       4.20564078      15.16122073
Ni       7.32396216      -0.03449061      -0.11095311
Ni       7.40639690      -0.06043578      15.14089577
Ni       4.66542409       4.09270016      -0.21360463
Mg       4.63553034       4.14486884      15.08847515
Ni       1.18556528       1.99635141      -0.04943592
Ni       1.21007881       2.16070771      15.18556850
Ni      -1.46508940       6.15003074      -0.23017913
Ni      -1.41856323       6.23593554      15.11408513
Ni       5.98411474       2.06608764      -0.11814180
Ni       5.99915903       2.15820459      15.13887922
Ni       3.32493612       6.12232940      -0.23397664
Ni       3.42345342       6.25068853      15.04583394
Ni      -1.32862719       2.17802199       7.60236943
Ni      -1.30620123       2.28046502      22.84546067
Ni      -3.84747831       6.26254547       7.40657754
Ni      -3.87790283       6.40868632      22.75148282
Ni       3.53367503       2.10946392       7.55492611
Ni       3.58688381       2.13044484      22.81145013
Ni       0.97702687       6.27256544       7.51862488
Ni       1.00856406       6.35544560      22.75306409
Ni       2.52345802      -0.04582760       7.55334995
Ni       2.52353349       0.09352385      22.90456316
Ni      -0.19906682       4.11234629       7.51462791
Ni      -0.20236626       4.24803974      22.73543049
Ni       7.36196343      -0.08341755       7.48616800
Ni       7.39444695       0.06859177      22.80266563
Ni       4.74095740       4.16728840       7.51285722
Ni       4.67306324       4.26747175      22.67056887
Ni      -1.30949422       2.01438128      -0.08265298
Ni      -1.38586766       2.14812685      15.20820346
Ni      -4.03279564       6.22202067      -0.24632080
Ni      -3.92246039       6.29538666      15.14992011
Ni       3.47195991       2.00840437      -0.14199350
Ni       3.55681699       2.13381204      15.18661796
Ni       0.98411061       6.09160490      -0.19121028
Ni       1.03995687       6.22900621      15.02310798
Ni       1.19352918       2.11620506       7.56049341
Ni       1.20229684       2.17423886      22.82875127
Ni      -1.45054483       6.23977592       7.42846248
Ni      -1.51462233       6.32518558      22.69422615
Ni       5.89351956       2.10095785       7.49907666
Ni       5.96449640       2.17145498      22.78355907
Ni       3.34905807       6.20715539       7.32767648
Ni       3.33587765       6.36269772      22.63775443
