190
Lattice="9.86198650954821 -0.12481142696943077 0.27823413276668657 -4.977569167366514 8.342540995351728 -0.008394315555103246 -1.0079599065085938 0.32023396149428884 33.07136303314284" Properties=species:S:1:pos:R:3 pbc="T T T"
Mg      -0.42731560       0.09018525      14.92399248
Mg      -0.96546022       0.29876765      31.52163302
Mg      -2.93396988       4.17584286      15.00377996
Ni      -3.50125493       4.46318461      31.41189871
Mg       4.46528103       0.02086432      15.02863954
Mg       3.94036113       0.22338001      31.79550187
Mg       2.00132284       4.28546475      15.13752143
Mg       1.52862734       4.48400722      31.61103815
Mg      -0.14766938       0.01433749       6.74986054
Mg      -0.67362057       0.23974827      23.30878694
Mg      -2.77161403       4.25642803       6.73179346
Mg      -3.18219628       4.41149691      23.18954333
Mg       4.67579459       0.06403314       6.83563823
Mg       4.22690170       0.13085408      23.32506270
Mg       2.29153038       4.19910639       6.88216555
Mg       1.77140453       4.32824163      23.49342527
Mg      -0.43123949       0.15899014       9.84852074
Mg      -0.81441228       0.27198415      26.43028023
Mg      -2.80981688       4.26992843       9.81609118
Mg      -3.26524440       4.44701732      26.36887529
Mg       4.66918428       0.05031952      10.00657024
Mg       4.19382924       0.24132870      26.43981083
Mg       2.16014794       4.16473355       9.96966477
Mg       1.63192791       4.37053454      26.55849556
Mg      -0.12323694      -0.03965737       1.62640537
Mg      -0.56892745       0.15969427      18.10948211
Mg      -2.55779100       4.20117732       1.49950559
Mg      -2.98955220       4.38748929      18.08132466
Mg       4.89634464      -0.03908317       1.72402984
Ni       4.38553556       0.15308438      18.24801920
Mg       2.40681828       4.18785553       1.70738012
Mg       1.82078773       4.23674661      18.22227568
Mg       2.36550110       1.32351529       2.70594953
Mg       1.76582074       1.48351220      19.25400105
Mg      -0.08780358       5.47923191       2.78365104
Mg      -0.50142955       5.57165201      19.23160142
Mg       7.37543508       1.34195258       2.84115463
Mg       6.72356441       1.42950835      19.23860252
Mg       4.94623312       5.44018740       2.79548930
Mg       4.37566822       5.66502180      19.39887294
Mg      -0.33177725       2.89996520      10.94288142
Mg      -0.87981594       3.12983720      27.42106792
Mg      -2.84888026       7.06771150      10.88986691
Mg      -3.33214840       7.10626572      27.33136374
Mg       4.58478231       2.89308116      11.02262014
Ni       4.04617576       2.93325299      27.62369340
Ni       2.14045772       6.97644831      10.99305998
Mg       1.61306348       7.15320266      27.57180795
Mg       2.29424859       1.48952582       5.69278211
Mg       1.81763525       1.53654188      22.31739736
Mg      -0.22435805       5.59262232       5.80978591
Mg      -0.76165526       5.75389904      22.35686021
Mg       7.30822816       1.37745334       5.88824406
Mg       6.69556470       1.50676605      22.47302141
Mg       4.74366472       5.52463249       5.99530816
Mg       4.16006845       5.64546911      22.47398049
Mg      -0.36358183       2.91576070      13.96649134
Mg      -0.97871639       3.06909813      30.52114909
Mg      -2.93528467       7.11299689      14.00744370
Mg       4.59135924       2.91514518      14.20034339
Mg       3.97457332       3.03351321      30.60099923
Mg       1.95400343       7.08340597      14.17696944
Mg       1.49393492       7.24597986      30.70419242
Ni       2.05926215       1.57162009      14.55594636
Ni       1.49212654       1.65991622      31.04095147
Ni      -0.49261949       5.62149037      14.58866251
Ni      -0.97803298       5.85744214      31.08726736
Ni       6.91849872       1.42914412      14.65720125
Ni       6.43783249       1.53269150      31.33567364
Ni       4.55179104       5.61545263      14.70099030
Ni       3.86061057       5.80885304      31.13907115
Ni      -0.14665241       2.81183766       6.29130046
Ni      -0.63486990       3.08212179      22.83721245
Ni      -2.72395088       7.01853831       6.23056579
Ni      -3.22266093       7.11463669      22.77709339
Ni       4.68834878       2.75846632       6.41660994
Ni       4.25981272       2.85655820      22.92574685
Ni       2.23243878       6.86815859       6.48180700
Ni       1.67869285       7.12788349      22.81954791
Ni       2.12132815       1.42452642      10.53383409
Ni       1.75780345       1.60791099      27.04006186
Ni      -0.40299716       5.66290276      10.45928167
Ni      -0.82731282       5.82464537      26.88480469
Ni       6.99458547       1.29373975      10.63607643
Ni       6.44147019       1.59797393      27.12897216
Ni       4.62208812       5.63270403      10.50895711
Ni       4.06920498       5.74926154      27.01634879
Ni      -0.14870165       2.80608613       2.02640921
Ni      -0.56668906       2.90703512      18.65534517
Mg      -2.49561325       6.86933234       2.13074665
Ni      -3.10215342       7.13395291      18.66793638
Ni       4.94103865       2.70097674       2.13063590
Ni       4.34212713       2.88791279      18.85573269
Ni       2.33671673       6.83360420       2.23350999
Ni       1.93867311       6.97482605      18.76516938
Ni       2.10507766       2.94096414      12.53368605
Ni       1.52369379       2.98987626      29.06273216
Mg      -0.53814499       7.05108205      12.49194629
Ni      -1.02377101       7.22290559      29.02622694
Ni       7.03291558       2.72314111      12.64780019
Ni       6.54776711       3.06976316      29.25127560
Ni       4.57729316       6.95950342      12.68597834
Ni       3.91257398       7.13322984      29.11448349
Ni       3.26486833       0.73197472      12.48833870
Ni       2.87975929       0.99963798      29.05483412
Ni       0.80611455       5.05995817      12.56441895
Ni       0.34523543       5.05600716      29.03233300
Ni       8.19509700       0.61569337      12.67602497
Mg       7.78614624       0.92120639      29.12538561
Ni       5.70527097       4.82952588      12.55752189
Mg       5.34129106       5.09185484      29.13712076
Ni       1.11235062       3.47934983       4.30506629
Ni       0.57926162       3.65637481      20.68544126
Ni      -1.41025113       7.66622240       4.15082130
Ni      -1.87333051       7.82202596      20.70154316
Ni       6.04789335       3.34132604       4.35172704
Ni       5.45045978       3.60868694      20.79379574
Ni       3.57601881       7.64677666       4.36287851
Ni       2.94292076       7.71902254      20.83689530
Ni       0.92849780       0.66978808      12.41728039
Ni       0.27528046       0.90782267      29.02750563
Ni      -1.70909421       5.05511418      12.38444322
Ni      -2.08000567       5.22488166      29.02161011
Ni       5.82475120       0.65313932      12.46279392
Ni       5.37954284       0.92178882      29.12703958
Ni       3.27144302       4.95233583      12.60225540
Ni       2.81093321       5.06158666      29.17689033
Ni      -0.09794695       1.39977859       4.14508727
Ni      -0.64525148       1.53703938      20.65602056
Ni      -2.59926746       5.56926190       4.19170854
Ni      -3.14682093       5.78056082      20.70789141
Ni       4.85100412       1.45795396       4.24293088
Ni       4.30560282       1.58095434      20.84838935
Ni       2.34948303       5.53653509       4.23316358
Ni       1.80287688       5.70967763      20.78545065
Ni      -1.38010445       3.45970897       4.09029206
Ni      -1.87662676       3.62376580      20.75181252
Ni      -4.35874395       7.92116069      20.68392649
Ni       3.61688204       3.49761298       4.36079328
Ni       3.05106821       3.50316902      20.82043938
Ni       1.04970066       7.55665340       4.25922900
Ni       0.54519117       7.71856531      20.73875580
Ni       2.49703692       0.03615148       0.10101494
Ni       1.86615277       0.08319195      16.67743165
Ni       0.01242328       4.14698120       0.12098308
Ni      -0.47364710       4.31293691      16.58671802
Ni       7.40121803      -0.05841412       0.14651734
Ni       6.97357922       0.09021365      16.62602302
Ni       4.88868466       4.01132382       0.21243684
Ni       4.43472908       4.25877520      16.84052088
Ni       1.21738371       2.12913163       0.05316805
Ni       0.62177469       2.31413198      16.62687270
Ni      -1.22397120       6.18316974       0.06267661
Ni      -1.68103991       6.34679012      16.61488033
Ni       6.16872492       2.01609415       0.26003343
Ni       5.71701660       2.22062001      16.83750810
Ni       3.70268587       6.12800910       0.25427373
Ni       3.10457694       6.31313774      16.67128273
Ni      -1.44231617       2.13882157       8.32271828
Ni      -2.03242286       2.31776066      24.77334839
Ni      -3.94740650       6.24797111       8.22503455
Ni      -4.41023312       6.47234509      24.74428255
Ni       3.48160795       2.19328098       8.41508512
Ni       2.92053986       2.33585791      24.92649831
Ni       1.03496723       6.18372974       8.40821334
Ni       0.42764069       6.45368851      24.94577674
Ni       2.19100940       0.06503031       8.30959235
Ni       1.69604174       0.11764000      24.86796407
Ni      -0.34567846       4.18849421       8.37163926
Ni      -0.75935804       4.38359980      24.81973860
Ni       7.10142000      -0.03643692       8.47071220
Ni       6.56596219       0.11072313      24.98421281
Ni       4.69789063       4.18577571       8.46428168
Ni       4.12250313       4.36842993      24.93656607
Ni      -1.24436994       2.06370040      -0.01929533
Ni      -1.67192428       2.29857315      16.53550280
Ni      -3.72959823       6.25664916       0.01135908
Ni      -4.18828522       6.41627590      16.43002326
Ni       3.61888625       1.89764857       0.02447292
Ni       3.19999741       2.19949868      16.66716391
Ni       1.03328189       6.29006365       0.18442657
Ni       0.77515310       6.31499033      16.61824905
Ni       1.01612877       2.14251587       8.30535596
Ni       0.48006185       2.22166218      24.89596314
Ni      -1.51368282       6.24922837       8.37840951
Ni      -1.94298750       6.53969434      24.86500652
Ni       5.82826161       2.09875338       8.48328606
Ni       5.48091267       2.21828695      25.01464534
Ni       3.43652639       6.20037950       8.43220329
Ni       2.93361158       6.38340963      25.06743099
