190
Lattice="9.71549549207724 -0.07091488212533321 0.06483330727527026 -4.753605652076305 8.64578090537712 0.01923300484864343 0.6059362213960128 -0.5877883669737022 31.143472982969982" Properties=species:S:1:pos:R:3 pbc="T T T"
Mg       0.32756458      -0.20449121      14.17727825
Mg       0.54635161      -0.55620016      29.72970523
Mg      -2.04410995       4.06287453      14.05368698
Ni      -1.79904171       3.77721041      29.70395807
Mg       5.12751259      -0.38786097      14.15165258
Mg       5.43331283      -0.53196601      29.65282052
Mg       2.72187132       4.04533119      14.13539587
Mg       3.05169025       3.77542898      29.71110013
Mg       0.11499609      -0.16640382       6.28821639
Mg       0.45551238      -0.38021424      21.87736908
Mg      -2.28311072       4.14432736       6.26206031
Mg      -1.94519526       3.94378260      21.85872003
Mg       4.89310835      -0.17087873       6.36825441
Mg       5.26446543      -0.36013788      21.84564937
Mg       2.63877105       4.17575717       6.31093085
Mg       2.88290705       3.82101668      21.97432195
Mg       0.22761840      -0.26166070       9.20138599
Mg       0.46722610      -0.50123002      24.81761162
Mg      -2.18399652       4.09462813       9.20055479
Mg      -1.94727580       3.86775595      24.83804366
Mg       5.05399417      -0.21085403       9.25100273
Mg       5.30856600      -0.48158670      24.85597801
Mg       2.66789221       4.16391607       9.34166455
Mg       2.94043763       3.74970320      24.87647930
Mg       0.02745281      -0.07684319       1.51725016
Mg       0.35391019      -0.29002129      17.01613576
Mg      -2.39610845       4.25703287       1.49212655
Mg      -2.08540549       4.00054111      16.99099663
Mg       4.96631344      -0.06288864       1.56834451
Mg       5.26699753      -0.27156197      17.05887142
Mg       2.48997730       4.21534438       1.59995661
Mg       2.79029465       3.97999261      17.02335803
Mg       2.49494998       1.30080778       2.50230676
Mg       2.73991750       1.05860206      18.04698246
Mg       0.18110841       5.69664259       2.42426214
Mg       0.40600746       5.36806214      17.97587435
Mg       7.29502286       1.27618687       2.47807854
Mg       7.71364201       1.11403295      18.07688262
Mg       4.95988730       5.65179090       2.45226993
Mg       5.29070294       5.35546260      18.05471059
Mg       0.27227171       2.71251345      10.24442934
Mg       0.44546796       2.37852223      25.84351935
Mg      -2.13966945       7.02418785      10.27486629
Mg      -1.82465359       6.74117099      25.85004955
Mg       5.15790097       2.70228163      10.33646522
Ni       5.48259243       2.27605806      25.81551097
Mg       2.75168978       6.94130064      10.23980192
Mg       3.05745743       6.62326515      25.89688515
Mg       2.56962896       1.35524095       5.38112949
Mg       2.73396641       0.96127769      20.95465398
Ni       0.16869702       5.74034406       5.42578087
Mg       0.51643618       5.28897963      21.03632696
Mg       7.45889970       1.26360104       5.34582589
Mg       7.76598558       0.96045897      20.88857047
Mg       4.96081184       5.51371279       5.48203859
Mg       5.31955235       5.41430491      20.98979198
Mg       0.29655540       2.62230803      13.08089896
Mg       0.64613498       2.26626566      28.68690637
Mg      -2.04337331       6.87840915      13.17033137
Mg      -1.76686967       6.66601976      28.83401608
Mg       5.16152188       2.67120083      13.20378935
Mg       5.45431202       2.33987521      28.78228517
Mg       2.84560008       7.00683048      13.22551094
Mg       3.18285386       6.65598804      28.87901194
Ni       2.68324253       1.15783031      13.65519645
Ni       3.11162066       0.86038133      29.28165006
Ni       0.33590217       5.42439559      13.63606331
Ni       0.72310908       5.16735060      29.11803513
Ni       7.59134601       1.09638715      13.69432758
Ni       7.94278263       0.76505753      29.37717067
Ni       5.29318273       5.58031524      13.62921170
Ni       5.54073186       5.09052124      29.28444035
Ni       0.21770399       2.73925428       5.83140014
Ni       0.42707124       2.48038231      21.41028800
Ni      -2.17809164       7.18320230       5.82254403
Ni      -1.94027337       6.76580240      21.37905307
Ni       4.95938330       2.71083325       5.82115026
Ni       5.35048967       2.40703007      21.51453773
Ni       2.62000846       7.02247023       5.86380334
Ni       2.96950614       6.66294240      21.45259729
Ni       2.63855686       1.16266714       9.75360083
Ni       2.97832561       0.86992166      25.38525684
Ni       0.28205209       5.50982821       9.80307774
Ni       0.62214674       5.31584448      25.29213296
Ni       7.42781230       1.17261785       9.83925226
Ni       7.83073944       0.83770235      25.27741908
Ni       5.12689228       5.54230984       9.78643923
Ni       5.51015125       5.23276844      25.37121422
Ni       0.14001798       2.87447832       2.06839123
Ni       0.44118475       2.57145845      17.49423147
Ni      -2.45057371       7.21445497       2.03094838
Ni      -1.97498149       6.79865716      17.58026316
Ni       4.92663018       2.74566163       2.03789485
Mg       5.24675791       2.44544738      17.54332241
Ni       2.60200366       7.17802384       2.10235973
Ni       2.87645050       6.77789177      17.65891280
Ni       2.99545543       2.44376704      27.30386070
Ni       0.31948164       6.92342049      11.80818653
Ni       0.62643859       6.66684781      27.32366296
Ni       7.57335346       2.58371092      11.68719941
Ni       7.79300663       2.34930356      27.29312149
Ni       5.19188709       6.92419812      11.80657287
Ni       5.48624315       6.64579636      27.36869243
Ni       3.80125485       0.43577824      11.76335133
Ni       4.18933284       0.20130484      27.36579268
Ni       1.42709769       4.76506042      11.72198983
Ni       1.77557765       4.49534703      27.27972244
Ni       8.74426362       0.45244316      11.79773014
Ni       6.42347076       4.79264602      11.77481444
Ni       6.61475245       4.43870889      27.37621379
Ni       1.35300228       3.50766622       3.87413423
Ni       1.67506422       3.15623383      19.51524710
Ni      -1.00782786       7.76846015       3.93013914
Ni      -0.75112758       7.56687524      19.46582975
Ni       6.25318483       3.43916426       3.92081948
Ni       6.46462768       3.18555513      19.55930262
Ni       3.91862424       7.75650434       4.02503278
Ni       4.19063894       7.49243138      19.46379506
Ni       1.47516755       0.54586308      11.79870318
Ni       1.72440681       0.24799123      27.21093725
Ni      -0.96526583       4.72481697      11.66060821
Ni      -0.56818630       4.61121169      27.29005838
Ni       6.31480813       0.42501321      11.63238811
Ni       6.60485078       0.24208632      27.30557741
Ni       3.89923007       4.75495513      11.73134812
Ni       4.22270690       4.45535278      27.29364570
Ni       0.14017541       1.39043073       3.86082714
Ni       0.40960011       1.02460054      19.54113562
Ni      -2.25550690       5.62581738       3.79303290
Ni      -1.95562345       5.35364571      19.47639554
Ni       4.92549621       1.31975901       3.91410227
Ni       5.21416746       1.07855069      19.54982774
Ni       2.52294911       5.66683626       3.95414965
Ni       2.86400560       5.39730969      19.48973800
Ni      -1.05335310       3.53008763       3.92490338
Ni      -0.81455377       3.21050264      19.56998471
Ni      -3.43370626       7.84413780       3.84271215
Ni      -3.12620957       7.54074695      19.50891476
Ni       3.74273637       3.48748805       3.93278464
Ni       4.05461427       3.21067600      19.52089391
Ni       1.39888800       7.85322352       3.89311736
Ni       1.67918240       7.58197013      19.63197031
Ni       2.40165987      -0.02692128       0.05596223
Ni       2.78848832      -0.27656979      15.57903153
Ni       0.05980507       4.29597450       0.02658426
Ni       0.33031658       4.05869122      15.55470952
Ni       7.21739889      -0.06839102       0.12166753
Ni       7.55567253      -0.27024229      15.61853196
Ni       4.99449390       4.24885102       0.06543613
Ni       5.21932330       3.99472837      15.65385815
Ni       1.25281528       2.11353352      -0.01265709
Ni       1.57709168       1.86711203      15.75300627
Mg      -1.17400561       6.44338785       0.06330732
Ni      -0.93490581       6.08006738      15.60241304
Ni       6.22005897       2.05596669       0.05566536
Ni       6.42700569       1.85608572      15.64507556
Ni       3.67678144       6.49860134       0.11878836
Mg       4.03051996       6.19565182      15.59780556
Ni      -1.12360065       1.94247502       7.80473097
Ni      -0.82438623       1.66289403      23.37185468
Ni      -3.51240960       6.30336665       7.72065371
Ni      -3.17709150       6.05426982      23.39534386
Ni       3.77701421       1.95180795       7.83917567
Ni       4.12395863       1.73327339      23.36116394
Ni       1.46783397       6.29859774       7.82697924
Ni       1.74469321       6.06177201      23.36378571
Ni       2.50610164      -0.26706815       7.75932088
Ni       2.87444767      -0.52476882      23.38943034
Ni       0.16986368       4.06265366       7.79755780
Ni       0.51734035       3.90687592      23.37155622
Ni       7.47135378      -0.21119960       7.86945822
Ni       7.78322380      -0.52450521      23.43019751
Ni       5.05937139       4.18681755       7.89153768
Ni       5.38979441       3.83710302      23.47757092
Ni      -1.25247356       2.07869591      -0.02685251
Ni      -1.06719615       1.88334382      15.70477461
Ni      -3.55872933       6.46941498       0.01582983
Ni      -3.25941087       6.20745783      15.61787422
Ni       3.62876779       2.09836047       0.05473243
Ni       3.95629768       1.82937714      15.62028920
Ni       1.33733536       6.36598475       0.07460807
Ni       1.62839917       6.20403674      15.57241797
Ni       1.33966113       2.06608331       7.84395053
Ni       1.66049795       1.69843201      23.38991207
Ni      -0.94701797       6.34730977       7.73299845
Ni      -0.63526071       6.09441752      23.45975922
Ni       6.24578010       2.03947930       7.87251705
Ni       6.57418907       1.65404279      23.41004599
Ni       3.81882615       6.28885549       7.85784014
Ni       4.18738695       6.01827405      23.42213244
