192
Lattice="10.090725575440297 0.060791808689415 0.09264566259163273 -4.864887474420022 8.374842691094994 -0.01299126160962848 0.2538645109051887 -0.4753410207704878 31.87015990280542" Properties=species:S:1:pos:R:3 pbc="T T T"
Mg       0.14647755      -0.25117021      14.38727385
Mg       0.16680073      -0.44749772      30.38267832
Mg      -2.25498283       3.94336722      14.45562614
Mg      -2.24938382       3.66783931      30.32344309
Mg       5.09262064      -0.28981342      14.50227071
Mg       5.28099310      -0.40176782      30.40363655
Mg       2.65503632       3.98360823      14.49831662
Mg       2.80174462       3.65484492      30.41984693
Mg      -0.04264096      -0.07139412       6.45670303
Mg       0.22892668      -0.31888901      22.41818105
Ni      -2.32754182       4.06620424       6.44140697
Mg      -2.28083934       3.89234042      22.36646395
Mg       5.18630392      -0.04928158       6.51865358
Mg       5.21255832      -0.29513895      22.51420559
Mg       2.61880995       4.15294746       6.57672879
Mg       2.79559852       3.96704504      22.33657881
Mg       0.16274612      -0.11631716       9.44226531
Mg       0.18341135      -0.40676963      25.39706220
Mg      -2.34643491       4.07592720       9.44489637
Ni      -2.19333465       3.84641366      25.48349865
Mg       5.11052251      -0.13722172       9.55094040
Mg       5.31617208      -0.38688728      25.43416442
Mg       2.76152413       4.06556216       9.59238700
Mg       2.89993548       3.84024403      25.47585735
Ni      -0.07829962      -0.07974974       1.50787023
Mg       0.22038858      -0.25378035      17.54378632
Mg      -2.49421246       4.12386258       1.54486082
Mg      -2.26902830       3.96980334      17.52464827
Mg       5.01966908       0.01642593       1.51266513
Mg       5.13266102      -0.27884914      17.39734623
Mg       2.55004536       4.16009193       1.45200417
Mg       2.79161405       3.86948695      17.40961209
Mg       2.54234767       1.33904512       2.49602355
Mg       2.73277744       1.11080608      18.41685183
Ni       0.21425263       5.64939726       2.48672719
Ni       0.25089826       5.30511165      18.51107185
Mg       7.59580471       1.49355531       2.55808276
Mg       7.79923915       1.22988704      18.46267649
Mg       5.12976842       5.56966412       2.53493545
Mg       5.31023721       5.31381003      18.55727471
Ni       0.11449306       2.64570631      10.48629568
Mg       0.18148130       2.45000142      26.44520158
Mg      -2.20795634       6.88035288      10.46029271
Mg      -2.14493956       6.61807282      26.45471665
Mg       5.21827190       2.64388473      10.55800585
Mg       5.45591463       2.47199342      26.46872622
Mg       2.74039877       6.84313853      10.45777653
Mg       2.90617421       6.67183316      26.41364657
Mg       2.53088081       1.30805010       5.55694690
Mg       2.70491933       1.04687522      21.41402575
Mg       0.13783307       5.48561407       5.54931538
Mg       0.26735081       5.27342917      21.49980071
Mg       7.68382390       1.33726993       5.55166261
Mg       7.84375931       1.09882209      21.57228725
Mg       5.27118330       5.51026328       5.57527855
Mg       5.27520456       5.31437792      21.52842478
Mg       0.21613284       2.52230753      13.38124664
Mg       0.22912522       2.36159851      29.37066562
Mg      -2.27679641       6.78638207      13.37346695
Mg      -2.07618431       6.48447942      29.43999161
Mg       5.21551242       2.59667082      13.52298222
Ni       5.43841444       2.41613225      29.49586647
Ni       2.79364099       6.76778207      13.61589121
Mg       2.87973195       6.56220040      29.50656678
Ni       2.71333581       1.27451259      14.00841146
Ni       2.72876983       0.96746004      29.92394165
Ni       0.13545004       5.30770566      13.99471917
Ni       0.29940629       5.12349864      29.92414166
Ni       7.68411598       1.24626565      14.01043594
Ni       7.86012763       0.95350145      29.96279017
Ni       5.33126041       5.46595559      14.04527517
Ni       5.46597998       5.11045383      30.01534177
Ni      -0.02756251       2.67683538       6.01314888
Ni       0.19579630       2.43190482      21.95351999
Ni      -2.31356586       6.93124002       5.92459804
Ni      -2.23970247       6.56905983      21.87787086
Ni       5.15595839       2.73621781       6.01266688
Ni       5.29105999       2.45195052      21.93157835
Ni       2.75246097       6.93900839       6.02524162
Ni       2.93774279       6.75974929      21.97360732
Mg       2.66223242       1.27038583      10.00403001
Ni       2.75828713       1.01916874      25.87542971
Ni       0.22261209       5.55465267      10.04842980
Ni       0.39965130       5.12053533      25.95194981
Ni       7.65064122       1.27295966       9.94693215
Mg       7.73753315       1.10600000      25.96666700
Ni       5.21696932       5.51094899      10.00247694
Ni       5.30522573       5.26462771      25.94724785
Ni       0.07617778       2.85440189       2.02747411
Ni       0.14086850       2.56760621      17.94952874
Ni      -2.31674848       6.89999380       1.90458119
Ni      -2.22870766       6.70064265      17.95081608
Ni       5.17454160       2.87318168       2.12874405
Ni       5.25162976       2.55622264      17.97168391
Ni       2.63205753       7.04968309       1.99144449
Ni       2.83810445       6.77576162      17.95574183
Ni       2.70877677       2.72531799      11.97729914
Ni       2.86590579       2.37113680      27.89349451
Ni       0.29112492       6.85995869      11.85670853
Ni       0.44115031       6.63325497      27.90110510
Ni       7.65700011       2.64878962      12.06705567
Ni       7.89680342       2.42874068      27.97388900
Ni       5.39173531       6.86996352      12.03989179
Ni       5.56772775       6.60424037      27.87462726
Ni       3.92772197       0.47722999      12.02660181
Ni       4.04057990       0.33075876      27.98190830
Ni       1.49132124       4.83270693      12.00749768
Mg       1.59088227       4.53447006      27.90789108
Ni       8.89144663       0.50693023      12.12638650
Ni       9.12845638       0.33927986      27.99015792
Ni       6.54234013       4.78035395      12.09188311
Ni       6.62024135       4.44653548      27.96074361
Ni       1.44997393       3.48763998       3.93193016
Ni       1.59134385       3.25463729      19.91242949
Ni      -1.14642231       7.75569404       4.05440169
Ni      -1.02120024       7.32290323      19.93330375
Ni       6.41811597       3.42188101       4.08767208
Ni       6.53696253       3.15167070      19.95429657
Ni       4.04695825       7.68958864       4.10804036
Ni       4.03801098       7.43094173      19.93765633
Ni       1.36743738       0.42370975      11.90907221
Ni       1.46316298       0.26254579      28.03923311
Ni      -1.07201374       4.63728785      11.94464492
Ni      -0.90257057       4.37959402      27.99206015
Ni       6.35158838       0.51621141      12.01225971
Ni       6.42809260       0.36389353      27.93558898
Ni       3.96941880       4.76416829      11.93586174
Ni       4.21680380       4.48903579      27.94865954
Ni       0.01192956       1.27438056       4.03453864
Ni       0.28708337       1.16225495      19.88832396
Ni      -2.39573801       5.55948143       4.02132390
Ni      -2.24633859       5.31333999      19.93008502
Ni       5.11153964       1.38240028       4.08915506
Ni       5.21807737       1.22058850      20.01965579
Ni       2.72305094       5.59136351       4.07641497
Ni       2.80716571       5.34889491      19.98888589
Ni      -1.19692001       3.35207979       3.96071017
Ni      -1.07833292       3.25561146      19.84671092
Ni      -3.67171273       7.61208868       3.88784572
Ni      -3.42848988       7.44295610      19.92144578
Ni       3.85542626       3.46199036       4.08063849
Ni       3.98565056       3.17066071      19.98766304
Ni       1.47043276       7.53072244       4.09497080
Ni       1.53549822       7.51286313      19.99959323
Ni       2.47992972       0.10315020       0.03827453
Ni       2.66636986      -0.22724395      15.88578129
Ni       0.09864960       4.21504278       0.04454741
Ni       0.30504371       4.01469973      16.02039514
Ni       7.55985278       0.09296676       0.02807785
Mg       7.72910298      -0.21408593      15.97739648
Ni       5.06332048       4.30046271       0.01120319
Ni       5.31581045       4.00745727      15.93643172
Ni       1.40879717       2.19741344       0.10451523
Ni       1.38015418       1.83150263      15.98371673
Ni      -1.03597196       6.24664796      -0.00862426
Ni      -1.02401296       6.14644733      15.89564835
Ni       6.24099714       2.14045588       0.07085188
Mg       6.53280871       1.94819303      16.04456958
Ni       3.98636772       6.34352280       0.14098597
Ni       4.00232771       6.08740343      15.95206738
Ni      -1.08275333       2.05888959       7.88899532
Ni      -0.95578768       1.78958334      23.91666628
Ni      -3.49753151       6.17795077       7.96184289
Ni      -3.45740417       5.93910184      23.88779547
Ni       3.86538768       1.97419031       8.05482480
Ni       4.16176477       1.79468989      23.99716987
Ni       1.38297713       6.23847161       7.96228415
Ni       1.50994387       6.06860602      23.90370877
Ni       2.56588752      -0.08378459       8.03284986
Ni       2.59549870      -0.31386623      23.92055788
Ni       0.17029282       4.00147054       8.03904053
Ni       0.30748771       3.84932724      23.90811374
Ni       7.66072920      -0.07496593       7.95757200
Ni       7.76343022      -0.27891727      24.01788245
Ni       5.21629037       4.16976749       7.98854464
Mg       5.26714203       3.92195822      24.03309003
Mg      -1.26180074       2.08540556      -0.02375936
Ni      -1.13137297       1.86368755      15.93295141
Ni      -3.61480342       6.41379016      -0.02582685
Ni      -3.55374369       6.16651269      15.87429286
Ni       3.79616685       2.12333540       0.02140016
Mg       3.92019540       1.96952213      15.94995273
Ni       1.44844004       6.25198456       0.08307335
Ni       1.44348088       6.06763991      15.90849861
Ni       1.37611497       1.98074258       8.03956480
Ni       1.51276214       1.74144701      23.87123904
Ni      -1.08072291       6.15780919       7.91128005
Ni      -0.95566103       5.96233780      23.87279273
Ni       6.34780421       2.09936538       7.96507903
Ni       6.51388497       1.78539895      23.93113141
Ni       4.02481028       6.18016503       8.00354255
Ni       4.08313603       6.01841671      23.98058307
