190
Lattice="9.528478121963483 -0.01976784269649224 0.1808284286829718 -4.699626163630119 8.48752367197912 -0.007163679360979395 -0.6093114921383994 -0.5630695958119268 31.21577118944805" Properties=species:S:1:pos:R:3 pbc="T T T"
Mg      -0.23799749      -0.27185325      14.13103426
Mg      -0.63746978      -0.47014417      29.88186540
Mg      -2.64707935       3.99817506      14.14360354
Ni      -2.90425875       3.71820227      29.70510859
Mg       4.54498883      -0.24073951      14.17693302
Mg       4.22480315      -0.48968350      29.85798377
Mg       2.14073081       4.00817305      14.27243138
Mg       1.82799002       3.71375203      29.80128195
Mg      -0.18412787      -0.13436898       6.39454326
Mg      -0.44221913      -0.41324660      21.93182314
Mg      -2.49609634       4.15047321       6.40034179
Mg      -2.71633624       3.83685897      22.00381473
Mg       4.59166678      -0.10606267       6.40131603
Mg       4.27121544      -0.47261899      21.92879304
Mg       2.34597534       4.06667289       6.48274079
Mg       1.92779124       3.73703762      21.97155681
Mg      -0.14915369      -0.23876344       9.33412011
Mg      -0.50156167      -0.50769750      24.86784180
Ni      -2.53528047       4.08417488       9.26957531
Ni      -2.79690346       3.80746393      24.83144351
Mg       4.60356173      -0.17674377       9.37756398
Mg       4.33534659      -0.47340515      25.03738522
Mg       2.22596991       4.11225852       9.31399077
Mg       1.96202999       3.75266038      24.92589977
Ni       0.00054689       0.01325610       1.47284406
Mg      -0.37908815      -0.25336698      17.09988666
Mg      -2.39321646       4.21222855       1.44478691
Mg      -2.55753949       3.83659270      17.03440915
Mg       4.71812573      -0.05548493       1.63041132
Mg       4.46152592      -0.38711865      17.11931480
Mg       2.38529843       4.13084696       1.62568492
Mg       2.01828965       3.88746961      17.14029774
Mg       2.34361367       1.37488674       2.55685837
Mg       2.00133881       1.07889717      18.17715437
Mg      -0.00808106       5.56765260       2.45538896
Mg      -0.33802344       5.28085321      18.09975965
Mg       7.10895570       1.32359548       2.57001027
Mg       6.84301814       1.10814109      18.29639231
Mg       4.77353651       5.54701885       2.56149185
Mg       4.47654643       5.25114625      18.16774063
Ni      -0.18075568       2.65313814      10.29740756
Mg      -0.50660952       2.30313284      25.80389418
Mg      -2.53943155       6.83550637      10.23812691
Mg      -2.78692931       6.72036875      25.85795034
Mg       4.55668723       2.67130994      10.33102810
Mg       4.29479637       2.43234435      25.99730587
Mg       2.28432010       6.92484327      10.32524133
Mg       1.93871050       6.57489457      26.04393367
Mg       2.31196399       1.33815109       5.41621659
Mg       1.99064751       1.10884833      21.07588135
Mg      -0.00284011       5.55598714       5.40929592
Mg      -0.32822668       5.25392735      21.04277551
Mg       7.09489572       1.24963061       5.60595180
Mg       6.75224236       0.99711689      21.09422069
Mg       4.73535701       5.48699080       5.55749509
Ni       4.37268682       5.33553738      21.11245630
Mg      -0.18143563       2.69677071      13.10910692
Mg      -0.42598606       2.31981309      28.79513786
Mg      -2.60659864       6.83884730      13.23597469
Mg      -2.90812621       6.52793401      28.87445193
Mg       4.44308953       2.56488787      13.23439285
Mg       4.17287303       2.34234394      28.81663454
Ni       2.21322619       6.80481126      13.23389923
Mg       1.90677149       6.54145718      28.85911098
Ni       2.15074438       1.22445024      13.73283655
Ni       1.79198583       0.92786506      29.27737395
Ni      -0.52794063       5.14852746      29.37325482
Ni       6.91553273       1.25120022      13.80383615
Ni       6.52903185       0.94428065      29.43937649
Mg       4.63119487       5.37582387      13.75176224
Ni       4.26721283       5.06460553      29.43319174
Ni      -0.17850995       2.71549219       5.79133928
Ni      -0.40172515       2.41406086      21.53423809
Ni      -2.48389456       7.06729402       5.85300807
Ni      -2.77924806       6.66728529      21.46000483
Ni       4.67606996       2.73100741       5.94880606
Ni       4.25503667       2.46183606      21.54700910
Ni       2.31057035       6.97365754       5.94823266
Ni       2.10346947       6.68712904      21.55548162
Ni       2.17664146       1.27337167       9.88086222
Mg       1.81947169       1.01594484      25.50888727
Ni      -0.14435830       5.56571612       9.85459884
Ni      -0.50535454       5.27799916      25.38748990
Mg       6.97433202       1.24024939       9.86313980
Ni       6.69839936       0.97095312      25.50881104
Ni       4.60783288       5.45702217       9.86052075
Ni       4.26236111       5.23865766      25.59732459
Ni       0.07976450       2.85616206       1.98109724
Ni      -0.27965531       2.58181822      17.57761489
Ni      -2.45049731       6.95673529       2.00849787
Ni      -2.68444258       6.74575749      17.55444604
Ni       4.77990921       2.82869310       2.09412506
Ni       4.36435136       2.47842955      17.69320366
Ni       2.45496819       7.03569347       2.05825829
Ni       2.17659270       6.63430425      17.64543023
Ni       2.25039596       2.69137047      11.80480309
Ni       1.87479014       2.27293375      27.41647108
Ni      -0.23434543       6.94579529      11.76630555
Ni      -0.42911341       6.68669373      27.37929857
Ni       6.95122713       2.61669911      11.85775332
Ni       6.63189377       2.38309926      27.47461890
Ni       4.57511459       6.87218631      11.81308898
Ni       4.27127183       6.54068113      27.42825288
Ni       3.35603402       0.45915064      11.82057324
Ni       3.04582835       0.21808245      27.47489583
Ni       0.96812315       4.79461576      11.79153275
Ni       0.61054108       4.45882132      27.47589233
Ni       8.06211449       0.52619602      11.85627230
Ni       7.82844592       0.23466001      27.56840341
Ni       5.73590807       4.83295861      11.84227260
Ni       5.42552465       4.48719558      27.56764008
Mg       1.23673969       3.50290387       3.92951954
Ni       0.80522605       3.21744277      19.49149207
Ni      -1.17635740       7.63598227       4.04652159
Ni      -1.53973119       7.36152638      19.53652234
Ni       5.95307843       3.41748008       3.96830835
Ni       5.67469578       3.15716897      19.63417808
Ni       3.59861671       7.72555369       4.02287555
Ni       3.31641438       7.45273693      19.63776353
Ni       1.00205792       0.42221517      11.80374089
Ni       0.62994938       0.19073182      27.31993059
Ni      -1.43960428       4.81159297      11.72455642
Ni      -1.81342761       4.43691183      27.31716065
Ni       5.74014106       0.59712986      11.85252129
Ni       5.44603944       0.13318052      27.41009713
Ni       3.34360847       4.65340524      11.77724595
Mg       3.06290234       4.47303635      27.47740434
Ni      -0.05562185       1.36528102       3.81645530
Ni      -0.34624500       1.05853641      19.41540363
Ni      -2.48864073       5.49906443       3.91691154
Ni      -2.74435351       5.30176758      19.53655250
Ni       4.71673782       1.25565913       4.00015426
Ni       4.36255374       1.04936778      19.64028628
Ni       2.30643053       5.60788733       3.98298211
Ni       2.00662982       5.31451608      19.63547099
Ni      -1.12676600       3.48606119       3.83843427
Mg      -1.54379412       3.14048909      19.54061056
Ni      -3.54912586       7.65165922       3.96153168
Ni      -3.89461684       7.44146883      19.59032571
Ni       3.45649495       3.42293685       4.00482719
Ni       3.26413243       3.12815943      19.58870402
Ni       1.17171205       7.72481379       3.99522981
Ni       0.88732589       7.38477201      19.67879028
Ni       2.34777798       0.02317111       0.09322496
Ni       2.06354789      -0.34640376      15.66791500
Ni       0.11805854       4.32627153      -0.01635937
Ni      -0.36724874       3.96796749      15.72552619
Ni       7.10983743      -0.06964965       0.15548507
Ni       6.79077340      -0.36987457      15.70260160
Ni       4.80722762       4.19104340       0.18946543
Ni       4.49964933       4.00031441      15.77482495
Ni       1.16600891       2.13283041       0.13233326
Ni       0.94372832       1.85528232      15.66037039
Ni      -1.17530461       6.28504309       0.02762213
Ni      -1.43657615       6.04430919      15.69000568
Ni       5.91873844       2.04708723       0.13451644
Ni       5.66089912       1.83645938      15.76435283
Ni       3.59519358       6.33326913       0.13936229
Ni       3.25757703       6.13126038      15.69750702
Ni      -1.28906337       2.01107514       7.82338068
Ni      -1.64325945       1.60837217      23.35928485
Ni      -3.70660572       6.20095593       7.74546024
Ni      -3.98447043       6.07670908      23.40349763
Ni       3.42693145       1.93381278       7.94871443
Ni       3.18700312       1.77641945      23.57835185
Ni       1.13229197       6.24772982       7.89727417
Ni       0.73639388       5.92705988      23.50964453
Ni       2.15859876      -0.11472008       7.79675296
Ni       1.96530505      -0.41263907      23.50756031
Ni      -0.11263514       4.13127857       7.93760159
Ni      -0.38776168       3.80779304      23.49582712
Ni       7.06628704      -0.12685920       7.99595758
Ni       6.68595430      -0.41462588      23.61610425
Ni       4.61273614       4.06294698       7.91518050
Ni       4.29969985       3.75829837      23.62915793
Ni      -1.22372088       2.15704994       0.02422661
Ni      -1.49969215       1.80957520      15.49954724
Ni      -3.53026798       6.42167791       0.06995406
Mg      -3.84483013       6.16515004      15.63996960
Ni       3.55090463       2.10726138       0.02906696
Ni       3.29294157       1.82977143      15.61818241
Ni       1.20314946       6.40128803       0.06248278
Ni       0.98731168       6.07514407      15.69191124
Ni       1.05443021       1.96356505       7.82914597
Ni      -1.32043798       6.20222600       7.82190565
Ni      -1.55343232       5.94985443      23.47157284
Ni       5.89709677       1.94691273       7.85584042
Ni       5.60928832       1.72210171      23.63512524
Ni       3.45376419       6.15208938       7.92407126
Ni       3.17247027       5.83545049      23.49574733
