191
Lattice="9.735919755131254 0.05568453982225548 0.02067058959262594 -4.869634987906661 8.420487141680633 0.1884016124448071 1.8675038799016288 -0.3641254451431671 32.829079494327345" Properties=species:S:1:pos:R:3 pbc="T T T"
Mg       0.91051743      -0.17240540      14.81871329
Mg       1.79302616      -0.29429209      31.30484263
Mg      -1.56800924       4.13019109      14.94861768
Mg      -0.68571707       3.82384458      31.35656738
Mg       5.67656828      -0.16538027      14.89468607
Mg       6.76437440      -0.36605400      31.28895926
Ni       3.22809103       4.08269922      15.07574816
Mg       4.14576039       3.86817238      31.46092819
Mg       0.33915352      -0.14172708       6.71515510
Mg       1.30589530      -0.23506205      23.15899849
Mg      -2.07602420       4.10482705       6.76568248
Mg      -1.13086732       3.86519575      23.11388871
Mg       5.20149650      -0.08188276       6.72157771
Mg       6.28616774      -0.16169925      23.09651906
Mg       2.74520502       4.10672916       6.78242884
Mg       3.70524022       4.04229031      23.15520768
Mg       0.55245621      -0.07053669       9.67560871
Mg       1.51018590      -0.24229250      26.12394222
Ni      -1.83884923       4.02407481       9.77500436
Ni      -0.94619456       3.87960622      26.23966104
Mg       5.40754393      -0.11828340       9.68617321
Mg       6.28326793      -0.26825504      26.21872968
Mg       3.11866056       4.12099422       9.85205536
Mg       3.90752224       3.96101008      26.30244494
Mg       0.04452623      -0.04550676       1.53020104
Mg       1.01906358      -0.17570090      17.95545328
Mg      -2.33629609       4.26446708       1.59619566
Mg      -1.32324550       4.10808185      18.12926379
Mg       4.99508845       0.02686589       1.52626938
Mg       5.81489516      -0.20964607      17.92664319
Mg       2.45764947       4.18698584       1.69588191
Ni       3.41962336       4.08755886      18.02944612
Mg       2.60661307       1.39876079       2.66232648
Mg       3.47777552       1.21114444      19.03322149
Mg       0.18811998       5.59780568       2.73048027
Mg       1.12425859       5.47817948      19.07444109
Mg       7.40658874       1.41889990       2.67726442
Mg       8.42323385       1.32673026      19.05036091
Mg       4.94695576       5.60485080       2.75306133
Mg       5.91236765       5.43395738      19.10084871
Mg       0.56248904       2.66964490      10.80770719
Mg       1.52620932       2.53207767      27.16892405
Mg      -1.79647604       6.87291766      10.91345580
Mg      -0.89421677       6.65496965      27.27154569
Mg       5.47964214       2.74561677      10.87130338
Mg       6.44113437       2.55705816      27.14998510
Mg       2.97301761       6.92067836      10.96769041
Mg       3.95923620       6.79866324      27.36161335
Mg       2.71534018       1.39440902       5.80029077
Mg       3.57507727       1.18443601      22.11093168
Mg       0.34805654       5.50864869       5.80680257
Mg       1.27708942       5.49736151      22.23759934
Mg       7.59908665       1.46236229       5.70077205
Ni       8.55498890       1.18824207      22.08173819
Mg       5.08742226       5.57792661       5.76805079
Mg       0.88179284       2.67582632      13.95292499
Mg       1.70157646       2.53198896      30.41291574
Ni      -1.67582281       6.81570279      14.04393398
Mg      -0.59835844       6.72340400      30.36234792
Mg       5.63349303       2.67522869      13.96341950
Mg       6.54865844       2.47274266      30.32512947
Mg       3.20683122       6.90121594      14.01555624
Mg       4.12601414       6.68934313      30.45233808
Ni       3.26703404       1.27661006      14.36181935
Ni       4.17903193       1.09752625      30.80508026
Ni       0.78785038       5.45499332      14.55395473
Ni       1.77278803       5.37292687      30.92483039
Ni       8.08023357       1.25350385      14.45153179
Ni       8.95205599       1.12024188      30.81302599
Ni       5.60281670       5.58770206      14.50923866
Ni       6.62909028       5.28936660      31.02957601
Ni       0.42172449       2.75749721       6.30688488
Ni       1.28691395       2.60049403      22.69575208
Ni      -2.04775584       6.92240902       6.36057076
Ni      -1.24071920       6.81379777      22.72532452
Ni       5.31420685       2.80980148       6.33052751
Ni       6.15434820       2.64435504      22.60455657
Ni       2.78332634       6.95675442       6.46602997
Ni       3.77546518       6.69784883      22.78255317
Ni       3.06754335       1.42863304      10.28735209
Ni       3.96318339       1.19332765      26.67490371
Ni       0.52999865       5.42692201      10.41315291
Ni       1.54621143       5.24213239      26.81579519
Ni       7.88709588       1.35518801      10.24354904
Ni       8.81611283       1.21420839      26.64069151
Ni       5.50578889       5.48598620      10.39842560
Ni       6.39768261       5.37614701      26.82094361
Ni       0.05143244       2.82098700       2.09750451
Ni       0.98036074       2.52011147      18.44600210
Ni      -2.28468336       6.93978656       2.20695635
Ni      -1.36295001       6.82696407      18.63216211
Ni       5.03799457       2.85014770       2.06023555
Ni       5.83529071       2.73373686      18.57697391
Ni       2.42406964       6.99205620       2.19210486
Mg       3.52217332       6.89390566      18.61000207
Ni       3.14523403       2.72524544      12.34646365
Ni       4.15537418       2.53531574      28.81685435
Ni       0.78324537       6.90542362      12.49625547
Ni       1.66054515       6.72652784      28.81239954
Ni       7.96632221       2.79633952      12.35705787
Ni       8.94707568       2.49668723      28.85978954
Ni       5.58977701       6.95597285      12.54189520
Ni       6.44752755       6.68140867      28.94446953
Ni       4.40868976       0.55898064      12.31736475
Ni       5.23491974       0.31190286      28.71947845
Ni       1.89759586       4.78126909      12.45950967
Ni       2.88814416       4.59699636      28.78570328
Ni       9.28914321       0.55470719      12.35980302
Ni      10.30595912       0.54887637      28.83626729
Ni       6.73190290       4.76130763      12.35276835
Ni       7.78107977       4.67399959      28.81324362
Ni       1.42193991       3.50579095       4.14680445
Ni       2.41807087       3.36924212      20.65145215
Ni      -1.02036146       7.54102963       4.28534297
Ni       0.00274982       7.47968866      20.69883227
Ni       6.29096402       3.40161737       4.19673268
Ni       7.24499230       3.26194787      20.58188717
Ni       3.92384589       7.77616804       4.30128516
Ni       4.80223851       7.53878171      20.73373349
Ni       1.92356897       0.59975905      12.25710237
Ni       2.72729437       0.33111062      28.74239210
Ni      -0.52787697       4.78280836      12.44355261
Ni       0.41009904       4.61002137      28.89919466
Ni       6.78637442       0.60453292      12.37828878
Ni       7.67233827       0.46616235      28.83303675
Mg       4.39103926       4.83627677      12.41950848
Ni       5.30643967       4.68420043      28.90888044
Ni       0.10741645       1.39951047       4.10770247
Mg       1.09036329       1.18337187      20.64759401
Ni      -2.11262174       5.59051196       4.22017292
Ni      -1.23542082       5.31946747      20.59963771
Ni       5.17712133       1.36402193       4.13943567
Ni       6.02234634       1.27665140      20.52384935
Ni       2.69056640       5.61814110       4.27041962
Ni       3.63364241       5.36534097      20.72435766
Ni      -0.95979042       3.46412234       4.24643391
Mg       0.02652718       3.23965975      20.50792777
Ni      -3.35951403       7.79171881       4.29938343
Ni      -2.41107336       7.57375732      20.70862641
Ni       3.88741831       3.51367621       4.13603474
Ni       4.83702942       3.29977296      20.63211410
Ni       1.43680205       7.72938282       4.23288703
Ni       2.34492809       7.53247758      20.71436060
Ni       2.45336531       0.03687934      -0.01407526
Ni       3.34149700      -0.30639805      16.45741272
Ni      -0.04894646       4.17221903       0.00279184
Ni       0.87184259       4.01846606      16.55959524
Ni       7.24507877      -0.03646166      -0.09819987
Ni       8.24488258      -0.22815549      16.37326216
Ni       4.90495615       4.30222844       0.07181836
Ni       5.76802314       4.03826050      16.48912459
Ni       1.17920374       2.17090066      -0.01901581
Mg       2.16713195       1.98707469      16.42566984
Ni      -1.27948712       6.28749469       0.18280221
Ni      -0.20965923       6.18152811      16.58438127
Ni       6.08720375       2.12192226       0.04917757
Ni       7.02185420       2.00168632      16.50359084
Ni       3.56765068       6.34403931       0.22573518
Ni       4.63686393       6.22915538      16.51003973
Ni      -0.65561881       2.02351814       8.25009444
Ni       0.16550857       1.87197130      24.71634457
Ni      -3.07179003       6.25897687       8.36612878
Ni      -2.22368945       6.04479623      24.73383780
Ni       4.12254114       2.04338454       8.32398443
Ni       5.06543044       1.92395318      24.62069683
Ni       1.57127778       6.24939113       8.27234196
Ni       2.61808556       6.03328939      24.81583286
Ni       2.90155309      -0.08511046       8.19577078
Ni       3.78555347      -0.32612621      24.66677361
Ni       0.42102321       4.14939603       8.19729247
Ni       1.34631202       3.94488913      24.74587325
Ni       7.78241824       0.00303569       8.17232110
Ni       8.68611950      -0.26220373      24.61680119
Ni       5.32143542       4.14406362       8.33274044
Mg       6.25296243       3.86549851      24.75054008
Ni      -1.29451421       2.08109301       0.06226370
Ni      -0.34749163       1.94433241      16.51723106
Ni      -3.66235268       6.36348827       0.14125630
Ni      -2.77241394       6.16159709      16.48275259
Ni       3.59984049       2.14370191      -0.05173543
Ni       4.52197829       1.90276316      16.48157108
Ni       1.23712041       6.36997379       0.10367366
Ni       2.18222432       6.16098488      16.54923408
Ni       1.69035588       2.00329056       8.19772109
Ni       2.72291061       1.88702406      24.62951231
Ni      -0.77147362       6.28259161       8.42175557
Ni       0.15944848       6.01541129      24.81537760
Ni       6.55742116       2.03746239       8.29954111
Ni       7.61152556       1.87851781      24.65489384
Ni       4.09258857       6.30904450       8.42250145
Ni       5.10035257       6.07558822      24.74631808
