189
Lattice="9.666964396284243 -0.25485187848431085 0.24978266020745982 -4.868792749832576 8.451092921881095 0.1847702596623899 -0.5608534103333503 0.4116439448174403 33.552995363743285" Properties=species:S:1:pos:R:3 pbc="T T T"
Mg      -0.30277265       0.14772059      15.27336912
Mg      -0.48834556       0.50924723      31.97173150
Mg      -2.65109920       4.41017746      15.32007586
Mg      -3.02620149       4.65704157      32.03141233
Mg       4.52151377       0.06902446      15.26670513
Mg       4.33561681       0.32877734      32.14933869
Mg       2.13120903       4.31798175      15.37812160
Mg       1.87277100       4.50878052      32.17318663
Mg      -0.16770316       0.18176540       6.79812045
Mg      -0.40930564       0.34446743      23.62822309
Mg      -2.55624054       4.31759819       6.90564031
Ni      -2.79489677       4.47559170      23.66957923
Mg       4.76427005      -0.07039200       6.92990623
Mg       4.49363548       0.11456704      23.73540130
Mg       2.25408029       4.18279461       6.91944774
Mg       1.96950054       4.39436142      23.75907377
Mg      -0.21202181       0.16448878      10.00441992
Ni      -0.44512824       0.28359317      26.75982590
Mg      -2.65990840       4.30400422      10.06596322
Mg      -2.88951112       4.56082108      26.84311379
Mg       4.65673622       0.01387705      10.00830857
Mg       4.40991784       0.17033051      26.91164269
Mg       2.19875951       4.23878605      10.22847731
Mg       1.94855268       4.45446203      26.90959675
Ni      -0.04499926      -0.00302255       1.58011192
Mg      -0.33034451       0.21140225      18.29312484
Ni      -2.44783552       4.23678088       1.68616869
Mg      -2.76356885       4.42794279      18.44192114
Mg       4.88330305      -0.14216720       1.62807931
Mg       4.51928954       0.12852569      18.53993028
Mg       2.30180859       4.06035722       1.82995941
Mg       2.09599925       4.37798531      18.61932892
Mg       2.37142719       1.40027937       2.74360686
Mg       2.08824496       1.52046665      19.53695401
Mg      -0.04041448       5.59911500       2.75639640
Mg      -0.36066247       5.71708064      19.55635908
Mg       7.15860831       1.17622672       2.94657247
Mg       6.91248989       1.46006305      19.65538948
Mg       4.75135984       5.48144115       2.86328393
Mg       4.51318694       5.65393790      19.75627526
Mg      -0.18337925       2.92798267      11.20246470
Mg      -0.47165333       3.18248034      27.91079070
Ni      -2.56183993       7.17239867      11.21701937
Mg      -2.82461938       7.27395966      27.92361105
Mg       4.56800366       2.80222604      11.19483243
Mg       4.34744206       2.94143617      27.96142533
Mg       2.23259905       7.02190393      11.37292845
Mg       1.94654124       7.21957124      28.19702235
Mg       2.35540799       1.39690081       5.93455411
Ni       2.09683359       1.58333471      22.65498261
Mg      -0.09929085       5.70581000       5.95371702
Mg      -0.33952429       5.89480676      22.78878488
Mg       7.17384457       1.23269882       5.98044829
Mg       6.93834664       1.48035089      22.78697149
Mg       4.79693142       5.53564900       6.25600317
Mg       4.42942817       5.66759607      22.95401019
Mg      -0.26895600       2.97741880      14.27711165
Ni      -0.56311658       3.22330364      31.09552681
Mg      -2.72803469       7.23957967      14.40334143
Mg      -3.04679713       7.42111523      31.12086935
Mg       4.59637468       2.83196966      14.38314320
Mg       4.24485081       3.08513581      31.23323813
Mg       2.14794317       7.01200233      14.35955877
Mg       1.82159324       7.24661954      31.18669146
Ni       2.13395711       1.54061680      14.79969956
Ni       1.95008801       1.72273479      31.61395653
Ni      -0.26300479       5.67216313      14.84329643
Ni      -0.47899308       5.91964537      31.63855029
Ni       6.94715282       1.35543815      14.98440283
Ni       6.77438425       1.62615366      31.75420696
Ni       4.62882764       5.62563459      14.97866709
Ni       4.31132025       5.78760752      31.82314909
Ni      -0.13310095       2.85851411       6.44183456
Ni      -0.37936764       2.97434252      23.20686530
Ni      -2.57673721       7.04262184       6.59723607
Ni      -2.81074403       7.28868070      23.29086040
Ni       4.74081833       2.64449478       6.47901436
Ni       4.34340373       2.93224338      23.25506785
Ni       2.30035970       6.97078938       6.63560636
Ni       2.01110037       7.13923142      23.37597196
Ni       2.17834675       1.40968401      10.63552763
Ni       1.94730263       1.66787065      27.37413997
Ni      -0.17403022       5.67082671      10.75867812
Mg      -0.49702234       5.88067803      27.46103840
Ni       6.93349654       1.32515558      10.81830468
Ni       6.82247405       1.49917160      27.47528611
Ni       4.64124577       5.55461188      10.77536545
Ni       4.30522060       5.79140117      27.62545055
Ni      -0.07610861       2.80174169       2.18583181
Ni      -0.36784170       2.94808274      19.05539162
Ni      -2.46431139       6.94028672       2.29831260
Ni       4.81546826       2.70954476       2.22964933
Ni       4.61458895       2.91128154      19.16880370
Ni       2.41075178       6.89297959       2.41069922
Ni       2.11931393       7.06606851      19.22576902
Ni       2.12645208       2.84057614      12.74923497
Ni       1.85231434       2.96874663      29.60047827
Ni      -0.21616085       7.08080436      12.90472043
Ni      -0.50339749       7.33881874      29.61933520
Ni       7.11335189       2.76627613      12.90792760
Ni       6.81717023       3.00224832      29.68909667
Ni       4.55369629       6.99931986      12.98585141
Ni       4.30622846       7.15831208      29.72227658
Mg       3.37774009       0.73085342      12.68155229
Ni       3.10599237       1.02088842      29.46632246
Ni       0.98335714       4.93935858      12.76537755
Ni       0.65666407       5.14183304      29.44538156
Ni       8.29517249       0.64191613      12.79470443
Ni       7.90651177       0.83779488      29.60312909
Ni       5.75124978       4.84618849      12.93769518
Ni       5.53664203       5.10657897      29.70650099
Ni       1.08377647       3.49532733       4.35840470
Ni       0.88467079       3.70875159      21.10264483
Mg      -1.20808858       7.67701807       4.46691704
Ni      -1.64569403       7.86517651      21.17694755
Ni       5.91803989       3.33116707       4.43897098
Ni       5.67059178       3.59644980      21.33154735
Ni       3.55876642       7.55942356       4.60760225
Ni       3.24702490       7.78981596      21.47385138
Ni       1.02118054       0.69666794      12.57719570
Mg       0.69287481       1.06635341      29.36319724
Ni      -1.40916070       5.05780415      12.73655999
Ni      -1.70226073       5.17358254      29.47123268
Ni       5.83099613       0.68476197      12.82245680
Mg       5.48603570       0.86633113      29.63531712
Ni       3.38859260       4.86161747      12.89031249
Ni       3.13719918       5.18378390      29.65820649
Ni      -0.12017039       1.38079422       4.24068480
Ni      -0.39313380       1.65139513      21.02354540
Ni      -2.49782331       5.66613036       4.25500867
Ni      -2.83503695       5.81166125      21.14920393
Ni       4.83018792       1.24827960       4.42634390
Ni       4.35270342       1.53353551      21.20740078
Ni       2.36308473       5.50314747       4.48441824
Ni       2.17323822       5.79774282      21.22944962
Ni      -1.24202749       3.51928595       4.24973308
Ni      -1.53233049       3.71563769      21.04340908
Ni      -3.68162818       7.70383134       4.37351737
Ni      -4.05472492       7.93304052      21.12510074
Ni       3.54165571       3.49793153       4.44988728
Ni       3.21925362       3.71487072      21.14205160
Ni       1.13323306       7.70071249       4.51312318
Ni       0.79831958       7.78172499      21.26404029
Ni       2.42517453      -0.07325278       0.05713776
Ni       2.19517183       0.13326621      16.82500699
Ni       0.00359671       4.17577547       0.19031998
Ni      -0.34619262       4.36360140      16.94746163
Ni       7.25272298      -0.16368918       0.15059909
Ni       7.07408049       0.07264050      16.98694293
Ni       4.75090628       4.05215464       0.22801129
Ni       4.57205545       4.24455252      17.05952326
Ni       1.17990216       2.04276069       0.14997641
Ni       0.90685285       2.15071550      16.89451695
Ni      -1.21271741       6.30903128       0.18956449
Mg      -1.55051674       6.54633996      16.87748651
Ni       5.97748676       1.88842208       0.19871809
Ni       5.78381315       2.15818919      17.01230425
Ni       3.71876199       6.16237306       0.36411579
Ni       3.34123658       6.39629480      17.18520180
Ni      -1.41888017       2.23880092       8.45337668
Ni      -1.71002148       2.35354560      25.16013414
Ni      -3.74984380       6.53362789       8.48854923
Ni      -4.08727086       6.65009036      25.28600967
Ni       3.40859235       2.10442170       8.51578793
Ni       3.07780055       2.41035153      25.36692633
Ni       1.05270996       6.34848097       8.63092640
Ni       0.74700946       6.46931564      25.47770014
Ni       2.24749034      -0.06534962       8.45285879
Ni       1.97451851       0.27079410      25.24077840
Ni      -0.13126954       4.23854656       8.55038124
Ni      -0.41617329       4.47535044      25.32700687
Ni       7.14752954      -0.06166399       8.58070585
Ni       6.87198472       0.14384289      25.32253181
Ni       4.71468432       4.10507913       8.66580031
Ni       4.42289482       4.33227724      25.45594368
Mg      -1.16205177       2.07736101       0.11965879
Ni      -1.51736104       2.30889801      16.76781929
Ni      -3.68589030       6.29185605       0.06208320
Ni      -3.99019335       6.53054881      16.88975432
Ni       3.65078654       1.95156592       0.27454747
Ni       3.32868608       2.18830259      16.94695864
Ni       1.13399451       6.24851984       0.29178027
Ni       0.96872090       6.45733023      17.04796813
Ni       1.10190631       2.18394006       8.53007272
Ni      -1.34613035       6.35408610       8.58422031
Ni      -1.57443637       6.58101017      25.33086856
Ni       5.90781190       2.00663791       8.64526886
Ni       3.52717089       6.25230171       8.71079915
Ni       3.15981961       6.46531753      25.52504770
