192
Lattice="9.781360707848542 -0.06238336591492226 -0.007060654235038961 -4.750771554821637 8.471093365453715 -0.0003337252178176441 0.017058201728059372 0.8864697122685474 31.09699474391965" Properties=species:S:1:pos:R:3 pbc="T T T"
Mg      -0.04035673       0.41958497      14.01436636
Mg       0.08834946       0.76552106      29.53654881
Mg      -2.37279820       4.58163907      14.17337087
Mg      -2.39582467       5.15569569      29.52460827
Mg       4.89381839       0.33703766      14.02806594
Mg       4.94615107       0.84987088      29.66826846
Mg       2.56635823       4.68635779      14.08232504
Mg       2.53306334       5.09263437      29.59712179
Mg       0.00213060       0.25043659       6.30978958
Mg      -0.02905523       0.64375586      21.88199828
Mg      -2.25371204       4.44516427       6.35496025
Mg      -2.34289797       4.75249230      21.81496158
Mg       4.87134405       0.21488859       6.27621674
Mg       4.85253225       0.58996011      21.83536234
Mg       2.48490940       4.36882995       6.32788264
Mg       2.55811108       4.79739396      21.86722235
Mg      -0.04142328       0.28611892       9.21507142
Mg       0.03021769       0.71676713      24.80311265
Mg      -2.34148186       4.52907993       9.25913246
Mg      -2.26633221       4.96581601      24.80168635
Mg       4.86777081       0.21832429       9.28649761
Mg       4.94577895       0.70428090      24.81119938
Mg       2.48383229       4.47315398       9.25262220
Mg       2.49166030       4.94747196      24.69203324
Mg       0.02657718       0.07155647       1.44661317
Mg       0.04920930       0.49104272      16.94863650
Mg      -2.35607526       4.32897707       1.46879639
Ni      -2.35757147       4.69830667      17.00684191
Mg       4.83644059      -0.00895293       1.40551272
Mg       4.85540532       0.59556683      17.05558537
Mg       2.43880019       4.29256454       1.41462800
Mg       2.53723914       4.73561872      17.02878336
Mg       2.43629130       1.53921344       2.36186937
Mg       2.50700600       1.89251167      17.95535832
Mg       0.09034448       5.74580838       2.45048605
Mg       0.05791808       6.12609349      17.93951340
Mg       7.34702238       1.38893140       2.51215325
Mg       7.41736791       1.95158855      17.97115230
Mg       4.93688541       5.69344345       2.37282860
Mg       5.02686970       6.24692201      17.94774198
Mg      -0.03914747       3.21194335      10.22661367
Ni       0.10550955       3.55276507      25.66725095
Mg      -2.34614818       7.21647217      10.20640524
Mg      -2.42139313       7.83873138      25.73839697
Mg       4.97824574       3.05646275      10.12616654
Ni       4.97717612       3.51050771      25.68558056
Mg       2.56824359       7.31271101      10.16015508
Mg       2.59307799       7.83504849      25.86343116
Mg       2.42276668       1.64314948       5.32062270
Mg       2.43447454       1.90454959      20.91508743
Mg       0.24036554       5.79911460       5.35664712
Mg       0.13333487       6.26307633      20.80644183
Mg       7.32798292       1.52009533       5.29383244
Mg       7.36104400       1.86538467      20.92261712
Mg       4.97935715       5.81075564       5.31967516
Mg       5.05309129       6.18056343      20.95915608
Mg      -0.00446457       3.18434026      13.16056444
Ni       0.07352462       3.64664318      28.70433214
Mg      -2.26239015       7.36238207      13.19917281
Mg      -2.31580214       7.89690699      28.69406319
Mg       5.03340728       3.21427193      13.05838600
Mg       4.93326500       3.58452615      28.58823560
Mg       2.64546815       7.34384024      13.08392877
Mg       2.59751718       7.72794248      28.61823428
Ni       2.45231533       1.73325210      13.53731014
Ni       2.50210092       2.31916813      29.19578278
Ni       0.08451114       5.96096695      13.58514937
Ni       0.11641130       6.51343126      29.21956168
Ni       7.33874498       1.68256635      13.52501422
Mg       7.33817866       2.20342139      29.13879741
Ni       4.91820574       6.04722320      13.58663666
Ni       4.96202047       6.47873415      29.20321101
Ni       0.13789705       2.96373962       5.84364845
Ni       0.07757651       3.46479946      21.42301981
Ni      -2.39147660       7.21001090       5.82045381
Ni      -2.30629588       7.65146086      21.42710989
Ni       4.88368847       2.90006542       5.85810115
Ni       4.96088863       3.43584742      21.40207609
Ni       2.57737195       7.27229491       5.76487242
Ni       2.57833734       7.63298732      21.45393647
Ni       2.50470344       1.60841272       9.70567144
Ni       2.48678554       2.19371759      25.28186880
Ni       0.09208282       5.93673962       9.76244295
Ni       0.05670166       6.31139171      25.24457727
Ni       7.43579210       1.63256261       9.69224270
Ni       7.39905397       2.04133423      25.25611539
Ni       5.05515768       5.84165798       9.68096776
Ni       4.99438423       6.29787820      25.29753608
Ni       0.08403466       2.88866848       1.92709065
Ni       0.08471888       3.29811620      17.52571946
Ni      -2.37283173       7.14514620       1.88507069
Ni      -2.25324746       7.60413417      17.51420809
Ni       4.90206631       2.91131290       1.92551733
Ni       4.99963846       3.35694818      17.57011572
Ni       2.60067251       7.07433720       1.99183299
Ni       2.53346268       7.50101586      17.48724142
Ni       2.51243857       3.09194445      11.60984106
Ni       2.49182487       3.53113100      27.17180115
Ni       0.05939778       7.26346589      11.72270078
Ni       0.13360155       7.72569737      27.14399049
Ni       7.33379151       3.05904967      11.64866829
Ni       7.36864356       3.53513199      27.23063486
Ni       5.03862571       7.37817800      11.60818711
Ni       5.01009732       7.67909887      27.17241821
Ni       3.60746615       1.05697236      11.64099024
Ni       3.68107609       1.38767917      27.18039816
Ni       1.27684204       5.19389722      11.72320011
Ni       1.37042374       5.64152607      27.25949436
Ni       8.61487642       0.90457636      11.69998797
Ni       8.49175477       1.40140575      27.17749332
Ni       6.25766692       5.28902052      11.64657303
Ni       6.19571435       5.55051384      27.18784036
Ni       1.18769634       3.63804342       3.89850645
Ni       1.21583682       4.04763207      19.49026825
Ni      -1.04530284       7.84108929       3.83734296
Ni      -0.98539404       8.33931689      19.40097690
Ni       6.14496475       3.61497319       3.86536469
Ni       6.16066662       3.97250510      19.40928076
Ni       3.76280075       7.87271364       3.92035251
Ni       3.70228154       8.23393567      19.41703090
Ni       1.26855622       1.03131320      11.63893191
Ni       1.23060517       1.49760346      27.17393697
Ni      -1.15059643       5.22175168      11.58066649
Ni      -1.10115710       5.67474423      27.22939376
Mg       6.09662676       0.91661845      11.59694920
Ni       6.06435986       1.50594904      27.21026066
Ni       3.66474084       5.23543967      11.58501695
Ni       3.73339040       5.67947318      27.22764305
Ni       0.09274729       1.53435169       3.88155758
Ni       0.01148174       2.00353390      19.46968530
Ni      -2.29827454       5.81295556       3.92924932
Ni      -2.28865916       6.16839479      19.45577344
Ni       4.88299485       1.56029455       3.93137327
Ni       4.91004056       1.96779743      19.36686596
Mg       2.56115747       5.67288427       3.88413627
Ni       2.62077751       6.11036092      19.43558755
Ni      -1.14204868       3.66388888       3.87460597
Mg      -1.10254214       4.05024627      19.35203917
Ni      -3.58649604       7.82683628       3.89215089
Ni      -3.51937265       8.33202652      19.45159069
Ni       3.84085306       3.62240225       3.80671080
Ni       3.77835749       4.04045785      19.43821910
Ni       1.32472222       7.91062097       3.86903433
Ni       1.42925213       8.45623122      19.46144588
Ni       2.53358167      -0.03046298      -0.01684986
Ni       2.43930521       0.35860855      15.53176030
Ni       0.02136474       4.12691733       0.07115062
Ni       0.09886114       4.69416345      15.57359803
Ni       7.37041308       0.04326764       0.02396035
Ni       7.29300416       0.38288174      15.63566476
Ni       4.89469967       4.20231298       0.03212516
Ni       4.97206944       4.66957601      15.51131133
Ni       1.34504765       2.13645937      -0.04064342
Ni       1.24921055       2.55801904      15.57739973
Ni      -1.09232955       6.35638599      -0.01405795
Ni      -1.13294695       6.78872455      15.52422503
Ni       6.20791991       2.03816456      -0.00619714
Ni       6.20600296       2.52529907      15.57511432
Ni       3.75234040       6.38636112       0.04413297
Ni       3.73343568       6.71525705      15.52500012
Ni      -1.18617341       2.28107385       7.88467535
Ni      -1.21417401       2.82370194      23.35163924
Ni      -3.58415350       6.54765380       7.75564312
Ni      -3.56206457       6.99404413      23.32225843
Ni       3.69261875       2.29106992       7.78413968
Ni       3.69833667       2.70855630      23.36139979
Ni       1.26483673       6.54305817       7.84238768
Ni       1.25763328       6.99930319      23.22679638
Ni       2.46869010       0.17856446       7.83372478
Ni       2.41307637       0.55864255      23.34077866
Ni       0.08118144       4.41996771       7.71717048
Ni       0.07632783       4.88653629      23.28728554
Ni       7.33847023       0.09172735       7.72675481
Ni       7.38595411       0.63085362      23.27323921
Ni       5.00627439       4.44888670       7.85305524
Ni       5.05483090       4.80068354      23.35499453
Ni      -1.25262176       2.17471550       0.05213987
Ni      -1.18353292       2.54792803      15.53052552
Ni      -3.59616528       6.23889153       0.02675326
Ni      -3.54896932       6.80999591      15.66606509
Ni       3.72871240       2.04594764       0.07677312
Ni       3.83497713       2.58564934      15.53416120
Ni       1.31151897       6.34883719       0.08462310
Ni       1.32606507       6.76297852      15.52964534
Ni       1.30552770       2.34005598       7.80982986
Ni       1.37332706       2.86784686      23.28453424
Ni      -1.12214218       6.62281374       7.81892627
Ni      -1.00042526       7.06295471      23.32952422
Ni       6.14665995       2.35718022       7.77433285
Ni       6.10072677       2.69063527      23.32400435
Ni       3.90054630       6.52683126       7.77122720
Ni       3.73887192       6.95059503      23.35066140
