192
Lattice="10.048269916293592 0.3330324407863121 0.2543114676400672 -5.100602492702569 8.19649000831175 -0.2726639538615465 0.23539997031107257 -0.15690799185154056 31.72487980948036" Properties=species:S:1:pos:R:3 pbc="T T T"
Mg       0.11421279      -0.07048224      14.46947726
Mg       0.24642776      -0.14149801      30.14479638
Mg      -2.54302784       3.98160626      14.25085242
Mg      -2.32653649       4.00059407      30.13063394
Mg       5.13498632       0.10623255      14.55818248
Mg       5.34028163      -0.05514136      30.33547325
Mg       2.60518310       4.22921794      14.37213195
Mg       2.69285094       4.08366999      30.31390251
Mg       0.07483543      -0.04466319       6.41603433
Mg       0.14538268      -0.11080548      22.23625255
Mg      -2.60864069       4.08070828       6.32725267
Mg      -2.34883687       3.90975401      22.21491996
Mg       5.03203257       0.22070089       6.53061243
Mg       5.26873570       0.01311282      22.49294574
Mg       2.58636115       4.27586358       6.44234666
Mg       2.66734463       4.15807628      22.34848981
Mg       0.10235947      -0.09495786       9.41943650
Ni       0.22369543      -0.10554660      25.31986464
Mg      -2.48704113       4.05688829       9.28073147
Mg      -2.32449833       4.00673321      25.18764617
Mg       5.09909849       0.06484768       9.61295454
Mg       5.23857210       0.00195237      25.44091839
Mg       2.61471273       4.18423694       9.45284506
Mg       2.61056551       4.16450112      25.19028350
Mg      -0.04749593       0.03163815       1.45212490
Mg       0.03767253      -0.02859678      17.30167130
Mg      -2.62849507       4.08397788       1.43877114
Mg      -2.34113314       4.04271177      17.22207726
Mg       4.98202774       0.15054703       1.61607306
Mg       5.20663991       0.06979479      17.50308760
Mg       2.53772795       4.32406878       1.52696909
Mg       2.62083454       4.16000582      17.25188855
Mg       2.50195201       1.49133099       2.48558210
Mg       2.59325463       1.34668125      18.38574288
Mg       0.01847586       5.52363128       2.35048291
Ni       0.05735096       5.45164410      18.21715351
Mg       7.50186092       1.57957845       2.65347820
Mg       7.62444497       1.57504995      18.53055976
Mg       5.01002620       5.74970466       2.46976226
Mg       5.14028241       5.59659176      18.34662064
Mg       0.05845788       2.75161164      10.27790359
Mg       0.18370985       2.62327286      26.17167382
Mg      -2.54051086       6.94981247      10.24178704
Mg      -2.45045621       6.74113158      25.99417617
Ni       5.05518335       2.81864969      10.44380298
Mg       5.15028599       2.78028961      26.39701678
Mg       2.55475256       6.95786337      10.39510066
Mg       2.66837621       6.93844433      26.28812237
Mg       2.50099882       1.46420801       5.44329329
Mg       2.68439289       1.43094145      21.35060619
Mg      -0.04713889       5.55679597       5.39292801
Mg       0.20865703       5.48982053      21.11469712
Mg       7.52301705       1.54436802       5.64442869
Mg       7.59105054       1.55612115      21.39627695
Mg       4.99784211       5.69158076       5.53317997
Mg       5.18751599       5.67789488      21.40383218
Mg       0.11340743       2.73381055      13.36626564
Mg       0.26361466       2.55053705      29.25263005
Mg      -2.46346330       6.87828556      13.13728094
Mg      -2.33774353       6.71434381      28.93877132
Mg       5.04444116       2.91726843      13.45505654
Mg       5.10641759       2.74411906      29.32617663
Mg       2.51140143       7.03202926      13.28853533
Mg       2.68369447       6.89619427      29.10062603
Ni       2.60520317       1.36893027      13.96127547
Ni       2.76076161       1.40537250      29.78467456
Ni      -0.01335235       5.53377458      13.74088085
Ni       0.14104502       5.43543229      29.60898749
Ni       7.72449004       1.65254454      14.10912349
Mg       7.79097450       1.47541976      29.95255641
Ni       5.04862014       5.73057799      13.86430061
Ni       5.19165315       5.59313934      29.71046364
Ni       0.01749895       2.73054961       5.82142630
Ni       0.14791775       2.56998612      21.82745777
Ni      -2.48128918       6.86367898       5.69794094
Ni      -2.40675502       6.72378977      21.52279848
Ni       5.04087167       2.97029958       6.06043175
Ni       5.27873837       2.78594194      21.86217486
Ni       2.41648405       7.10194603       5.91841842
Ni       2.71926851       6.90273342      21.77115003
Ni       2.51418537       1.39985553       9.98919472
Ni       2.69604867       1.33527229      25.81530196
Ni       0.03455004       5.52620811       9.84708426
Ni       0.11109840       5.36171068      25.72098358
Ni       7.49724643       1.60157339       9.98312545
Ni       7.78400057       1.49830570      25.95323041
Ni       5.12259385       5.59520042       9.88705703
Ni       5.21158799       5.60174325      25.78741911
Ni      -0.06135313       2.68375330       1.94038846
Ni       0.07768457       2.68991708      17.75295095
Ni      -2.59303297       6.88922643       1.80363044
Ni      -2.42357103       6.72050776      17.69279231
Ni       5.02919522       3.04094752       2.09841830
Ni       5.07886376       2.81526959      17.88634972
Ni       2.40374118       6.99831701       2.01489501
Ni       2.55951174       7.00894520      17.73730307
Ni       2.61273150       2.86781031      11.86165567
Ni       2.70033136       2.74493191      27.84074789
Ni      -0.02215291       6.95862707      11.71180740
Ni       0.13385000       6.79636336      27.63890256
Ni       7.55728406       2.92773977      11.99902202
Ni       7.74369422       2.94430007      27.93021790
Ni       5.07550380       7.14818826      11.92629312
Ni       5.20405898       7.05802977      27.75288258
Ni       3.95298824       0.81776962      11.97585256
Ni       4.04626309       0.69374349      27.96886555
Ni       1.33529624       4.89657515      11.81902971
Ni       1.44863639       4.71913455      27.64075292
Ni       8.93010979       0.94548415      12.12907262
Ni       8.90399932       0.87851978      27.96527566
Ni       6.36090810       5.13564842      11.99430932
Ni       6.44349085       4.92166225      27.84081960
Ni       1.26493045       3.54153765       3.96744794
Ni       1.40565715       3.60447934      19.82187465
Ni      -1.26628256       7.67101905       3.80283547
Ni      -1.13672452       7.61120458      19.59948430
Ni       6.29437283       3.68710289       4.10499785
Ni       6.30758496       3.63536773      19.92071069
Ni       3.75629671       7.70802586       3.96609727
Ni       3.86177125       7.69143771      19.84007348
Ni       1.35146037       0.65807890      11.82807471
Ni       1.44428777       0.56032136      27.80027782
Ni      -1.25183451       4.67903282      11.81599798
Ni      -1.03299558       4.68521750      27.61810312
Ni       6.37652557       0.90598675      12.00240520
Ni       6.46975538       0.73032277      27.85412893
Ni       3.89366666       4.94755622      11.92917461
Ni       3.87528567       5.01693043      27.82057064
Ni       0.00919389       1.30621277       3.93260851
Ni       0.05397841       1.35207547      19.75398718
Ni      -2.64265345       5.48524886       3.77784403
Ni      -2.34387913       5.35606524      19.77462711
Ni       5.03803110       1.55274830       4.07812352
Ni       5.15958061       1.51171017      19.86291089
Ni       2.43147454       5.55432383       3.95585980
Ni       2.59277868       5.54660034      19.70213510
Ni      -1.36529762       3.34968212       3.93575441
Ni      -1.06925048       3.41066335      19.77547255
Ni      -3.80503544       7.57859617       3.73740128
Ni      -3.63163656       7.48063314      19.49674686
Ni       3.75703233       3.69413487       4.12182427
Ni       3.88193639       3.51423177      19.74237222
Ni       1.24226073       7.73193862       3.86552388
Ni       1.32806260       7.66195989      19.74443772
Ni       2.48629702       0.04585823      -0.00623506
Ni       2.60340195       0.09786568      15.89323215
Ni      -0.08880638       4.21891871      -0.10063558
Ni       0.15336109       4.14917678      15.83509933
Ni       7.43260128       0.18488839       0.16699641
Ni       7.66210569       0.26903820      16.00072992
Ni       4.94284789       4.37420483       0.02157955
Ni       5.15624044       4.27811367      15.94300474
Mg       1.19864287       2.20253225       0.07132137
Ni       1.34357244       2.08231970      15.81835903
Ni      -1.34097037       6.17766092      -0.14357199
Ni      -1.22329068       6.12974414      15.63821792
Ni       6.24730198       2.24870211       0.13024714
Ni       6.34085900       2.30796725      15.89202397
Ni       3.71941395       6.35676107      -0.03727453
Ni       3.84703827       6.43963795      15.82174192
Ni      -1.16614594       1.98302047       7.89424699
Ni      -1.12933015       1.83308094      23.76436641
Ni      -3.73347750       6.07850453       7.73457111
Ni      -3.71058855       6.03923573      23.64227210
Ni       3.80258008       2.11422473       8.00848849
Ni       3.94588587       2.12701739      23.86657926
Ni       1.29021783       6.32443941       7.83203538
Ni       1.35866816       6.15627471      23.64557717
Ni       2.53578087      -0.03078139       7.98241607
Ni       2.69853760      -0.04627969      23.94572690
Ni       0.02614615       4.15276783       7.85448911
Ni       0.06176189       4.06612171      23.67914787
Ni       7.55150295       0.14130093       8.14410742
Ni       7.67298284       0.19312074      23.92392822
Ni       5.03137212       4.24329922       7.99485440
Ni       5.09563722       4.21675705      23.81971313
Ni      -1.31647634       2.09992249      -0.10472205
Ni      -1.20839397       1.94085912      15.82288594
Ni      -3.76483192       6.09939006      -0.21246206
Ni      -3.76577978       6.19036237      15.70003140
Ni       3.74120294       2.18361874       0.00438387
Ni       3.87480583       2.13440272      16.00677419
Ni       1.18543474       6.31098300      -0.09136439
Ni       1.34657356       6.25857312      15.71220234
Ni       1.21671948       2.12755447       7.87686819
Ni       1.44744605       1.95165460      23.83191304
Mg      -1.22221247       6.08696042       7.79818427
Ni      -1.12068076       6.14429808      23.64071588
Ni       6.32976198       2.28596759       8.00935420
Ni       6.44248706       2.18378625      23.99446869
Ni       3.71648452       6.35777810       7.97204837
Ni       3.84670769       6.19964488      23.78646680
