188
Lattice="9.929638491141597 -0.07409299437845385 -0.08770554956256604 -4.969996616746163 8.493718619556523 0.19746643938086042 -0.619165686032853 -0.09805364300210884 30.474032614557455" Properties=species:S:1:pos:R:3 pbc="T T T"
Mg      -0.24990844      -0.03544340      13.76124866
Mg      -0.50660982      -0.07815908      29.04573663
Mg      -2.72543060       4.23333986      13.84710453
Mg      -3.11972394       4.10905207      29.18583428
Ni       4.66873959      -0.02162890      13.75455123
Ni       4.29177004      -0.14544906      29.03311880
Mg       2.20620910       4.14772770      13.93406809
Mg       1.91000502       4.13507622      29.09046848
Mg      -0.16962928       0.02092534       6.25844779
Mg      -0.37046024      -0.10644082      21.35240516
Mg      -2.56328613       4.16213071       6.30573066
Ni      -2.91917609       4.23674934      21.51098407
Ni       4.82996825      -0.04520823       6.18697455
Mg       4.57625400      -0.09645877      21.37256024
Mg       2.31033630       4.19051102       6.27273237
Mg       2.03973801       4.17500018      21.50011041
Mg      -0.24888545       0.04842779       9.02427199
Mg      -0.48939876      -0.05492077      24.19145719
Mg      -2.61919311       4.16880696       9.12877924
Mg      -2.95564524       4.16505066      24.43656050
Ni       4.82723374      -0.07861756       9.02359042
Mg       4.63787158      -0.08257423      24.15414438
Mg       2.31559844       4.24082998       9.08998298
Mg       1.96296557       4.15290506      24.36413345
Mg      -0.00767237       0.04248422       1.49356848
Mg      -0.32492573      -0.03869050      16.68588413
Mg      -2.49685939       4.21781406       1.47335004
Mg      -2.74255856       4.21013422      16.73927542
Mg       4.93857074      -0.08102990       1.35301798
Mg       4.60200436      -0.15025765      16.64139360
Mg       2.57023766       4.23969874       1.47473481
Mg       2.07443077       4.09454974      16.70687366
Mg       2.47869145       1.34531232       2.40595103
Mg       2.04923370       1.35488212      17.56466152
Mg      -0.34561141       5.64254178      17.74140393
Mg       7.43161578       1.39431161       2.32033018
Ni       7.10109282       1.31788649      17.63181292
Mg       4.92814349       5.59792646       2.48216786
Mg       4.55233464       5.56113513      17.66916747
Mg      -0.18215200       2.74340863       9.99875652
Mg      -0.62806622       2.72424639      25.26732616
Mg      -2.70869814       7.04694559      10.05916835
Mg      -2.96587183       7.05605156      25.33782165
Mg       4.64237693       2.72261986       9.99596539
Mg       4.32811590       2.70359196      25.28142430
Mg       2.36779576       7.03953340      10.07344469
Mg       1.94340658       7.04593553      25.38498055
Mg       2.41796814       1.35317208       5.25758513
Mg       2.01661592       1.31290971      20.56666741
Mg      -0.10713887       5.55725048       5.37853766
Mg      -0.33657947       5.49987085      20.58824241
Ni       7.38582653       1.38451987       5.30629297
Mg       7.03763465       1.31568213      20.38997945
Mg       4.77017323       5.61042801       5.27577128
Mg       4.58208179       5.53481095      20.43254133
Mg      -0.21010484       2.81986233      12.89402554
Mg      -0.61145584       2.71182843      28.06960155
Mg      -2.74396396       7.01417227      13.01517032
Mg      -3.09751242       7.02546578      28.28594113
Mg       4.68682450       2.74223637      12.89322488
Ni       4.32218429       2.66696866      28.14080956
Mg       2.15865989       6.91841585      13.03314115
Mg       1.86140269       6.92979641      28.17954953
Ni       2.22758584       1.30243706      13.38619961
Ni       1.90180422       1.28622866      28.55698903
Ni      -0.29296895       5.60586395      13.52693875
Ni      -0.59167543       5.53860536      28.78374145
Ni       7.21059454       1.36066281      13.33179725
Ni       6.90181488       1.27408623      28.56050500
Ni       4.67521294       5.61831152      13.41073890
Ni       4.35331419       5.49713699      28.58562382
Ni      -0.02826170       2.77082507       5.85150311
Ni      -0.45759580       2.74293802      20.99585868
Ni      -2.57070885       7.04067793       5.92376542
Ni      -2.92455773       6.97018385      21.11725212
Ni       4.85815017       2.80837222       5.69797670
Ni       4.58889567       2.75302584      20.97595303
Ni       2.39066828       6.93095442       5.82252768
Mg       2.03650993       6.96035380      21.05418967
Ni       2.31223381       1.29051515       9.53959232
Ni       2.00489260       1.38863991      24.80113012
Ni      -0.14291689       5.61148207       9.61736908
Ni      -0.42360923       5.48226703      24.81661314
Ni       7.28451941       1.33193419       9.46629824
Mg       6.95340835       1.17535871      24.70470819
Ni       4.78060315       5.54269670       9.60138360
Ni       4.55783822       5.53124913      24.83637323
Ni      -0.12711344       2.83785349       2.01651127
Ni      -0.36517107       2.70741944      17.12800231
Ni      -2.51340051       7.03880417       2.01290142
Ni      -2.84723365       7.00278251      17.35606795
Ni       5.05189628       2.71988121       1.92297040
Ni       4.65206996       2.71165657      17.09816462
Ni       2.39905589       7.02599728       2.02760856
Ni       2.21928042       7.01006124      17.20232572
Ni       2.29899424       2.63052637      11.46159332
Ni       1.96511499       2.65305054      26.71907188
Ni      -0.33191891       7.04905934      11.58334185
Ni      -0.60372055       7.07873822      26.79960002
Mg       7.21021899       2.79384176      11.45038252
Ni       6.87226595       2.68328005      26.70490229
Ni       4.77324149       6.95343419      11.52213905
Ni       4.48971612       6.95619725      26.75506357
Ni       3.47694614       0.72312379      11.35561437
Ni       3.20293441       0.61498126      26.70999326
Ni       0.98737590       4.86265359      11.55341173
Ni       0.72731791       4.83293499      26.65743420
Ni       8.46428370       0.61900679      11.37900908
Ni       8.15350359       0.50409427      26.50646714
Ni       5.95424222       4.83582697      11.50823223
Ni       5.70790116       4.86316643      26.80833319
Ni       1.23814682       3.53506493       3.80659770
Ni       0.85898640       3.43959379      19.09592158
Ni      -1.27852535       7.78998555       4.00060862
Ni      -1.50325142       7.67608785      19.14594257
Ni       6.11520243       3.44828416       3.75459561
Ni       5.75833861       3.38947342      19.15428641
Ni       3.65687776       7.71335335       3.91037598
Ni       3.30897250       7.61285952      19.17713996
Ni       1.10801609       0.76422334      11.36191414
Ni       0.68906094       0.56842635      26.71774322
Ni      -1.48186170       4.90664577      11.47860149
Ni      -1.85125691       4.92361292      26.75847945
Ni       5.96446482       0.74283337      11.43403332
Ni       5.78502432       0.62022864      26.59534186
Ni       3.52820784       4.91307226      11.36561109
Ni       3.21924396       4.78749115      26.74404583
Ni      -0.05946248       1.29217419       3.94218370
Ni      -0.39227795       1.40974378      19.12609806
Ni      -2.56748932       5.63695674       3.88503934
Ni      -2.85430925       5.54640028      19.03919060
Ni       4.96930328       1.33615827       3.78016105
Ni       4.56285090       1.26154522      19.09994270
Ni       2.44010789       5.57728550       3.81109416
Mg       2.06077646       5.55091403      19.19187336
Ni      -1.31776967       3.45909836       3.94767683
Ni      -1.61056751       3.46895237      19.12285662
Ni      -3.84640032       7.76583873       4.00849742
Ni      -4.03574088       7.73754801      19.23104774
Ni       3.67790764       3.40400315       3.80574280
Ni       3.33546245       3.52521254      19.04564986
Ni       1.18362009       7.72715170       3.99006047
Ni       0.84215916       7.66019556      19.16038590
Ni       2.45336431      -0.09936099      -0.05138013
Ni       2.20527386      -0.01312117      15.11069553
Mg      -0.01059936       4.21840837       0.01031565
Ni      -0.24964841       4.24259293      15.39829587
Ni       7.34008826      -0.13393383      -0.14701370
Ni       7.08684703      -0.10606896      15.22908903
Ni       4.97775872       4.13979483       0.06471169
Ni       4.59650210       4.13922028      15.23458770
Ni       1.25747390       2.13647676       0.14104801
Ni       0.96657610       2.09766246      15.26000257
Ni      -1.25795977       6.40012914       0.12164205
Mg      -1.51429157       6.24594817      15.25688005
Ni       6.13517816       2.15421249       0.03734365
Ni       5.89480993       2.07673397      15.33303117
Ni       3.71601729       6.28277231       0.08692566
Ni       3.38870407       6.25164785      15.24781606
Ni      -1.44406266       2.01462429       7.72744132
Ni      -1.72036602       1.97754995      22.92833190
Ni      -3.86893852       6.30094540       7.77356010
Ni      -4.25783243       6.27758175      23.04905373
Ni       3.53072154       2.00462223       7.58922112
Ni       1.06484191       6.31252616       7.71620801
Ni       0.72794628       6.30115129      22.95588723
Ni       2.34878392      -0.01086168       7.61979416
Ni       1.97001038      -0.07313334      22.86236957
Ni      -0.14806222       4.19690794       7.72701402
Ni      -0.44576705       4.17801055      22.94738038
Mg       7.33697016      -0.05797899       7.57041003
Ni       4.85004266       4.14113863       7.69963668
Ni       4.52176989       4.13155892      22.85933999
Ni      -1.14338292       2.20187595       0.05679829
Ni      -1.61807435       2.07949847      15.32852510
Ni      -3.76434002       6.36858319       0.19054403
Ni      -3.98933276       6.39949972      15.33814016
Ni       3.35646932       2.02343387      15.29992043
Ni       1.14425547       6.27450327       0.17130212
Ni       0.88916587       6.26662887      15.35212237
Ni       1.11837903       2.09053795       7.73496710
Ni       0.83042717       1.99050170      22.93142491
Ni      -1.50679492       6.32886112       7.72094710
Ni      -1.74322984       6.28962330      22.99218856
Ni       6.07159576       1.97863094       7.61415298
Ni       5.85293068       2.01719572      22.74440483
Ni       3.57734124       6.31347514       7.71130089
Ni       3.20552271       6.24821698      22.97720597
