190
Lattice="9.472294571325795 0.20528038766648207 -0.025649631667172382 -4.797446957440348 8.103341803157326 0.017986001823893285 -0.8110927403742554 0.9042779353284798 31.905910283099704" Properties=species:S:1:pos:R:3 pbc="T T T"
Mg      -0.38362158       0.39837826      14.48019475
Ni      -0.65914328       0.82334752      30.45176732
Mg      -2.75457294       4.49269484      14.38965590
Mg      -3.20951275       4.91802221      30.47053214
Mg       4.29482382       0.53271928      14.53570409
Mg       3.90206720       0.96703060      30.36849333
Mg       1.93208189       4.55012438      14.40268030
Mg       1.44349373       5.03212556      30.31592199
Mg      -0.16025514       0.23849950       6.50717037
Mg      -0.68694587       0.58250009      22.40391374
Ni      -2.52404672       4.19837424       6.46427819
Mg      -3.00391516       4.62203223      22.43929883
Mg       4.53808188       0.32405625       6.47215296
Mg       4.14543698       0.69415131      22.35371567
Mg       2.13188048       4.32979407       6.50026592
Mg       1.76580020       4.84123612      22.42206508
Mg      -0.27113177       0.15925108       9.55479036
Mg      -0.67249050       0.74510087      25.45926825
Mg      -2.58327748       4.39146871       9.46230871
Mg      -2.98235763       4.78239835      25.44131561
Mg       4.48215896       0.35311925       9.37722996
Ni       4.05886705       0.85477630      25.35302226
Mg       2.09477590       4.36683108       9.49169582
Mg       1.62515472       4.94017518      25.46181999
Mg      -0.09899027       0.07372064       1.51674069
Mg      -0.50229742       0.42549060      17.43642050
Mg      -2.45457251       4.09672749       1.50807203
Mg      -2.83516081       4.59612282      17.41337512
Mg       4.69399813       0.15110650       1.40678582
Mg       4.23132796       0.57859273      17.41928663
Mg       2.27611518       4.15190142       1.41719823
Mg       1.96643898       4.70225125      17.49808390
Mg       2.38538959       1.49238636       2.48187694
Mg       1.92409574       1.99125535      18.38672035
Mg      -0.08536466       5.56511425       2.42298221
Mg      -0.53345483       5.99124671      18.46666389
Mg       6.96008265       1.52687001       2.44977272
Mg       6.66122444       2.05268977      18.32289691
Ni       4.61070304       5.64882069       2.59078323
Mg       4.15237778       6.13042822      18.43787968
Mg      -0.33894115       3.03086684      10.46209349
Mg      -0.77201545       3.46770367      26.49119631
Mg      -2.69251324       7.10354393      10.45606406
Mg      -3.05317915       7.59202930      26.45780516
Mg       4.35210048       3.22764321      10.53450853
Mg       4.00849316       3.64301623      26.42161924
Ni       2.13688712       7.18389511      10.46965358
Ni       1.58939811       7.59740550      26.42316758
Mg       2.24548740       1.60922331       5.50401205
Mg       1.81214065       2.06718657      21.52943452
Mg      -0.20768410       5.64298966       5.46519400
Mg      -0.49670114       6.15896407      21.51386839
Mg       7.05025027       1.65931427       5.39862608
Mg       6.53492218       2.24073674      21.47106304
Mg       4.52126476       5.80869704       5.43103728
Mg       4.16915243       6.18407281      21.36026029
Mg      -0.35647813       3.16348377      13.51896299
Ni      -0.81924423       3.54234487      29.45920563
Mg      -2.69160236       7.18403549      13.46617570
Mg      -3.16388201       7.59965238      29.49065341
Mg       4.32710727       3.23252126      13.39479418
Mg       3.92597503       3.61009729      29.43304416
Mg       1.97713159       7.36330945      13.43973774
Mg       1.52886393       7.72585941      29.42394334
Mg       1.98472189       1.89052220      14.01880932
Ni       1.59784309       2.31629105      29.90538725
Ni      -0.46433569       5.92528988      14.08870350
Ni      -0.80362707       6.26841874      29.92235534
Ni       6.67619363       1.96956581      13.98737489
Ni       6.35278696       2.41816492      29.88232183
Ni       4.38762138       5.91403491      13.94067755
Ni       3.95441392       6.45411324      30.00163332
Ni      -0.65151408       3.32203944      21.98483661
Ni      -2.61915685       6.94163718       5.93086130
Ni      -2.91824009       7.39712681      21.92613630
Ni       4.59767525       2.98688373       6.02464360
Ni       4.19941906       3.54600564      21.94707970
Ni       2.10637222       7.12846455       6.05260483
Ni       1.77543897       7.43308765      21.93680108
Ni       2.11223666       1.62533358      10.04722405
Ni       1.66546286       2.13087950      25.89322259
Ni      -0.35446449       5.74051333       9.96249229
Ni      -0.72154210       6.23308234      25.97060513
Ni       6.80330069       1.80743590       9.92664009
Ni       6.38849633       2.21972512      25.93047086
Mg       4.45784308       5.90385180       9.90365812
Ni       4.02956447       6.32368507      25.86870919
Ni      -0.09043123       2.88418733       2.02211764
Ni      -0.42312630       3.29592691      17.87432307
Ni      -2.38908591       6.75380706       1.80989275
Ni      -3.01642280       7.24609202      18.00044643
Ni       4.61201829       2.79389969       1.98658146
Ni       4.25705033       3.33605435      18.01284889
Ni       2.25407459       6.91794182       2.02166680
Ni       1.87708330       7.35747285      17.93152148
Ni       2.02700007       3.14291891      11.94720927
Ni       1.63834404       3.57296152      27.94076092
Ni      -0.35246159       7.07789144      11.99324444
Ni      -0.82194531       7.54343851      27.95520741
Ni       6.75809283       3.21563010      11.89872872
Ni       6.42389634       3.73373855      27.93709626
Mg       4.45202756       7.36606486      11.91816259
Ni       3.94146014       7.57920296      27.90481014
Ni       3.27863095       1.19487489      12.01064698
Ni       2.82327743       1.52115543      27.97005316
Ni       0.81500997       5.15095433      11.96181983
Ni       0.44823124       5.54230703      27.90319620
Ni       7.98327913       1.14952998      12.00953025
Ni       7.56370254       1.62035598      27.86887902
Ni       5.53782549       5.25085330      11.91467658
Ni       5.15157231       5.79863429      27.95384887
Ni       1.03641362       3.49728376       4.06734360
Ni       0.65446476       4.01738366      19.83624076
Mg      -1.33722050       7.64142951       4.05430057
Ni      -1.84632026       8.05010066      20.03418349
Ni       5.76628947       3.59938789       3.92916829
Ni       5.42396315       4.05104883      19.86310879
Ni       3.38227246       7.64904200       4.06164766
Ni       2.89184546       8.22987431      19.95247853
Ni       0.44604567       1.56766922      27.88164899
Ni      -1.55747726       5.17811197      11.95386665
Ni      -1.99884178       5.65883972      27.93571226
Ni       5.59792015       1.18253574      11.91905710
Ni       5.19542774       1.67195210      27.89883909
Ni       3.27385898       5.12324777      11.90687400
Ni       2.80914291       5.52419681      27.87026603
Ni      -0.11213010       1.49296686       4.02750969
Ni      -0.59044270       1.96377389      19.92805068
Ni      -2.40064492       5.50112054       3.97050704
Ni      -2.87757984       5.98981074      19.93681729
Ni       4.55403088       1.58643162       4.11158208
Ni       4.19099612       1.98912630      19.90283096
Ni       2.18328272       5.66557034       4.04158893
Ni       1.72732661       6.10896677      19.89679109
Ni      -1.31964726       3.53073911       3.97309915
Ni      -1.67122314       3.96584925      19.91979313
Ni      -3.74257167       7.54890006       3.87122222
Mg      -4.10822977       7.99016018      19.86932994
Ni       3.35962113       3.64217472       3.93343423
Ni       3.09675951       4.11502600      19.88008682
Ni       1.01899130       7.72719950       3.95680576
Ni       0.64371043       8.08881279      19.92247551
Ni       2.43695775       0.09980464       0.05421166
Ni       1.98699130       0.55245867      15.92925604
Ni       0.01008008       4.19149037       0.00018473
Ni      -0.49886540       4.57834661      16.08282166
Ni       7.09709946       0.12865631      -0.00552734
Ni       6.75736132       0.55900200      15.99707551
Ni       4.71457096       4.22025022       0.10110467
Ni       4.42054699       4.54562613      15.84312774
Ni       1.19727038       2.08630150       0.01109069
Ni       0.77046956       2.51876767      15.90746520
Ni      -1.26562620       6.19550930      -0.05973068
Ni      -1.59712301       6.58210967      15.92605946
Ni       5.87343526       2.16062461      -0.01200385
Ni       5.51088675       2.65033918      15.88395927
Ni       3.47076634       6.22800073      -0.04611563
Ni       3.11408064       6.63063090      15.96936673
Ni      -1.42009649       2.26952584       7.99410479
Ni      -1.79414248       2.66930948      23.91927916
Ni      -3.82889789       6.33703664       8.03619677
Ni      -4.26133737       6.67009133      23.87576524
Ni       3.34132831       2.33865377       8.00656247
Ni       2.92362371       2.78550136      23.89932733
Ni       0.82841839       6.41728136       8.00400526
Ni       0.52085441       6.81393963      23.89647340
Ni       2.21084177       0.26015188       7.94216914
Ni       1.80713120       0.70288872      23.94883367
Ni      -0.15815362       4.32741903       8.06984116
Ni      -0.55539566       4.66469548      23.94406350
Ni       6.88804738       0.37188096       7.94186722
Ni       6.57529989       0.79098415      23.94343722
Ni       4.41532854       4.44705794       7.96262273
Ni       4.13738661       4.89307203      23.84071463
Ni      -1.17986065       2.06471648      -0.04518461
Ni      -1.55882974       2.50438214      15.99021476
Ni      -3.62714505       6.09847979      -0.06618613
Ni      -4.02554058       6.48627283      15.94437088
Ni       3.57513802       2.19537909      -0.01705693
Mg       3.06288718       2.56333451      16.03237018
Ni       1.22102468       6.17608576       0.02860321
Ni       0.76616485       6.64158862      15.93190192
Ni       1.03896935       2.28780582       7.91914569
Ni       0.55261144       2.79372454      23.94608682
Ni      -1.44379751       6.33810974       7.94672646
Ni      -1.74872303       6.78451676      23.87762893
Mg       5.70380773       2.44316896       7.89051454
Ni       5.21384232       2.85973157      23.85751194
Ni       3.25817441       6.43058514       7.91418581
Ni       2.90631945       6.96224622      23.82712424
