189
Lattice="9.967870889630918 -0.38024882986790487 -0.23782900750725847 -4.932817613743432 8.593453667559945 0.3703842115952201 1.1789015813333605 1.0105531601656852 31.535068431242856" Properties=species:S:1:pos:R:3 pbc="T T T"
Mg       0.52484041       0.42889606      14.28896598
Mg       1.18798333       0.97225925      30.00649092
Mg      -1.89862741       4.70781875      14.54311831
Mg      -1.46188475       5.33924895      30.21139053
Ni       5.61578513       0.30265364      14.15867171
Mg       6.09490860       0.73752385      30.08034049
Mg       3.04371032       4.55353455      14.29938751
Mg       3.61685909       4.98450793      30.13042702
Mg       0.18801204       0.17852580       6.37401858
Mg       0.83620625       0.77134537      22.14285261
Mg      -2.17505153       4.46386443       6.57639744
Mg      -1.70010629       5.02546120      22.31656638
Mg       5.20231509       0.00874968       6.20256734
Mg       5.79916018       0.54009716      22.04809429
Mg       2.78811319       4.27647299       6.48237082
Ni       3.28875466       4.81002476      22.20273782
Mg       0.33874168       0.24739754       9.30572382
Mg       0.98936828       0.80102067      25.16452544
Mg      -2.10594733       4.66343342       9.58538922
Mg      -1.49966106       5.08497204      25.40216687
Mg       5.34242390       0.01110931       9.33988814
Mg       5.89575976       0.64410309      25.12716211
Mg       2.82483905       4.36065019       9.49030864
Mg       3.51916119       4.93751751      25.22274226
Mg       0.00719163      -0.03771658       1.45890770
Mg       0.60470037       0.46404173      17.25277864
Mg      -2.40473350       4.35407631       1.68155222
Ni      -1.83284644       4.88864578      17.39524328
Mg       5.03481859      -0.14193178       1.33189800
Mg       5.53762407       0.33830978      17.12835399
Mg       2.51539865       4.26194829       1.55152408
Mg       3.11122700       4.67623916      17.34251035
Mg       2.61495910       1.38305531       2.48495651
Mg       3.14648424       1.87111866      18.23419833
Mg       0.19121449       5.65452032       2.64869299
Mg       0.69844418       6.17034978      18.44380663
Mg       7.56342711       1.14222508       2.40950327
Mg       8.18506291       1.73094984      18.16856415
Mg       5.15461003       5.47581386       2.54317608
Mg       5.70611565       6.07153115      18.31015757
Mg       0.44078357       3.16073949      10.41117875
Mg       1.01602152       3.54958194      26.19455609
Mg      -1.53640907       7.95892033      26.36234455
Mg       5.44504942       2.90719861      10.24220958
Mg       5.90821651       3.50653399      26.07798605
Mg       2.90411554       7.24415619      10.51428060
Mg       3.47381680       7.83169882      26.30108217
Mg       2.67429819       1.53661287       5.39923909
Mg       3.29212679       1.94988653      21.22988301
Ni       0.10109844       5.75686217       5.66579292
Mg       0.79458721       6.28138518      21.40199400
Mg       7.73404373       1.31920362       5.26298496
Mg       8.19422241       1.83452928      21.03798807
Mg       5.21119620       5.54942554       5.41717964
Mg       5.74093150       6.09032028      21.19446137
Mg       0.55141335       3.28041096      13.40304774
Mg       1.02992599       3.64084917      29.09672741
Mg      -1.92294231       7.54437500      13.65943158
Mg      -1.41230864       7.97015024      29.29386249
Mg       5.42059838       3.10069348      13.21571843
Mg       6.19421362       3.51786226      29.05492290
Mg       3.08223614       7.34421930      13.46481162
Mg       3.58471260       7.80784976      29.25543702
Ni       2.95466214       1.75447294      13.72893872
Ni       3.63403462       2.26677095      29.58081453
Ni       0.56398815       6.04235240      13.92964478
Ni       1.09158404       6.52531287      29.62623555
Ni       7.98806759       1.59918432      13.64195375
Ni       8.51672985       2.03160574      29.42361685
Ni       5.54582249       5.85973974      13.87766056
Ni       6.07632781       6.42530880      29.63157923
Ni       0.19848986       2.96208721       6.06339600
Ni       0.86623106       3.55458277      21.80642210
Ni      -2.30989955       7.30264341       6.15091445
Mg      -1.60967023       7.82887981      21.88191953
Ni       5.19159684       2.82834611       5.86507929
Ni       5.74310878       3.25305299      21.67847301
Ni       2.74358345       7.03583933       6.12145526
Ni       3.31468049       7.61265169      21.73737161
Ni       2.85017138       1.54873142       9.84852692
Ni       3.46995543       2.19916101      25.66636152
Ni       0.34085224       5.91420888      10.06722915
Ni       1.02248972       6.45427914      25.77756028
Ni       7.82168233       1.42792350       9.66407368
Ni       8.39330668       1.93197100      25.47200246
Ni       5.47757803       5.71684973       9.90719043
Ni       5.95315679       6.25765310      25.68038913
Ni       0.01781834       2.93687569       1.98370979
Ni       0.68184954       3.33085780      17.82825902
Ni      -2.33924127       7.15860271       2.29523431
Ni      -1.71857097       7.64088654      18.05679309
Ni       5.05449853       2.85299490       1.96103600
Ni       2.70446322       6.98898941       2.12234040
Ni       3.26202093       7.38735714      17.84404907
Ni       2.93217727       2.99423506      11.79906850
Ni       3.58389545       3.50305182      27.63714562
Ni       0.54551134       7.36542358      12.10512918
Ni       1.04993160       7.85681957      27.80837606
Ni       7.95267893       2.88994244      11.68253381
Ni       8.46802999       3.39712488      27.55306972
Ni       5.47333708       7.05537759      11.97372659
Ni       6.07472764       7.69938395      27.75099657
Ni       4.22246072       0.95142324      11.78118786
Ni       4.73929155       1.46872745      27.52787785
Ni       1.72095278       5.20752452      11.84873972
Ni       2.38619562       5.75907893      27.70606790
Ni       9.18765935       0.80700891      11.59444330
Ni       9.83645812       1.29553118      27.39124754
Ni       6.71334834       5.03030270      11.83523447
Ni       7.23199446       5.54031797      27.66305692
Ni       1.51579135       3.61218752       4.06505668
Ni       1.95165486       4.05625505      19.66357301
Ni      -1.12840242       7.94173817       4.19690434
Ni      -0.48087999       8.38589975      19.94519444
Ni       6.39115597       3.35802169       3.97022048
Ni       6.94161583       3.93677147      19.59352114
Ni       3.89581249       7.71957124       4.06722112
Ni       4.43890470       8.22969457      19.96299232
Ni       1.60866829       1.02466268      11.85522596
Ni       2.22165190       1.50123963      27.48599118
Ni      -0.74705610       5.24475516      11.89603620
Ni      -0.20536451       5.92516641      27.79118910
Ni       6.63246210       0.84400390      11.69638099
Ni       7.34653454       1.34749137      27.41247174
Ni       4.12034470       5.11834931      11.84360599
Mg       4.77486775       5.61888106      27.61902912
Ni       0.10300800       1.50397338       3.93357576
Ni       0.68266336       2.07659594      19.73423299
Ni      -2.19169732       5.90805189       4.23231575
Ni      -1.70239967       6.30589794      19.93546687
Ni       5.24601937       1.27608201       3.85052595
Ni       5.76164683       1.82182660      19.63324833
Ni       2.65508623       5.64743979       4.02608806
Ni       3.33603006       6.13380476      19.93567358
Ni      -1.15047411       3.65869157       4.06539430
Ni      -0.50918121       4.22581253      19.97658141
Ni      -3.47554253       7.96471164       4.25365575
Mg      -2.97113006       8.46289152      20.05706590
Ni       3.92722428       3.46749553       3.95061673
Ni       4.51656433       4.04999166      19.85146787
Ni       1.44575847       7.86703393       4.15936785
Ni       2.04240389       8.28752326      19.84837688
Ni       2.57705009      -0.08208039      -0.06148047
Ni       3.07537522       0.48268313      15.65020750
Ni       0.06244659       4.19456083       0.11463022
Ni       0.59837484       4.65136648      15.87489207
Ni       7.49953819      -0.36786396      -0.27163844
Ni       8.06316682       0.26777826      15.54629769
Ni       5.00024890       3.97395443       0.07366860
Ni       5.60404239       4.54007373      15.69663000
Ni       1.28439929       2.00774697      -0.02864276
Ni       1.85498384       2.47297376      15.79979518
Ni      -1.16036067       6.35578549       0.22004948
Ni      -0.69641670       6.87178314      15.95376510
Ni       6.13532805       1.79791192      -0.07854565
Ni       6.78714137       2.34697007      15.64115963
Ni       3.85060749       6.17926765       0.11024469
Ni       4.29537772       6.65487680      15.85243342
Ni      -0.94682749       2.38911283       8.05006494
Ni      -0.30230277       2.86103833      23.69708757
Ni      -3.34907992       6.70252380       8.20281612
Ni      -2.89142267       7.11316193      23.86495208
Ni       4.06973928       2.18735730       7.86104466
Ni       4.64282160       2.76195705      23.66813852
Ni       1.67006347       6.49655335       8.03900946
Ni       2.22071891       7.08119406      23.82680387
Ni       2.81964040       0.13558007       7.79055556
Ni       3.41852330       0.60601973      23.65742881
Ni       0.40819965       4.46152053       8.06640533
Mg       0.88439174       4.99570135      23.80400324
Ni       7.75591661      -0.08587054       7.64520678
Ni       8.43816180       0.48153365      23.44442265
Ni       5.34908692       4.16638345       7.93079633
Ni       6.00472645       4.83439910      23.80651538
Ni      -1.24088933       2.19058793       0.08090955
Ni      -0.67995689       2.60881982      15.91357030
Ni      -3.72830832       6.39407494       0.25768696
Ni      -3.04009868       6.86059643      15.97920040
Ni       3.70058462       1.97383728      -0.05846859
Ni       4.35717862       2.40328111      15.79142309
Ni       1.33448449       6.21822821       0.21601342
Ni       1.89667212       6.80156630      15.90026079
Ni       1.51569969       2.27393803       7.90465677
Ni       2.24026373       2.87355998      23.69234242
Ni      -0.82823549       6.62532410       8.17022083
Ni      -0.28519940       7.08908357      23.82589919
Ni       6.61168922       2.12648540       7.81180194
Ni       4.01924108       6.39776181       8.04123766
Ni       4.72107397       6.81823455      23.72436317
