191
Lattice="10.05738955558848 0.18827731370504797 0.0019770821578925578 -5.02865402678825 8.433959695301407 -0.39827665856778843 0.028224152148855198 0.4169734581147987 31.85995248970459" Properties=species:S:1:pos:R:3 pbc="T T T"
Mg       0.05114788       0.25225908      14.48794645
Mg       0.06503114       0.44995386      30.47489004
Mg      -2.49574731       4.37146295      14.29973857
Mg      -2.48993646       4.46181692      30.18591861
Mg       4.93929350       0.27006625      14.45391578
Mg       5.05609939       0.47353085      30.29308329
Mg       2.53346463       4.50158131      14.17833288
Mg       2.55489446       4.76486830      30.13462836
Mg       0.02203153       0.11021177       6.54225982
Mg       0.01990170       0.23009734      22.37484108
Mg      -2.46689158       4.30858109       6.28079638
Mg      -2.53691101       4.55543410      22.14475307
Mg       5.08546344       0.15372996       6.42584965
Mg       5.03137093       0.30804612      22.31361671
Mg       2.51163600       4.39081708       6.26060492
Mg       2.49835882       4.63506313      22.20979941
Mg      -0.01989869       0.07771529       9.47368753
Mg      -0.01846487       0.28954003      25.47306503
Mg      -2.49921545       4.32894219       9.29468667
Mg      -2.37541881       4.53236426      25.19493016
Mg       5.07068297       0.26665026       9.53618411
Mg       5.11325390       0.42797082      25.31825981
Mg       2.53199586       4.44177484       9.35489533
Mg       2.55163540       4.62190387      25.12141394
Mg       0.02184001       0.01462982       1.52772382
Mg      -0.08436787       0.24640071      17.43052032
Mg      -2.56402756       4.18313121       1.32061124
Mg      -2.52149110       4.46519501      17.25503924
Mg       5.16149016       0.15432679       1.48366787
Mg       5.10724677       0.32811441      17.38020794
Mg       2.47337898       4.32414231       1.35205118
Mg       2.48135458       4.62865488      17.22499713
Mg       2.46651142       1.48955057       2.25656809
Mg       2.46781437       1.76013726      18.33660784
Mg      -0.02362300       5.72918847       2.25031666
Mg       0.02701776       6.05165730      18.15921153
Mg       7.60485671       1.56989006       2.43568198
Mg       7.52484322       1.84902890      18.28264703
Ni       5.05130767       5.78302060       2.22034160
Mg       5.10194275       6.05236349      18.07655576
Mg      -0.01405115       2.93680743      10.29892403
Mg       0.00412083       3.24349920      26.24587016
Mg      -2.57297637       7.14492192      10.15705827
Mg      -2.53772411       7.52674933      25.97858252
Mg       4.99030794       3.06197304      10.20544421
Mg       5.12461018       3.28426478      26.25406412
Ni       2.53442909       7.28027132      10.02869742
Mg       2.54026151       7.43209381      26.11966426
Mg       2.46155894       1.49895277       5.42445608
Mg       2.50083035       1.80770280      21.31127524
Mg      -0.05531926       5.73168893       5.29813615
Mg      -0.00625967       5.95546921      21.13475575
Mg       7.60603585       1.64768048       5.41521372
Mg       7.55508114       1.81724288      21.34654263
Mg       5.03877228       5.80466608       5.27596385
Mg       5.06623337       6.02274482      21.17599378
Mg       0.01382911       3.00011669      13.29874727
Mg       0.10204942       3.24481954      29.22645362
Mg      -2.57989644       7.18975368      13.13021296
Mg      -2.43202663       7.40970717      29.09027253
Mg       4.98577859       3.08448820      13.23592337
Mg       5.03294253       3.29547482      29.27490591
Mg       2.54073330       7.24084416      13.06590824
Mg       2.52844568       7.54831317      29.05629555
Ni       2.55179434       1.62432611      13.86549326
Ni       2.54255983       1.84258253      29.77145774
Ni      -0.08907737       5.91262204      13.53688124
Ni       0.03873836       6.12362660      29.60107697
Ni       7.61483722       1.74541614      13.86506167
Ni       7.55986859       1.88644888      29.82022283
Ni       4.99122660       5.98731056      13.57901408
Ni       5.09171608       6.22149255      29.61652178
Ni      -0.06217110       2.86558992       5.87943557
Ni       0.00201499       3.15368302      21.77852555
Ni      -2.45397536       7.20422294       5.66367896
Ni      -2.48852577       7.33204344      21.56099657
Ni       5.08082944       3.04208467       5.71303928
Ni       5.07939276       3.23314630      21.74329223
Ni       2.48208521       7.24151672       5.71379848
Ni       2.54381633       7.42237630      21.51025766
Ni       2.43290337       1.59966062       9.90258362
Ni       2.55357661       1.76025255      25.78588053
Ni      -0.09291350       5.86718056       9.60418508
Ni       0.08175732       5.98793404      25.53983657
Ni       7.53340169       1.59641393       9.95588063
Ni       7.50729787       1.87064329      25.83453813
Ni       5.08398301       5.84482573       9.77364062
Ni       4.90217330       6.04121693      25.68839191
Ni       0.09112338       2.89563148       1.89411859
Ni       0.02326137       3.11359679      17.80573301
Ni      -2.48334672       7.05048035       1.68293023
Ni      -2.42848149       7.23957635      17.51755303
Ni       5.04265821       2.90293727       1.76645565
Ni       5.02311590       3.10167449      17.81722465
Ni       2.46109758       7.10851816       1.68000270
Ni       2.62000737       7.34578040      17.62552879
Ni       2.55086659       3.03914225      11.80125526
Ni       2.47618501       3.27115180      27.76863579
Ni      -0.00305375       7.18568093      11.59603623
Ni       0.02908830       7.42640850      27.51140862
Ni       7.59525660       3.10463882      11.88176970
Ni       7.57870693       3.30026053      27.78146854
Ni       5.03699472       7.28021059      11.67024972
Ni       5.02190353       7.57769597      27.59360183
Ni       3.74169660       0.90782010      11.89990678
Ni       3.74392250       1.18450541      27.97394750
Ni       1.21739186       5.12527906      11.78982441
Ni       1.21187311       5.41365948      27.59510819
Ni       8.84366212       1.00504388      11.86350340
Ni       8.79883084       1.15644676      27.83097677
Ni       6.37319836       5.23532916      11.74841934
Ni       6.27656756       5.43847182      27.62596843
Ni       1.27452746       3.63342107       3.88335911
Mg       1.33956573       3.91035696      19.72633596
Ni      -1.27430848       7.88055194       3.55521713
Ni      -1.22866466       8.07708426      19.54149986
Ni       6.27457083       3.65375946       3.79658492
Ni       6.29218116       3.90262496      19.66537883
Ni       3.73660993       7.93853002       3.61316971
Ni       3.82746729       8.27547286      19.58125265
Ni       1.27378159       0.91215859      11.89785606
Ni       1.29605463       1.18493979      27.75515501
Ni      -1.36906794       5.04559943      11.70471522
Ni      -1.32807107       5.30525676      27.64380256
Ni       6.32860290       0.96669247      11.88070644
Ni       6.28823790       1.25119500      27.82731067
Ni       3.75114139       5.21872424      11.75454759
Ni       3.81934590       5.48705543      27.65319356
Ni       0.04054314       1.45854246       3.89762112
Ni       0.03059678       1.76324866      19.85210392
Ni      -2.53583900       5.62241173       3.77694744
Ni      -2.48717729       5.89561425      19.66129191
Ni       4.98616933       1.47498534       3.92823531
Ni       5.03293376       1.74292981      19.95784371
Ni       2.47492287       5.91176469       3.68849143
Ni      -1.25391999       3.54519112       3.87125339
Ni      -1.29205602       3.81225465      19.74746360
Ni      -3.83579708       7.86164808       3.70946764
Ni      -3.71467055       7.96701702      19.56604198
Ni       3.91267308       3.63210209       3.84126942
Ni       3.86599448       3.85260329      19.78711963
Ni       1.27656252       7.87731376       3.61071558
Ni       1.33432383       8.07963915      19.54506455
Ni       2.48515958       0.03303241       0.10180389
Ni       2.51271932       0.37188215      15.97572046
Ni       0.01392225       4.25610024      -0.17976826
Ni       0.01210320       4.39855081      15.71015587
Ni       7.61300183       0.15258116      -0.03429714
Ni       7.58670483       0.32635501      16.02165297
Ni       4.97716304       4.32386560      -0.20517310
Ni       4.98531028       4.53815538      15.68910097
Ni       1.36903718       2.13121226      -0.13338691
Ni       1.25937950       2.44825580      15.80656391
Ni      -1.25144011       6.37473441      -0.27129895
Ni      -1.22339220       6.65687787      15.61711627
Ni       6.26160102       2.16356718      -0.11434487
Ni       6.25176644       2.42028839      15.87000784
Mg       3.86575314       6.47289026      -0.31054884
Ni       3.81266306       6.64809736      15.62414538
Ni      -1.14266860       2.21146568       7.83840898
Ni      -1.29450013       2.42825067      23.67025400
Ni      -3.81826321       6.44066829       7.66468378
Ni      -3.71052201       6.57957279      23.62556876
Ni       3.71660053       2.36849515       7.92097339
Ni       3.75248984       2.47095932      23.86703811
Ni       1.23287485       6.56705513       7.74219855
Ni       1.27907774       6.75441083      23.57891815
Ni       2.49323814       0.17312113       7.96600980
Ni       2.61238096       0.31021974      23.91144654
Ni       0.06698687       4.42794585       7.78114062
Ni       0.01832397       4.54297795      23.69370252
Ni       7.50788987       0.27132450       7.95342484
Ni       7.59015597       0.43530901      23.85708705
Ni       4.97956068       4.47064245       7.80930126
Ni       5.03434324       4.72692056      23.70028547
Ni      -1.31189593       2.16434302      -0.03850894
Ni      -1.30261294       2.23726461      15.81137076
Ni      -3.67659466       6.32934198      -0.30247562
Ni      -3.76438098       6.50973395      15.71117117
Ni       3.75100086       2.12470395      -0.07560020
Ni       3.72942825       2.42904506      15.91569292
Ni       1.31907160       6.36236642      -0.30707972
Ni       1.24579347       6.69538904      15.55243296
Ni       1.29921304       2.21169735       7.89484749
Ni       1.35902408       2.46130651      23.74264659
Ni      -1.26553899       6.46649465       7.69355360
Ni      -1.29550280       6.63685088      23.56744004
Ni       6.21306658       2.33555332       7.87129837
Ni       6.34067497       2.61426480      23.80567076
Ni       3.80493055       6.58459682       7.70881638
Ni       3.81041649       6.89076864      23.62504834
