192
Lattice="9.547526146987128 -0.1333501332955275 0.06893848665662308 -4.775152468076417 8.480495044600984 -0.1247847859315095 0.028613987203899807 -0.6558164298420261 30.55973308432281" Properties=species:S:1:pos:R:3 pbc="T T T"
Mg       0.06192271      -0.24622259      13.76846134
Mg      -0.09300943      -0.58322217      29.09363873
Mg      -2.38911423       3.90512528      13.84043364
Mg      -2.38506964       3.69905713      29.03622986
Mg       4.68118024      -0.30343653      13.83656289
Mg       4.75726084      -0.71811828      29.14702503
Mg       2.42384532       3.92464347      13.83439199
Mg       2.36406647       3.48992368      29.08295940
Mg      -0.04142908      -0.19170811       6.17025759
Mg      -0.07264917      -0.44525192      21.51155108
Mg      -2.39443578       4.05609268       6.12453284
Mg      -2.41615187       3.70511100      21.36200481
Mg       4.79046653      -0.16065417       6.21349353
Mg       4.76392786      -0.47859158      21.46316215
Mg       2.42896043       3.98346932       6.16781958
Mg       2.39002545       3.63362117      21.34711214
Mg       0.06245090      -0.27631091       9.06201229
Mg       0.01290410      -0.54177760      24.31313329
Mg      -2.36774937       4.01774612       9.07447893
Mg      -2.42790245       3.74445730      24.29780823
Mg       4.77880312      -0.29516995       9.19633440
Mg       4.86849019      -0.55750025      24.36772841
Mg       2.39954721       3.93772779       9.02617956
Mg       2.32285161       3.69705813      24.39458443
Ni       0.09630689      -0.12033943       1.47417162
Mg      -0.00893420      -0.35485851      16.70702511
Mg      -2.35730734       4.27485632       1.34220841
Mg      -2.51510136       3.85120629      16.61747413
Mg       4.78082924      -0.18730678       1.42236543
Mg       4.89067574      -0.34718893      16.73881153
Mg       2.44791966       4.10131002       1.42307302
Mg       2.39027590       3.80508024      16.64720232
Mg       2.38997373       1.33385319       2.29009854
Mg       2.37593411       1.04124964      17.65203080
Mg      -0.00848189       5.60185426       2.31925756
Mg      -0.03695068       5.23817194      17.55620809
Ni       7.19962158       1.26621637       2.34638638
Mg       7.11043849       0.91235591      17.68499728
Mg       4.67334828       5.50535690       2.35663656
Mg       4.75876637       5.13008682      17.67550724
Mg      -0.01830204       2.61081481       9.92725990
Mg       0.06698203       2.23853614      25.27481327
Mg      -2.38186866       6.82660819       9.85280693
Mg      -2.37300635       6.54187568      25.20154056
Mg       4.80830439       2.41205032      10.01985694
Mg       4.75242488       2.11528369      25.25331408
Mg       2.41727783       6.79112397      10.00477248
Mg       2.40135509       6.49052140      25.26037652
Mg       2.37769327       1.26271462       5.31859585
Ni       2.40381592       0.87263134      20.48150099
Mg       0.02325718       5.54189888       5.22059657
Mg       0.01951414       5.17075863      20.52493726
Mg       7.11410923       1.16670021       5.35460491
Mg       7.19088646       0.87951473      20.59028199
Mg       4.86163466       5.37525585       5.23062047
Mg       4.81113206       5.18528190      20.54649555
Mg      -0.02125109       2.55835346      12.89423588
Mg      -0.02908632       2.18345917      28.16504377
Ni      -2.37334084       6.75834754      12.73457271
Mg      -2.39018664       6.48474631      28.13449847
Ni       4.75994679       2.46917792      12.94941057
Ni       4.84723538       2.13764884      28.12106198
Mg       2.41782867       6.67719173      12.74175050
Mg       2.44827410       6.29226389      28.13807728
Ni       2.32127401       1.12291810      13.48570924
Ni       2.47413666       0.78081287      28.68618371
Ni      -0.03340750       5.20221791      13.33737820
Ni       0.07683449       4.97665377      28.61198036
Ni       7.15935110       1.06471177      13.51362957
Ni       7.14193096       0.70343103      28.66302807
Ni       4.79519270       5.34867838      13.34990320
Ni       4.77383569       4.84178895      28.60841800
Ni      -0.02560682       2.62882111       5.79138383
Ni       0.13941324       2.39280899      21.06132307
Ni      -2.33175855       6.86323478       5.66026564
Ni      -2.32753142       6.54094192      20.92928652
Ni       4.72363846       2.67113796       5.67392625
Ni       4.88295637       2.32175526      21.04249217
Ni       2.40145922       6.81970589       5.61570627
Ni       2.51396031       6.50124211      21.04759775
Ni       2.42239468       1.15905734       9.58982915
Ni       2.39203514       0.76054825      24.86314085
Ni      -0.03717417       5.37942154       9.49345179
Mg       0.08875922       5.04334671      24.73856251
Ni       7.13741477       1.06922352       9.48217555
Ni       7.18588250       0.88781291      24.94235071
Ni       4.80154630       5.27993437       9.46854739
Ni       4.77694696       5.00766774      24.74482073
Ni      -0.04106748       2.82786839       1.93888718
Ni      -0.02964983       2.40777966      17.11075436
Ni      -2.31710198       6.98961130       1.83066866
Ni      -2.44734683       6.76542406      17.06116143
Ni       4.81617795       2.63362930       1.95269601
Ni       4.81460056       2.40601154      17.24133977
Ni       2.44519084       6.90491472       1.92393984
Ni       2.37224288       6.61232845      17.22761500
Ni       2.38200821       2.50297343      11.40827315
Ni       2.42463464       2.14911825      26.83843372
Ni       0.01629061       6.81003378      11.41440801
Ni      -0.06947967       6.44768007      26.65706867
Ni       7.17203312       2.40857725      11.50101370
Ni       7.20717433       2.17302331      26.66489348
Ni       4.76552530       6.68412979      11.41163017
Ni       4.82376190       6.34692920      26.68985291
Ni       3.58298052       0.34289732      11.48115418
Ni       3.65312521       0.08820414      26.74485587
Ni       1.22265946       4.55750521      11.40829339
Ni       1.11104991       4.22929746      26.76396152
Ni       8.39911205       0.36142342      11.52936464
Ni       8.43458851      -0.05113996      26.80384827
Ni       5.95781819       4.59835040      11.47397244
Ni       6.00182289       4.26742070      26.71592122
Ni       1.21002133       3.42377006       3.81572186
Mg       1.18901908       3.06218910      19.10657100
Ni      -1.17114072       7.69837626       3.75090185
Ni      -1.19279711       7.39631101      19.15690841
Ni       5.97351465       3.36461681       3.86635616
Ni       5.89485069       3.01003131      19.11147144
Ni       3.56001420       7.63029890       3.70512261
Ni       3.46587758       7.23474543      18.99961118
Ni       1.18522160       0.42596501      11.52228341
Ni       1.25731605       0.11230266      26.74515801
Ni      -1.20852578       4.60034355      11.41798943
Ni      -1.22657362       4.39975057      26.70447920
Ni       5.99642247       0.44721034      11.50666228
Ni       5.96334923       0.17589301      26.76694504
Ni       3.59073691       4.56715995      11.37960055
Ni       3.55836770       4.22991491      26.71131006
Ni      -0.10854260       1.38270549       3.73092672
Ni       0.04422307       0.94088684      19.00897289
Ni      -2.41392146       5.55312897       3.70932839
Ni      -2.38011288       5.27161775      18.88060991
Ni       4.83162361       1.25122891       3.81556367
Ni       4.70212832       0.93090352      19.06949913
Ni       2.30917168       5.45754017       3.75105104
Ni       2.42867136       5.17813124      19.07083099
Ni      -1.23856643       3.33810842       3.79426482
Ni      -1.22957902       3.12677222      19.05622181
Mg      -3.58234006       7.59462361       3.78176029
Ni      -3.59211975       7.32833083      19.02752997
Ni       3.66526987       3.38161071       3.82621168
Ni       3.71146873       2.99378255      19.05194180
Ni       1.15790970       7.63704309       3.74499025
Ni       1.23480467       7.27680635      19.08434236
Ni       2.37190402      -0.08740399       0.00658334
Ni       2.43305624      -0.34018134      15.34292278
Ni      -0.08805813       4.23745446      -0.10622856
Ni       0.03843371       3.87890640      15.22339007
Mg       7.16384615      -0.13473794       0.07123109
Ni       7.18040981      -0.36158299      15.40163339
Ni       4.73332615       4.19738078      -0.03480995
Ni       4.72886065       3.90875053      15.31887323
Ni       1.12517565       2.04809092      -0.04073016
Ni       1.18013082       1.81248577      15.20717949
Ni      -1.14546923       6.24068615      -0.15811076
Ni      -1.15457219       6.03716889      15.21098122
Ni       6.05576202       1.98975051       0.10417409
Ni       5.91190000       1.79564177      15.37327069
Ni       3.56556393       6.23337596      -0.14241504
Ni       3.59373285       5.88883377      15.21660360
Ni      -1.22071485       1.95659016       7.59927551
Ni      -1.22209045       1.57994772      22.80889739
Ni      -3.60359307       6.18184725       7.53898534
Ni      -3.45199928       5.91772823      22.92134951
Ni       3.53558900       1.87412632       7.65498988
Ni       3.53894406       1.53051681      22.96824358
Ni       1.24991973       6.11639619       7.59934116
Ni       1.24724293       5.80920159      22.82796570
Ni       2.44425279      -0.16521215       7.64661991
Ni       2.41026687      -0.51248902      22.94944941
Ni       0.12292809       4.00500049       7.63541535
Ni       0.02401371       3.73369917      22.88890098
Ni       7.17102728      -0.33610637       7.63970047
Ni       7.09044145      -0.58431728      23.05297513
Ni       4.75423377       4.05256316       7.54878531
Ni       4.74763098       3.70271733      22.88786936
Ni      -1.31238652       2.08947264       0.01482735
Ni      -1.10957952       1.76584154      15.27152941
Ni      -3.55756604       6.35156316      -0.06557143
Ni      -3.56005478       6.03319148      15.20236883
Ni       3.60295627       2.11940783      -0.00845506
Ni       3.64511686       1.71366811      15.28772013
Ni       1.10401439       6.24903665      -0.10755777
Ni       1.23985120       5.91571169      15.27383773
Ni       1.15881753       1.86280433       7.70219223
Ni       1.10458968       1.61100168      22.90962321
Ni      -1.21189419       6.18518403       7.50347708
Mg      -1.13331339       5.77521974      22.81388934
Ni       5.95295575       1.87068301       7.65021175
Ni       5.90144305       1.59260667      22.92327271
Mg       3.62136340       6.07822278       7.55204430
Ni       3.48951274       5.74834651      22.90158187
