189
Lattice="10.057470906431874 -0.3059746812458799 -0.11639230531878157 -5.009811818582102 8.558795223984605 0.00627274875261379 0.1442776869207627 0.3571074831389833 31.47544182117535" Properties=species:S:1:pos:R:3 pbc="T T T"
Mg       0.09209431       0.21030163      14.28305182
Mg       0.21816300       0.30628602      29.95422434
Mg      -2.39427880       4.47573584      14.13674203
Mg      -2.35365119       4.63339197      29.92870071
Mg       5.08237370       0.10647389      14.19401495
Mg       5.15572708       0.18300043      29.99768786
Mg       2.60731331       4.26025653      14.16458034
Mg       2.70502249       4.46894310      29.94349466
Mg      -0.00681668       0.06921849       6.38254499
Mg       0.10907493       0.20798368      22.08637854
Mg      -2.48105477       4.40336885       6.45777643
Mg      -2.45535550       4.40062267      22.14181194
Mg       5.04681944      -0.10175502       6.34543418
Mg       5.08956925       0.11007729      21.98898285
Mg       2.49698651       4.19118590       6.37288922
Mg       2.62064626       4.47767537      22.13035002
Mg       0.08171447       0.12046106       9.27843455
Mg       0.06039447       0.29154365      25.05608957
Mg      -2.49201212       4.37831851       9.31127354
Mg      -2.41733881       4.57416373      25.03734689
Mg       5.08057619      -0.06748825       9.25371934
Mg       5.06289886       0.12252397      25.06497204
Mg       2.47320263       4.24052390       9.32724378
Ni       2.64147810       4.41604996      25.10091958
Mg       0.01700783      -0.01764903       1.53785912
Mg      -2.50329992       4.27868217       1.47922003
Mg      -2.45899877       4.48178104      17.30131381
Mg       5.06442542      -0.16326267       1.39585957
Mg       5.14257827       0.13497928      17.15071002
Mg       2.49584548       4.18080890       1.47248031
Mg       2.53589835       4.35267121      17.20697463
Mg       2.53306311       1.28098455       2.35366216
Mg       2.65854544       1.53386247      18.12864443
Mg      -0.00963150       5.62875931       2.38735895
Mg       0.04611643       5.87442392      18.20281836
Mg       7.54119901       1.11837958       2.41246143
Mg       7.72601521       1.36091719      18.15879829
Mg       5.07440668       5.47448527       2.41206896
Mg       5.11166733       5.60369883      18.08801599
Mg       0.07284051       2.90611315      10.25014706
Mg       0.10586466       3.06009860      26.03197890
Mg      -2.50618380       7.15893678      10.27663584
Mg      -2.40406782       7.36132182      26.02193276
Mg       5.01029463       2.76559340      10.23936751
Mg       5.13008568       2.99367975      25.99078894
Mg       2.51071985       7.09024535      10.26234075
Mg       2.64919586       7.23983652      25.96912921
Mg       2.47658659       1.35249719       5.35692375
Mg       2.65912037       1.57872746      21.11586530
Mg      -0.05026252       5.72904110       5.42600477
Mg       0.07225043       5.89404268      21.07862115
Mg       7.59641561       1.28199316       5.34291164
Mg       7.68596747       1.39980818      21.08792214
Mg       5.01509103       5.55079749       5.31022909
Mg       5.15269806       5.64331809      21.07078838
Mg       0.02218645       2.95436371      13.27719005
Mg       0.19317174       3.19710067      29.02868029
Mg      -2.52585565       7.20015055      13.21251759
Mg      -2.31233791       7.46733391      29.10366660
Mg       5.13899779       2.71483456      13.27209540
Mg       5.19423760       2.90924792      28.90865418
Mg       2.73361016       7.07302676      13.20941316
Mg       2.67115131       7.28624254      29.03293685
Ni       2.47241810       1.42226992      13.80776486
Ni       2.60680946       1.65081741      29.46073711
Ni       0.12149201       5.78370949      13.70801680
Ni       0.14943286       5.94801769      29.47156721
Ni       7.54986403       1.33078828      13.71914258
Ni       7.63802532       1.53122510      29.46501901
Ni       5.02012632       5.64747603      13.63201135
Ni       5.17584522       5.83090102      29.38275246
Ni      -0.02239749       2.90626610       5.86850352
Ni       0.11636071       3.05393654      21.55220052
Ni      -2.51630741       7.12938779       5.93726679
Ni      -2.35833718       7.36900240      21.62705074
Ni       5.03835980       2.65089850       5.89074156
Ni       5.11208080       2.87017224      21.54687749
Ni       2.54333764       6.95701172       5.81901917
Ni       2.54197911       7.24673073      21.62305518
Mg       2.58874916       1.38613953       9.92566162
Ni       2.63907773       1.63680110      25.54918438
Ni       0.05189065       5.69460359       9.74098342
Ni       0.19519313       5.92092968      25.53540123
Ni       7.62183889       1.30465975       9.80798550
Ni       7.60798628       1.41458808      25.47034028
Ni       5.02771954       5.62067041       9.72170098
Ni       5.10898853       5.71730721      25.45266325
Ni      -0.01793401       2.84861623       1.95600593
Ni       0.09204615       3.02391137      17.68357392
Ni      -2.47823761       7.06428442       1.97175123
Ni      -2.44679022       7.29514375      17.66037009
Ni       5.09499941       2.69666353       1.89926664
Ni       5.20000380       2.92266158      17.61400453
Ni       2.53959682       6.95091285       1.97587650
Ni       2.65249630       7.22537684      17.59443356
Ni       2.56190705       2.90741563      11.77002222
Ni       2.62297498       3.09268788      27.48857819
Ni       0.12592883       7.07453610      11.74485363
Ni       0.06946553       7.30434594      27.48075945
Ni       7.64193305       2.69985214      11.72366208
Ni       7.69329827       2.82732092      27.42953313
Ni       4.99696314       7.02806034      11.78709414
Ni       5.17562568       7.14605006      27.34251652
Ni       3.83696511       0.76383954      11.80500755
Ni       3.88171465       0.85795073      27.48259058
Ni       1.40323540       5.11724297      27.52506278
Ni       8.79794073       0.57018986      11.74056559
Ni       8.82786781       0.66593752      27.50403553
Ni       6.37758691       4.83245137      11.69894289
Ni       6.46875539       5.05342926      27.37669785
Ni       1.26803680       3.51805173       3.99318964
Ni       1.26343575       3.72202064      19.61566365
Ni      -1.25379487       7.85488140       3.85592597
Ni      -1.15228691       8.06647739      19.64259358
Ni       6.29028167       3.42350707       3.79974102
Ni       6.48766014       3.46845765      19.54452170
Ni       3.86122429       7.66166255       3.78695953
Ni       3.78707655       7.81774904      19.63363348
Ni       1.22266523       0.83568627      11.80861697
Ni       1.48682153       0.93936181      27.46624763
Ni      -1.19935866       5.12007282      11.82021766
Ni      -1.05167896       5.14986347      27.48952081
Ni       6.29767611       0.60250231      11.82720510
Ni       6.42758057       0.86025893      27.44504594
Ni       3.82044299       4.95961519      11.68692662
Ni       3.89239989       5.04317664      27.46182363
Ni       0.01079308       1.44080561       3.98277293
Ni       0.08611602       1.71644281      19.59058168
Ni      -2.50613209       5.79739037       3.97936168
Ni      -2.44083451       5.92614874      19.61887495
Ni       5.05020717       1.28907929       3.84637592
Ni       5.13047570       1.50916972      19.58514799
Ni       2.56794170       5.57906129       3.88970192
Ni       2.66126497       5.67410783      19.53432334
Ni      -1.23597371       3.60782468       3.90703028
Ni      -1.20793083       3.78134992      19.62793189
Ni      -3.73438072       7.83406500       3.92279469
Ni      -3.64565636       8.06439368      19.71380299
Ni       3.80096399       3.39437128       3.84223616
Ni       3.87105158       3.57507209      19.58454471
Ni       1.33283548       7.63880371       3.83370419
Ni       1.35929514       7.92628516      19.62771010
Ni       2.53064596      -0.14521403      -0.10823545
Ni       0.05142476       4.21471362      -0.04597138
Ni       0.16472718       4.39893453      15.67475037
Ni       7.51405235      -0.19647078      -0.07495726
Ni       7.64014066      -0.09875399      15.66279543
Ni       5.03722833       4.03951803      -0.07336730
Ni       5.17358199       4.25570451      15.68766912
Ni       1.36819962       2.02246810      -0.01636081
Ni       1.32275937       2.10721314      15.72298927
Ni      -1.17829616       6.47212759      -0.03542201
Ni      -1.18924397       6.55462653      15.65152259
Ni       6.35051940       1.98645681      -0.11156261
Ni       6.38412823       2.02734070      15.64544285
Ni       3.77732083       6.22184393      -0.01892444
Ni       3.93006017       6.46344352      15.70210125
Ni      -1.15435735       2.26712242       7.85613329
Ni      -0.96530185       2.43297522      23.51034750
Ni      -3.75105974       6.44618987       7.88146992
Ni      -3.62973204       6.63127402      23.58640231
Ni       3.81408658       2.09950460       7.87789428
Ni       3.91551338       2.24442228      23.52071836
Ni       1.27246721       6.43679631       7.80187294
Ni       1.34140066       6.58723029      23.51819960
Ni       2.53093092       0.08219502       7.81587566
Ni       2.51451980       0.11956798      23.48925698
Ni      -0.02189968       4.32964232       7.88399841
Ni       0.09181757       4.50699832      23.49084342
Ni       7.53801254      -0.17824829       7.75448947
Ni       7.57768711       0.10104452      23.58283406
Ni       5.00732634       4.11990391       7.84414879
Ni       5.19781431       4.28547737      23.50783471
Ni      -1.26046850       2.10995213      -0.01065585
Ni      -1.11943457       2.35837411      15.81202017
Ni      -3.80140422       6.50908879       0.05830147
Ni      -3.72485793       6.59373722      15.73596598
Ni       3.78824276       1.97800827      -0.02995913
Ni       3.91566836       2.14144486      15.61397708
Ni       1.32110236       6.31637860      -0.06284763
Ni       1.36206754       6.40802703      15.63988758
Ni       1.38374707       2.14948509       7.82161426
Ni       1.37698565       2.29735042      23.64347659
Ni      -1.23399154       6.41364307       7.83064534
Ni      -1.08073600       6.55726516      23.57928890
Ni       6.27934002       1.92122289       7.79873689
Ni       6.39991324       2.06704439      23.51489377
Ni       3.86840569       6.30200789       7.72175193
Ni       3.87991279       6.55408677      23.57407239
