192
Lattice="9.899199835055065 0.05224605275963867 0.0669639552382853 -4.756187646378835 8.45796642575714 -0.00032182289794022997 -1.7318397600287614 -0.18614262310794039 31.084713069026805" Properties=species:S:1:pos:R:3 pbc="T T T"
Mg      -0.77650099      -0.05801121      14.03217245
Mg      -1.60438500      -0.18821628      29.57329275
Ni      -3.10270806       4.15717554      14.06139562
Mg      -3.99262487       4.12931888      29.54684656
Mg       4.15434596      -0.13295102      14.13061671
Mg       3.34112103      -0.15373760      29.59638762
Mg       1.79589488       4.21276882      14.06109054
Mg       0.95075225       3.97431812      29.63989670
Mg      -0.29901935      -0.04097107       6.34954920
Mg      -1.21732210      -0.09424285      21.90661941
Mg      -2.70434036       4.17549231       6.26228616
Mg      -3.62821307       4.07025965      21.84656997
Mg       4.57224356       0.08560776       6.30387182
Mg       3.76281670      -0.06586601      21.88858118
Mg       2.20530421       4.21805522       6.31199525
Mg       1.31419538       4.11235694      21.86537858
Mg      -0.44496162      -0.08485485       9.30199897
Mg      -1.39969292      -0.07918808      24.84437595
Mg      -2.82753885       4.13400412       9.22257161
Mg      -3.78954371       4.08597825      24.77042748
Mg       4.45162058      -0.08193352       9.24476308
Mg       3.59730913      -0.13030005      24.79481777
Mg       2.08880026       4.18996882       9.21077429
Mg       1.25297814       3.99771167      24.81711996
Mg      -0.07813407      -0.09406931       1.47068764
Mg      -0.90007447      -0.10198635      17.01778264
Mg      -2.48623415       4.26034311       1.38304077
Mg      -3.36634290       4.13173119      17.05148802
Mg       4.92238731      -0.03296250       1.41094478
Mg       4.02109930      -0.02813899      17.05329836
Mg       2.44078747       4.28969974       1.62007643
Mg       1.52513033       4.18320766      16.99889664
Mg       2.43314447       1.46083499       2.49304325
Mg       1.42157853       1.34802465      17.97353754
Mg       0.04401138       5.63004630       2.47391939
Mg      -0.86227794       5.52866239      17.94006012
Mg       7.29751074       1.40919136       2.44867678
Mg       6.42659593       1.43283990      18.07556313
Mg       4.97726556       5.61459323       2.52345738
Mg       4.02808098       5.53416715      18.05889525
Mg      -0.52470490       2.76495580      10.25947986
Mg      -1.38377177       2.60684644      25.78553498
Mg      -2.85450872       7.01491728      10.24618435
Mg      -3.79182113       6.88554067      25.76661404
Ni       4.42841104       2.87493857      10.22205256
Mg       3.57214009       2.70679605      25.78613846
Mg       2.09035157       6.99302817      10.24579749
Mg       1.14309921       6.98467731      25.80954889
Mg       2.16478645       1.31261890       5.41575481
Mg       1.30206592       1.25992794      20.96372607
Mg      -0.05302558       5.59650141       5.42527673
Mg      -1.08050435       5.54780218      20.92222039
Mg       7.14281519       1.37555537       5.39802250
Mg       6.34941560       1.22475611      20.94175191
Mg       4.81358017       5.63072185       5.32433104
Mg       3.94838619       5.63220483      20.95316716
Mg      -0.62532988       2.79982299      13.08584266
Ni      -1.51112144       2.69641864      28.47889823
Mg      -3.08674488       7.02355960      13.09620501
Mg      -3.99431315       6.88748385      28.67981877
Ni       4.26206986       2.75468898      13.22233856
Mg       3.34378467       2.69207467      28.63832827
Mg       1.92101701       6.95503720      13.20967298
Mg       1.04026364       6.94031695      28.70624963
Ni       1.67080972       1.41900351      13.65360830
Ni       0.88214434       1.40335700      29.18697330
Ni      -0.65765789       5.59551037      13.66071721
Ni      -1.52110971       5.54846393      29.24542791
Ni       6.63741481       1.32431957      13.67005097
Ni       5.75178778       1.25268751      29.21710265
Ni       4.38679572       5.64032931      13.68710394
Ni       3.40960983       5.48604695      29.18779178
Ni      -0.31483178       2.87287944       5.79751405
Ni      -1.12674853       2.66697603      21.34223418
Ni      -2.70327987       7.00434448       5.86329745
Ni      -3.48930621       6.88879473      21.48361751
Ni       4.77534654       2.75853101       5.84668073
Mg       3.74815735       2.68553642      21.41789602
Ni       2.27874160       7.22023440       5.82545524
Ni       1.40622670       7.00034373      21.43581531
Ni       1.99705564       1.38462726       9.80297197
Ni       1.13158324       1.23366105      25.21043193
Ni      -0.43665005       5.63686416       9.68770354
Ni      -1.23244919       5.49248155      25.17426872
Ni       6.87562085       1.38082684       9.72664907
Ni       6.05321772       1.33700677      25.32970884
Ni       4.56461209       5.62707440       9.75506384
Ni       3.58168548       5.50237166      25.36437389
Ni      -0.02322136       2.65889270       1.97382492
Ni      -0.87648884       2.78905858      17.51079607
Ni      -2.35599947       7.00114266       1.99952185
Ni      -3.31904221       6.95614779      17.52371744
Ni       4.92849841       2.85870776       2.03493828
Ni       4.00521677       2.70139244      17.57747569
Ni       2.58119934       6.94855523       1.85315427
Ni       1.72578787       7.00863813      17.57166968
Ni       1.92243984       2.77471034      11.68420672
Ni       1.03320419       2.63413750      27.24395752
Ni      -0.51585788       7.07013216      11.68070639
Ni      -1.39127215       6.86827880      27.23965564
Ni       6.75085553       2.83543142      11.78383752
Ni       5.99007603       2.74139512      27.33687743
Ni       4.44541900       7.07777471      11.73319591
Ni       3.59932505       6.91107194      27.24103291
Ni       3.06095465       0.66492618      11.68504400
Ni       2.16979445       0.47991749      27.16433375
Ni       0.63913620       4.84783145      11.71115983
Mg      -0.17014797       4.79357444      27.36299969
Ni       7.93557469       0.71519026      11.72874747
Ni       7.15884322       0.55246383      27.09344801
Ni       5.70174539       4.98763051      11.72729481
Ni       4.71546926       4.81977864      27.27553979
Ni       1.11685859       3.51718863       3.94815617
Ni       0.25217627       3.35956998      19.55512759
Ni      -1.32518099       7.76013616       3.88257978
Ni      -2.14963443       7.58249637      19.44993446
Ni       6.01862172       3.62251246       3.95230183
Ni       5.20649640       3.46907043      19.52014520
Ni       3.65269100       7.83931525       3.97549656
Ni       2.82012414       7.68802073      19.47915665
Ni       0.74323967       0.64066619      11.65511436
Ni      -0.18772570       0.56374987      27.19162681
Ni      -1.72118232       4.80064449      11.70054329
Ni      -2.76091055       4.86564178      27.18217893
Ni       5.54563211       0.68183372      11.74161749
Ni       4.67564866       0.60915016      27.21564699
Ni       3.24604958       4.93272837      11.68353770
Ni       2.32880243       4.82102013      27.16296698
Mg      -0.20219958       1.33333085       3.86402741
Ni      -1.03015275       1.36716611      19.40051975
Ni      -2.54372856       5.61372920       3.94343500
Ni      -3.43423314       5.45870756      19.41287774
Ni       4.86067223       1.39017041       3.93704050
Mg       3.87042715       1.30890454      19.42620853
Ni       2.33826759       5.69404928       3.94825204
Ni       1.50917573       5.54893759      19.38536126
Ni      -1.43012663       3.59278706       3.84832551
Ni      -2.19346976       3.38084429      19.43771908
Ni      -3.80360705       7.68236883       3.91707933
Ni      -4.59277937       7.61958156      19.45827272
Ni       3.59217814       3.47748285       3.82531239
Ni       2.79197664       3.41693728      19.47956431
Ni       1.18822778       7.77599267       3.96459823
Ni       0.39644888       7.68401012      19.40726860
Ni       2.47559335      -0.04472831       0.04239445
Ni       1.59790479      -0.06499088      15.65831662
Ni       0.00592369       4.19507084       0.03375868
Ni      -0.74127606       4.25898274      15.60474288
Ni       7.45310923       0.06492346       0.04615112
Ni       6.52336842      -0.09389901      15.56365126
Ni       5.10027899       4.31252405       0.04720355
Ni       4.20103712       4.10897037      15.64988103
Ni       1.31158375       2.08415153       0.08879429
Ni       0.39874570       2.04451274      15.63031336
Ni      -1.00860007       6.38574115       0.04203585
Ni      -2.00049546       6.31619372      15.65681278
Ni       6.24949281       2.21534264      -0.02129492
Ni       5.35069121       2.12652072      15.59086158
Ni       3.84239286       6.32814690      -0.01115245
Ni       2.93031407       6.30181485      15.63673589
Ni      -1.58724595       2.02484760       7.71939770
Ni      -2.48662254       1.91871270      23.28181414
Ni      -3.98056800       6.33524946       7.76775283
Ni      -4.88132570       6.26543074      23.32400973
Ni       3.40766859       2.06775476       7.85124029
Ni       2.48542481       1.94949046      23.31478990
Ni       1.01689026       6.27594829       7.77130524
Ni       0.02054297       6.13412716      23.37100862
Ni       1.99936111       0.07505481       7.80965288
Ni       1.12593044      -0.18146932      23.33328342
Ni      -0.43024700       4.19090112       7.86154748
Ni      -1.24342113       4.04706786      23.26906958
Ni       7.02430099      -0.00098421       7.83655490
Ni       5.99183011      -0.12449925      23.37795981
Ni       4.55450598       4.22243410       7.85894212
Ni       3.74518692       4.16430629      23.29593205
Ni      -1.18206963       2.11773347       0.04319391
Ni      -2.07276375       2.03494461      15.50219092
Ni      -3.52370436       6.47254787       0.01097932
Ni      -4.42552818       6.25568181      15.52756532
Ni       3.76457326       2.17272596       0.06523986
Ni       2.86799960       1.96842906      15.55108581
Ni       1.45298866       6.40601335       0.04776251
Ni       0.51059905       6.27402098      15.62195888
Ni       0.88679391       2.06919953       7.77992330
Ni      -0.04674750       1.99999914      23.31466829
Ni      -1.55391818       6.30908683       7.82251332
Ni      -2.47917278       6.26687003      23.38736318
Ni       5.71779423       2.15999251       7.82607193
Ni       4.85768620       2.02826489      23.39576158
Ni       3.50269228       6.33795716       7.91500837
Ni       2.47418009       6.25151804      23.33057553
