192
Lattice="10.049119207693558 0.12209751772054797 0.09623042742619678 -5.057223699207713 8.202091322696376 -0.020231884396176483 1.195489643416966 0.0065913591270596785 31.695973715152853" Properties=species:S:1:pos:R:3 pbc="T T T"
Mg       0.49486209      -0.09769253      14.32092432
Ni       1.15172671       0.04941702      30.27303894
Mg      -1.98956848       4.17486319      14.34852181
Mg      -1.30526194       4.11472041      30.22004008
Mg       5.61474905       0.06355768      14.46724309
Mg       6.20024010       0.04966293      30.29313217
Mg       2.98624635       4.18827328      14.40395140
Mg       3.59233134       4.12645933      30.25818032
Mg       0.20162568      -0.01260065       6.40292570
Mg       0.82851894       0.04815448      22.37713635
Mg      -2.30867567       4.04981165       6.38981102
Mg      -1.74432043       4.05269934      22.23339547
Mg       5.26027598       0.12671976       6.55955590
Mg       5.81231789       0.12382659      22.34958978
Mg       2.74358048       4.11488914       6.50731864
Mg       3.35489697       4.19677752      22.32633882
Mg       0.42806012      -0.00898449       9.46272866
Mg       1.04083557       0.00427703      25.25390525
Mg      -2.04409693       4.09589610       9.41385376
Mg      -1.60060190       4.05887773      25.30628133
Mg       5.45009300      -0.01625118       9.45326046
Mg       6.06289383       0.09942485      25.30354890
Mg       2.82860564       4.07597425       9.43008128
Mg       3.40752161       4.21826143      25.35370542
Mg       0.05702881       0.03148188       1.42901354
Mg       0.65090743      -0.00639084      17.25232269
Mg      -2.46153425       4.21131565       1.45655915
Mg      -1.90004848       4.08837798      17.37636495
Mg       5.13958904       0.06237373       1.56119810
Mg       5.68633615       0.09504771      17.41182333
Mg       2.50340895       4.18743294       1.66310122
Mg       3.16732568       4.10883927      17.39506144
Mg       2.60644460       1.33979468       2.40955817
Mg       3.15968531       1.39525602      18.35617098
Mg       0.12059085       5.48623248       2.40950831
Mg       0.59660382       5.53116424      18.36947916
Mg       7.63339657       1.36451230       2.46922571
Mg       8.21197357       1.43817610      18.37781518
Ni       5.17597083       5.58242292       2.49812018
Mg       5.64107624       5.62496535      18.40947146
Mg       0.33196620       2.74470492      10.32151263
Mg       1.01960212       2.75817741      26.23665498
Mg      -2.12758641       6.87174238      10.33315074
Mg      -1.53303344       6.86994754      26.19971717
Mg       5.36594193       2.81935769      10.39479051
Mg       5.86917543       2.85586443      26.22070352
Mg       2.94409002       6.89829727      10.42384648
Mg       3.46609634       6.90634404      26.40699164
Mg       2.69681649       1.37209222       5.48327277
Ni       3.33163885       1.33249808      21.37541483
Mg       0.23481068       5.54156182       5.44841671
Mg       0.86379653       5.55927887      21.30857260
Mg       7.79560221       1.46938932       5.50936791
Mg       8.34379726       1.47301520      21.35634623
Mg       5.16515494       5.56724143       5.55835180
Ni       5.80720493       5.63776778      21.41514619
Mg       0.45780513       2.72312114      13.39121134
Mg       1.05903265       2.77643725      29.21457962
Ni      -1.99182597       6.80454854      13.38268200
Mg      -1.40277284       6.92248828      29.23139668
Mg       5.57434480       2.73100232      13.49886708
Mg       6.19738508       2.88447262      29.29764061
Mg       2.94803368       6.96762348      13.29006269
Mg       3.60922837       6.90440365      29.30172174
Ni       3.02453054       1.33809456      13.92620079
Ni       3.60245651       1.43637564      29.72534881
Ni       0.44076145       5.46441238      13.97788223
Ni       1.05334389       5.44265575      29.77386722
Ni       8.01145543       1.49886714      13.97254408
Ni       8.54830776       1.48939935      29.77899045
Ni       5.58662120       5.62367255      13.92071881
Ni       6.10808166       5.59272390      29.83394513
Ni       0.19845030       2.71816005       5.85426602
Ni       0.87694146       2.75751264      21.79991514
Ni      -2.27365924       6.82581011       5.91921335
Ni      -1.74102679       6.85167096      21.83824609
Ni       5.32358847       2.78158785       5.99806879
Ni       5.77665931       2.80452421      21.86759103
Mg       2.78300176       6.90074912       5.97747711
Ni       3.36241195       6.94879140      21.72808573
Ni       2.90767333       1.38873283       9.99438268
Ni       3.40389376       1.43707590      25.73756187
Ni       0.42973109       5.42930824       9.97674718
Mg       1.01713705       5.47485220      25.75790302
Ni       7.84300486       1.45714505       9.97790824
Ni       8.47105518       1.43365997      25.79363262
Ni       5.36021761       5.60988650       9.95308621
Ni       5.97975620       5.62148581      25.76969680
Ni       0.06077662       2.76659265       2.00081660
Ni       0.68521255       2.65390369      17.92686553
Ni      -2.41158076       6.77700450       2.00725556
Ni      -1.84301141       6.83051792      17.88637452
Ni       5.10623212       2.88185781       2.09752156
Ni       5.69496233       2.84072293      17.92173625
Ni       2.51160946       7.00009368       2.01675891
Ni       3.12462694       6.95512642      17.91077653
Ni       2.91302143       2.73868256      12.00497956
Ni       3.51268832       2.75982639      27.67055486
Ni       0.46661896       6.89898756      11.97838348
Ni       1.08096799       6.91048664      27.74117592
Ni       7.94655866       2.77927543      11.97165238
Ni       8.52745612       2.88114780      27.83275536
Mg       5.45154671       6.91091640      11.90268600
Ni       6.06520395       6.90325800      27.71212813
Ni       4.13246113       0.73074862      11.90303185
Ni       4.85682856       0.73175426      27.74921453
Ni       1.74942221       4.90318863      12.00251340
Ni       2.27495300       4.87954759      27.80897196
Ni       9.27390035       0.87664651      11.88240189
Ni       9.87394166       0.78158646      27.83609746
Ni       6.67602528       4.92795657      12.02027433
Ni       7.20184330       4.86346257      27.76972220
Ni       1.50263115       3.55219534       3.95244933
Ni       2.05675513       3.51019868      19.88710498
Ni      -1.09412067       7.54332059       4.03716236
Ni      -0.55239496       7.50099837      19.84978326
Ni       6.44599804       3.46792902       4.04473771
Ni       7.06411837       3.54260389      19.88268941
Ni       3.84985066       7.65343599       3.99461235
Ni       4.49003598       7.56023254      19.95727556
Ni       1.70829762       0.66632433      11.84806135
Ni       2.20660631       0.72341103      27.74147356
Ni      -0.86269522       4.86273755      11.87882618
Ni      -0.21902470       4.85574827      27.68192294
Ni       6.69672249       0.88078424      11.99526203
Ni       7.25545598       0.67035559      27.84399257
Ni       4.22620182       4.88280237      12.00737904
Ni       4.74696769       4.86149172      27.77534950
Ni       0.11450345       1.34278764       3.90528312
Ni       0.64549135       1.41081659      19.83529800
Ni      -2.38510104       5.46154193       3.97461932
Ni      -1.81609808       5.41840485      19.76492457
Ni       5.19342765       1.40138551       4.07231519
Ni       5.76720326       1.39379923      19.84973296
Ni       2.51833361       5.52627165       3.86841977
Ni       3.13214766       5.57321105      19.85144100
Ni      -1.15634294       3.45470283       3.94559006
Ni      -0.51449584       3.42448529      19.75856510
Ni      -3.67715427       7.53605773       3.95632292
Ni      -3.05241275       7.60532047      19.69262639
Ni       3.79095702       3.42235254       3.97858435
Ni       4.54768882       3.50878726      19.84967576
Ni       1.37299773       7.59684478       4.04191766
Ni       2.03857937       7.68282655      19.84275739
Ni       2.60496770       0.08030985       0.01116280
Ni       3.08136879       0.06601812      15.79448411
Ni       0.00207854       4.10219722      -0.02073112
Ni       0.51682359       4.11384582      15.82483502
Ni       7.61073073       0.07013807       0.15001221
Ni       8.16729558       0.08384488      15.92521233
Ni       4.96419315       4.22855620       0.14601700
Mg       5.61322220       4.21369424      15.90132795
Ni       1.23089764       2.03100351      -0.07769441
Ni       1.85058226       2.11906887      15.92266703
Mg      -1.27525271       6.17375332       0.02604818
Ni      -0.68089467       6.29310112      15.84100661
Ni       6.24988790       2.13375306       0.07039629
Ni       6.83967781       2.22536994      15.92860967
Ni       3.80884711       6.24556633       0.09084426
Ni       4.39256921       6.28154838      15.92711798
Ni      -0.97368060       2.06236739       7.85526675
Ni      -0.34701813       2.07273913      23.81222750
Ni      -3.52038640       6.09892442       7.87169122
Ni      -2.97876066       6.09245911      23.73028528
Ni       4.13819867       2.13881290       7.99157919
Ni       4.59531955       2.14167299      23.87649041
Ni       1.51134627       6.18107147       7.95452148
Ni       2.08670018       6.17156463      23.74589224
Ni       2.75071192      -0.02074657       7.93183169
Ni       3.38633104       0.09008022      23.86006436
Ni       0.30812888       4.03797854       7.88688129
Ni       0.90585718       4.06281964      23.77847991
Ni       7.78305121       0.09896437       8.04459400
Ni       8.36343389       0.10798509      23.89361217
Ni       5.37454047       4.26535615       8.00159080
Ni       5.88498313       4.23372986      23.80047670
Ni      -1.35616673       2.07759586      -0.04275196
Ni      -0.62819597       2.08913026      15.87577750
Ni      -3.84301724       6.10793499      -0.01058041
Ni      -3.24548437       6.06699662      15.80927052
Ni       3.77586255       2.13080006       0.01059668
Ni       4.33389260       2.06697935      15.86831342
Ni       1.31960449       6.19729642      -0.06349052
Ni       1.80488170       6.17789667      15.88075052
Ni       1.53308867       2.05521426       7.95740061
Ni       2.12361572       2.01048272      23.77012326
Ni      -1.00370228       6.19072891       7.92285694
Ni      -0.31359275       6.13567532      23.79983523
Ni       6.51313658       2.15019959       7.99067863
Ni       7.16382543       2.15642080      23.90387791
Ni       4.14795544       6.18070451       7.93679289
Ni       4.62310206       6.33955715      23.89751826
