189
Lattice="9.599264796577069 -0.008883710767844397 0.23277286987541723 -4.517187848293256 8.363351513925004 -0.18263384993787193 0.8674471760264776 0.2582464605183997 32.726768641384055" Properties=species:S:1:pos:R:3 pbc="T T T"
Mg       0.41261901       0.10232175      14.82086011
Mg       0.91951089       0.10382731      31.20797390
Mg      -1.84864115       4.25937326      14.75408016
Mg      -1.50737103       4.37416745      31.09157813
Ni       5.25105303       0.12101955      15.00928422
Mg       5.50124275       0.24084335      31.25469246
Mg       2.88827264       4.33055017      14.81391639
Mg       3.38471105       4.40638107      31.27451390
Mg       0.15016133       0.03864446       6.74534156
Mg       0.58316488       0.20826770      22.93976599
Mg      -2.07532903       4.21393747       6.59987261
Mg      -1.60348959       4.38433475      22.95958251
Mg       4.97319919       0.10776738       6.79775058
Mg       5.43309809       0.15419417      23.14817764
Mg       2.71701124       4.21033503       6.61499990
Mg       3.05701644       4.37421959      23.07316769
Ni       0.29212507       0.03705556       9.69498392
Mg       0.71369696       0.27825061      26.13468544
Mg      -2.04325370       4.26072490       9.55302531
Mg      -1.65714911       4.40891184      26.02605669
Mg       5.01433018       0.15308584       9.91524983
Mg       5.50145239       0.22773118      26.24128778
Mg       2.79925308       4.19043978       9.71140624
Mg       3.24744243       4.29607207      26.10456157
Mg       0.04131608      -0.00807620       1.56308360
Mg       0.58730549       0.27150470      17.84607135
Mg      -2.16588398       4.23372601       1.39692176
Mg      -1.72241488       4.30972729      17.70064917
Mg       4.80552596       0.02189870       1.66402836
Mg       5.34226131       0.10577614      17.91204978
Mg       2.58253520       4.23519607       1.55898458
Mg       3.04620541       4.31344158      17.97377601
Mg       2.47172161       1.49447753       2.67188460
Mg       2.97104710       1.62538258      18.99322459
Mg       0.24624483       5.68905015       2.45493616
Mg       0.69079128       5.67642073      18.90679579
Mg       7.40765299       1.45179130       2.67620904
Mg       7.75456490       1.49735571      19.02608900
Mg       5.05634465       5.60833846       2.63788542
Mg       5.51855092       5.67804598      18.99057344
Mg       0.34562565       2.87373459      10.57668528
Mg       0.78784574       3.05241883      27.08038118
Mg      -1.88410907       7.02041200      10.60192645
Mg      -1.57463789       7.20133616      27.02711350
Mg       5.18050619       2.85773091      10.69743016
Mg       5.60303663       3.04136320      27.11027626
Mg       2.96231153       7.03408788      10.79929597
Mg       3.34633625       7.14866356      27.17720577
Mg       2.62974103       1.44360269       5.67778662
Mg       3.01080845       1.64630800      22.08556082
Mg       0.31038140       5.62948129       5.53224441
Mg       0.86168886       5.66006767      21.95365370
Mg       7.46060751       1.48381169       5.79179309
Mg       7.83121166       1.56359084      22.19757056
Mg       5.22839889       5.58261412       5.67691561
Ni       5.60349568       5.75637487      22.06428158
Mg       0.47060561       2.90921191      13.85748124
Ni       0.85564833       3.02886935      30.24519157
Mg      -1.81875837       7.06706756      13.62560614
Mg      -1.42847999       7.25651286      30.17061349
Mg       5.18831088       2.96435637      13.94782603
Mg       5.71956359       3.01242932      30.33408976
Mg       2.94908720       7.08429851      13.89181068
Mg       3.50371639       7.19871931      30.19878975
Ni       2.80190649       1.52700871      14.30629002
Ni       3.20036284       1.65173173      30.69911676
Ni       0.57174546       5.72509905      14.27118055
Ni       0.99155153       5.85530590      30.63849415
Ni       7.68292156       1.50442295      14.46401810
Ni       8.11779427       1.55458895      30.85323389
Ni       5.31377425       5.69117669      14.30705153
Ni       5.79935151       5.80866838      30.71195831
Ni       0.19683572       2.83564185       6.07282408
Ni       0.68082335       2.99236087      22.43045263
Ni      -1.51721112       7.18041563      22.37586826
Ni       5.11485245       2.83428655       6.22184400
Ni       5.56252767       2.97728844      22.56419560
Ni       2.77177206       7.05832633       6.18869406
Ni       3.21335430       7.12215602      22.47590328
Ni       2.62104653       1.41400340      10.26137923
Ni       3.09549165       1.56454101      26.59979566
Ni       0.42421166       5.62761051      10.30197173
Ni       0.89911011       5.88521669      26.51854930
Mg       7.53519240       1.38985066      10.35160001
Ni       7.90933869       1.61229671      26.80067269
Ni       5.32160422       5.74652870      10.35200550
Ni       5.65060579       5.66179154      26.72886505
Ni       0.18329925       2.84908541       2.00673694
Ni       0.55045062       2.91591808      18.39205263
Ni      -2.05292847       6.97001755       1.93553634
Ni      -1.66540852       7.14593483      18.35490264
Ni       4.94252272       2.84918301       2.13140574
Ni       5.41670064       2.91880468      18.57486018
Ni       2.66955598       6.96108356       2.06569308
Ni       3.13924058       7.08929669      18.32006870
Ni       2.74117286       2.84534751      12.31593256
Ni       3.22630977       2.97007405      28.70230928
Ni       0.64081901       7.07039290      12.27603758
Ni       1.00801687       7.12800331      28.52045670
Ni       7.57520388       2.86222421      12.40834649
Ni       8.04261628       2.94401733      28.79663985
Ni       5.35541364       7.08000221      12.29431280
Ni       5.77954118       7.11488572      28.71241366
Ni       4.02476268       0.83448769      12.39669209
Ni       4.43537831       0.91130322      28.68607240
Ni       1.70902658       5.00990878      12.25577985
Ni       2.14513759       5.13983532      28.69727817
Ni       9.18932097       0.98175083      28.85728246
Ni       6.43570528       4.96021021      12.46642739
Ni       6.84704675       5.09373986      28.72564000
Mg       1.40965656       3.59768921       4.02076324
Mg       1.78090510       3.64285631      20.48329563
Ni      -0.89944126       7.62726414       3.96554637
Ni      -0.39426800       7.86277096      20.30825398
Ni       6.26960515       3.50743979       4.18556935
Ni       6.66349483       3.53451059      20.54927930
Ni       3.94363397       7.62198238       4.05061977
Ni       4.41444807       7.78854920      20.44022342
Ni       1.49705164       0.79664589      12.29499070
Ni       2.00437576       0.83032461      28.59443253
Ni      -0.72730035       4.99038965      12.12827859
Ni      -0.24669917       5.07489201      28.54040213
Mg       6.41443900       0.73660006      12.50685615
Ni       6.76600327       0.93979758      28.85625808
Ni       4.12962645       4.95392840      12.41033160
Ni       4.57378259       5.09577419      28.71813081
Ni       0.14625064       1.54553998       4.10608563
Ni       0.52208372       1.52495018      20.50217813
Ni      -2.10345703       5.59618311       3.95574277
Ni      -1.81352631       5.75044713      20.39415690
Ni       4.94465491       1.34846588       4.08148955
Ni       5.37608604       1.59042403      20.64457777
Ni       2.74214382       5.58192488       4.11133662
Ni       3.14280951       5.85167272      20.47398026
Ni      -0.96578454       3.49265966       4.03174671
Ni      -0.54924322       3.64338158      20.42370295
Ni      -3.29477251       7.75060662       3.99972045
Ni      -2.74397707       7.85047837      20.31653235
Ni       3.91476378       3.48704213       4.21108249
Ni       4.27248306       3.70930944      20.54571872
Ni       1.58664042       7.70834538       4.13937166
Ni       2.02579865       7.83980817      20.47280517
Ni       2.40487299      -0.02312865       0.03338394
Ni       2.83101248       0.09175558      16.47398742
Ni       0.10142363       4.22160986      -0.02023592
Ni       0.60659953       4.39545678      16.36198233
Ni       7.24378859      -0.01525713       0.11776387
Ni       7.63090392       0.12541981      16.46812175
Ni       4.92471754       4.14319817       0.12535373
Ni       5.41533552       4.34271057      16.49111126
Ni       1.25530023       2.07761701       0.00438521
Ni       1.69300089       2.21920621      16.33721384
Ni      -0.90893320       6.31866986      -0.14188501
Ni      -0.53516668       6.44067381      16.30701416
Ni       6.05795686       2.04859482       0.00674864
Ni       6.47933527       2.32740306      16.51733852
Ni       3.79196902       6.32096826      -0.00511360
Ni       4.20691563       6.44708972      16.40486486
Ni      -0.97290970       2.15041490       8.14407437
Ni      -0.45961576       2.38383742      24.53469380
Ni      -3.19611670       6.32217198       8.04717784
Ni      -2.70113533       6.41346325      24.39393765
Ni       3.92565370       2.11120969       8.13949097
Ni       4.34930434       2.24314491      24.58988578
Ni       1.61452221       6.35359882       8.12879473
Ni       1.98308913       6.45348022      24.44659232
Ni       2.70435170       0.04739162       8.16759363
Ni       3.05846644       0.31346437      24.58319744
Ni       0.36256346       4.21706418       8.06332739
Ni       0.88037717       4.31310807      24.50583986
Ni       7.37053584       0.08055005       8.33938858
Ni       7.87839615       0.17833976      24.69792441
Ni       5.13179266       4.27925759       8.28448027
Ni       5.58754045       4.34051630      24.66370063
Ni      -1.15825683       2.06809932       0.02497458
Ni      -0.65659837       2.17426724      16.33162372
Ni      -3.36724262       6.27767840      -0.17522771
Ni      -2.93679451       6.47160321      16.22840660
Ni       3.68013296       2.05619485       0.03995943
Ni       4.06554539       2.22215142      16.44974118
Ni       1.40462779       6.23924223      -0.10054309
Ni       1.91346030       6.35511298      16.37958522
Ni       1.48011162       2.15129216       8.22802573
Ni       1.88993020       2.34322409      24.58781981
Ni      -0.35640505       6.48788624      24.55694695
Ni       6.28506948       2.22971215       8.33464477
Ni       6.71067546       2.31012640      24.62272206
Ni       4.07246490       6.26613632       8.24429863
Ni       4.46752730       6.41678773      24.52226231
