191
Lattice="10.054770579691262 0.09289249914627222 0.108977595275577 -4.745136499485937 8.408092604099174 -0.15094156809238304 0.13381320994673399 1.0159781459967339 32.082831333609505" Properties=species:S:1:pos:R:3 pbc="T T T"
Mg       0.14486084       0.41791395      14.42858282
Mg       0.16194485       0.99444295      30.52084775
Mg      -2.31112185       4.66499171      14.33503930
Mg      -2.31636233       5.16029876      30.45932287
Mg       5.07045577       0.56082250      14.54394698
Mg       5.16093902       1.02795708      30.55428775
Mg       2.68802831       4.74142784      14.48946430
Mg       2.66419837       5.13050265      30.59151260
Mg      -0.00631039       0.20473049       6.45103289
Mg       0.16352926       0.68307752      22.57561026
Mg      -2.37842449       4.44821182       6.43486029
Ni      -2.28017602       4.92215573      22.48924240
Mg       5.04451248       0.26050210       6.51085290
Mg       5.05887696       0.70108787      22.54593699
Mg       2.64747226       4.46754073       6.39185903
Ni       2.73896396       4.98000528      22.54088642
Mg      -0.00118801       0.20622973       9.58529919
Mg       0.10342198       0.71578803      25.51861521
Mg      -2.34550336       4.51261986       9.40711268
Mg      -2.24591558       4.96213307      25.57018714
Mg       5.08622539       0.34568500       9.60314059
Mg       5.19440146       0.84425481      25.63120232
Mg       2.79184600       4.51062745       9.45406321
Mg       2.78708142       5.13874361      25.57699772
Mg       0.02205590       0.03253181       1.55288770
Mg       0.10797067       0.63450015      17.61043026
Ni      -2.31673334       4.24003041       1.34073818
Mg      -2.28960925       4.69027345      17.45048072
Mg       5.05991680       0.16039163       1.51833649
Mg       5.07632969       0.66961863      17.67039523
Mg       2.59175530       4.29798211       1.45930955
Mg       2.65103770       4.81725773      17.53756618
Mg       2.63502227       1.54842738       2.53654506
Mg       2.63744886       2.04122176      18.45526305
Mg       0.20018970       5.70355103       2.38575514
Mg       0.16798292       6.23652820      18.53048514
Mg       7.53806140       1.55910657       2.56721773
Mg       7.55357474       2.02705432      18.66794873
Mg       5.20945983       5.78745935       2.53774810
Mg       5.28155770       6.35371385      18.46329435
Mg       0.11361935       3.17702674      10.48275273
Mg       0.19127178       3.64257179      26.54078125
Mg      -2.31166462       7.41601143      10.41797217
Mg      -2.16525710       7.93117763      26.39632428
Mg       5.17199616       3.23706545      10.56787639
Mg       5.14724399       3.69355890      26.57185803
Mg       2.74602667       7.38727444      10.47163902
Mg       2.88885449       7.91373480      26.47582951
Mg       2.44665119       1.55429282       5.59576298
Mg       2.60409251       2.10916013      21.56120541
Mg       0.22353015       5.83026460       5.40534339
Mg       0.35092556       6.28593427      21.46788651
Mg       7.63016572       1.66709471       5.67171254
Mg       7.62627861       2.13228785      21.63724613
Mg       5.23317207       5.89364533       5.65471676
Mg       5.21658343       6.38311557      21.64477546
Mg       0.20843671       3.28291010      13.49077785
Mg       0.27914191       3.71986909      29.49033872
Mg      -2.10227090       7.47944355      13.42438569
Mg      -2.22614115       7.91448013      29.54863041
Mg       5.15228342       3.24347657      13.58921932
Mg       5.19851231       3.72305817      29.62997852
Mg       2.85031519       7.50294691      13.46878023
Mg       2.80484409       7.93736147      29.46744745
Ni       2.68653547       1.93471041      14.06147155
Ni       2.68474724       2.32951664      30.13051668
Ni       0.34380720       6.05325660      13.94813937
Ni       0.36083804       6.59784530      30.04555989
Ni       7.59082231       1.89485205      14.13105681
Ni       7.73106259       2.41794508      30.12728210
Ni       5.25802193       6.08969558      13.96880751
Ni       0.25076696       2.94886239       5.93492561
Ni       0.21557830       3.56862352      22.04091880
Ni      -2.23379530       7.13744590       5.89628583
Ni      -2.08857172       7.68701583      21.95388050
Ni       5.12429514       3.03558280       6.04181838
Ni       5.21953330       3.49211884      22.03504892
Ni       2.79669577       7.14971129       5.99812343
Ni       2.89472694       7.78267825      21.97717045
Ni       2.66994347       1.75376737      10.04957586
Ni       2.68141762       2.16785796      26.11032212
Ni       0.23553549       5.89330803       9.91479621
Ni       0.28377042       6.45842139      25.93166358
Ni       7.59266955       1.74904612      10.05405719
Ni       7.63557037       2.23380437      26.11775531
Ni       5.28491950       5.96065148      10.02961532
Ni       5.34828731       6.56722842      26.07370255
Ni       0.03481326       2.83340893       1.93137115
Ni       0.13043011       3.39371438      18.12554637
Ni      -2.28656197       7.12199069       1.87523755
Ni      -2.17994556       7.65512310      18.01715349
Ni       5.09682501       2.92923131       2.05471825
Ni       5.21852875       3.39090901      18.01225773
Ni       2.76767548       7.16674718       1.98966899
Ni       2.78952882       7.68406935      18.02309338
Ni       2.65107706       3.21646856      12.08241597
Ni       2.70041646       3.64349910      28.09291110
Ni       0.28001217       7.42759331      11.89263931
Ni       0.37695188       7.85542074      27.92846992
Ni       7.70244983       3.27713956      12.13898278
Ni       7.79004155       3.79169994      28.05499540
Ni       5.31173168       7.52613937      12.02807667
Ni       5.44310107       7.91185016      28.07687862
Ni       3.91618366       1.09728675      12.01618007
Ni       3.85486573       1.59164982      28.11504428
Ni       1.43662533       5.37328708      11.99557298
Ni       1.53952408       5.98182472      28.00429223
Ni       8.79492247       1.13394448      12.06404018
Ni       8.90470771       1.66051363      28.18350321
Ni       6.45886677       5.39200538      12.03794835
Ni       6.60020290       5.94155130      28.17241281
Ni       1.36807037       3.66509440       3.91408452
Ni       1.47195498       4.18445650      19.97326573
Ni      -0.97537365       7.88040871       3.97736288
Ni      -0.93341061       8.40141317      19.87421646
Ni       6.38182275       3.64996052       4.01462475
Ni       6.47070890       4.14165384      20.08265144
Ni       3.97460969       7.94253812       4.03529025
Ni       4.17121350       8.38391096      20.02289051
Ni       1.35703223       1.12285478      12.02585763
Ni       1.39544918       1.58291954      28.14180636
Ni      -1.09054364       5.25662121      11.93558395
Ni      -0.91499299       5.74794288      28.00221737
Ni       6.31013884       1.15683581      12.06262551
Ni       6.43247888       1.72104930      28.15884486
Ni       3.99026569       5.37561986      12.05762057
Ni       3.97401121       5.78110644      28.01759062
Ni       0.09786132       1.48083982       3.98428281
Ni       0.12123771       2.05858086      19.97503987
Ni      -2.35638705       5.79272850       3.86041292
Ni      -2.19010531       6.22295123      19.95135206
Ni       5.13592380       1.54466689       4.04184011
Ni       5.24542271       2.19632900      20.12477003
Ni       2.81279935       5.71558729       3.99569467
Ni       2.75547049       6.29163852      20.03636672
Ni      -1.20894390       3.58843478       3.98899895
Ni      -1.10974530       4.09650521      20.01224702
Ni      -3.45637573       7.86548845       3.81123329
Ni      -3.43575680       8.32285864      19.92958295
Ni       3.86837012       3.70164390       3.99562189
Ni       3.95139892       4.12432760      20.00093354
Ni       1.57088320       7.95097632       3.88233757
Ni       1.62638315       8.41883113      19.90297249
Ni       2.54782668      -0.00416520       0.00156689
Ni       2.52837211       0.44886633      16.03342786
Ni       0.10822055       4.23315514       0.09365231
Ni       0.24016725       4.74316155      16.00998386
Ni       7.55881624       0.14644061       0.14942746
Ni       7.61477402       0.63543909      16.15467582
Ni       5.07010952       4.34297821       0.00108045
Ni       5.19914689       4.79502606      16.06996047
Ni       1.34494348       2.10221472      -0.00015418
Ni       1.40092622       2.58977096      15.99875055
Ni      -1.02381719       6.33237157      -0.05712005
Ni      -0.93707476       6.82862744      15.94259014
Ni       6.34560640       2.21572168      -0.00859886
Ni       6.44959857       2.69372171      16.05819855
Ni       3.96094396       6.44530372      -0.14846943
Ni       4.08759944       6.80943507      15.94733141
Ni      -1.21149113       2.38194804       8.09678514
Ni      -1.17143312       2.90452648      24.04114457
Ni      -3.43875112       6.60872479       7.92109663
Ni      -3.43190520       7.07626436      23.96126405
Ni       3.90819554       2.38670166       7.97687510
Ni       3.88443508       2.87486725      24.14479147
Ni       1.40584487       6.61833164       8.02607245
Ni       1.55513425       7.17107847      23.98076605
Ni       2.62418682       0.33296700       8.11024432
Ni       2.60493084       0.84290761      24.05232086
Ni       0.16257800       4.42143316       7.98670554
Ni       0.18565399       4.99252537      23.96572565
Ni       7.54984148       0.36311231       8.10908817
Ni       7.77049517       0.89313412      24.17779648
Ni       5.16394791       4.53092232       8.13102892
Mg       5.24026133       5.06010674      24.12225811
Ni      -1.17231596       2.07503991      -0.05187079
Ni      -1.14161147       2.71216589      15.99937171
Ni      -3.48275077       6.28419139      -0.16941502
Mg      -3.53026717       6.73840203      15.85816035
Ni       3.83125243       2.20842119      -0.08155679
Ni       3.84251081       2.62011255      16.07342349
Ni       1.44035866       6.32155603      -0.02762667
Ni       1.53067411       6.82510180      16.01111026
Ni       1.31811822       2.37397375       8.00015998
Mg       1.45181676       2.88746279      24.01706592
Ni      -0.97548172       6.64599164       7.84748135
Ni      -0.97863676       7.12371295      23.94485272
Ni       6.44550868       2.44919010       8.00883710
Ni       6.36489914       2.98248721      24.18228078
Ni       4.01803299       6.56923397       7.90492257
Ni       4.14766339       7.11512857      24.00968980
