191
Lattice="9.881145880271365 0.016373885439655126 -0.29678898346279375 -5.0668760041974 8.505873783771571 -0.045622764961127174 0.020704636713639205 0.8214622012795464 32.756849273546315" Properties=species:S:1:pos:R:3 pbc="T T T"
Mg       0.11044175       0.34092312      14.79497799
Mg      -0.00265008       0.76557727      31.15962931
Mg      -2.41902925       4.59216529      14.98811954
Mg      -2.42958200       5.03930488      31.13486949
Mg       4.94297600       0.41114847      14.70023025
Mg       5.00954607       0.80230622      30.97326108
Mg       2.43467396       4.72457812      14.71189580
Mg       2.51903777       5.06288662      31.03620301
Mg      -0.04729692       0.18792285       6.59285883
Mg      -0.01682094       0.59153976      23.04781231
Mg      -2.53623453       4.34873111       6.57879027
Mg      -2.54233675       4.76619333      22.97988579
Mg       5.03226734       0.25413577       6.52706411
Mg       4.97608328       0.61823003      22.82425859
Mg       2.32972387       4.38022425       6.53620958
Mg       2.45120518       4.80472956      22.81383555
Mg       0.02807801       0.31423649       9.77444837
Mg       0.02657202       0.55316204      26.12567801
Mg      -2.56387532       4.46977828       9.73689482
Mg      -2.57174097       4.83834405      26.18386155
Mg       4.95916958       0.28390965       9.60569291
Mg       4.95573854       0.67876298      25.91426593
Mg       2.42739138       4.50681451       9.64041008
Mg       2.47933959       4.96534659      25.92696081
Mg      -0.02111782       0.01929033       1.54332720
Mg       0.08260651       0.41375663      17.89122120
Ni      -2.51963822       4.18678989       1.51315121
Mg      -2.53082677       4.56097320      17.89826640
Mg       4.97614233       0.05927158       1.44446524
Mg       4.88714790       0.41365991      17.82442593
Mg       2.42944204       4.31061472       1.36869931
Mg       2.43143056       4.66898577      17.70445465
Mg       2.38880407       1.53583284       2.49482996
Mg       2.39997423       1.79578234      18.79390911
Mg      -0.08188963       5.77523817       2.39772905
Mg      -0.10291520       6.19554710      18.81487758
Mg       7.44125101       1.49558576       2.30221638
Mg       7.44591533       1.92342219      18.67154313
Mg       4.91772036       5.73876615       2.26066315
Mg       4.82733901       6.16058053      18.68926693
Mg      -0.05430969       3.04238079      10.71798557
Mg      -0.01477551       3.51553743      27.06113284
Mg      -2.58659250       7.30858026      10.70340289
Mg      -2.54079711       7.73470525      26.94948647
Mg       4.95293845       3.17660612      10.44018425
Mg       4.98815388       3.51376764      26.96737538
Mg       2.40727154       7.34989707      10.54869596
Mg       2.31097865       7.79198723      27.00388810
Mg       2.41093985       1.55128623       5.41695100
Mg       2.45078485       1.86648620      21.82546565
Mg      -0.15002390       5.78986858       5.51059335
Mg      -0.07147465       6.22564331      21.87279746
Mg       7.40832159       1.45003805       5.39427453
Mg       7.40474360       1.92538717      21.72975563
Mg       4.88369233       5.82722155       5.44283919
Mg       4.81927300       6.24501314      21.70820403
Mg      -0.11978053       3.21108736      13.75196787
Mg      -0.04206798       3.53198371      30.02969761
Mg      -2.59816623       7.45726531      13.79137850
Mg      -2.54110627       7.92263622      30.14995583
Ni       4.88636642       3.20732860      13.70094941
Mg       4.92576678       3.64145553      29.99513729
Mg       2.33981492       7.43924227      13.65446220
Mg       2.30991023       7.83211355      29.95702718
Ni       2.48092846       1.75312013      14.29536509
Ni       2.44993534       2.19977592      30.49231105
Ni      -0.04953654       6.05571516      14.08913935
Ni      -0.08259817       6.46493569      30.54146078
Ni       7.46232261       1.77968229      14.11133027
Ni       7.44965953       2.20316153      30.52249442
Ni       4.89986336       6.03674633      14.08775936
Ni       4.79133401       6.42360860      30.34281138
Ni      -0.01092551       2.96298621       6.09873824
Ni      -0.05897819       3.39890562      22.46091132
Ni      -2.60350111       7.23363229       6.06364155
Ni      -2.57958521       7.60507051      22.43476484
Ni       4.86363905       2.96286734       5.85586850
Ni       4.90140838       3.50476405      22.28214811
Ni       2.37260532       7.27794244       5.92139896
Ni       2.36948950       7.70849753      22.24734536
Ni       2.40976701       1.75018118      10.18173188
Ni       2.46550232       2.13944720      26.48746490
Ni      -0.10524878       5.89591258      10.07424234
Ni      -0.15155251       6.38194388      26.44189444
Ni       7.39741036       1.68102484      10.02567936
Ni       7.44630726       2.05826013      26.34416529
Ni       4.78248290       5.89918074       9.91457067
Ni       4.84634655       6.33907050      26.42044291
Ni      -0.07275440       2.88135803       1.93937560
Ni      -0.03457258       3.33116310      18.31612582
Ni      -2.52402463       7.15896249       2.02944582
Ni      -2.46108704       7.50644435      18.39870691
Ni       4.93793503       2.89202948       1.80703540
Ni       2.41265530       7.19697353       1.83889358
Ni       2.39498842       7.56984448      18.29966636
Ni       2.32985415       3.12383623      12.21335568
Ni       2.32734402       3.52368015      28.57640035
Ni      -0.08761329       7.40652578      12.18810425
Ni      -0.07530703       7.78570203      28.48808061
Ni       7.32891363       3.03179777      11.98960386
Ni       7.38657989       3.53149463      28.34702745
Ni       4.92919912       7.42313817      11.98698279
Ni       4.73780081       7.75673715      28.32196863
Ni       3.77485814       1.03869009      12.10761251
Ni       3.78131099       1.53302456      28.49066702
Ni       1.18354162       5.24836083      12.20602576
Ni       1.15982362       5.63240849      28.53330181
Ni       8.57949862       0.99344660      12.07352702
Ni       8.57648860       1.42364730      28.38028587
Ni       6.16403419       5.28989569      12.04328653
Ni       6.06782333       5.61940143      28.35953464
Ni       1.12567107       3.69528964       4.07902642
Ni       1.22147378       4.08529042      20.26566177
Ni      -1.38467745       7.88569912       3.90157967
Ni      -1.36663001       8.29543756      20.34592196
Ni       6.16396364       3.67148036       3.88485838
Ni       6.10284673       4.00985750      20.24172124
Ni       3.63474582       7.91820055       3.71291755
Ni       3.61628905       8.33258573      20.09268749
Ni       1.25850468       1.02856260      12.23154386
Ni       1.25019164       1.39831593      28.49920483
Ni      -1.32071727       5.20086733      12.13906937
Ni      -1.23080206       5.69828624      28.63313769
Ni       6.28908716       0.99051398      12.12019176
Ni       6.20607669       1.46128220      28.54740213
Ni       3.67168302       5.24494792      12.03640093
Ni       3.68372257       5.64997525      28.51428593
Ni      -0.07136796       1.52610596       4.02476188
Ni       0.04433603       1.94400692      20.36695956
Ni      -2.49256241       5.73474773       4.00994125
Ni      -2.52763620       6.21050793      20.47154899
Ni       4.99989106       1.51892798       3.85141467
Ni       5.01385908       1.97770618      20.29348395
Ni       2.35188272       5.81025742       3.78654355
Ni       2.46452597       6.21201144      20.24183178
Ni      -1.26028973       3.65911089       4.10791551
Ni      -1.22742719       4.05299594      20.54524941
Ni      -3.73763504       7.89872221       3.97919196
Ni      -3.84943857       8.25803282      20.40648028
Ni       3.69314578       3.71124776       3.86833772
Ni       3.66580917       4.03165131      20.24001525
Ni       1.08895526       7.85415174       3.83621691
Ni       1.08643709       8.38999209      20.23292773
Ni       2.43329258       0.01613418       0.01536042
Ni       2.53510823       0.38388384      16.30752515
Ni      -0.00956467       4.24264082      -0.07636503
Ni      -0.02565091       4.56040150      16.31409289
Ni       7.46545119      -0.01071153      -0.23034090
Ni       7.36101255       0.41747273      16.10983203
Ni       4.87581272       4.32215927      -0.27261552
Ni       4.92328849       4.65385612      16.13581654
Ni       1.22323294       2.18876138      -0.09623706
Ni       1.19680667       2.55816980      16.32255347
Ni      -1.33315003       6.32711877      -0.08665323
Ni      -1.30736117       6.75741763      16.27106985
Ni       6.16759083       2.15166646      -0.21781607
Ni       6.15113806       2.51795959      16.19021698
Ni       3.60415156       6.43898525      -0.26789808
Ni       3.59015002       6.84431111      16.15688451
Ni      -1.22809186       2.32321105       8.15381456
Ni      -1.25704617       2.70075442      24.56097958
Ni      -3.80085355       6.59367907       8.14007324
Mg      -3.75714077       7.00297895      24.55613987
Ni       3.68927252       2.39051840       8.08024135
Mg       3.69005901       2.73109893      24.39283523
Ni       1.18329723       6.51503392       8.04309700
Ni       1.10355950       6.96620532      24.39985021
Ni       2.35405559       0.10681672       8.09211571
Ni       2.45898935       0.60434708      24.48507131
Ni      -0.03616893       4.41034741       8.12142218
Ni      -0.11206343       4.86196753      24.56609397
Ni       7.29660044       0.21347487       8.10858906
Ni       7.45711963       0.64633728      24.38443335
Ni       4.86476832       4.42599768       7.82372502
Ni       4.87787070       4.90877639      24.28527492
Ni      -1.20413578       2.10716834      -0.03427658
Ni      -1.27476755       2.42478768      16.32589169
Ni      -3.77994429       6.37637550       0.01269826
Ni      -3.84366291       6.79935958      16.42951391
Ni       3.62737804       2.12414535      -0.07217475
Ni       3.66455290       2.50550113      16.26205188
Ni       1.14060954       6.44653627      -0.15391304
Ni       1.13781186       6.82547654      16.16912580
Ni       1.20497377       2.39974469       8.06853921
Ni       1.27796437       2.81881118      24.58673704
Ni      -1.35753236       6.47411972       8.02636292
Ni      -1.34186676       7.05803583      24.51326166
Ni       6.21370812       2.38616179       7.90441270
Ni       6.24602995       2.75117903      24.28714555
Ni       3.68178977       6.58496257       7.95783466
Ni       3.63187582       7.06228327      24.36960149
