190
Lattice="9.661409735142842 0.03006078751667591 -0.3528150200718854 -4.656206038466299 8.487913124921393 0.17750352772297304 0.41122482040248104 -0.8251328415209366 31.622342393481322" Properties=species:S:1:pos:R:3 pbc="T T T"
Mg       0.19511836      -0.45008943      14.37391796
Mg       0.36597163      -0.75560079      30.12238987
Mg      -2.17078320       3.86249421      14.40838245
Mg      -1.91456335       3.42803658      30.24420606
Mg       5.08734078      -0.80728098      30.01481374
Mg       2.70830431       3.80902555      14.24602389
Mg       2.91585811       3.48276895      30.04899385
Mg       0.06389034      -0.17131584       6.44356169
Mg       0.29661436      -0.54612325      22.18740849
Mg      -2.31187346       4.04246757       6.46048380
Mg      -2.06538569       3.67545778      22.39641900
Mg       4.94221098      -0.10453639       6.21985757
Mg       5.04194036      -0.61236333      22.01552639
Mg       2.57910315       4.05089991       6.28298257
Mg       2.80386981       3.67313235      22.11644998
Mg       0.10975515      -0.22149358       9.46250366
Ni       0.34081603      -0.65912568      25.26167861
Mg      -2.23190649       3.94365436       9.42168912
Mg      -2.02472188       3.50673436      25.26157278
Mg       4.91872684      -0.24057206       9.26530778
Mg       5.16085261      -0.61506545      25.04686993
Mg       2.59933786       4.04112098       9.36488534
Mg       2.88071813       3.64417703      25.14350576
Mg       0.03210980      -0.00765296       1.47641862
Mg       0.14044201      -0.45371608      17.30754959
Mg      -2.42051926       4.22575746       1.44697306
Mg      -2.24077716       3.83347942      17.40122574
Mg       4.91057917       0.04321462       1.28928326
Mg       5.11949110      -0.47411220      17.15821323
Mg       2.57162574       4.27985483       1.43993743
Mg       2.74091821       3.76970112      17.24292798
Mg       2.48596348       1.45977103       2.42605995
Mg       2.72233669       0.95333657      18.13242190
Mg       0.20648454       5.60138941       2.33426405
Mg       0.31839404       5.22993636      18.32680144
Mg       7.30852467       1.41536092       2.08068814
Mg       7.50093252       0.97707664      18.07958327
Mg       4.96444423       5.60944950       2.31934758
Mg       5.23449479       5.12842386      18.12445495
Ni       0.21651918       2.61481337      10.35895936
Mg       0.38026016       2.19979171      26.17027063
Ni      -2.15215886       6.85751591      10.51033473
Mg      -1.92159213       6.33231918      26.20575699
Mg       5.02892762       2.59295583      10.07942234
Mg       5.23878178       2.19958724      25.97139717
Mg       2.81415663       6.78936897      10.33423868
Mg       2.92797615       6.51500233      26.19101832
Mg       2.51512570       1.32810615       5.32250815
Mg       2.65741142       0.86556402      21.23351268
Mg       0.17360124       5.57021774       5.29266442
Mg       0.34950066       5.07615142      21.27709440
Mg       7.33933342       1.26023205       5.21933011
Mg       7.65671197       0.84563737      21.03926861
Mg       5.05880362       5.57012101       5.25713552
Mg       5.24433815       5.19079797      21.17398522
Mg       0.23991199       2.52116709      13.43832684
Mg       0.40225979       2.06700879      29.17674397
Mg      -2.10613953       6.73439016      13.42501415
Mg      -1.90280528       6.22409856      29.22881160
Mg       5.19770451       2.09412550      28.99580406
Mg       2.72702248       6.79798755      13.18139864
Mg       2.94152196       6.34505469      29.19185443
Ni       2.62832103       1.07239471      13.83586722
Ni       2.82920374       0.63196903      29.52250440
Ni       0.35408677       5.30120472      13.79069575
Ni       0.42787483       4.90349676      29.62303343
Ni       7.48718522       1.07434099      13.57886250
Ni       7.61338762       0.78031944      29.35121743
Ni       5.16073759       5.29059537      13.69496457
Ni       5.34993369       4.90476501      29.35878527
Ni       0.16694672       2.69286409       5.87827848
Ni       0.25504106       2.28133785      21.75161666
Ni      -2.27119038       6.86388258       6.07067851
Ni      -2.02656322       6.50091684      21.69566110
Ni       5.04921299       2.61083252       5.78675294
Ni       5.18013747       2.27429482      21.50592004
Ni       2.52563266       6.90643406       5.75658755
Ni       2.81154059       6.52720404      21.57522526
Ni       2.63221863       1.11982869       9.86984994
Ni       2.75190017       0.75007604      25.66734514
Ni       0.24019501       5.42380195       9.91620572
Ni       0.49746150       5.03092997      25.69305842
Ni       7.37541121       1.14280969       9.73243483
Ni       7.65602926       0.73343484      25.38050897
Ni       5.13491317       5.27902268       9.67147056
Ni       5.19937693       5.05872016      25.55212273
Ni       0.07997701       2.80974042       2.02321573
Ni       0.34498380       2.41110949      17.72657778
Ni      -2.30496143       7.08589643       1.99688664
Ni      -2.05177963       6.54601690      17.87967444
Ni       4.79480377       2.83870273       1.71398125
Ni       5.19183171       2.33983986      17.55177968
Ni       2.57957799       6.99553595       1.81317309
Ni       2.85097011       6.53338353      17.70287258
Ni       2.63129361       2.55094603      11.77105595
Ni       2.83569830       2.10137627      27.59981695
Ni       0.37370126       6.75257038      11.84480030
Ni       0.52184476       6.35696829      27.63353821
Ni       7.52202928       2.38733527      11.56391989
Ni       7.73541352       2.14772667      27.37532434
Ni       5.10150891       6.81624446      11.65067787
Ni       5.34995121       6.44515727      27.45523470
Ni       3.81026289       0.37079800      11.70225459
Mg       3.91122290       0.01188016      27.56118902
Ni       1.48007966       4.71529929      11.83934788
Ni       1.64274317       4.25973719      27.57389008
Ni       8.64667659       0.37734607      11.54455224
Ni       8.85160788      -0.09539425      27.33457625
Ni       6.20258500       4.68485455      11.69686361
Ni       6.48780348       4.33173861      27.37607555
Ni       1.38978637       3.42375228       3.93469662
Ni       1.52164966       3.14252576      19.80389780
Ni      -0.94904540       7.66624387       3.95724777
Ni      -0.75054866       7.27884852      19.83838690
Ni       6.11183648       3.44177442       3.72674298
Ni       6.37671008       3.08531203      19.58289484
Ni       3.79885409       7.67387635       3.87831125
Ni       4.06541564       7.24354839      19.66036910
Ni       1.33521494       0.37510109      11.77609415
Ni       1.50768716      -0.00328477      27.68766986
Ni      -1.00355942       4.64252976      11.87993681
Ni      -0.75809761       4.26736223      27.69103641
Ni       6.23222250       0.39976244      11.66584774
Ni       6.42214786       0.06823631      27.44556121
Ni       3.89375973       4.69483153      11.70401663
Ni       4.06960737       4.22229301      27.54595566
Ni       0.01030596       1.23628904       3.88824285
Ni       0.27000992       0.94228795      19.73741648
Ni      -2.25023823       5.54032856       4.01194877
Mg      -2.06527589       5.06550943      19.85470659
Ni       4.98654764       1.34203619       3.81355432
Ni       5.17387899       0.88195723      19.62459747
Ni       2.58577921       5.66291061       3.86461929
Ni       2.77691833       5.09010953      19.66425163
Ni      -1.02979631       3.38657041       3.96219529
Ni      -0.86750350       3.09520238      19.84213184
Ni      -3.48355539       7.64897547       4.09828233
Ni      -3.19982829       7.26421417      19.88604746
Ni       3.72076294       3.50751258       3.70839537
Ni       4.01401383       2.95253202      19.66797574
Ni       1.48020279       7.60874184       3.95243721
Ni       1.65573796       7.32340782      19.70666987
Ni       2.43223841      -0.10690357      -0.12599891
Ni       2.61915622      -0.42494718      15.75913451
Ni       0.06688209       4.21930141       0.02919129
Ni       0.26005140       3.83283182      15.81603374
Ni       7.22686399       0.04848820      -0.30662075
Ni       7.56445852      -0.43876890      15.62047666
Ni       4.97665548       4.30684988      -0.15890110
Ni       5.16285007       3.87722021      15.69212859
Ni       1.26493504       2.16233469      -0.04802677
Ni       1.45964504       1.69872678      15.78832776
Ni      -1.11602649       6.30235168      -0.05162251
Ni      -0.76795282       5.97284504      15.78019062
Ni       6.11504285       2.04233282      -0.29524693
Ni       6.30486431       1.71170082      15.57486567
Ni       3.71130737       6.35705693      -0.13742507
Ni       3.96336479       6.11063577      15.70888059
Ni      -1.01616444       1.89632241       7.92149753
Ni      -0.80333164       1.49818443      23.81076330
Ni      -3.38583690       6.19724340       8.03199489
Ni      -3.16995168       5.76249131      23.84630795
Ni       3.79415707       1.95833779       7.69993567
Ni       4.01023025       1.48001463      23.57554077
Ni       1.46540719       6.26213922       7.83311689
Ni       1.65264559       5.77222751      23.76132560
Ni       2.56809834      -0.24116644       7.88643654
Ni       2.74247159      -0.61372805      23.67667364
Ni       0.08388954       4.08799226       7.89764257
Ni       0.38203287       3.68789067      23.64587639
Ni       7.37148882      -0.11684097       7.70853618
Mg       7.46166127      -0.53061894      23.46097017
Ni       5.01300972       4.03444203       7.78762556
Ni       5.25755919       3.66524671      23.49312896
Ni      -1.16607945       2.16889900       0.05350024
Ni      -0.98884817       1.63563902      15.88546578
Ni      -3.55279917       6.36720863       0.09177499
Ni      -3.35832798       5.92736877      15.99968026
Ni       3.64803199       2.05171231      -0.16037921
Ni       3.88671029       1.69969426      15.68493657
Ni       1.34304852       6.39098328      -0.08587527
Ni       1.57510862       6.02178470      15.77404580
Ni       1.36097664       2.01770017       7.92584559
Ni       1.45595103       1.57179141      23.69379331
Ni      -1.03838396       6.10629566       7.98792072
Ni      -0.69519291       5.79559620      23.70434654
Ni       6.14791635       1.98114183       7.73237549
Ni       6.38478617       1.51067767      23.44096092
Ni       3.88259169       6.16450443       7.71703548
Ni       4.05900265       5.82134129      23.62153081
