192
Lattice="9.570577969823237 -0.310392943970341 0.16033113288047723 -4.792501442604031 8.652550428438447 0.14744837317891596 0.8003877076309239 0.027135430513276066 32.39041964796166" Properties=species:S:1:pos:R:3 pbc="T T T"
Mg       0.38457788      -0.00168963      14.60840074
Mg       0.65824762       0.04978392      30.86255572
Mg      -2.00998590       4.38865679      14.79350977
Mg      -1.69830414       4.37521355      30.97963340
Mg       5.11460475      -0.12196501      14.66692748
Mg       5.46902864      -0.07935014      31.07193960
Ni       2.74041778       4.13201457      14.86791430
Mg       3.11122593       4.20104153      31.05571039
Ni       0.07472932      -0.03226736       6.60657494
Mg       0.56090988       0.08257219      22.74868865
Mg      -2.19533322       4.34149171       6.73992904
Mg      -1.83944996       4.35575314      22.84038726
Mg       4.97212751      -0.16551946       6.71073174
Mg       5.39491244      -0.14805104      22.82245864
Ni       2.62459343       4.19101690       6.70351355
Mg       2.96802960       4.13662912      22.98658746
Mg       0.23687318      -0.02221188       9.61804243
Mg       0.62714565       0.05300412      25.82370349
Mg      -2.18621927       4.41115624       9.78221959
Mg      -1.67899427       4.29673479      25.87944920
Mg       5.03407334      -0.10975207       9.74287440
Mg       5.44029442      -0.03392130      25.92927775
Mg       2.67108658       4.16915614       9.73896752
Mg       3.06193176       4.26835792      26.00455599
Mg       0.02699107       0.02192215       1.53260158
Mg       0.44376984       0.01057620      17.78771485
Mg      -2.42965585       4.29570335       1.68434625
Mg      -2.02847070       4.32850896      17.87041927
Mg       4.78499232      -0.10158274       1.54701859
Mg       5.23396645      -0.17292927      17.79517437
Mg       2.45607122       4.16923617       1.67024846
Mg       2.78858338       4.13531482      17.87970949
Mg       2.37479567       1.35876309       2.68162778
Mg       2.85045132       1.26821034      18.86107606
Mg       0.06785546       5.61543260       2.67667171
Mg       0.42141051       5.57768713      18.82930594
Mg       7.27739516       1.17252903       2.74584659
Mg       7.62414678       1.15195485      18.98318409
Mg       4.91951463       5.52845413       2.80549975
Ni       5.26075303       5.57774507      18.87045180
Ni       0.29934422       2.85043965      10.63657731
Mg       0.61407934       2.81620083      26.85395521
Mg      -2.12101637       7.19212980      10.79521347
Mg      -1.70272644       7.16473685      27.13380183
Mg       5.00233693       2.69350176      10.83498602
Mg       5.42534218       2.75245985      27.00839777
Mg       2.66950796       6.96655138      10.84251077
Mg       3.15261837       6.96389827      26.95954868
Mg       2.47671663       1.37143629       5.59094642
Mg       2.86264934       1.37276227      21.86166272
Mg       0.06187028       5.71015402       5.69891933
Mg       0.51377797       5.70380111      22.01830682
Mg       7.31637517       1.27746314       5.77280944
Mg       7.67423892       1.20030104      21.88861672
Mg       4.93407733       5.48236712       5.81044235
Mg       5.35135935       5.46138785      21.93919081
Mg       0.33194513       2.82457847      13.75843387
Mg       0.70445246       2.86154703      29.93746857
Mg      -2.03368796       7.06696961      13.88459019
Mg      -1.67396039       7.15693385      29.94298767
Mg       5.11177482       2.71778806      13.82783845
Mg       5.60042907       2.75198767      30.08538403
Mg       2.75854950       6.99140586      13.94011985
Mg       3.14546938       7.08905850      30.05987911
Ni       2.72966101       1.37162536      14.27252856
Ni       3.06538682       1.41875635      30.44577031
Ni       0.34743239       5.66813491      14.34140127
Ni       0.71776099       5.69270598      30.51386419
Ni       7.58506343       1.21378735      14.38440318
Ni       7.98082437       1.16746993      30.50637222
Ni       5.08498765       5.55951545      14.41933970
Ni       5.46545229       5.51463385      30.64060041
Ni       0.14768280       2.87692558       6.11264315
Ni       0.48052803       2.91579743      22.31774756
Ni      -2.31503474       7.15182451       6.17656297
Ni      -1.82953101       7.09663398      22.38212893
Ni       4.93809505       2.72098157       6.09529691
Ni       5.35815650       2.68017915      22.42193689
Ni       2.54554176       6.94312065       6.34517725
Ni       2.89461324       6.96571732      22.50558929
Ni       2.78316506       1.32200680      10.28706396
Ni       3.02815069       1.28272754      26.48334420
Ni       0.24448709       5.73315339      10.27541445
Ni       0.70504283       5.72652608      26.34623231
Ni       7.48874403       1.21516084      10.20370503
Ni       7.85153535       1.12533302      26.43637093
Ni       5.01946447       5.42394109      10.34871849
Ni       5.37154039       5.50013575      26.52762146
Ni      -0.03394209       2.84483082       2.16453022
Ni       0.48872183       2.85697946      18.31381277
Ni      -2.36058180       7.18082731       2.27069181
Ni      -1.94373690       7.18164127      18.34343770
Ni       4.83424870       2.65412561       2.19219090
Ni       5.23375463       2.65071522      18.39993111
Ni       2.44893643       6.94518846       2.34279390
Ni       2.84108657       7.03731410      18.44357800
Ni       2.64814045       2.72717246      12.28609707
Ni       3.10454471       2.74592644      28.50838540
Ni       0.26820072       7.10614401      12.29577383
Ni       0.74360399       7.02117959      28.59482264
Ni       7.50755682       2.66025715      12.35442753
Ni       7.80941698       2.58185190      28.48602314
Ni       4.97231806       6.95282717      12.30989256
Ni       5.43336250       7.02799048      28.62440804
Ni       3.83595361       0.63379104      12.29213968
Ni       4.33878357       0.56536742      28.41712530
Ni       1.49633301       4.99758975      12.32253230
Ni       1.90548167       4.96567434      28.49083575
Ni       8.64506934       0.46248267      12.35108199
Ni       9.06452050       0.44713291      28.52929147
Ni       6.23955194       4.75392983      12.36728708
Ni       6.60033006       4.79040192      28.57860778
Ni       1.35079760       3.50600033       4.19201971
Ni       1.68545215       3.52145002      20.36227274
Ni      -1.06980911       7.95940765       4.19313005
Ni      -0.71175435       7.86575752      20.41025075
Ni       6.13493320       3.34429288       4.25512845
Ni       6.48909681       3.34921000      20.37658895
Mg       3.70927015       7.67599019       4.32151606
Ni       4.10640507       7.65734068      20.48464128
Ni       1.45110791       0.59658330      12.18819405
Ni       1.82890004       0.66669034      28.30927214
Ni      -0.85126034       5.00691501      12.31041518
Ni      -0.48920245       5.02443230      28.43896847
Ni       6.28163494       0.52814863      12.27005750
Ni       6.65660634       0.60259669      28.39848649
Mg       3.94885297       4.84438368      12.37309997
Ni       4.20464630       4.84364162      28.60412692
Ni       0.07964334       1.48688538       4.14513782
Ni       0.55611545       1.37564650      20.34442339
Ni      -2.33250836       5.75551403       4.21063085
Ni      -1.84284899       5.77616368      20.35056401
Ni       4.89792196       1.26688086       4.18587657
Ni       5.35214903       1.28346910      20.31988126
Ni       2.52132866       5.54317736       4.23742200
Ni       2.87812738       5.55436873      20.41364606
Ni      -1.08717921       3.51747868       4.12912501
Ni      -0.61292348       3.72407507      20.35083147
Ni      -3.45619485       7.96450461       4.14473572
Ni      -3.16587035       7.93633253      20.39062873
Ni       3.76175588       3.39185257       4.22807337
Ni       4.04873917       3.41676541      20.43751636
Ni       1.29344219       7.76235469       4.27496935
Ni       1.69162339       7.75724803      20.47627115
Ni       2.34621194      -0.08962617       0.06370285
Ni       2.87963032      -0.07236373      16.22614243
Ni      -0.03460905       4.22276604       0.13124392
Ni       0.40559361       4.29739154      16.28836234
Ni       7.11733096      -0.21839379       0.14782324
Ni       7.63598106      -0.21607613      16.32183937
Mg       4.80586232       4.23200911       0.21915117
Ni       5.19940327       4.15154177      16.39939221
Ni       1.15998119       2.18287860       0.14085675
Ni       1.65330868       2.02045468      16.31439930
Ni      -1.20870179       6.43180000       0.19252709
Ni      -0.82341627       6.39520130      16.31661961
Ni       6.09344300       1.90417956       0.23912746
Ni       6.32811109       1.97292646      16.32771874
Mg       3.57656514       6.30150935       0.20867735
Ni       4.07071883       6.23560399      16.40473999
Ni      -0.93317182       2.09719749       8.20016276
Ni      -0.53419326       2.20291567      24.23369805
Ni      -3.32447810       6.46617344       8.24927455
Ni      -2.99465912       6.41668386      24.37481625
Ni       3.75809494       2.07898594       8.17775050
Ni       4.11201287       1.96291843      24.46213365
Ni       1.38159765       6.34753584       8.40285560
Ni       1.80380290       6.41916761      24.53692680
Ni       2.61819474      -0.01530484       8.11256035
Ni       3.03699692      -0.08273615      24.33142283
Ni       0.12842120       4.34088563       8.19009213
Ni       0.56457771       4.19516370      24.44204979
Ni       7.40764626      -0.23890393       8.18493575
Ni       7.83265463      -0.20729591      24.39990392
Ni       4.93006852       4.01593706       8.35305521
Ni       5.37610252       4.15399381      24.49386181
Ni      -1.20699113       2.15814773      -0.00174157
Ni      -0.71954338       2.25624058      16.26165922
Ni      -3.68177369       6.47598121       0.08824926
Ni      -3.21309296       6.49061913      16.27137619
Ni       3.63770900       2.00799288       0.11168402
Ni       3.96461489       2.07546135      16.24448273
Mg       1.20671290       6.41191340       0.13293244
Ni       1.57781058       6.32860859      16.35866736
Ni       1.58523382       2.17770526       8.21052858
Ni       1.85353286       2.14652058      24.31533480
Ni      -0.98474333       6.41285930       8.21789312
Ni      -0.64327847       6.45937628      24.36558271
Ni       6.20612684       1.97398627       8.31213869
Ni       6.54070516       1.97986633      24.38313286
Ni       3.78133627       6.21621146       8.24979889
Ni       4.18414986       6.36957339      24.57571873
