192
Lattice="10.345995876858215 -0.19890162771470443 0.007239793897432594 -5.045113632416592 8.368249687098583 -0.2613978777322767 -0.529107487563911 -0.7703190980248035 31.418292065895454" Properties=species:S:1:pos:R:3 pbc="T T T"
Mg      -0.16927772      -0.30494072      14.32226003
Mg      -0.48467780      -0.83385361      29.96902933
Mg      -2.83640772       3.83007809      14.11975340
Mg      -3.05581546       3.43308618      29.80373022
Mg       4.93759847      -0.43823417      14.24084033
Mg       4.61686427      -0.78935347      29.96520671
Mg       2.28234719       3.77581932      14.13383425
Mg       2.10213897       3.29069578      29.85374042
Mg      -0.08736437      -0.15346370       6.34119354
Mg      -0.30371260      -0.48965360      22.08295524
Mg      -2.63418123       4.05468289       6.23127364
Mg      -2.85776300       3.65309823      21.89924294
Ni       5.09619976      -0.28842841       6.36710808
Mg       4.86307285      -0.63110554      22.07227111
Mg       2.52662589       3.87890346       6.29342903
Mg       2.35411482       3.64545255      21.91297036
Mg      -0.28068059      -0.23011344       9.31264542
Mg      -0.40955460      -0.55969007      25.05969986
Mg      -2.73029023       3.99524757       9.18791460
Mg      -2.92799994       3.64731380      24.89220827
Mg       4.99620648      -0.29725866       9.40464599
Mg       4.71499869      -0.72775442      25.04108348
Mg       2.50682557       3.84852639       9.10235168
Mg       2.25064905       3.51654629      24.88628562
Mg      -0.07299474       0.00501712       1.53396601
Mg      -0.31704645      -0.41053423      17.18779901
Mg      -2.61577908       4.30182282       1.38187645
Mg      -2.79362784       3.79022646      17.03215412
Mg       5.17239653      -0.14131301       1.57186754
Mg       4.91148512      -0.55174723      17.20525098
Mg       2.67018626       4.15572437       1.41160468
Ni       2.34345676       3.65662507      17.05823458
Mg       2.56836413       1.31400912       2.41768084
Mg       2.30026227       0.85362321      18.06342211
Mg       0.07711451       5.32088806       2.33697032
Mg      -0.16585457       5.14859697      17.96310043
Mg       7.81264030       1.16717553       2.36179351
Mg       7.56435516       0.79566055      18.09370642
Mg       5.31168048       5.33187564       2.35798570
Mg       4.88386383       5.05085547      17.89187478
Mg      -0.05522725       2.46125796      10.21292062
Mg      -0.38881328       2.10599391      25.95468180
Mg      -2.66203216       6.67254655      10.08308984
Mg      -2.94933020       6.29168495      25.84695224
Mg       5.04737886       2.32401989      10.15656872
Mg       4.82696098       1.95857020      25.97383312
Mg       2.51768375       6.55184870      10.04527272
Mg       2.24534146       6.25899572      25.79671328
Mg       2.58041980       1.12581190       5.31657933
Mg       2.31310838       0.84155759      21.00739950
Mg      -0.11834989       5.35742265       5.20420558
Mg      -0.25534111       5.01458909      20.97118934
Mg       7.65315721       1.06618568       5.34283236
Mg       7.43838153       0.66782984      21.05133971
Mg       5.19176720       5.18044949       5.19994946
Mg       4.90107285       4.88763008      20.93704078
Mg      -0.06609561       2.38791108      13.20826930
Mg      -0.43043920       2.02143832      28.90563851
Mg      -2.67874395       6.66313573      13.01720582
Mg      -2.95162784       6.25997654      28.81360431
Mg       4.95573492       2.41794980      13.15241229
Mg       4.78889871       2.03285646      28.94961875
Mg       2.47193759       6.49134303      13.05560981
Mg       2.24138445       6.10758067      28.81033862
Ni       2.33498199       1.00896903      13.64830102
Ni       2.12855637       0.63782374      29.40632704
Ni      -0.17955229       5.18784071      13.54988117
Ni      -0.42310724       4.78138095      29.24763268
Ni       7.51915539       0.83472804      13.66822566
Ni       7.35778923       0.54956692      29.27169628
Ni       4.99148475       5.07790508      13.49840587
Ni       4.78210248       4.72439161      29.24788699
Ni      -0.11417642       2.60640349       5.85120786
Ni      -0.35360702       2.24573313      21.54877765
Ni      -2.52586341       6.87988217       5.67575353
Ni      -2.80786390       6.41922467      21.39659980
Ni       5.11908096       2.58219615       5.77739122
Ni       4.81289866       2.07127703      21.51077643
Ni       2.60717082       6.69716859       5.70216554
Ni       2.23268904       6.32284563      21.41981949
Ni       2.27948560       1.03366560       9.78551800
Ni       2.23345282       0.76673515      25.46437127
Ni      -0.09559517       5.28103932       9.59306416
Ni      -0.29462127       4.95642840      25.31892016
Ni       7.56427353       0.96131203       9.75454446
Ni       7.33821989       0.64178064      25.49661863
Ni       5.05067846       5.19540299       9.70322609
Ni       4.77115383       4.87301725      25.35521840
Mg       0.03216735       2.59811772       1.88177263
Ni      -0.30437645       2.31899095      17.64346227
Ni      -2.52426162       6.87278254       1.75085322
Ni      -2.72118383       6.47154164      17.57366665
Ni       5.16701053       2.54075400       1.96526240
Ni       4.93147575       2.21705272      17.55048615
Ni       2.63848093       6.78005470       1.74188161
Ni       2.41175917       6.39372889      17.51827616
Ni       2.45715149       2.36305916      11.71025500
Ni       2.13145690       2.05288018      27.46324614
Ni      -0.09237489       6.58577663      11.56583433
Ni      -0.44867629       6.19619326      27.24006142
Ni       7.59724985       2.30966407      11.62251582
Ni       7.32852552       1.96942505      27.47734391
Ni       5.05772017       6.55597012      11.61098841
Ni       4.81416618       6.08051262      27.29052150
Ni       3.75305125       0.36805387      11.78000582
Ni       3.38698107      -0.07986036      27.48490825
Ni       1.17112350       4.53262207      11.59843420
Ni       0.85709238       4.14144497      27.29864609
Ni       8.82206286       0.25937025      11.80414926
Ni       8.63704799      -0.16874120      27.46952563
Ni       6.33968330       4.38163584      11.57787675
Ni       6.00475137       4.05137044      27.35286542
Ni       1.28807002       3.33945032       3.84157219
Ni       0.94457485       2.96160182      19.61885528
Ni      -1.32463702       7.42211102       3.78087395
Ni      -1.53462484       7.11416317      19.30591570
Ni       6.43317669       3.19053149       3.72762002
Ni       6.11635148       2.77354922      19.59104242
Ni       3.98905266       7.47394794       3.69103651
Ni       3.70838772       6.98296137      19.44398772
Ni       1.07814205       0.29500509      11.82045645
Ni       0.76570937      -0.02197436      27.44176518
Ni      -1.43065219       4.62261844      11.59179937
Ni      -1.72544341       4.23537865      27.35941752
Ni       6.22614807       0.28419126      11.74609202
Ni       6.09963988      -0.12784622      27.47798928
Ni       3.82554002       4.42382425      11.62309562
Ni       3.51146560       4.06407733      27.28231865
Ni      -0.03015925       1.28585892       3.88386315
Ni      -0.34761243       0.84590921      19.58624567
Ni      -2.55494814       5.41959110       3.75289723
Ni      -2.76671276       5.08188273      19.48569734
Ni       5.17282683       1.23832994       4.04886653
Ni       4.82413880       0.87764228      19.51813021
Ni       2.63223657       5.30635623       3.69152739
Ni       2.33827224       5.04651272      19.48314777
Ni      -1.21871581       3.40570724       3.81980785
Ni      -1.59946952       2.98001848      19.54009292
Ni      -3.85456176       7.54056665       3.68740268
Ni      -4.06187465       7.13492923      19.39764605
Ni       3.82070845       3.23981546       3.82599783
Ni       3.59910239       2.90742767      19.54898484
Ni       1.34537672       7.36216222       3.69790017
Ni       1.03133533       7.07032341      19.47314944
Ni       2.61903413      -0.04947022      -0.00148677
Ni       2.34431319      -0.50914863      15.64895401
Ni       0.04188480       4.16078524      -0.13984129
Ni      -0.18728003       3.74286378      15.53955533
Ni       7.70571737      -0.11176197       0.01810942
Ni       7.51342344      -0.53120993      15.67869084
Ni       5.21506908       4.00333740      -0.18693144
Ni       4.94893169       3.64932990      15.55009824
Ni       1.41170722       2.00152173      -0.09176952
Ni       0.97318844       1.65638170      15.71428159
Ni      -1.24764085       6.26156039      -0.08449598
Ni      -1.41162098       5.79558120      15.45801967
Ni       6.53521243       1.95657308       0.02240105
Ni       6.18401618       1.52094152      15.53523905
Ni       3.97154850       6.06587061      -0.23679355
Ni       3.68270453       5.71123771      15.52409697
Ni      -1.31997699       1.94593753       7.88371892
Ni      -1.63119827       1.48376267      23.51531446
Ni      -3.86285265       6.07158650       7.65329798
Ni      -4.15213305       5.64709562      23.41205715
Ni       3.77147687       1.85431000       7.64412855
Ni       3.51147462       1.37413223      23.52930363
Ni       1.32417242       5.97862028       7.74116599
Ni       1.09740289       5.63266007      23.41542641
Ni       2.52962371      -0.29293704       7.81502024
Ni       2.17016277      -0.55533859      23.52355510
Ni      -0.01733623       3.94991998       7.76475570
Ni      -0.34444156       3.57595578      23.41147831
Ni       7.63975199      -0.27527960       7.84805562
Ni       7.39068756      -0.73990508      23.55624582
Ni       5.09692096       3.80293031       7.65732025
Ni       4.87063095       3.43187369      23.42818272
Ni      -1.25573850       2.11872778      -0.06000775
Ni      -1.55008364       1.70187363      15.57472857
Ni      -3.73187596       6.29190509      -0.17386786
Ni      -4.07790249       5.87794401      15.54329721
Ni       3.93490787       2.06454023      -0.10315856
Ni       3.71117940       1.59365447      15.69236746
Ni       1.23663640       6.20903609      -0.17464174
Mg       1.07579129       5.70289863      15.60995904
Ni       1.20968012       1.90956951       7.79855718
Ni       0.85825661       1.48947549      23.56991597
Ni      -1.30849185       6.02340537       7.70557928
Ni      -1.56578525       5.66431547      23.40311025
Ni       6.44582755       1.73851262       7.88422756
Ni       6.16573092       1.28757852      23.58410486
Ni       3.95427451       6.05704736       7.76807104
Ni       3.60310288       5.50437182      23.44387286
