189
Lattice="9.84508790440773 0.33271606521739394 0.11327802229585893 -4.918383091167906 8.390464064567958 -0.08328600992386279 0.8472365020688085 0.9887268465185897 32.19181478637587" Properties=species:S:1:pos:R:3 pbc="T T T"
Mg       0.38338640       0.45208513      14.66963218
Mg       0.92689431       1.02316914      30.62163395
Mg      -2.02580823       4.65656741      14.50468099
Mg      -1.72453757       5.13727288      30.62997656
Mg       5.31452709       0.63414894      14.52698188
Mg       5.67011623       1.04227978      30.71552826
Mg       2.95476208       4.80550222      14.53616501
Mg       3.28341800       5.32890742      30.70114144
Ni       0.23601447       0.10962726       6.56107338
Mg       0.64033614       0.67235959      22.62811346
Mg      -2.23167839       4.49403167       6.50269048
Mg      -1.81707115       4.89599159      22.62861058
Mg       5.07630252       0.34072965       6.59190060
Ni       5.47860568       0.83753510      22.66659639
Mg       2.63869744       4.53673719       6.51884877
Mg       3.03839918       5.03771775      22.70499025
Mg       0.24475315       0.28442269       9.51506599
Mg       0.65546123       0.68667575      25.61315910
Mg      -2.20942098       4.54347711       9.54692311
Mg      -1.81001131       4.93095284      25.63021515
Mg       5.11878044       0.56729143       9.63132876
Mg       5.53277289       0.91894882      25.72556765
Mg       2.74524749       4.58211523       9.62497720
Mg       3.19494622       5.15035444      25.58016315
Mg       0.05342816       0.04347130       1.60149208
Mg       0.44305624       0.57769524      17.60080043
Mg      -2.45533193       4.26490174       1.33766346
Mg      -1.99936063       4.71501665      17.60889207
Mg       4.95603451       0.22360729       1.57918205
Mg       5.39044278       0.70094517      17.76465813
Mg       2.46538641       4.39004638       1.48746855
Mg       2.95106107       4.91479216      17.61236374
Mg       2.52333655       1.65358093       2.60152915
Mg       2.95834945       2.03466192      18.65486638
Mg       0.09462931       5.78046306       2.48635260
Mg       0.47391549       6.30882430      18.64194028
Mg       7.46808597       1.69839287       2.57021722
Mg       7.82863159       2.28170722      18.74010908
Mg       4.86369614       5.98851670       2.42662917
Ni       5.45275064       6.43793018      18.66443322
Mg       0.29507910       3.23551817      10.59518717
Mg       0.78970668       3.72557792      26.62157509
Mg      -2.17312578       7.43274561      10.41385539
Mg      -1.81013200       7.88120374      26.69247673
Mg       5.28036267       3.33742642      10.59951462
Mg       5.59738518       3.77179523      26.65589567
Mg       2.70521134       7.53677606      10.51269218
Mg       3.09183771       8.00024384      26.69195712
Mg       2.68010874       1.72839099       5.54013479
Mg       3.05563252       2.17786733      21.71699549
Mg       0.18852495       5.88757169       5.53596787
Mg       0.61415903       6.33221413      21.71461235
Mg       7.49404018       1.84260012       5.65495610
Mg       7.89671719       2.33481184      21.72859512
Mg       5.06400333       6.01787058       5.48602287
Mg       5.48279807       6.55435189      21.64891648
Mg       0.42573658       3.30853297      13.62192103
Mg       0.81859202       3.74736404      29.67126658
Mg      -2.05921594       7.49117379      13.53176011
Mg      -1.79504489       7.90718733      29.71568934
Ni       5.23298520       3.36485517      13.56498615
Mg       5.74133177       3.83543370      29.66519749
Mg       2.81086910       7.63438739      13.60323870
Mg       3.19185935       8.16315614      29.70429484
Ni       2.78127753       2.03365969      14.12477424
Ni       3.15992799       2.44619501      30.26701572
Ni       0.44158080       6.15001557      14.09183120
Ni       0.87694388       6.57137900      30.18553588
Ni       7.81517737       2.09693878      14.18012646
Ni       8.25131177       2.61037637      30.24500466
Ni       5.28443432       6.22894611      14.12968405
Ni       5.75183827       6.81294126      30.15235190
Ni       0.13944039       3.09494446       6.00329230
Ni       0.66705777       3.54195098      22.12912178
Ni      -2.21128072       7.23718948       6.02839346
Ni      -1.87090202       7.76299553      22.11564115
Ni       5.03883846       3.16238943       6.09026029
Ni       5.53203505       3.72035883      22.09907895
Ni       2.63549930       7.41125579       6.05316378
Ni       2.94138726       7.86771033      22.19108287
Ni       2.72228991       1.83928949      10.08789812
Ni       3.16707882       2.32845493      26.15603752
Mg       0.16328142       5.96267114      10.04255053
Ni       0.66764337       6.60240571      26.22132847
Ni       7.60439354       1.93577136      10.17070519
Ni       8.07604192       2.42284613      26.31772071
Ni       5.14595993       6.15585484      10.12261054
Ni       5.51559055       6.58997636      26.18602516
Ni       0.04350053       2.91085912       1.91630508
Ni       0.50667489       3.45049980      18.11873006
Ni      -2.43233347       7.17256906       2.03140242
Mg      -2.01312833       7.42093202      18.00030263
Ni       4.95546181       3.06584959       2.05591227
Ni       5.39023041       3.57468622      18.09698993
Ni       2.49666128       7.23090880       1.96675113
Ni       2.85643468       7.71506879      18.10243997
Ni       2.78261968       3.32560646      12.15006287
Ni       3.26035045       3.79698475      28.16902256
Ni       0.65460228       8.02847323      28.23119156
Ni       7.71500961       3.48586371      12.27185607
Ni       8.09655012       3.94998687      28.23125337
Ni       5.14661618       7.61751173      12.00211954
Ni       5.64101182       8.14537317      28.16695285
Ni       4.00443457       1.23357301      12.08718934
Ni       4.44032316       1.68005633      28.19869664
Ni       1.49925423       5.40521124      12.00760737
Ni       1.96854668       5.90853755      28.10625288
Ni       8.93270849       1.38725745      12.30803902
Ni       9.31538834       1.87782104      28.29574852
Ni       6.49203056       5.57097525      12.17782738
Ni       6.93100717       6.00034712      28.30397925
Ni       1.30640185       3.70057591       4.01227587
Ni       1.69324602       4.10838962      20.03773233
Ni      -1.14401449       7.99483315       3.96666153
Ni      -0.72807985       8.46435430      20.08174741
Ni       6.70513996       4.33925418      20.11003377
Ni       3.86250573       8.19184305       4.06585748
Ni       4.11799784       8.61460489      20.16491289
Ni       1.50738808       1.13825829      12.21391963
Mg       2.02800811       1.55509830      28.18505672
Ni      -0.89618415       5.35836904      12.08978931
Ni      -0.53387259       5.79823680      28.14022235
Ni       6.52032951       1.28630985      12.12704052
Ni       6.95543556       1.78735365      28.23784208
Ni       3.99797001       5.41055001      12.16183471
Ni       4.39208160       6.09085522      28.27104362
Ni       0.08942539       1.54333849       3.95276468
Ni       0.58834324       2.05872727      20.09729228
Ni      -2.25495947       5.60127848       4.02506573
Ni      -1.94492404       6.26524447      20.04961141
Ni       4.95637551       1.70596389       4.09413382
Ni       5.45871822       2.19095648      20.15448040
Ni       2.57108643       5.92292695       4.08712806
Ni       3.00485756       6.39652399      20.10282907
Ni      -1.07401326       3.63568002       3.97353300
Ni      -0.69026853       4.13674322      20.12772133
Ni      -3.59519681       7.80052766       3.97075429
Ni      -3.19714374       8.31374023      20.09509699
Ni       3.80630244       3.83933472       4.07718502
Ni       4.20103298       4.23174151      20.17656528
Ni       1.42750967       8.01227359       3.95633114
Ni       2.44844737       0.08608192       0.06701977
Ni       2.90439661       0.56708774      16.18746622
Ni      -0.03916763       4.26403790       0.03597420
Ni       0.47064681       4.73182786      16.09209605
Ni       7.37593759       0.32736893       0.10514450
Ni       7.75253249       0.80357546      16.15191311
Ni       4.84592686       4.50737297      -0.02275225
Ni       5.33640946       4.92353827      16.14651753
Ni       1.22809482       2.22060318       0.02047132
Ni       1.65502456       2.77311311      16.12303876
Mg      -1.18359151       6.33475630      -0.00159392
Ni      -0.83828339       6.86218343      16.01889105
Ni       6.10802595       2.36356225       0.06702701
Ni       6.63235537       2.91375109      16.10119060
Ni       3.71084584       6.51742869       0.06951495
Ni       4.12154956       7.12258163      16.08672066
Ni      -0.99786916       2.31895312       7.99734871
Ni      -0.58041151       2.93505751      24.06007130
Ni      -3.39511494       6.56933646       8.03176502
Ni      -3.08473604       7.00190278      24.09488356
Ni       3.83586980       2.46531847       8.00199874
Ni       4.35733600       2.97251197      24.16064917
Ni       1.48093593       6.72178169       8.05153006
Ni       1.93894548       7.22464405      24.02864613
Ni       2.58962579       0.39456317       8.00726682
Ni       3.00015227       0.82329017      24.09525794
Ni       0.21282036       4.51094132       8.01342868
Ni       0.66268109       5.04932039      24.17262557
Ni       7.61139679       0.58068916       8.18358140
Ni       8.07320667       0.94265916      24.19478337
Ni       5.30471787       4.78451111       8.03745171
Ni       5.56258725       5.21175910      24.15610494
Ni      -1.12849398       2.08105223      -0.01877149
Ni      -0.86013915       2.62695159      16.10092491
Ni      -3.62635204       6.31635975      -0.09228669
Ni      -3.24572655       6.77329799      15.93921687
Ni       3.66393639       2.33898628      -0.02622477
Ni       4.12837951       2.77591187      16.10503947
Ni       1.19971030       6.39607699      -0.10855380
Ni       1.61766869       6.95077581      16.11596978
Ni       1.47161110       2.41065805       8.09634696
Ni       1.82291388       2.85505402      24.10053899
Ni      -0.96604174       6.61968982       8.04548094
Ni      -0.58221284       7.09650777      24.10558723
Ni       6.27830184       2.58279352       8.03080936
Ni       6.73005556       3.02795110      24.19930954
Ni       3.85816950       6.79504560       8.01140829
Ni       4.23874335       7.28183452      24.19941030
