191
Lattice="9.523724537955431 0.13645612119688125 -0.011290722759111572 -4.79480714055308 8.15264418245389 -0.253755167039802 0.2542802958867102 0.6511609516240381 33.21252324744677" Properties=species:S:1:pos:R:3 pbc="T T T"
Mg       0.13390180       0.27219665      14.96538113
Mg       0.19622720       0.76641485      31.67561075
Mg      -2.23300139       4.30861565      14.89546312
Mg      -2.21306237       4.66879766      31.54028325
Mg       4.90150118       0.39406598      15.11461791
Mg       4.95879894       0.69023466      31.55847182
Mg       2.47392921       4.52945436      14.97443326
Mg       2.59040643       4.78151001      31.55265961
Mg      -0.05938235       0.14147544       6.72764790
Mg       0.21579556       0.47983160      23.40024760
Mg      -2.29625057       4.15736674       6.49414888
Mg      -2.23513390       4.51395761      23.09272711
Mg       4.86582278       0.21108562       6.84761165
Mg       4.93440311       0.54080138      23.36457322
Mg       2.31301825       4.29774181       6.62167185
Mg       2.54724243       4.62041988      23.17242555
Mg       0.01068900       0.17165357       9.77131828
Mg       0.26312626       0.51731979      26.44242781
Mg      -2.32547450       4.27078468       9.77514371
Mg      -2.18624803       4.55851623      26.28474376
Ni       4.77272398       0.23656813       9.92605297
Mg       4.96648134       0.58956416      26.55827537
Mg       2.40205568       4.38160236       9.64159104
Mg       2.66320616       4.62678105      26.29380609
Mg       0.05014949       0.06349304       1.51427968
Mg       0.11764669       0.28194318      18.19571639
Mg      -2.31751872       4.15146367       1.42286495
Ni      -2.26223600       4.44698304      18.02505134
Mg       4.68164813       0.03505304       1.55557429
Mg       4.92204902       0.49934848      18.12114673
Mg       2.46736716       4.17361951       1.44851924
Mg       2.54331362       4.49067241      17.96850497
Mg       2.45369534       1.36979564       2.56515941
Ni       2.51143650       1.73955005      19.10608074
Mg      -0.01312309       5.61121740       2.34644108
Mg       0.09770073       5.72150390      19.08745172
Mg       7.21263989       1.53405229       2.49511066
Mg       7.29412170       1.87399220      19.10773049
Mg       4.88709038       5.60358365       2.45097840
Mg       4.99717757       5.99219543      19.07982365
Mg       0.04856424       2.93002467      10.82955197
Mg       0.18227047       3.29314384      27.35477255
Mg      -2.36429617       7.03786685      10.75059268
Mg      -2.17687373       7.38709679      27.24824337
Mg       4.80746652       2.98722783      10.85896740
Mg       4.91796352       3.27025746      27.43286549
Ni       2.43689743       7.04269079      10.68810585
Mg       2.51009935       7.44858653      27.32957825
Mg       2.39897903       1.54696236       5.73540826
Mg       2.52258729       1.85138291      22.25542786
Mg       0.10902407       5.59280674       5.50658712
Mg       0.11157177       5.88832481      22.19179289
Mg       7.12185418       1.48183726       5.61710942
Mg       7.30674813       1.88986506      22.26131138
Mg       4.87335321       5.65563618       5.47129337
Mg       4.86888637       5.95340308      22.18103733
Mg      -0.00307503       3.08000174      14.07705207
Mg       0.21043164       3.32062044      30.57000167
Mg      -2.28562040       7.03189643      13.82814662
Mg      -2.17669567       7.36986276      30.37228548
Ni       4.90279381       2.98304502      13.79093397
Mg       4.99520033       3.37088895      30.50289782
Ni       2.51042636       7.19039890      13.79615407
Ni       2.52312850       7.48618031      30.42160074
Ni       2.51618169       1.67976717      14.51080978
Ni       2.59248797       1.96807741      31.08988857
Ni       0.12669491       5.79144414      14.29022810
Ni       0.19149320       6.11017229      30.98077535
Ni       7.27606280       1.77727986      14.54334891
Ni       7.47506924       2.02856368      31.15828810
Ni       4.90062571       5.81936919      14.36074831
Ni       4.94627505       6.15161333      30.89925985
Ni       0.13453622       2.84069102       6.23200221
Ni       0.08086409       3.17529326      22.66318538
Ni      -2.37060900       6.93577630       6.13601242
Ni      -2.27803996       7.24504245      22.62211221
Ni       4.77292335       2.97922102       6.08745379
Ni       4.95189161       3.27974203      22.74377506
Ni       2.45346323       6.91195113       6.01657705
Ni       2.56874349       7.38891954      22.58073251
Ni       2.41480629       1.64017479      10.35139351
Ni       2.63761613       1.84935631      26.99598841
Ni       0.11859215       5.65671816      10.21258821
Ni       0.18022478       5.99547635      26.78278455
Ni       7.25178948       1.63766140      10.10269735
Ni       7.40300525       1.96481320      26.97318809
Ni       4.80927411       5.72123128      10.22697974
Ni       4.87673638       6.11615112      26.76537111
Ni      -0.03561184       2.76698165       1.96176083
Ni       0.20964566       3.21342984      18.57188459
Ni      -2.35720501       6.82434722       1.92984070
Ni      -2.26121587       7.11883956      18.57656160
Mg       4.85301510       2.85635852       1.95788885
Ni       4.85183885       3.19504205      18.57429968
Ni       2.36180533       7.02596644       1.88947447
Ni       2.51886422       7.27788910      18.36819075
Mg       2.37744780       2.99119128      12.41073529
Ni       2.59179006       3.33007163      28.91386689
Ni      -0.00248594       7.07184431      12.26913744
Ni       0.19167163       7.46229071      28.78139809
Ni       7.20823344       3.11624345      12.38743002
Ni       7.34617111       3.45823397      28.99458992
Ni       4.79477958       7.15437801      12.26589765
Ni       4.94564232       7.50242249      28.91990732
Mg       3.64782749       0.99122762      12.40815397
Ni       3.81428464       1.28863862      29.03982307
Ni       1.24172952       4.99637458      12.32342070
Ni       1.35547353       5.41042138      28.87927818
Ni       8.42313085       1.06220335      12.39785784
Ni       8.49869292       1.31884325      28.94677497
Mg       6.06536315       5.09822633      12.19969032
Ni       6.10211964       5.45888412      28.91530138
Mg       1.18461158       3.46080513       4.07494624
Ni       1.30058626       3.85968283      20.63791527
Ni      -1.22249241       7.56426747       3.89170583
Ni      -1.11394873       7.90758461      20.46710598
Ni       5.97982677       3.54916972       3.95921834
Ni       6.08667368       4.04959439      20.71758785
Ni       3.54096905       7.73873286       3.98634867
Ni       3.67482431       7.98141326      20.58760203
Ni       1.22780655       0.95492841      12.47607069
Ni       1.39444031       1.18885238      29.01248538
Ni      -1.12164355       4.96660424      12.28480520
Ni      -0.92832154       5.39693667      28.89900099
Ni       6.05106573       0.99847491      12.43396854
Ni       6.25242701       1.28531454      28.99457695
Ni       3.57499311       4.98008968      12.24357789
Ni       3.79530390       5.33223021      28.85601083
Ni      -0.00522106       1.48031106       4.23271541
Ni       0.22406848       1.77620398      20.68641363
Ni      -2.44292588       5.52510152       3.97371401
Ni      -2.28596660       5.81305210      20.60926358
Mg       4.82781062       1.44608082       4.26205524
Ni       4.94370083       1.85323999      20.67618430
Ni       2.30285830       5.63486940       3.98551608
Ni       2.47093045       5.95904487      20.66265409
Ni      -1.11818581       3.47780851       4.06453931
Ni      -1.02868177       3.87902963      20.69263119
Ni      -3.56964736       7.43506977       3.86213376
Ni      -3.43741617       7.92930655      20.51852802
Ni       3.55132531       3.55299649       4.04259611
Ni       3.72888265       3.90443639      20.63016913
Ni       1.19714175       7.62597564       3.92075695
Ni       1.33684370       7.91929050      20.47113470
Ni       2.39819975       0.05943418      -0.11033711
Ni       2.50886029       0.37522737      16.67966421
Ni      -0.02008202       4.13289989      -0.09089225
Ni       0.19891917       4.40832096      16.49897636
Ni       7.14425171       0.10651056       0.00611709
Ni       7.28837400       0.44298351      16.61455083
Ni       4.71767874       4.13175384      -0.14052602
Ni       4.91750780       4.49307351      16.38968490
Ni       1.18458697       2.13632832       0.00029495
Ni       1.30292986       2.44585781      16.49517352
Ni      -1.15699589       6.12753338      -0.22330041
Ni      -0.99349136       6.49279401      16.46751832
Ni       5.86297346       2.14274120      -0.16586885
Ni       6.16829678       2.52730116      16.56052777
Ni       3.50182798       6.28543592      -0.19487267
Ni       3.68656774       6.52386376      16.39811778
Ni      -1.14194822       2.28075044       8.19902343
Ni      -1.05484740       2.55682410      24.82114864
Ni      -3.48876678       6.32578885       8.04078309
Ni      -3.41561423       6.57273062      24.78214689
Ni       3.65724754       2.26903232       8.27341080
Ni       3.75465936       2.60675117      24.91904505
Ni       1.26586438       6.28982232       8.13933728
Ni       1.32546509       6.67258186      24.64573457
Ni       2.43081296       0.16341181       8.27123830
Ni       2.53858586       0.52048344      25.03201592
Ni       0.13846902       4.60084480      24.77688983
Ni       7.18048274       0.23940521       8.30960269
Ni       7.38715073       0.64135049      24.97287097
Ni       4.81920398       4.29259799       8.18358845
Ni       4.94231772       4.73282767      24.72933632
Ni      -1.19570679       2.03325575      -0.08387784
Ni      -1.10469033       2.30811730      16.45133708
Ni      -3.62156600       6.12225818      -0.19688228
Ni      -3.46996418       6.36562756      16.45887917
Ni       3.56742192       2.07486993      -0.01695259
Ni       3.62921289       2.40381419      16.64953872
Ni       1.18257520       6.15850139      -0.16269339
Ni       1.30824938       6.52430745      16.39199199
Ni       1.22422596       2.17703483       8.24625448
Ni       1.26732049       2.53903664      24.71223396
Ni      -1.14741126       6.36765074       8.10963414
Ni      -1.12332041       6.62358227      24.73453484
Ni       5.99819139       2.37828730       8.23631042
Mg       6.06004417       2.64092034      24.87080410
Ni       3.57216436       6.40119156       8.12762357
Ni       3.77183522       6.69632580      24.65794730
