187
Lattice="9.722093440898119 0.049043221837342894 0.11917282471574263 -4.856251138076249 8.253284488035595 -0.25759306030584683 0.26624596860536814 -0.16106642571557278 31.461350955934474" Properties=species:S:1:pos:R:3 pbc="T T T"
Mg       0.10447291       0.00461866      14.33077646
Mg       0.25952426      -0.14613222      30.03107233
Mg      -2.24675570       4.11068260      14.08389933
Mg      -2.18987324       3.91068404      29.85943605
Mg       4.98402448      -0.07432254      14.37604583
Mg       5.21091731      -0.08425843      30.01013258
Mg       2.54450812       3.97903658      14.08708049
Mg       2.62511251       4.01726363      29.93534060
Mg       0.09700563      -0.07291466       6.36641451
Mg       0.13878940      -0.11690847      22.07205886
Mg      -2.29134076       4.08205260       6.22829555
Mg      -2.28122557       4.06843791      21.96395360
Mg       4.90529975      -0.01480069       6.44584003
Mg       5.08296359      -0.06224842      22.21551861
Mg       2.53343316       4.11225431       6.37888784
Mg       2.59819733       4.07032202      22.06854629
Mg       0.15746113      -0.01164818       9.28850169
Mg       0.23444053      -0.18659776      25.04817587
Ni      -2.22785660       4.00237289      24.94457312
Mg       4.97177480       0.02462350       9.32831514
Mg       5.12727158      -0.00480777      25.15742787
Mg       2.58301988       4.17821384       9.27936204
Mg       2.60331159       4.01592964      25.01003671
Ni       0.06595425      -0.11086143       1.46511953
Mg       0.06569044      -0.04113501      17.26557072
Ni      -2.46259550       4.13201381       1.33532994
Mg      -2.36587611       4.04209729      17.08164256
Mg       4.86491848      -0.01682048       1.47126983
Mg       5.10714353       0.02342994      17.22925590
Mg       2.46099361       4.11123890       1.32686158
Mg       2.50874639       4.03276996      17.15680731
Mg       2.49645181       1.32743739       2.50332259
Mg       2.65308145       1.35647542      18.11309761
Mg       0.00468275       5.49171250       2.33487057
Mg       0.16664600       5.40037230      18.04739898
Mg       7.33218508       1.38941780       2.53884187
Mg       7.40881475       1.27531235      18.21257660
Mg       4.85738134       5.57502276       2.37106457
Mg       4.95909056       5.40750237      18.02976502
Mg       0.00400544       2.74176898      10.25054612
Mg       0.14634609       2.61782388      25.97408135
Mg      -2.27162283       6.76083650      10.10856497
Mg      -2.18886207       6.76421760      25.91172199
Mg       4.99566279       2.71603245      10.29667377
Mg       4.98171933       2.65596975      26.05429203
Mg       2.57764051       6.87899405      10.16233907
Mg       2.64354410       6.75922520      25.87144511
Mg       2.55114194       1.33248387       5.42003616
Mg       2.73181778       1.29564300      21.15919994
Mg       0.01831802       5.42756587       5.32288487
Mg       0.09385212       5.46854651      20.95182993
Mg       7.38253347       1.54161300       5.48992296
Mg       7.38915669       1.33257205      21.16764987
Mg       4.85243775       5.54058571       5.36738936
Ni       5.01090841       5.50599898      21.02394652
Mg       0.11315024       2.67815184      13.27057374
Mg       0.26287327       2.57941077      28.97854329
Mg      -2.38216510       6.80682664      13.05311553
Mg      -2.24745401       6.65403324      28.87728482
Mg       4.98211101       2.78676178      13.29582253
Mg       5.15645490       2.72080909      29.04660102
Mg       2.51333659       6.88558154      13.16122661
Mg       2.75703630       6.76716967      28.87111724
Ni       2.49675371       1.32647152      13.72032682
Ni       2.73742239       1.18258983      29.39134469
Ni       0.09233898       5.45181332      13.66428304
Ni       0.24509583       5.41230098      29.42788034
Ni       7.36157343       1.36796716      13.73941335
Ni       7.55434437       1.24395376      29.47617107
Ni       4.90301721       5.49814884      13.76891582
Ni       5.11114504       5.42953792      29.47463331
Ni       0.03900050       2.79450734       5.86418117
Ni       0.17392757       2.61963299      21.50190477
Ni      -2.40448136       6.84100735       5.63342473
Ni       4.91373126       2.68580398       5.85907564
Ni       5.01694673       2.65756840      21.64036558
Ni       2.45841377       6.85278618       5.79927582
Ni       2.61952803       6.80136407      21.40109263
Ni       2.47966345       1.36179313       9.85811973
Ni       2.66961548       1.24713699      25.56886164
Ni      -0.01551562       5.44535220       9.81990082
Ni       0.18150670       5.34260346      25.36576131
Ni       7.29785490       1.43348382       9.90448549
Ni       7.54672345       1.33729200      25.68597817
Ni       4.93732452       5.39660420       9.73059821
Ni       5.17450216       5.35472950      25.51083795
Ni       0.03742863       2.77079479       1.93634692
Ni       0.15485684       2.65247560      17.59811573
Ni      -2.42252470       6.82968890       1.70464036
Ni      -2.36961372       6.77617513      17.55215670
Ni       4.84895555       2.82727384       1.92535084
Ni       4.94378960       2.66661578      17.69550916
Ni       2.55032954       6.91042423       1.83604925
Ni       2.54128143       6.81218438      17.53979638
Ni       2.49766108       2.74341191      11.76799066
Ni       2.71571054       2.55207804      27.47967886
Ni       0.01079301       6.85824555      11.60134455
Ni       0.19013499       6.81344191      27.40467455
Ni       7.40330969       2.73521770      11.82874290
Ni       7.52584109       2.71645376      27.56984616
Ni       4.91981120       6.90724912      11.71586409
Ni       5.14025228       6.78307089      27.32252533
Ni       3.69965477       0.58830977      11.87851643
Ni       3.82149053       0.59585597      27.54512438
Ni       1.32992867       4.75052329      11.69066695
Ni       1.41066899       4.66198816      27.46931336
Ni       8.64107472       0.65666877      11.87224900
Ni       8.81708618       0.64029094      27.62423611
Ni       6.22209072       4.88039984      11.71919759
Ni       6.27318448       4.79104817      27.48672724
Ni       1.27851038       3.45194777       3.86766227
Ni       1.33391441       3.40617449      19.58370384
Ni      -1.20607835       7.44816964       3.75576222
Ni      -1.06304722       7.49241779      19.43706383
Ni       6.14318131       3.40471411      19.71334551
Ni       3.71041119       7.59497952       3.70724133
Ni       3.82068050       7.48701629      19.65592626
Ni       1.27817462       0.70317024      11.80873604
Ni       1.44220108       0.53218413      27.57584671
Ni      -1.18753406       4.77982449      11.65482909
Ni      -1.00235148       4.67407553      27.36107872
Ni       6.19566736       0.70580074      11.82152123
Ni       6.29162278       0.56315599      27.67281774
Ni       3.84429663       4.72628562      27.39895604
Ni       0.06107585       1.37693473       3.85288986
Ni       0.09040764       1.29709032      19.69643468
Mg      -2.45035424       5.50394955       3.77249814
Ni      -2.29290102       5.43550759      19.48046475
Ni       4.88562460       1.33275767       3.97552622
Ni       5.00457812       1.27780049      19.76353490
Ni       2.37931170       5.48908249       3.87119628
Ni      -1.19199856       3.51212185       3.80011861
Ni      -1.15622408       3.33457909      19.57769692
Ni      -3.55671280       7.60783654       3.65320848
Ni      -3.42979235       7.47705057      19.45570744
Ni       3.69421636       3.40904736       3.86985107
Ni       3.87963454       3.34629440      19.65640005
Ni       1.29727557       7.63133435       3.75177581
Ni       1.40353687       7.52695228      19.52264770
Ni       2.38416059       0.00538418       0.09959014
Ni       2.57466012      -0.07676390      15.78229113
Ni       0.01991357       4.16571024      -0.17005907
Ni       0.20007634       4.06760919      15.69772794
Ni       7.19174432       0.05340542       0.07011417
Ni       7.36942502      -0.01112928      15.70476932
Ni       4.82889344       4.20245476      -0.04214223
Ni       4.95266173       4.10176601      15.68482096
Ni       1.25320862       2.12670269      -0.11537409
Ni       1.33160981       1.99253979      15.59800938
Ni      -1.12511510       6.16288432      -0.18095155
Ni      -1.03548534       6.10256748      15.53853731
Ni       6.06250062       2.14352073       0.04884022
Ni       6.25997832       2.05024042      15.74986022
Ni       3.68854909       6.22528901      -0.06736129
Mg       3.87336428       6.14803838      15.62631134
Ni      -1.20367278       1.95286958       7.81251915
Ni      -1.07092947       1.93742423      23.59035700
Ni      -3.58468758       6.14536326       7.63152527
Ni      -3.52791661       6.02568811      23.36431910
Ni       3.78331223       2.01559913       7.89483982
Ni       3.88963063       1.99947065      23.55566119
Ni       1.19424179       6.28536689       7.65128272
Ni       1.48210894       6.11309236      23.35362321
Ni       2.52702168       0.00188735       7.96394799
Ni       2.59751558      -0.08425875      23.56788334
Ni       0.10291228       4.16149036       7.81735337
Ni       0.14440221       3.97729081      23.44310217
Ni       7.37663767      -0.00836222       7.89461841
Ni       7.36776771      -0.10684060      23.74788755
Ni       4.94260169       4.14982009       7.81801868
Ni       5.05277636       3.98940412      23.57956145
Ni      -1.13214247       2.04397103      -0.00614632
Mg      -1.06816870       1.93110716      15.67660667
Ni      -3.67628361       6.19919213      -0.17600414
Ni      -3.50136088       6.12486435      15.53703296
Ni       3.71524102       2.12577165       0.00505062
Ni       3.78052841       1.98340334      15.74487482
Ni       1.28721720       6.16449630      -0.11762028
Ni       1.36529441       6.17062384      15.54950157
Ni       1.24683354       2.01010806       7.78068755
Ni       1.26626286       1.97951515      23.64322943
Ni      -1.17693319       6.16845641       7.71225554
Mg      -1.07083440       6.00120612      23.37994643
Ni       6.10838171       2.09420751       7.87667901
Ni       6.28449462       1.90096666      23.58765736
Ni       3.69310788       6.16333255       7.76018065
Ni       3.82230390       6.16474402      23.44225461
