192
Lattice="9.659855119246563 -0.6003079338310409 -0.15125555719320777 -4.673422807642491 8.94200689185627 0.07233273883481134 0.9273450658438596 1.1072534145329296 31.217955322785492" Properties=species:S:1:pos:R:3 pbc="T T T"
Mg       0.42663566       0.43453139      14.13422383
Mg       0.91510264       1.04631799      29.84313095
Mg      -1.95477644       4.89111932      14.14577119
Mg      -1.46290663       5.53176896      29.72804364
Mg       5.20628290       0.21834654      14.04275988
Mg       5.62931637       0.79411829      29.71629124
Mg       2.90528688       4.60398625      14.11810719
Mg       3.34719782       5.20042119      29.78171082
Mg       0.18221808       0.20345869       6.35344984
Mg       0.66451893       0.80491443      21.95938741
Mg      -2.20700602       4.61934926       6.30410765
Mg      -1.69694823       5.35166777      22.00505222
Mg       5.08277909      -0.14065816       6.33432803
Mg       5.51916526       0.41165706      21.93238978
Mg       2.75527104       4.37031974       6.32907874
Mg       3.12646291       4.92246325      21.97174580
Mg       0.20903702       0.25092872       9.22773302
Mg       0.74458522       0.81150095      24.85502220
Mg      -2.00617274       4.80755958       9.26136605
Mg      -1.65901461       5.30604828      24.92038879
Ni       5.12028474       0.05652707       9.19561898
Mg       5.61624215       0.66939032      24.80403590
Mg       2.78317028       4.52757810       9.16129272
Mg       3.24474146       4.89186381      24.85798671
Mg       0.09792146       0.04984364       1.46214154
Ni       0.48585669       0.56652907      17.07228735
Mg      -2.36215252       4.56047187       1.57451362
Mg      -1.85516293       5.12444976      17.11710429
Mg       4.87117321      -0.19128171       1.48699376
Mg       5.32631753       0.23197120      17.02961766
Mg       2.54504831       4.22557057       1.47280479
Mg       3.01377118       4.79178458      17.08193267
Mg       2.51854487       1.40107229       2.39269326
Mg       3.01190405       1.92568390      17.97157193
Mg       0.19005000       5.77423661       2.35570673
Mg       0.70184733       6.41353732      18.02316873
Mg       7.29961299       1.08544668       2.28165518
Ni       7.73463002       1.56716798      17.94029505
Mg       4.95016356       5.49181524       2.29651118
Mg       5.45381436       6.04703000      17.96537314
Mg       0.35862656       3.34584288      10.27939934
Mg       0.76976648       3.83047663      25.84320769
Mg      -1.95254848       7.73730651      10.33104378
Mg      -1.46305388       8.32829801      25.92747913
Mg       5.23737494       2.99876310      10.24731529
Mg       5.60995023       3.48511099      25.87371048
Mg       2.81237058       7.36570388      10.11499034
Ni       3.31521847       7.94499749      25.71445445
Mg       2.61908951       1.50606141       5.43004181
Mg       3.10043604       2.10031502      20.94389188
Ni       0.31754022       5.92845865       5.35569528
Mg       0.66101319       6.50181248      20.95102416
Mg       7.42007349       1.16079417       5.18326693
Mg       7.88846782       1.68356718      20.82504573
Mg       5.09293650       5.58689001       5.29594598
Mg       5.62163269       6.09826761      20.88566283
Mg       0.44128504       3.36359356      13.18405261
Mg       0.88617779       3.93536004      28.78267195
Mg      -1.87557065       7.77850446      13.22310513
Mg      -1.49360257       8.31782653      28.77591731
Mg       5.28735043       3.00880049      13.19758785
Mg       5.78689162       3.59487031      28.64393369
Mg       2.94329036       7.50825295      13.12236402
Mg       3.34932279       8.08241287      28.74050336
Ni       2.83714896       1.82560576      13.66381626
Ni       3.33924397       2.37028347      29.19095078
Ni       0.51392889       6.22267900      13.72284608
Ni       1.01734178       6.74521452      29.33520571
Ni       7.63575426       1.46883426      13.55832479
Ni       8.19988250       2.11917827      29.09920446
Ni       5.44311151       6.05581399      13.51884845
Ni       5.89090605       6.42503920      29.19603849
Ni       0.19019077       3.13293293       5.84884885
Ni       0.71172545       3.68123626      21.55359072
Ni      -1.97033831       7.58042830       5.95551677
Ni      -1.60074102       8.05486237      21.54859107
Ni       5.11167567       2.82787667       5.78145544
Ni       5.50426444       3.35376628      21.41835240
Ni       2.63956339       7.29304843       5.78186331
Ni       3.14801952       7.75894162      21.35272058
Ni       2.77486329       1.55779306       9.75769402
Ni       3.21973841       2.17135712      25.41961250
Ni       0.39109064       5.96117340       9.75178462
Ni       0.79918295       6.60722230      25.37442932
Ni       7.61308491       1.25509438       9.72628833
Ni       8.09912332       1.88497637      25.31490477
Ni       5.24746721       5.90116595       9.65662022
Ni       5.68581609       6.35999546      25.26230160
Ni       0.14136402       2.95853787       1.92248889
Ni       0.64926566       3.54656110      17.50359043
Ni      -2.26586918       7.50880917       2.06516684
Ni      -1.79408649       7.94636719      17.54284748
Ni       4.99979323       2.69671820       1.88866055
Ni       5.40138657       3.22102511      17.44469947
Ni       2.57123105       7.09860360       1.84019539
Ni       2.99880721       7.69935370      17.50902766
Ni       2.85784812       3.16687971      11.68642677
Ni       3.29482219       3.70557391      27.23463061
Ni       0.41943687       7.66105133      11.67782671
Ni       0.90160234       8.20768857      27.31758134
Ni       7.69827624       2.81518246      11.50663579
Ni       8.15476767       3.27511896      27.18774978
Ni       5.35204908       7.31453538      11.62956476
Ni       5.80386673       7.89395602      27.24065207
Ni       4.07777968       0.89227504      11.74315522
Mg       4.43275491       1.40785056      27.26510908
Ni       1.58034540       5.41456910      11.65529126
Ni       2.08292299       5.97195103      27.38335232
Ni       8.81385642       0.48290808      11.53415321
Ni       9.29980929       1.25329531      27.33996427
Ni       6.47172664       5.02124446      11.57401212
Mg       6.97515484       5.60046888      27.12606148
Ni       1.35732578       3.63035189       3.83649686
Ni       1.89163371       4.22671901      19.44781537
Ni      -0.93612481       8.11694199       3.95867448
Ni      -0.60677558       8.65789052      19.51427349
Ni       6.19021200       3.32279608       3.81480617
Ni       6.73976121       3.89727801      19.46512966
Ni       3.78372353       7.82738731       3.81951204
Ni       4.46305869       8.32681994      19.40637398
Ni       1.60073291       0.98519751      11.72064261
Ni       1.99831978       1.61110156      27.35124426
Ni      -0.85998101       5.62456083      11.70893950
Ni      -0.29775824       6.10181237      27.37512159
Ni       6.39699128       0.70446041      11.58643227
Ni       6.89848253       1.35884822      27.21741785
Ni       4.05040294       5.28448025      11.63517344
Ni       4.48902747       5.85019728      27.26172925
Ni       0.03176446       1.49754649       3.88707326
Mg       0.62039648       2.11982139      19.46482067
Ni      -2.20186265       5.89452768       3.90734745
Ni      -1.71892221       6.65524717      19.49814925
Ni       5.05520010       1.30008926       3.85272481
Ni       5.49547073       1.80279848      19.42744792
Ni       2.62011737       5.77576485       3.85786058
Ni       3.18969701       6.31392031      19.42921569
Ni      -1.01878098       3.81115169       3.80478193
Ni      -0.58728512       4.30819213      19.54614712
Ni      -3.35320299       8.31590027       3.94203232
Ni      -2.94380441       8.86127302      19.56710800
Ni       3.73197759       3.45617290       3.79021780
Ni       4.23900539       4.05137626      19.47549348
Ni       1.42359891       7.92977730       3.82455197
Ni       1.91313072       8.55354209      19.44991403
Ni       2.36261482      -0.12637858      -0.04469881
Ni       2.87081791       0.35379951      15.58559597
Ni       0.08501902       4.26857499       0.05973777
Ni       0.48549977       4.83684433      15.66581793
Ni       7.26942677      -0.53882342      -0.11756635
Ni       7.78435476       0.09703307      15.46383892
Ni       4.91301577       3.93304448       0.00287742
Ni       5.35794866       4.62929663      15.51583387
Ni       1.25032916       2.04819103      -0.08846845
Ni       1.70811079       2.64030855      15.54046647
Ni      -1.15811246       6.60596752       0.02452848
Ni      -0.66886631       7.21159433      15.63839688
Ni       6.04748348       1.76475995      -0.08486676
Ni       6.58323092       2.34669120      15.51901983
Ni       3.81478970       6.16757622      -0.08574413
Mg       4.19800363       6.82587474      15.54673231
Ni      -0.95457949       2.52370027       7.85790785
Ni      -0.39603652       2.97391737      23.48079293
Ni      -3.28386445       7.05841729       7.84781894
Ni      -2.80458676       7.53390608      23.53443082
Ni       3.95405399       2.18098919       7.76317920
Ni       4.39023637       2.75977432      23.23570836
Ni       1.63125022       6.70881655       7.76213681
Ni       2.07551674       7.14436873      23.35897112
Ni       2.59913380       0.12555389       7.71137460
Ni       3.07377803       0.63206943      23.44417709
Ni       0.30526424       4.63952300       7.82433028
Ni       0.72399164       5.09324675      23.35015654
Ni       7.44067580      -0.22895497       7.71550217
Ni       8.01139055       0.40823799      23.33296568
Ni       5.19031305       4.32557646       7.74338220
Ni       5.70497920       4.88043098      23.28058109
Ni      -1.22098076       2.27316736       0.09742937
Ni      -0.70999639       2.84667528      15.72394354
Ni      -3.56606477       6.77006115       0.05304159
Ni      -2.98329259       7.21823557      15.65693301
Ni       3.69142315       1.96226965      -0.10571177
Ni       4.17687258       2.55732219      15.53093057
Ni       1.29213264       6.43216460       0.02983191
Ni       1.76979359       6.99657654      15.48706804
Ni       1.53663893       2.34098752       7.82165203
Mg       1.93252141       2.91224430      23.45846594
Ni      -0.85995366       6.79276155       7.82749772
Ni      -0.34518813       7.33422169      23.47569995
Ni       6.21913951       2.17053223       7.63608579
Ni       6.74414547       2.59539635      23.35674444
Ni       3.93401361       6.57569923       7.71557405
Ni       4.44852631       7.01211423      23.38839100
