190
Lattice="10.17328989587016 0.00740998497086471 -0.23453643515556888 -4.850923901033097 8.507395409619381 0.03498157596061496 1.0796660323880516 -0.528359776296554 32.12003139427309" Properties=species:S:1:pos:R:3 pbc="T T T"
Mg       0.51901754      -0.18941302      14.55677677
Mg       1.06044903      -0.43270485      30.61129749
Mg      -1.94406226       3.98436405      14.51184141
Mg      -1.43124690       3.72317476      30.63747652
Mg       5.51618032      -0.29719366      14.39900367
Mg       6.12247606      -0.56867464      30.45279538
Mg       3.24893998       4.00422108      14.49004301
Mg       3.71819699       3.74671634      30.47493882
Mg       0.15097043      -0.10830809       6.62338497
Mg       0.72826653      -0.39632870      22.60647065
Ni      -2.21128607       4.12586785       6.54168705
Mg      -1.73567823       3.86409470      22.68637423
Mg       5.26073067      -0.12429076       6.39547393
Ni       5.91644060      -0.42669076      22.42986098
Mg       2.85450069       4.08073137       6.49934950
Mg       3.49509034       3.89107190      22.49291371
Mg       0.41841328      -0.23968064       9.50001281
Mg       0.77424231      -0.48752787      25.59213411
Mg      -2.16399798       4.08812833       9.53006862
Mg      -1.50869438       3.76091626      25.59530035
Mg       5.47001036      -0.16570263       9.48534605
Mg       5.91441067      -0.39467730      25.40602005
Mg       3.00768436       4.08393743       9.42315607
Mg       3.58525713       3.89435250      25.47073258
Mg       0.01252403      -0.01978443       1.45373688
Mg       0.69019023      -0.33751316      17.65934714
Mg      -2.37344056       4.11899350       1.50321533
Mg      -1.89086975       3.93503760      17.64543312
Mg       5.00482748      -0.03078127       1.41178481
Mg       5.65956799      -0.27594949      17.41315082
Mg       2.74809947       4.18469667       1.31609197
Mg       3.23274846       4.00428104      17.44512981
Mg       2.63788338       1.42716077       2.44523658
Mg       3.21671246       1.08712801      18.53841763
Mg       0.18872915       5.65742748       2.42139057
Mg       0.78609084       5.42908822      18.48731829
Mg       7.68888726       1.43077904       2.36959731
Mg       8.27593591       1.15271604      18.27841768
Mg       5.21902661       5.69076758       2.35291213
Mg       5.89926763       5.34850488      18.35553414
Mg       0.44787962       2.73180855      10.51077257
Mg       0.98559937       2.45325597      26.58656507
Mg      -2.11749285       6.95691497      10.55786970
Mg      -1.51325625       6.66409539      26.56882784
Mg       5.50138495       2.67157265      10.46263886
Mg       6.06881836       2.55712398      26.43697006
Mg       3.05480150       6.94250230      10.42469928
Mg       3.70725106       6.72914588      26.48750040
Mg       2.75950136       1.36469983       5.40744471
Mg       3.36271302       1.10946007      21.58840267
Mg       0.36977943       5.57277225       5.42937009
Mg       0.86426773       5.31338846      21.62426678
Mg       7.85991336       1.29526947       5.41002590
Mg       8.45804925       1.04413864      21.37844426
Mg       5.39405260       5.58782018       5.35369821
Mg       5.94642000       5.33753209      21.53368305
Mg       0.55157066       2.60531637      13.49883810
Mg       1.11677204       2.35063229      29.60029423
Mg      -1.88896275       6.95728939      13.65313291
Mg      -1.37456833       6.59586137      29.55289174
Mg       5.55392315       2.68676685      13.43583608
Mg       6.22894218       2.37229793      29.50809725
Mg       3.16433274       6.84330181      13.40871547
Mg       3.69982648       6.63602553      29.48533300
Ni       3.13584618       1.18543291      13.91589288
Ni       3.62178104       0.93048151      30.11343548
Ni       0.61405178       5.46033928      13.92083423
Ni       1.14207805       5.20426852      30.03935541
Ni       8.16920658       1.17073744      13.85965591
Ni       8.61264388       0.99482846      29.93748262
Ni       5.67141890       5.48156872      13.91287140
Ni       6.26044991       5.21433267      29.91822915
Ni       0.18897543       2.73473572       5.98876001
Ni       0.78337389       2.46093981      22.07204107
Ni      -2.19632348       6.90475985       6.06324941
Ni      -1.59247796       6.79345922      22.06914924
Ni       5.39025077       2.77208566       5.79043975
Ni       5.90516430       2.52678903      21.79786892
Ni       3.01133210       7.01586507       5.94082902
Ni       3.55733438       6.69633742      21.90874126
Ni       2.79653227       1.21348956      10.04473825
Ni       3.47781207       0.96774321      25.99963761
Ni       0.49793948       5.46313897       9.96760922
Ni       0.96791112       5.29934339      26.01284289
Ni       7.94257596       1.30904178       9.85683583
Ni       8.48666020       0.95823590      25.93316809
Ni       5.53342501       5.58078421       9.78803813
Ni       6.13195747       5.26690449      25.91076227
Ni       0.26904512       2.78977042       1.92999507
Ni       0.65448426       2.65805515      18.07516530
Ni      -2.29941320       6.94329131       1.91678528
Ni      -1.72742595       6.82854251      18.11812314
Ni       5.32283699       2.85407013       1.77360021
Ni       5.82701470       2.54869297      17.94415718
Ni       2.81477945       7.06382298       1.90116829
Ni       3.26167628       6.75675760      17.89122975
Ni       3.07104908       2.61716675      11.97949308
Ni       3.50726037       2.39782223      28.02643672
Ni       0.51055463       6.90897950      11.83894416
Ni       1.18511245       6.65463823      28.08965764
Ni       8.10539049       2.65303937      11.73951045
Ni       8.62518279       2.42455055      27.95524881
Ni       5.71154918       6.94232676      11.81856345
Ni       6.25251898       6.60758996      27.91984111
Ni       4.30191639       0.49464870      11.93936969
Ni       4.74598809       0.16504779      28.12391043
Ni       1.83176726       4.79332330      11.94161456
Ni       2.37101124       4.48903865      28.12385436
Ni       9.37667928       0.46803958      11.76724330
Ni       9.90824668       0.21375846      27.81779047
Ni       6.77858491       4.70045480      11.90164136
Ni       7.37667649       4.47987669      27.84842923
Ni       1.52758438       3.53273553       3.92856106
Ni       2.00626249       3.18788272      20.07699180
Ni      -0.89599353       7.70826623       3.93303932
Ni      -0.45340262       7.54272669      19.97378460
Ni       6.66849528       3.59970574       3.79435850
Ni       7.08768334       3.22736870      19.91389967
Ni       4.10319645       7.71374414       3.93504115
Ni       4.74391461       7.44923525      19.93262149
Ni       1.77138699       0.50903887      12.05736534
Ni       2.20688975       0.14157239      28.15163765
Ni      -0.70737924       4.76020947      11.94842462
Ni      -0.15212304       4.48275112      28.02516657
Ni       6.82950101       0.51733820      11.84657180
Ni       7.28594091       0.31187832      27.87348508
Ni       4.32216337       4.75450279      11.87691390
Ni       4.83334365       4.50706372      27.97122212
Ni       0.19414675       1.22828583       4.02642235
Ni       0.61548617       1.11652280      20.01337816
Ni      -2.33037282       5.46473262       3.94877121
Ni      -1.69864056       5.21880457      20.07665291
Ni       5.34999405       1.47876818       3.88673328
Ni       5.87368949       1.04047203      19.93549931
Ni       2.78562884       5.64639400       3.92460635
Ni       3.47718796       5.29496569      19.91904840
Ni      -1.05538231       3.45384428       4.06921027
Mg      -0.50256514       3.20754974      20.11403495
Ni      -3.52882745       7.70919934       4.09190155
Ni      -2.83731221       7.50258175      20.07285991
Ni       4.03652142       3.52455620       3.84538163
Ni       4.56750561       3.21622145      19.95148819
Ni       1.67244803       7.72414037       4.01658824
Ni       2.14758492       7.47282592      19.95887107
Ni       2.56059617       0.00929268      -0.14202738
Ni       3.06173754      -0.27734125      16.03051656
Ni       0.05886977       4.23115046       0.01462882
Ni       0.57064694       4.03227840      15.93912073
Ni       8.21346543      -0.30334732      15.94011206
Ni       5.14487401       4.23319606      -0.13225385
Ni       5.81624217       4.03324153      15.87388852
Ni       1.35770796       2.18080011      -0.02397606
Ni       1.86581820       1.88448807      16.02962388
Ni      -1.11587516       6.36886975       0.06014735
Ni      -0.56779372       6.12413739      15.97369653
Ni       6.40250509       2.11581410      -0.20475415
Ni       6.94953980       1.84318177      15.91523774
Ni       4.05567185       6.33285265      -0.21482798
Ni       4.55044416       6.10210694      15.89400228
Ni      -1.05357158       1.91025578       7.98662560
Ni      -0.52332145       1.69892663      24.07478262
Ni      -2.86438349       5.84166919      24.05020265
Ni       4.07358951       1.96605336       7.88182263
Ni       4.68592830       1.73534244      23.97773560
Ni       1.74511111       6.24801630       7.90986854
Ni       2.23128636       5.99493507      23.90461557
Ni       2.73076168      -0.09171667       7.87427097
Ni       3.44037316      -0.31910802      24.11884922
Mg       0.33435892       4.14224685       7.99494967
Ni       0.96853298       3.86826104      24.09464725
Ni       7.86692146      -0.10312205       7.91913079
Ni       8.46149782      -0.48393000      23.93012249
Ni       5.49488808       4.12938263       7.82340896
Ni       5.99015100       3.86529498      23.90734599
Ni      -1.23946983       2.10763282       0.01110669
Ni      -0.68553623       1.85515322      16.13510556
Ni      -3.52553461       6.45576915      -0.04609562
Ni      -3.17018741       6.04820857      16.06466080
Ni       3.90269845       2.15854537      -0.11375237
Ni       4.44789881       1.88283966      15.92060298
Ni       1.52079475       6.38432349       0.02282380
Ni       1.96176644       6.01892964      15.94579653
Ni       1.56909439       1.96473310       8.03582766
Ni       2.14506926       1.69920400      24.01764227
Ni      -0.81181446       6.26434809       7.99829785
Ni      -0.40236406       6.04243537      24.07020072
Ni       6.66482406       1.89658931       7.88130700
Ni       7.22728145       1.88542372      23.87873112
Ni       4.20184755       6.30484782       7.88889989
Ni       4.75169630       6.00367690      23.89553389
