188
Lattice="9.949038924460881 0.027587049877741732 0.11711692898879865 -4.8946079346750375 8.37823560143427 -0.2137816825657743 -0.30346745821409843 0.7260328027347914 31.586126874689967" Properties=species:S:1:pos:R:3 pbc="T T T"
Mg      -0.19942049       0.38235849      14.33427267
Mg      -0.25741006       0.73694069      30.05082274
Mg      -2.56651842       4.57793284      14.21593558
Mg      -2.76587221       4.86092041      30.05576600
Mg       4.77987959       0.30033493      14.40314627
Ni       4.74501345       0.74173768      30.13395110
Mg       2.41774167       4.49386739      14.16683565
Mg       2.17472150       4.91594208      30.11111118
Mg      -0.00095353       0.09894062       6.44553191
Mg      -0.17765477       0.40631878      22.26520734
Mg      -2.49844210       4.33085427       6.33245020
Mg      -2.70320875       4.67711166      22.07679959
Mg       4.95166720       0.21260402       6.44942962
Mg       4.71666558       0.49208148      22.31298681
Mg       2.49309595       4.31411444       6.39506207
Mg       2.38852806       4.73219066      22.20106207
Mg      -0.10545978       0.18519560       9.39704301
Mg      -0.20190586       0.60441408      25.24349327
Ni      -2.63908281       4.35489725       9.27746225
Mg      -2.65934856       4.78204626      25.15882858
Mg       4.88972235       0.28776513       9.35442404
Ni       4.68994732       0.60034629      25.21519795
Mg       2.40229820       4.47753092       9.34689081
Mg       2.36116845       4.79042697      25.11564991
Mg      -0.03862242       0.01902499       1.45565399
Mg      -0.17499584       0.42462057      17.30107922
Mg      -2.46602346       4.28922199       1.42599491
Ni      -2.56927316       4.61459346      17.04964656
Mg       4.96344234       0.05129444       1.50153274
Mg       4.80029803       0.40585345      17.37687719
Mg       2.57463299       4.26618372       1.44143415
Mg       2.40024920       4.55517753      17.30817375
Ni       2.46753845       1.42115643       2.42290548
Mg       2.37658537       1.89573286      18.31693279
Mg       0.01033603       5.62868157       2.27104979
Mg      -0.09093234       6.03311266      18.14509596
Mg       7.38327752       1.44818581       2.50596951
Mg       7.32019897       1.87307105      18.31749268
Mg       4.92960028       5.62439817       2.41130349
Mg       4.88087539       5.98676842      18.19918418
Mg      -0.04283331       2.98356848      10.35753290
Mg      -0.13247472       3.48640249      26.09759564
Mg      -2.49858403       7.20067566      10.20883398
Ni      -2.70189227       7.53610228      25.93276894
Mg       4.91908152       3.05028036      10.40413943
Mg       4.80573701       3.39204716      26.12603556
Mg       2.55022313       7.26843520      10.15011575
Mg       2.36311931       7.63398354      26.12250890
Mg       2.42914837       1.58461471       5.49612521
Mg       2.32883362       1.86612300      21.21734253
Mg      -0.03037514       5.75168723       5.36292571
Mg      -0.17510193       6.06554850      21.20248775
Mg       7.37840678       1.53438926       5.47326806
Mg       7.36032370       1.92048715      21.24717246
Mg       4.96908414       5.70255916       5.38151298
Mg       4.71484255       6.17884737      21.24036572
Mg      -0.13055273       3.17044579      13.27735950
Mg      -0.33341515       3.40753040      29.06043447
Mg      -2.50681141       7.32867502      13.09144360
Mg      -2.74089472       7.73640198      29.00037239
Mg       4.90883320       3.15116435      13.36450395
Mg       4.72945701       3.40235187      29.20388448
Mg       2.51765634       7.30130259      13.23233759
Mg       2.34431884       7.59332595      29.07255357
Ni       2.27998774       1.68556684      13.79032703
Ni       2.16785561       2.08846195      29.56781616
Ni      -0.07327427       5.89164729      13.75627864
Ni      -0.22183319       6.31485628      29.51191293
Ni       7.20028319       2.07610198      29.66122014
Mg       4.94046578       5.86612914      13.78489472
Ni       4.73960514       6.32439554      29.54774208
Ni      -0.01795260       2.91235505       5.87158299
Ni      -0.17451598       3.32009155      21.73827139
Ni      -2.56065203       7.03026417       5.74204040
Ni      -2.55517522       7.45492612      21.57860894
Ni       4.98119790       2.98492190       5.88390275
Ni       4.72047691       3.32450275      21.72655987
Ni       2.45174449       7.14133672       5.74256823
Ni       2.24404931       7.50358050      21.55665169
Ni       2.37668501       1.62851171       9.92143192
Ni       2.21971290       2.02927916      25.56095418
Ni      -0.04654984       5.92871825       9.76047374
Ni      -0.18228371       6.09822733      25.58019436
Ni       7.38909930       1.63524045       9.96607324
Ni       7.23433394       2.05543050      25.68798513
Ni       4.92145272       5.82699190       9.76275882
Ni       4.82861853       6.27053136      25.61207623
Ni       0.08479868       2.86631535       1.86304272
Ni      -0.16134619       3.22126463      17.68141684
Ni      -2.54369453       6.97653730       1.81853924
Ni       5.06727234       2.88608893       2.01418776
Ni       4.83099485       3.16060848      17.81760119
Ni       2.55030808       7.02508722       1.90316130
Ni       2.46393315       7.37465292      17.65043950
Ni       2.42007738       2.97999514      11.95300376
Mg       2.20481053       3.45500026      27.66421076
Ni      -0.12689579       7.24549289      11.72063642
Ni      -0.27388479       7.64289571      27.54807338
Ni       7.40321481       3.00143600      11.91977536
Ni       7.25913028       3.52974982      27.70318271
Ni       4.94653467       7.23275895      11.77517111
Ni       4.79539531       7.68480871      27.64546044
Ni       3.62654028       0.93304200      11.88772912
Ni       3.42062413       1.36160329      27.68346939
Ni       1.24599824       5.20312482      11.88467687
Ni       1.02227974       5.47207738      27.67004291
Ni       8.63958591       0.97368390      11.89029307
Ni       8.52294703       1.33295142      27.74010394
Ni       6.25140924       5.09836947      11.72788191
Ni       6.04062681       5.55129510      27.55852842
Ni       1.25726348       3.48523538       3.97130473
Ni       1.14657575       3.93885131      19.77657904
Ni      -1.21065828       7.73630698       3.80675020
Ni      -1.47575090       8.21781566      19.69898097
Ni       6.33285384       3.66800586       3.96476385
Ni       6.06670532       3.94978644      19.75365908
Ni       3.85080526       7.84513305       3.79072530
Ni       3.62122422       8.17458646      19.79245097
Ni       1.08578340       0.97444456      11.76909176
Ni       0.92573949       1.28868976      27.66957167
Ni      -1.24251792       5.03650419      11.70968745
Ni      -1.40176118       5.53557875      27.60465338
Mg       6.07578412       1.01539151      11.95522238
Ni       6.01350322       1.35490114      27.68648770
Ni       3.60657976       5.22679430      11.84705236
Ni       3.53641285       5.53969628      27.67689712
Ni       0.07219467       1.38864441       3.89782077
Ni      -0.18679057       1.82770647      19.67047038
Ni      -2.52769587       5.96255343      19.61390184
Ni       5.00147076       1.59000304       3.96233763
Ni       4.68852029       1.92564998      19.75084839
Mg       2.54637076       5.71690443       3.84044014
Ni       2.35527940       6.05561895      19.66964247
Ni      -1.17216800       3.59327190       3.75758490
Ni      -1.37419268       3.90762973      19.74678558
Ni      -3.68378793       7.80831430       3.80079666
Ni      -3.83509632       8.09223441      19.52768991
Ni       3.80542546       3.68288457       3.94959138
Ni       3.67765890       3.91925095      19.70207679
Ni       1.32122278       7.78996243       3.79644186
Ni       1.14027795       8.07743686      19.63894301
Ni       2.49546825       0.08154447      -0.03578853
Ni       2.24048961       0.46378548      15.86606543
Ni      -0.05200897       4.14693279      -0.04217629
Ni      -0.17377083       4.63925811      15.72056100
Ni       7.50995460       0.03677835       0.17522154
Ni       7.27293510       0.34559299      15.86569835
Ni       4.96801314       4.22220919      -0.00198405
Ni       4.86837412       4.59483045      15.86250143
Mg       1.10767559       2.49981920      15.79437279
Ni      -1.10177778       6.33106402      -0.18562178
Ni      -1.31734022       6.61483041      15.64663341
Ni       6.21780036       2.21660194       0.00112294
Ni       6.01960825       2.51458362      15.88045013
Ni       3.73214204       6.33573922      -0.15308859
Ni       3.66073062       6.74105859      15.67075827
Ni      -1.29800708       2.32793466       7.80455671
Ni      -1.41897007       2.64331366      23.70425936
Ni      -3.66319397       6.50447030       7.74527438
Ni      -3.90978585       6.80426698      23.41966333
Mg       3.68282046       2.25958698       7.90366653
Ni       3.59734299       2.60487537      23.69283856
Ni       1.24439421       6.48065815       7.76854872
Ni       1.12934512       6.89444073      23.52744045
Ni       2.40030243       0.16106678       7.83484157
Ni       2.22569798       0.56365841      23.71751025
Ni      -0.03441659       4.39582361       7.81053922
Ni      -0.21294294       4.75027277      23.55812149
Ni       7.42939831       0.20240700       8.01155159
Ni       7.19665769       0.51216368      23.72271036
Ni       5.10360584       4.52998604       7.85005520
Ni       4.81528119       4.72906395      23.61137911
Ni      -1.18475383       2.11185409      -0.11470864
Ni      -1.31760330       2.42337507      15.69221564
Ni      -3.67969854       6.27104314      -0.15807483
Ni      -3.78453667       6.71734935      15.54738981
Ni       3.80643381       2.04959000      -0.06484979
Ni       3.53051700       2.41433097      15.86039048
Ni       1.24016972       6.26763021      -0.09961493
Ni       1.14831813       6.59147594      15.73812523
Ni       1.13796737       2.25890388       7.84701146
Ni       1.05684682       2.65437249      23.63341268
Ni      -1.24532438       6.34021988       7.77094980
Ni      -1.42097828       6.81863016      23.57854268
Ni       6.21011671       2.38418193       7.85145715
Ni       5.93240180       2.67590985      23.67932431
Ni       3.71438702       6.47543917       7.83230412
Ni       3.53750843       6.88951604      23.58398074
