192
Lattice="9.643757733629867 0.0445987355957036 -0.38827146335623125 -5.040784828362404 8.192610156627154 0.12375983646181805 -0.46620501042092255 0.8697088178342818 31.10214993038185" Properties=species:S:1:pos:R:3 pbc="T T T"
Mg      -0.21147844       0.34987697      14.13574630
Mg      -0.45855039       0.74101676      29.66373116
Mg      -2.75071529       4.52344762      14.18014558
Mg      -3.04217738       4.91396610      29.69744124
Mg       4.56687069       0.35376677      13.95063112
Mg       4.38296040       0.92080951      29.45092377
Mg       2.14094802       4.52122221      13.98753413
Mg       1.87599982       5.05199561      29.47921164
Mg      -0.08871632       0.15521732       6.26286591
Mg      -0.24606774       0.57499282      21.68419759
Mg      -2.64245379       4.25712664       6.38941012
Mg      -2.85118336       4.72575383      21.95325535
Mg       4.85651160       0.25067408       6.09789629
Mg       4.54114331       0.72023824      21.61336986
Mg       2.15794530       4.30547389       6.16868834
Mg       1.99749817       4.69147174      21.74717250
Mg      -0.05777302       0.19903954       9.23652021
Mg      -0.37022128       0.70181611      24.80159218
Mg      -2.64122169       4.37506319       9.20874579
Mg      -2.82467807       4.77466955      24.85828383
Mg       4.72795517       0.27998512       9.01568310
Mg       4.41561523       0.77078053      24.61730659
Mg       2.10660088       4.43318260       9.09308980
Ni       1.89043610       4.81450001      24.66849057
Mg      -0.02429248       0.13246071       1.48109242
Mg      -0.20054589       0.51596177      16.99252720
Mg      -2.55484190       4.20130035       1.57479538
Mg      -2.81342451       4.49737798      17.06834152
Mg       4.79453425       0.09780001       1.19858378
Mg       4.53329760       0.48206356      16.77918309
Mg       2.21698536       4.16639115       1.43581024
Mg       2.05569116       4.55514699      16.90797412
Mg       2.32502666       1.49490667       2.30568173
Mg       2.16097889       1.82398225      17.80209162
Mg      -0.16090113       5.59557075       2.36374270
Mg      -0.41072386       6.04922508      17.80667895
Ni       7.22098137       1.62898780       2.12419913
Mg       6.92301456       1.87246468      17.66510675
Mg       4.57781125       5.49586084       2.28409658
Mg       4.42087889       6.05869956      17.77464686
Mg      -0.26404627       3.07945083      10.11114942
Mg      -0.42145984       3.44074603      25.74314711
Mg      -2.74976552       7.19624547      10.26806820
Mg      -3.04675851       7.55189760      25.78677579
Mg       4.69986948       3.02240998       9.99557983
Mg       4.33547870       3.50095245      25.56084384
Mg       2.03999475       7.10882131      10.02265232
Mg       1.86266906       7.60248705      25.56484206
Mg       2.23466991       1.44461053       5.22514932
Mg       2.10247711       1.94057032      20.71185378
Mg      -0.14163692       5.62074850       5.31756043
Mg      -0.42554952       6.02168931      20.81354016
Mg       7.12600231       1.52880383       5.02394042
Mg       6.86942090       1.95612011      20.65409558
Mg       4.57337033       5.65743103       5.15724906
Mg       4.35206479       6.01927244      20.68697877
Mg      -0.27234728       3.12185523      13.04537477
Mg      -0.54464682       3.58806823      28.64289785
Mg      -2.74475188       7.20020456      13.20437637
Mg      -3.05913858       7.67208772      28.70631823
Mg       4.50684871       3.18100534      12.80493080
Mg       4.32870731       3.52706648      28.45369297
Mg       2.10529306       7.18003718      12.96257830
Mg       1.76146285       7.66211916      28.51984814
Ni       2.18462222       1.72291362      13.50785665
Ni       1.90934277       2.17566990      29.01439602
Ni      -0.27978774       5.85862050      13.51407282
Ni      -0.61928456       6.31636131      29.13856097
Ni       6.94670644       1.78509402      13.35213490
Ni       6.82225153       2.19957194      28.85249465
Ni       4.45231987       5.86858642      13.39156413
Ni       4.40823780       6.34413987      28.93484295
Ni      -0.09682910       2.85316561       5.78813387
Ni      -0.45475233       3.31967656      21.26907650
Ni      -2.72313998       7.06811063       5.91541119
Ni      -2.95315289       7.43601043      21.39619776
Ni       4.58930702       2.95652186       5.55927365
Ni       4.53541846       3.32070566      21.15143985
Ni       2.20254308       6.99730599       5.71106689
Ni       1.87250307       7.41795014      21.16838707
Ni       2.20221114       1.62816591       9.68077843
Ni       1.97167022       2.18955025      25.22699622
Ni      -0.26511687       5.74796877       9.63525577
Mg      -0.54384460       6.21722189      25.23860457
Ni       7.16905417       1.68145716       9.41164238
Ni       6.79272920       2.09711257      24.97142699
Ni       4.58148309       5.78485746       9.54070325
Ni       4.33239948       6.22333276      25.06680362
Ni      -0.06402733       2.78712874       1.87495221
Ni      -0.33591664       3.25086170      17.47648706
Ni      -2.59114405       6.94602454       2.08005781
Ni      -2.84171040       7.26083884      17.58860145
Ni       4.70092889       2.81932255       1.74800333
Ni       4.43818674       3.28720517      17.33752872
Ni       2.19737158       6.91656081       1.74802856
Ni       1.93085975       7.30787630      17.33257272
Ni       2.16241716       3.18063124      11.49703661
Ni       1.84473549       3.60066620      27.13418218
Ni      -0.35420850       7.18495450      11.46901970
Ni      -0.60790403       7.61982990      27.11115447
Ni       6.99780583       3.06370255      11.37861801
Mg       6.79970146       3.47758043      26.80303245
Ni       4.48079757       7.14057531      11.37305775
Ni       4.24886259       7.63729339      26.98398263
Ni       3.43768949       0.95876624      11.46831093
Ni       3.18823370       1.41196399      27.05518072
Ni       0.86643441       5.17631938      11.57566387
Ni       0.74139636       5.60475804      27.16937306
Ni       8.27528573       1.05471944      11.38876417
Ni       8.09879021       1.45563356      26.85366545
Ni       5.79432903       5.11090872      11.33573007
Ni       5.51721885       5.57120763      26.90612685
Ni       1.08624040       3.48400511       3.72659430
Ni       0.78141169       3.89624590      19.45481746
Ni      -1.49492072       7.61271915       3.89324217
Ni      -1.67178421       8.03079033      19.38648472
Ni       5.87061453       3.49687230       3.61824771
Ni       5.67431915       3.85501016      19.16508605
Ni       3.31983473       7.72066521       3.66911760
Ni       3.09967253       8.07863259      19.23742443
Ni       0.99226031       0.98824522      11.61753102
Ni       0.76731388       1.49449411      27.15462366
Ni      -1.60003151       5.12296117      11.63802568
Ni      -1.66321289       5.61106888      27.30311880
Ni       5.84140435       1.15533825      11.42070334
Ni       5.58758516       1.39095987      26.96299285
Ni       3.25022271       5.15694886      11.45520167
Ni       3.05464123       5.52979279      27.05092196
Ni      -0.18870427       1.42374661       3.86907443
Ni      -0.40701737       1.82838600      19.48829822
Ni      -2.58857849       5.61612419       3.84843753
Ni      -2.93785149       5.99793459      19.47349631
Ni       4.69763130       1.48072296       3.71144203
Ni       4.52846522       1.86170830      19.24714180
Ni       2.18099297       5.56313064       3.74572127
Ni       2.04492416       5.99107441      19.34034110
Ni      -1.28478708       3.51595252       3.85207815
Ni      -1.58830506       4.02165962      19.50320483
Ni      -3.77180094       7.62305674       3.99141036
Ni      -4.16117135       8.04166853      19.49696223
Ni       3.33681507       3.55074262       3.66336083
Ni       3.18608213       4.00273985      19.30946591
Ni       0.94744192       7.55156107       3.81001994
Ni       0.71077053       8.04042524      19.29790489
Ni       2.44430372      -0.03922345      -0.08414540
Ni       2.16682645       0.48232533      15.47569481
Ni      -0.08281745       4.05104079      -0.00215996
Ni      -0.40599757       4.54404451      15.46862458
Ni       7.26906620       0.00175682      -0.34628615
Ni       6.92658938       0.45933223      15.24312145
Ni       4.65169484       4.15460572      -0.24772139
Ni       4.49899316       4.60929934      15.33649161
Ni       1.14470389       2.09226461      -0.06131999
Ni       0.96310808       2.45471573      15.55069264
Ni      -1.31425248       6.15430714       0.00495893
Ni      -1.66264349       6.48442150      15.54773442
Ni       5.94175003       2.00636917      -0.29550410
Ni       5.75355479       2.49963684      15.20797996
Ni       3.43334887       6.08648437      -0.30686664
Ni       3.15466912       6.60536547      15.34553603
Ni      -1.39421241       2.31354924       7.81747158
Ni      -1.57172185       2.69567696      23.32621056
Ni      -3.91963187       6.31017217       7.86888646
Ni      -4.04897686       6.75359646      23.42002720
Ni       3.45713999       2.32283408       7.63973949
Ni       3.27293044       2.72557085      23.14729884
Ni       0.88490289       6.38694460       7.66571035
Ni       0.65507900       6.77310017      23.15149150
Ni       2.32160913       0.24355337       7.65580853
Ni       2.06476489       0.67888211      23.24019038
Ni      -0.20246182       4.31992269       7.66657479
Ni      -0.43910132       4.79815600      23.27876738
Ni       7.07270848       0.26706131       7.52348743
Ni       6.90443142       0.66440729      22.99511915
Ni       4.67440259       4.41105071       7.56551333
Ni       4.35131656       4.81081688      23.21847906
Ni      -1.18661063       2.01667673       0.12644020
Ni      -1.44593508       2.49292802      15.55198892
Ni      -3.75187751       6.10552751       0.17650616
Ni      -3.95091846       6.47917899      15.65702517
Ni       3.47474869       2.12922226      -0.22359169
Ni       3.24340093       2.53696629      15.34355278
Ni       1.07911329       6.19407416      -0.08025768
Ni       0.75255141       6.58983745      15.41952087
Ni       1.02629073       2.29308619       7.66674148
Ni       0.79067768       2.65388272      23.19034166
Ni      -1.43485886       6.42324081       7.75273439
Ni      -1.61932880       6.79543762      23.33264227
Ni       5.85634826       2.32651220       7.51923458
Ni       5.59473494       2.69678788      23.12291441
Ni       3.35271311       6.34472238       7.54829903
Ni       3.05165801       6.84408217      23.24164243
