192
Lattice="9.57583413160519 0.04739494101655144 0.19247077617134994 -4.579276411796846 8.308107130874752 -0.45702258014028263 0.15508391552932976 -0.25272821519612326 33.109710863392536" Properties=species:S:1:pos:R:3 pbc="T T T"
Mg       0.13264279      -0.15529866      15.04311841
Mg       0.26777398      -0.22532805      31.57466921
Mg      -2.22006415       4.03386875      14.73011888
Mg      -2.11596847       3.91065789      31.35183337
Mg       4.89389624      -0.12647713      15.12069034
Mg       4.88193224      -0.19812251      31.59167870
Mg       2.58466452       4.13172045      14.84946966
Mg       2.67827526       4.00859995      31.34651708
Mg       0.06327223      -0.09735474       6.70509539
Ni       0.06647387      -0.25068523      23.25778219
Mg      -2.22676453       4.11945499       6.45449302
Mg      -2.29734869       3.99003414      23.11908904
Mg       4.88048107      -0.03368553       6.69839065
Mg       4.91347796      -0.15954227      23.44596625
Mg       2.54859438       4.06709433       6.60545714
Mg       2.59937597       3.95990905      23.13895111
Mg       0.04275039      -0.07824925       9.88370374
Mg       0.09629022      -0.20057027      26.40837609
Mg      -2.19117377       4.03189612       9.70185233
Mg      -2.11118397       4.01047916      26.11242880
Mg       4.90158070      -0.04557833       9.96673270
Mg       4.87659387      -0.10369035      26.35043958
Ni       2.57820614       4.01662157       9.64954166
Mg       2.69393653       3.97503382      26.37856565
Mg      -0.06582401       0.02082012       1.53246665
Mg       0.09321642      -0.13632756      18.13690558
Mg      -2.29931779       4.16837295       1.31948956
Mg      -2.18123102       3.99540051      17.93784327
Mg       4.80754617       0.03235147       1.66090235
Mg       4.85618379      -0.17348327      18.15423970
Mg       2.48504403       4.14619232       1.34015208
Mg       2.55930087       4.06286368      18.00790737
Mg       2.40661449       1.37772431       2.50165692
Mg       2.64333985       1.22441021      19.16746490
Mg       0.16663075       5.42487421       2.36015459
Mg       0.28489281       5.47191434      18.90688482
Mg       7.26189745       1.46700808       2.66055258
Mg       7.35949888       1.29225691      19.29002456
Mg       4.93330950       5.54002731       2.46302957
Mg       5.00393161       5.50946842      18.93867823
Mg       0.11974927       2.66996849      10.78494514
Mg       0.22197704       2.63053317      27.25334958
Mg      -2.19014206       6.81231525      10.53671584
Mg      -2.10092166       6.64457294      27.08717534
Mg       4.93891846       2.78329948      10.81967813
Mg       5.04342920       2.58781727      27.36251152
Mg       2.72994420       6.85594042      10.54840987
Mg       2.74981151       6.73234468      27.13151412
Mg       2.48777130       1.34514406       5.70786943
Mg       2.47077839       1.35845236      22.21399997
Mg       0.15640007       5.49880940       5.35903565
Mg       0.29014184       5.38605462      22.07762945
Mg       7.29754572       1.29416153       5.86766189
Mg       7.34582279       1.17650391      22.37164234
Mg       4.93735917       5.63487759       5.56056770
Mg       5.15037134       5.46140353      22.08068158
Mg       0.11875842       2.68508256      13.90479278
Mg       0.30635972       2.54544456      30.39546719
Mg      -2.16572693       6.79269308      13.61638072
Mg      -2.07237901       6.68173665      30.15883321
Mg       4.93933055       2.84141802      13.89752545
Mg       5.02515505       2.53059192      30.59594775
Mg       2.63148023       6.86019887      13.76595812
Mg       2.66464000       6.69215519      30.29627413
Ni       2.42715202       1.31090980      14.43767937
Ni       2.55665563       1.25526217      30.98002944
Ni       0.21628454       5.55382724      14.15802246
Ni       0.24958146       5.32598989      30.75776010
Ni       7.31200408       1.31633433      14.65357979
Ni       7.41466867       1.12155156      31.10523705
Ni       4.92961867       5.47868004      14.35383078
Ni       5.12694904       5.37612910      30.86149864
Ni       0.12734324       2.70963978       6.07178285
Ni       0.23285091       2.56427026      22.67499236
Ni      -2.12445639       6.96144655       5.85635670
Ni      -2.08635788       6.70605922      22.41709910
Ni       4.87825419       2.73181208       6.16718641
Ni       4.97946634       2.67952137      22.69411214
Ni       2.58359236       6.92260730       5.83327902
Ni       2.67989947       6.78640682      22.42904279
Ni       2.51236429       1.28769458      10.36323454
Ni       2.54075353       1.17608035      26.88134004
Ni       0.15650834       5.53715161      10.10650077
Ni       0.23773885       5.33949693      26.68555603
Mg       7.39412112       1.35918186      10.50770039
Ni       7.25405308       1.19615167      26.97099910
Ni       4.98484054       5.43427365      10.15606698
Ni       5.06778043       5.32947127      26.66096730
Ni       0.13123751       2.82884137       1.94951135
Ni       0.11030707       2.65340671      18.42602569
Ni      -2.26707032       6.99359476       1.65505908
Ni      -2.14859062       6.85631231      18.32903047
Ni       4.83512119       2.88226348       2.03585187
Ni       4.93510049       2.62835459      18.69274867
Ni       2.54095217       7.07175218       1.89976046
Ni       2.57665781       6.69040295      18.38162035
Ni       2.50176797       2.68183083      12.32700922
Ni       2.70638052       2.58853619      28.90578937
Ni       0.25810285       6.83336169      12.05108969
Ni       0.29902772       6.75533358      28.60511421
Ni       7.30059097       2.76637887      12.44385886
Ni       7.35804876       2.62193210      29.02632363
Ni       5.06911714       6.81264840      12.22721331
Ni       5.10548021       6.67763309      28.73937312
Ni       3.72550125       0.69257388      12.45322195
Ni       3.74919626       0.47959217      28.93823669
Ni       1.42310686       4.81367779      12.20584652
Mg       1.46394794       4.61311764      28.73539219
Ni       8.40997208       0.63734513      12.57233168
Ni       8.51593626       0.43488818      29.19348032
Ni       6.17015083       4.86383274      12.28271739
Ni       6.28798711       4.68415179      28.85473662
Ni       1.26311383       3.49130787       3.97436666
Ni       1.40860040       3.40028464      20.63391832
Ni      -1.05406442       7.61247751       3.78150378
Ni      -0.92847837       7.38813296      20.36182396
Ni       6.02289955       3.36422227       4.07115278
Ni       6.22398526       3.30672256      20.64307318
Ni       3.80327305       7.70077341       3.93318070
Ni       4.01902380       7.58330544      20.43802290
Ni       1.26137134       0.60097220      12.45115022
Ni       1.32640725       0.58915986      28.93494168
Ni      -0.98709949       4.71832807      12.15320645
Ni      -0.94168041       4.67864689      28.76005394
Ni       6.05260706       0.66665695      12.45650966
Ni       6.04422304       0.46825850      29.01082257
Ni       3.79869868       4.76935131      12.30584479
Ni       3.83426248       4.58900444      28.74771142
Ni       0.15031312       1.31586611       4.12518362
Ni       0.06761537       1.20648285      20.62269960
Ni      -2.26692115       5.56243943       3.84347044
Ni      -2.24071012       5.38529948      20.31747497
Ni       4.83845107       1.34403986       4.09772850
Ni       4.94610493       1.30789187      20.66978678
Ni       2.50868203       5.54082975       3.95453218
Ni       2.58225170       5.40804795      20.56514656
Ni      -1.07456713       3.31694711       4.01609757
Ni      -1.01243205       3.37953173      20.54562422
Ni      -3.34946629       7.53951942       3.71048555
Ni      -3.26096682       7.49607853      20.32653001
Ni       3.65324547       3.50498494       4.04246236
Ni       3.72344393       3.37651305      20.69179006
Ni       1.37231405       7.58861882       3.90339665
Ni       1.51669651       7.50907661      20.35781874
Ni       2.40627629      -0.06445014       0.06636003
Ni       2.51802000      -0.06122346      16.68722042
Ni       0.21000919       4.21830426      -0.20293025
Ni       0.27989183       3.97794359      16.38483944
Ni       7.20418627       0.04386774       0.11164503
Ni       7.31556463      -0.12443921      16.65667785
Ni       4.85012412       4.16464980      -0.14638744
Ni       5.00443779       4.12205030      16.36229741
Ni       1.25152086       2.08818730      -0.09528033
Ni       1.32405786       1.99416005      16.57340617
Ni      -1.00435719       6.22243884      -0.25996558
Ni      -0.95465164       6.15142996      16.27186379
Ni       6.09217758       2.12677628       0.00932086
Ni       6.09458648       2.06655440      16.59107720
Ni       3.72881811       6.34942064      -0.25355486
Ni       3.89942486       6.14763707      16.40647336
Ni      -1.03395630       2.03216310       8.09783408
Ni      -1.06210662       1.87115588      24.72679492
Ni      -3.47895954       6.24953405       7.85272297
Ni      -3.37657019       6.08066346      24.55984431
Ni       3.67329438       2.04155386       8.28705588
Ni       3.74769603       1.90858144      24.76378796
Ni       1.31944617       6.35655384       8.12924890
Ni       1.48261070       6.08341764      24.68199830
Ni       2.40702519      -0.02308522       8.28511478
Ni       2.47359560      -0.24078029      24.85523944
Ni       0.10672192       4.08490771       7.97479601
Ni       0.23168513       3.97323186      24.64890695
Ni       7.27172577      -0.00976144       8.45445966
Ni       7.24766058       0.00119549      24.90992201
Ni       4.91392918       4.11654903       8.20752850
Ni       4.92100115       3.99223142      24.79100025
Ni      -1.13555936       2.10443229      -0.17644913
Ni      -1.08908611       1.92908403      16.41835584
Ni      -3.50630639       6.16204934      -0.27905137
Ni      -3.41442241       6.07304325      16.26082749
Ni       3.71526981       2.03924526       0.00794862
Ni       3.72536910       1.88194491      16.57381991
Ni       1.39853688       6.23068321      -0.12590077
Ni       1.41258351       6.10100075      16.22791921
Ni       1.26037589       1.97348304       8.10021872
Ni       1.40926105       1.85855257      24.70136812
Ni      -1.08558011       6.20272150       7.90521214
Ni      -0.93523156       6.04427305      24.54017482
Ni       6.04963604       1.96569280       8.39914940
Ni       6.23741933       1.91185481      24.87268976
Ni       3.81401320       6.21788363       8.05959636
Ni       3.84609299       6.18651446      24.66078802
