191
Lattice="9.898361019923048 -0.0138738889281145 -0.04968229468823289 -4.801199516473219 8.679381361287984 -0.08346780963549923 0.6592934676072114 1.3282157713791998 31.795043994154423" Properties=species:S:1:pos:R:3 pbc="T T T"
Mg       0.23133432       0.57189197      14.41646803
Mg       0.66215836       1.24324882      30.27583173
Mg      -2.11615996       4.86500157      14.38130433
Ni      -1.79567590       5.55040025      30.16804792
Mg       5.22617174       0.55586617      14.36979184
Mg       5.57134078       1.25876954      30.26977083
Mg       2.89055372       4.95487009      14.36414581
Mg       3.07863500       5.63917294      30.20728648
Mg       0.09081969       0.26220995       6.50497391
Mg       0.45459682       1.00201473      22.32184403
Mg      -2.26419482       4.51927549       6.40708332
Mg      -1.98173088       5.31390775      22.35457502
Mg       5.08912662       0.21133962       6.44759359
Mg       5.37653412       0.94659932      22.32008555
Mg       2.64419260       4.58594312       6.38185265
Mg       3.05919811       5.29599649      22.28443199
Mg       0.30142558       0.48555030       9.51747521
Mg       0.56095578       1.10017970      25.39732396
Mg      -2.16939621       4.76325222       9.45596207
Mg      -1.88614220       5.43459002      25.34292714
Mg       5.14942160       0.36994719       9.42788704
Mg       5.49702029       1.00127711      25.34414651
Mg       2.79791404       4.68474455       9.30770427
Mg       3.04909248       5.39566395      25.30792473
Mg      -0.01475302       0.08920529       1.49990418
Mg       0.25023980       0.77600065      17.49944487
Mg      -2.34766377       4.40464954       1.57352068
Mg      -2.09377499       5.10926703      17.28741011
Mg       4.99494589       0.06327932       1.48345529
Mg       5.30337521       0.70759687      17.35872944
Mg       2.50715810       4.39955805       1.31580098
Mg       2.85029233       5.08431219      17.31093166
Mg       2.47426005       1.51845534       2.48021268
Mg       2.87972009       2.25522487      18.35213888
Mg       0.19064007       5.91920831       2.40029051
Mg       0.41808126       6.63150757      18.32912543
Mg       7.59812385       1.59663583       2.46418378
Ni       7.79163688       2.17876222      18.34004857
Mg       5.12641657       5.86372990       2.34997833
Mg       5.41797257       6.61151864      18.30166883
Mg       0.25309402       3.38791239      10.37077341
Mg       0.57011448       3.89548936      26.33243619
Mg      -2.14738330       7.66297810      10.31493837
Mg      -1.83093469       8.33466554      26.20682619
Mg       5.18056036       3.36570451      10.29009805
Mg       5.51626293       3.95563252      26.34910229
Mg       2.76973592       7.67404727      10.28607362
Mg       3.19090291       8.31233433      26.26807916
Mg       2.65089838       1.70994945       5.42957863
Mg       2.93417177       2.24171431      21.37367429
Mg       0.25139924       5.95367749       5.45063402
Mg       0.56557284       6.65280620      21.37348342
Ni       7.55894251       1.74470118       5.44373422
Mg       7.94162273       2.31805643      21.33481334
Mg       5.19115043       6.03641875       5.38816109
Mg       5.45106924       6.61772374      21.24026235
Mg       0.47565996       3.52046209      13.39161145
Mg       0.61926811       4.08689551      29.19011991
Mg      -2.07516406       7.79247637      13.33317642
Mg      -1.66024061       8.47133215      29.21654765
Mg       5.29103901       3.44704778      13.35215608
Mg       5.60541658       4.21214967      29.27038946
Mg       2.86101118       7.86686697      13.34874657
Mg       3.21156631       8.46710150      29.21526143
Mg       2.71105349       2.01304407      13.80468738
Ni       3.13039298       2.64478994      29.78566186
Ni       0.43238274       6.30417418      13.96133699
Ni       0.69332062       7.03945999      29.72112052
Ni       7.72552852       1.96745784      13.84441410
Ni       8.07727310       2.66974027      29.79187837
Ni       5.30909683       6.28838234      13.83586695
Ni       5.65183831       7.05107784      29.72950377
Ni       0.19648361       3.18910744       5.78782404
Ni       0.42575533       3.77404543      21.81848346
Ni      -2.18683991       7.48718474       5.89394250
Ni      -1.93646537       8.11552822      21.82819956
Ni       5.03921161       3.12171403       5.83773887
Ni       5.43901762       3.74140296      21.79725964
Ni       2.73736883       7.47667818       5.80438609
Ni       3.02214640       8.09456661      21.73520197
Ni       2.81209809       1.84939622       9.94546310
Ni       3.06431787       2.54874967      25.72528769
Ni       0.29798085       6.22013886       9.83670132
Ni       0.58709830       6.75206503      25.74332798
Ni       7.72044823       1.96096660       9.98972169
Ni       8.04189376       2.54943868      25.79550790
Ni       5.19856826       6.12971069       9.80417193
Ni       0.09619521       2.97509516       1.92789427
Ni       0.45626074       3.69330637      17.85659927
Ni      -2.33174057       7.28825259       1.90237691
Ni      -1.94522491       7.94020732      17.87881120
Ni       5.03777779       2.89436803       1.91618933
Ni       5.30394713       3.55985380      17.82430655
Ni       2.52503276       7.39280461       1.86099381
Ni       3.03613382       7.98187513      17.76177409
Ni       2.70933187       3.37355110      11.92487245
Ni       3.11229894       4.09973445      27.70736696
Ni       0.35217509       7.82907777      11.87876763
Ni       0.62647861       8.36078726      27.72899609
Ni       7.64969321       3.32839640      11.87119649
Ni       8.00203643       4.00326463      27.72356916
Ni       5.29837359       7.69146121      11.85937086
Ni       5.70502829       8.46015267      27.71488915
Ni       3.96427716       1.19026977      11.88970283
Ni       4.30566960       1.89509558      27.80676951
Ni       1.51838646       5.53940588      11.88326361
Ni       1.96326394       6.20911123      27.80942426
Ni       8.82320309       1.13235863      11.82217515
Ni       9.21730779       1.82593081      27.84163445
Ni       6.52794447       5.50014416      11.87900054
Ni       6.73998869       6.37091471      27.64567737
Ni       1.32036046       3.68288320       3.94313267
Ni       1.72556623       4.40822701      19.79090065
Ni      -0.93470796       8.18531707       3.84338635
Ni      -0.67147126       8.71265228      19.75612353
Ni       6.39144900       3.77768436       3.84474880
Ni       6.65698233       4.45673320      19.83343803
Ni       3.88917048       8.22794663       3.82318939
Ni       4.21729796       8.80059886      19.80258337
Ni       1.48946368       1.20503775      11.94761636
Ni       1.79077753       1.95763608      27.85071977
Ni      -0.79981816       5.54317647      11.85201720
Ni      -0.56540628       6.29682243      27.81031185
Ni       6.41473270       1.28242007      11.90079413
Ni       6.69053440       1.86918962      27.74293334
Ni       4.01352547       5.58335562      11.81465239
Ni       4.37747434       6.27490727      27.67607333
Mg       0.01434984       1.64911000       3.94095531
Ni       0.38914892       2.36639377      19.89580060
Ni      -2.26017645       5.93084635       3.88409085
Ni      -2.00937956       6.68290843      19.73047373
Ni       5.02484597       1.59896872       3.95495982
Ni       5.23571578       2.22961144      19.76865246
Ni       2.63911833       5.88115688       3.90629441
Ni       2.97032735       6.59017884      19.84201041
Ni      -1.03997653       3.69432738       3.90922271
Ni      -0.75004511       4.48416470      19.73790957
Ni      -3.41282796       8.12824605       3.95254043
Ni      -3.21201542       8.86135160      19.81947055
Ni       3.80757957       3.78969736       3.89708411
Ni       4.20152771       4.49718946      19.70424276
Ni       1.35058670       8.12131926       3.89635145
Ni       1.73847708       8.82164540      19.71000574
Ni       2.51714374      -0.01928115      -0.15976745
Ni       2.71481686       0.61736666      15.86522734
Ni       0.01676467       4.25178938      -0.06059119
Ni       0.48074023       4.96265795      15.76304027
Ni       7.40427444      -0.06276341      -0.03637193
Ni       7.77800076       0.71590869      15.81885849
Ni       5.01015185       4.28337257      -0.02145523
Ni       5.37195700       4.98546918      15.82786525
Ni       1.17519187       2.14293284      -0.06595807
Ni       1.63173658       2.78478168      15.88058927
Ni      -1.12511140       6.56327777       0.03436389
Ni      -0.88800601       7.16280644      15.93482126
Ni       6.20481506       2.14254827      -0.07627734
Ni       6.65146513       2.81001599      15.90359740
Ni       3.96645591       6.50359773      -0.12190187
Ni       4.17348645       7.19368399      15.80203013
Ni      -0.99930448       2.51927534       7.97762441
Ni      -0.66345994       3.16201142      23.77470704
Ni      -3.49268261       6.88108308       7.88223824
Ni      -3.17430754       7.45043290      23.81818606
Ni       3.85714271       2.47473255       7.83157633
Ni       4.24755050       3.16557969      23.73362100
Ni       1.47858749       6.74114503       7.91322788
Ni       1.81108990       7.51826638      23.68112030
Ni       2.57895835       0.28114028       7.82341395
Ni       2.97333755       1.05430947      23.83412381
Ni       0.27275768       4.64014744       7.86770227
Ni       0.53907332       5.28432500      23.76908707
Ni       7.61433999       0.33834100       7.88497092
Ni       7.91806526       0.95693333      23.71919113
Ni       5.21275474       4.65174350       7.81403162
Ni       5.58666035       5.40325766      23.74904375
Ni      -1.26067182       2.21390611      -0.00798809
Ni      -0.77957938       2.79685124      15.83244203
Ni      -3.61753270       6.49349495      -0.09557586
Ni      -3.29148768       7.10762330      15.88807148
Ni       3.71520010       2.04674180       0.01911584
Ni       4.11440705       2.95197811      15.88871658
Ni       1.32758521       6.54695775      -0.12476752
Mg       1.66058053       7.11729171      15.73733597
Ni       1.43691082       2.49243086       7.96867265
Ni       1.76958753       3.16347222      23.87519400
Ni      -0.89235375       7.00158399       7.88922744
Ni      -0.72170916       7.47278718      23.77095405
Ni       6.35540274       2.42866256       7.88010284
Ni       6.67840131       3.22976309      23.81466341
Ni       3.90949266       6.91744897       7.83153477
Ni       4.30857373       7.42169901      23.84780209
