192
Lattice="10.03063086791897 -0.14735087041222544 0.032676850038798534 -5.062771820248256 8.496035331128054 0.0082494624089504 -0.1662169441317332 0.014340462970800475 32.20402511850456" Properties=species:S:1:pos:R:3 pbc="T T T"
Mg      -0.12765996      -0.12791420      14.56390392
Mg      -0.13393132      -0.02744860      30.72010055
Mg      -2.68892906       4.27548782      14.57886007
Mg      -2.67250289       4.23682947      30.70699050
Mg       4.98633270       0.00202873      14.73736122
Ni       4.84647275      -0.05270940      30.71894627
Ni       2.34406360       4.20650164      14.58907269
Mg       2.34015392       4.24936253      30.70063043
Mg      -0.09572670       0.04660691       6.54216902
Mg      -0.09646511      -0.03637114      22.67873739
Mg      -2.48426709       4.27995913       6.55652023
Mg      -2.72973118       4.29362454      22.60055604
Mg       5.02211008      -0.10921487       6.60969093
Mg       4.86771881      -0.11309022      22.70170210
Mg       2.50119186       4.15465748       6.55096576
Mg       2.28449523       4.25285691      22.66466289
Mg      -0.12620306      -0.05247407       9.50626683
Ni      -0.08078614       0.02261387      25.70854978
Mg      -2.60382172       4.24870708       9.52821333
Mg      -2.64894134       4.20669272      25.63140094
Mg       4.95356520      -0.20737229       9.66735174
Mg       4.87179683      -0.10932809      25.67692577
Mg       2.44273079       4.17858279       9.52060592
Mg       2.37046192       4.12240030      25.69533782
Mg       0.08087169       0.01972637       1.52723315
Mg      -0.18468802       0.01494744      17.60789285
Mg      -2.52303042       4.19003762       1.58128412
Mg      -2.60533218       4.27827926      17.60286066
Mg       4.96692181      -0.10242223       1.49616143
Mg       4.87618318      -0.06861875      17.65468165
Mg       2.43341045       4.17767618       1.56684076
Mg       2.42228453       4.22306795      17.58988777
Mg       2.41626837       1.29187988       2.54116052
Mg       2.35510902       1.43364851      18.64790024
Mg      -0.05220850       5.61368912       2.51433835
Mg      -0.05903530       5.58923061      18.55027892
Mg       7.47796962       1.28437751       2.57355755
Mg       7.39846528       1.21065726      18.74650515
Mg       4.99699303       5.58527388       2.55094387
Mg       4.93137704       5.51702266      18.62712686
Ni      -0.12826709       2.92691897      10.63303499
Mg      -0.08793353       2.82214310      26.63614883
Mg      -2.56145272       7.00625681      10.55031192
Mg      -2.67362559       6.98523595      26.65419488
Mg       4.90499259       2.81959583      10.62480995
Ni       4.91662464       2.79189234      26.61898609
Mg       2.39722907       7.01327938      10.55423832
Ni       2.37866590       7.05705853      26.70104833
Mg       2.53297305       1.37071405       5.58495398
Mg       2.40167815       1.36605754      21.64820511
Mg      -0.13612544       5.63669837       5.56301805
Mg      -0.24930292       5.66139656      21.69579899
Mg       7.58285930       1.33194251       5.51745647
Mg       7.35273187       1.33992341      21.68252840
Mg       4.91584453       5.53738658       5.59198031
Mg       4.96865925       5.56566248      21.68002012
Mg      -0.10411018       2.83882980      13.61884168
Mg      -0.19673879       2.83929481      29.83259009
Mg      -2.58968677       7.11600491      13.53576190
Mg      -2.69772911       7.05825353      29.77322234
Mg       4.94962439       2.83963053      13.67126768
Mg       4.84485151       2.76260437      29.68080745
Mg       2.38071603       7.00542035      13.62652966
Mg       2.31876993       6.99252862      29.68304737
Ni       2.42020208       1.38464630      14.10403257
Ni       2.34961870       1.34462453      30.17019040
Ni      -0.10830634       5.63716397      14.10948323
Ni      -0.22276496       5.58147301      30.15876571
Ni       7.46328466       1.17593231      14.13768348
Ni       7.35917758       1.21486477      30.14444617
Ni       4.93724634       5.51095766      14.14842368
Ni       4.81375878       5.58616797      30.22646949
Ni      -0.09609414       2.86357017       6.09890802
Ni      -0.13204897       2.88017913      22.22538035
Ni      -2.62409266       7.11237042       5.97168776
Ni      -2.57723725       7.00122449      22.08399476
Ni       5.01428816       2.77801728       6.06446544
Ni       4.86837363       2.72065153      22.20424429
Ni       2.40788499       7.01748158       6.04530163
Ni       2.28580355       7.02438581      22.15118230
Ni       2.46413966       1.45201992      10.06240435
Ni       2.38271820       1.50456223      26.19282400
Ni      -0.10403396       5.66076853       9.97779257
Ni      -0.22316152       5.64446984      26.14128802
Ni       7.37551440       1.31422782      10.07204929
Ni       7.33574072       1.21083081      26.10149099
Ni       4.92437088       5.53520460      10.13432974
Ni       4.85300872       5.58602288      26.20394481
Ni      -0.07829674       2.75872884       1.96461725
Ni      -0.03826948       2.89144301      18.19563938
Ni      -2.54361096       7.10938345       2.04557732
Ni      -2.55980400       7.03356802      17.99688024
Ni       4.97654836       2.71867485       2.17805584
Ni       5.00513077       2.76026220      18.15073190
Ni       2.44906492       6.93911899       2.01017785
Ni       2.41695513       7.03386829      18.16504402
Ni       2.45081039       2.95178817      12.13615833
Ni       2.35740788       2.81774198      28.14308758
Ni      -0.14312920       7.00539312      12.01981971
Ni      -0.17625874       7.01740114      28.18331475
Ni       7.48721952       2.65593268      12.13629152
Ni       7.30362388       2.70672311      28.21205063
Ni       5.00337736       6.96236630      12.06498272
Ni       4.75148539       6.90056938      28.29071136
Ni       3.60030791       0.68882763      12.05716454
Ni       3.53772708       0.61694023      28.31083068
Ni       1.11699680       4.90795615      12.11605387
Ni       1.04589852       4.90971143      28.22116988
Ni       8.74788307       0.44870409      12.03158118
Ni       8.58070071       0.59071922      28.32387517
Ni       6.14667097       4.81396542      12.16042856
Ni       6.11076466       4.96316872      28.27470984
Ni       1.16843997       3.49386760       3.92834953
Ni       1.22395074       3.47448656      20.15672806
Ni      -1.29021089       7.77563928       4.04934112
Mg      -1.46789516       7.82733536      20.10939785
Ni       6.15531838       3.43227578       4.04224997
Ni       6.13069693       3.46316069      20.19440012
Ni       3.76952396       7.72662241       4.10841472
Ni       3.56761294       7.65805066      20.13100019
Ni       1.14819400       0.63574621      12.11991878
Ni       1.09263873       0.63660078      28.13638145
Ni      -1.26375621       4.99932227      12.08686309
Ni      -1.48487479       4.82902924      28.14807992
Ni       6.10996579       0.64222062      12.12511269
Ni       6.09062418       0.64904093      28.18229785
Ni       3.71461677       4.89312328      12.06668398
Ni       3.54521025       4.87482336      28.15279218
Ni      -0.10171375       1.29095033       3.98087583
Ni      -0.08479938       1.32309794      20.14023364
Ni      -2.48409558       5.67747204       4.09228864
Ni      -2.67317106       5.56834267      20.10569330
Ni       4.87951841       1.33926917       4.12612966
Mg       4.86049567       1.35479773      20.09090096
Ni       2.36265232       5.60813301       4.11034804
Ni       2.46399450       5.59943773      20.26168271
Ni      -1.37440013       3.60752474       4.06184531
Ni      -1.38364555       3.55065913      20.15701267
Ni      -3.75522132       7.76229560       4.04642906
Ni      -3.80716152       7.79239480      20.14886540
Mg       3.76811141       3.49551886       4.01621096
Ni       3.63527075       3.46012013      20.10495840
Ni       1.10090557       7.72999709       4.00908806
Ni       1.12125517       7.65712529      20.12257806
Ni       2.55953526      -0.00794724       0.09756623
Ni       2.49215707       0.02755284      16.10538827
Ni       0.01904469       4.20082559      -0.02752144
Ni      -0.09931924       4.24429680      16.06969932
Ni       7.53087423      -0.13941525       0.04624202
Ni       7.48425299      -0.18730180      16.05108415
Ni       4.96536514       4.17132419       0.03634005
Ni       4.98417066       4.11758970      16.16809596
Ni       1.15547033       2.08565129      -0.01591859
Ni       1.26484667       2.13396254      16.06025419
Mg      -1.29877515       6.38548661      -0.04485803
Ni      -1.31576948       6.43980701      16.14879749
Ni       6.21325890       2.01281206      -0.01289820
Ni       6.22441123       2.07900274      16.22354930
Ni       3.77314900       6.26472545       0.04899268
Ni       3.73016250       6.28837467      16.14728055
Ni      -1.31148214       2.09683255       8.07460034
Ni      -1.36765787       2.12184149      24.19825195
Ni      -3.97397837       6.36019917       8.03691919
Ni      -3.92383439       6.35691360      24.13173884
Ni       3.71401269       2.09252807       8.07591433
Ni       3.57433581       1.99411125      24.15972937
Ni       1.18596244       6.34746511       8.10396728
Ni       1.08898455       6.29252169      24.16513553
Ni       2.43010141      -0.00304293       8.14259027
Ni       2.41235538      -0.06436839      24.13168857
Ni      -0.09828110       4.23340091       8.08865023
Ni      -0.16954125       4.23391086      24.11449756
Ni       7.50929024      -0.11519747       8.13429107
Ni       7.45081176      -0.11726909      24.11666029
Ni       4.97310820       4.21287264       8.05096035
Ni       4.90532651       4.17628481      24.21988134
Ni      -1.40233832       2.06934289      -0.03460658
Ni      -1.39799095       2.10499240      16.07917063
Ni      -3.82825524       6.34529801       0.02743320
Ni      -3.84002268       6.50007355      16.04812622
Ni       3.82324428       2.07797913       0.04739061
Ni       3.75952098       2.06406118      16.16185766
Ni       1.30422834       6.25053248      -0.09728074
Ni       1.16662910       6.37501999      16.08104253
Ni       1.12574276       2.01562621       8.02745293
Ni       1.23089833       2.17208011      24.18743976
Ni      -1.39612392       6.29672976       7.99776888
Ni      -1.39476801       6.44684516      24.20377687
Mg       6.16257226       2.06063971       8.12927280
Mg       6.16023790       2.02191465      24.14629661
Ni       3.68832894       6.30336658       8.12799255
Ni       3.56399707       6.35918165      24.17578577
