191
Lattice="9.684596210608824 -0.2609782716489138 0.23651155433652216 -5.163346009741978 8.854216529714883 0.056949547531643184 0.26265827836079947 -0.19541718131417235 31.505361970646305" Properties=species:S:1:pos:R:3 pbc="T T T"
Mg       0.05627640      -0.10338018      14.23605022
Mg       0.24213387      -0.11573454      30.04186061
Mg      -2.39747460       4.26934597      14.31438096
Mg      -2.38930855       4.32883792      29.98664742
Mg       5.05390957      -0.29709934      14.50652286
Mg       5.10972816      -0.31080501      30.11738924
Ni       2.38394490       4.19662536      14.32554070
Mg       2.59051579       4.12543818      30.14737917
Mg       0.02323742      -0.01553600       6.41383963
Mg       0.16462837      -0.08935735      22.16000615
Mg      -2.45665550       4.43432376       6.43267874
Mg       4.94703414      -0.17868468       6.52968697
Mg       5.09755623      -0.23165274      22.29789269
Mg       2.23936050       4.28531739       6.53832402
Mg       2.42988640       4.12636586      22.38155465
Mg       0.00531102      -0.02412046       9.33316231
Mg       0.19248761      -0.15178476      25.09385421
Mg      -2.50312893       4.34633166       9.36262788
Mg      -2.34440993       4.20338686      25.11747896
Mg       4.87633899      -0.10464166       9.46232590
Mg       5.03334891      -0.36358255      25.27526947
Mg       2.30893257       4.29359591       9.54058220
Mg       2.45138979       4.06820075      25.28281989
Mg       0.05221276      -0.00994435       1.47306530
Ni       0.17611489      -0.10605392      17.24084881
Mg      -2.51023510       4.40679569       1.51334812
Mg      -2.34976389       4.31219061      17.21144525
Mg       4.81950237      -0.06222270       1.62938870
Mg       4.97316843      -0.23854601      17.41066149
Mg       2.20585692       4.31848863       1.67304015
Mg       2.47496004       4.19914918      17.44850526
Mg       2.33798643       1.37123055       2.51414953
Mg       2.60123817       1.28509878      18.22215162
Mg      -0.20325059       5.81282999       2.53334078
Mg      -0.07616871       5.66682517      18.36088197
Mg       7.21248171       1.20946325       2.64337921
Mg       7.39082393       1.09457203      18.41259079
Mg       4.57249456       5.59733971       2.67701464
Mg       4.81883889       5.60891385      18.40020522
Mg       0.06861642       2.89206398      10.35006333
Mg       0.13679326       2.87262349      26.13665309
Mg      -2.66923905       7.27551897      10.37983681
Mg      -2.49760874       7.10057678      26.17512005
Mg       4.77436802       2.80657328      10.48866371
Mg       5.03999645       2.59966560      26.27416472
Mg       2.25589955       7.20556551      10.56579299
Mg       2.45091326       6.93779551      26.29544014
Mg       2.42467974       1.40978100       5.50698770
Mg       2.47997787       1.18810765      21.33492027
Mg      -0.13547919       5.82464225       5.51546138
Mg      -0.09353647       5.63868246      21.29288503
Mg       7.19203155       1.25303799       5.56876599
Ni       7.38047049       1.06487924      21.35688090
Mg       4.64847999       5.62012543       5.60989197
Mg       4.75624855       5.56377860      21.47622368
Mg      -0.00983643       2.86916905      13.44389674
Mg       0.21488816       2.84540202      29.17427157
Mg      -2.65673476       7.24626360      13.38042266
Mg      -2.43840850       7.23165856      29.20881458
Mg       4.77686318       2.66318157      13.52130596
Mg       5.00424217       2.56778099      29.22674722
Mg       2.21769818       7.11192648      13.46943356
Mg       2.32583710       7.00856367      29.24151388
Ni       2.49558480       1.28873177      13.83419268
Ni       2.51643785       1.16841249      29.63405742
Ni      -0.13527697       5.69775258      13.91491997
Ni      -0.02157492       5.64891772      29.61345489
Ni       7.33263189       1.13694425      13.93124053
Ni       7.34599534       1.10614078      29.67102444
Ni       4.78007177       5.65108810      13.99634850
Ni       4.85090198       5.44005178      29.80411033
Ni      -0.04674384       2.81148341       5.95087578
Ni       0.07975332       2.66305775      21.69503657
Ni      -2.70800065       7.29935306       5.99871482
Ni      -2.55683265       7.20480681      21.83611630
Ni       4.78794349       2.69763004       6.05279074
Ni       5.01490058       2.62924560      21.79185484
Ni       2.14985089       7.19131910       5.99266443
Ni       2.27764913       7.01651130      21.89820790
Ni       2.41145617       1.31006763       9.98070201
Ni       2.65390958       1.19735688      25.75479060
Ni      -0.18599249       5.85565366       9.94163891
Ni       0.12479386       5.56481299      25.68012641
Ni       7.28946772       1.12281353      10.06191190
Ni       7.48510402       1.07095742      25.85693688
Ni       4.78314702       5.58854020      10.12175045
Ni       4.82303988       5.51437053      25.77988271
Ni      -0.06020756       2.82074226       2.04245957
Ni       0.02982018       2.75992223      17.84501664
Ni      -2.64343451       7.35301702       2.12775876
Ni      -2.51964716       7.28049146      17.87124694
Ni       4.73783677       2.76178231       2.20323559
Ni       4.82249547       2.69351411      17.94754737
Mg       2.11277048       7.09413122       2.23085355
Ni       2.34202729       7.03604495      17.86461313
Ni       2.40078707       2.79381821      12.00956751
Ni       2.54186926       2.70003601      27.63671321
Ni      -0.21308315       7.19617102      12.05573089
Ni      -0.05060198       7.10559143      27.75619413
Ni       7.29186262       2.55044939      12.01985394
Ni       7.52063742       2.50369655      27.87535279
Ni       4.68176754       7.09910637      12.11032024
Ni       4.83350947       6.93171580      27.76078409
Ni       3.69983202       0.55654114      11.92329128
Ni       3.84499634       0.36808248      27.67757372
Ni       1.16678347       4.90304684      11.93732357
Ni       1.26053429       4.91585062      27.73012641
Ni       8.60357544       0.42627541      12.04732944
Ni       8.70540652       0.32336465      27.85181184
Mg       6.00657957       4.84860560      12.06541750
Ni       6.10238255       4.72935726      27.86093377
Ni       1.10964020       3.55775764       4.03503597
Ni       1.21962355       3.54886933      19.78828730
Ni      -1.47191095       8.04259521       4.10994652
Ni      -1.38550176       7.95608209      19.79664912
Ni       5.88032870       3.46130300       4.19335957
Ni       6.13114242       3.28196726      19.89399910
Ni       3.34839305       7.87189824       4.21807437
Ni       3.49143862       7.70887475      19.95964671
Ni       1.35253147       0.51869654      11.80947150
Ni       1.40765440       0.51726099      27.51312323
Ni      -1.28912318       5.12235488      11.90161608
Ni      -1.17298750       4.98006927      27.59983563
Ni       6.12603567       0.44322448      12.00888195
Ni       6.22514840       0.46572743      27.82273018
Mg       3.52112826       4.82898139      12.05558598
Ni       3.69493050       4.83645662      27.77557736
Ni       0.04172667       1.43448106       3.97518063
Ni       0.13483502       1.35674855      19.77567657
Ni      -2.59879100       5.85967439       4.08629906
Ni      -2.49360946       5.68432643      19.86393846
Ni       4.90392188       1.25337787       4.03655772
Ni       5.08128383       1.22350611      19.84754933
Ni       2.23373395       5.70520163       4.21910750
Ni       2.33770968       5.60665396      19.93478064
Ni      -1.33286209       3.61713564       3.94187248
Ni      -1.14910726       3.50516882      19.74746414
Ni      -3.99381837       8.07752194       4.06467241
Ni      -3.73148996       7.92837608      19.75115207
Ni       3.59411552       3.45824020       4.05873456
Ni       3.63493538       3.43484705      19.88658445
Ni       1.09695468       8.02162098       4.05006019
Ni       1.03973073       7.85229222      19.84324020
Ni       2.46269563      -0.03882144      -0.04148387
Ni       2.58947306      -0.15931247      15.74758185
Ni      -0.18260893       4.33820290       0.03518505
Ni      -0.00536681       4.27970242      15.82460980
Ni       7.19410607      -0.22296926       0.03172629
Ni       7.42103385      -0.37499170      15.86290450
Ni       4.64031781       4.28802624       0.20348559
Ni       4.71256570       4.14125862      15.93448094
Ni       1.19589162       2.08463290       0.04505107
Ni       1.28406964       2.06480628      15.79985148
Ni      -1.47598677       6.57560263       0.04165131
Ni      -1.39980171       6.42562602      15.82936291
Ni       6.00523691       2.05395266       0.16722769
Ni       6.06240142       1.87938554      15.98095324
Ni       3.39531240       6.35014958       0.25060454
Ni       3.52463755       6.48019412      15.93691690
Ni      -1.23747991       2.18992935       7.91525689
Ni      -1.01152757       2.08510827      23.61112150
Ni      -3.82223676       6.57363270       7.92191642
Ni      -3.69167501       6.49670689      23.71731391
Ni       3.58771094       2.09048064       8.01875188
Ni       3.84140723       1.93966567      23.77480314
Ni       1.04232495       6.45809506       8.08447939
Ni       1.18121154       6.41001547      23.78480685
Ni       2.49506437      -0.12683696       8.03465120
Ni       2.59287402      -0.19236753      23.67157016
Ni      -0.06232468       4.25063155       7.98076882
Ni       0.03543754       4.21608184      23.80480539
Ni       7.33014376      -0.18724329       8.01125610
Ni       7.42767367      -0.34754494      23.83094934
Ni       4.76679224       4.21446422       8.13343489
Ni       4.92516397       4.03927540      23.87732711
Ni      -1.25557727       2.17080022       0.00235000
Ni      -1.15831729       2.11251317      15.77068772
Ni      -3.82364793       6.66640736      -0.04922293
Ni      -3.78743199       6.61711986      15.80062567
Ni       3.50285383       2.07841888       0.05238731
Ni       3.70931695       1.91155666      15.90518086
Ni       1.02181272       6.52238504       0.18897936
Ni       1.09914240       6.46599750      15.92653606
Ni       1.19675464       2.15234164       7.96736274
Ni       1.37443141       2.00136214      23.72218984
Ni      -1.44284545       6.62851781       7.92160211
Ni      -1.27761928       6.39438955      23.69760008
Ni       6.04251762       1.94613767       8.10423407
Ni       6.20094403       1.84647264      23.84604227
Ni       3.39896543       6.36716921       8.13796670
Ni       3.61420944       6.33304539      23.91501238
