190
Lattice="9.741699519854484 -0.1308854328407485 -0.036458071311741704 -5.058224772217539 8.35274709309397 -0.04129488907689007 -0.25515775584459865 0.14274133152391838 31.371116859982077" Properties=species:S:1:pos:R:3 pbc="T T T"
Mg      -0.13028919      -0.00118148      14.26857424
Mg      -0.22972980       0.16283146      29.81999832
Mg      -2.58184672       4.20821218      14.16747759
Mg      -2.92834721       4.39158483      29.84824728
Mg       4.77942760       0.04585553      14.14905251
Mg       4.70793389       0.06774168      29.91739334
Mg       2.28668010       4.17335944      14.17245823
Mg       2.05892131       4.29706105      29.86154690
Mg       0.01202517       0.02602575       6.44395490
Mg      -0.19364820       0.06567203      22.11927327
Mg      -2.54080118       4.19378623       6.42946904
Mg      -2.69406880       4.33381977      22.08560398
Mg       4.83042018       0.04354167       6.34939173
Mg       4.71765981       0.10434036      22.05768886
Mg       2.31320619       4.21838831       6.38298403
Mg       2.10414799       4.19599124      22.00812215
Mg       0.00701106       0.00210982       9.31825309
Mg      -0.27599481       0.07939757      25.04663639
Mg      -2.65990049       4.19242171       9.26629254
Mg      -2.72626971       4.33022954      24.96840336
Mg       4.80086092       0.01435526       9.23353197
Mg       4.67856491       0.04926814      24.95812914
Ni       2.17749432       4.14237171       9.30368669
Ni       2.18819248       4.19395897      24.86467117
Mg       0.06888408       0.04249094       1.50728196
Mg      -0.14280092       0.11516636      17.15863378
Mg      -2.53958446       4.23252321       1.51219461
Mg      -2.61194368       4.20988192      17.13815480
Mg       4.78063768      -0.07336626       1.44686191
Mg       4.74304913      -0.00273990      17.09834742
Mg       2.30760176       4.10105541       1.38864586
Mg       2.18912381       4.27628651      17.03961347
Mg       2.36216696       1.34791768       2.53098868
Ni       2.27138269       1.44683074      18.11683210
Mg      -0.10830471       5.55458676       2.39234849
Mg      -0.38023924       5.50166277      18.08628223
Mg       7.36425994       1.26083498       2.44167264
Mg       7.08163098       1.39033816      18.08842241
Mg       4.74247386       5.51647021       2.34641833
Mg       4.57886171       5.55652391      18.10679764
Mg      -0.13232829       2.77463602      10.22590363
Mg      -0.33395542       2.76832371      25.98178129
Mg      -2.67339446       7.01551209      10.19863753
Mg      -2.73709703       7.03761229      25.97308228
Mg       4.73064144       2.72407119      10.29332117
Mg       4.62165538       2.84787280      25.89768556
Mg       2.17902851       6.96727240      10.22891012
Mg       2.08975196       6.98068540      25.89938079
Mg       2.41538125       1.39097086       5.44170303
Mg      -0.13245506       5.55893054       5.35544030
Mg      -0.29552041       5.59365446      21.04859953
Mg       7.24164001       1.34510925       5.36309730
Mg       7.13045754       1.47617112      21.08929902
Mg       4.76961446       5.53684606       5.35779615
Ni       4.56119144       5.57630626      21.00236932
Mg      -0.08498342       2.77776398      13.20492316
Mg      -0.30603391       2.83159205      28.88862336
Mg      -2.70708276       6.98136170      13.28191687
Mg      -2.79651490       7.10121234      28.87197774
Mg       4.79599860       2.76820438      13.20310404
Ni       4.57080256       2.83141587      28.91794682
Mg       2.24907090       7.02479206      13.27242515
Mg       2.01795032       7.03859143      28.90908445
Ni       2.34487079       1.38774308      13.69467036
Ni       2.19771399       1.45596170      29.41458071
Ni      -0.15720901       5.63794394      13.68187019
Ni      -0.33954811       5.73834724      29.44083713
Ni       7.15753763       1.35454210      13.75964129
Ni       7.08529613       1.39443057      29.44414024
Ni       4.64719082       5.51886291      13.67293283
Ni       4.48696458       5.57276438      29.47406027
Mg      -0.16869052       2.76601533       5.85995590
Ni      -0.23105683       2.87360097      21.52247651
Ni      -2.60934971       6.93243145       5.91041093
Ni      -2.85190270       6.98995651      21.59820937
Ni       4.74286680       2.70421949       5.78721933
Mg       4.68802158       2.86753586      21.54013930
Ni       2.24784644       6.90481378       5.80100225
Ni       2.06397914       6.87971792      21.55215857
Ni       2.24647490       1.42613918       9.77233425
Ni       2.14524964       1.48690487      25.38541757
Ni      -0.17617780       5.48555875       9.78989159
Ni      -0.33110276       5.62657355      25.46295020
Ni       7.24731901       1.32676043       9.78778571
Ni       7.05132377       1.39456513      25.52035227
Ni       4.56912009       5.51271703       9.72820116
Ni       4.52102800       5.54448427      25.58681958
Ni      -0.10138696       2.78924628       1.95828393
Ni      -0.24607533       2.82050646      17.62627242
Ni      -2.66668909       6.97187473       1.94422923
Ni      -2.76121344       7.02118282      17.52121909
Ni       4.77913326       2.62770434       1.87338630
Ni       4.71832833       2.83479236      17.63265506
Ni       2.20691352       6.90759541       1.92097938
Ni       2.15401528       6.83417016      17.59364177
Ni       2.32811939       2.84779693      11.69363651
Ni       2.13096052       2.79922894      27.43352142
Ni      -0.17733238       6.92394729      11.69841897
Ni      -0.30081731       6.93621369      27.49751861
Ni       7.16855066       2.72481112      11.76716413
Ni       6.89358426       2.82237373      27.45624105
Ni       4.73055968       6.90444097      11.76313699
Ni       4.62360315       6.90238706      27.36861778
Ni       3.54840052       0.79211742      11.76999155
Ni       3.30831015       0.76618068      27.50632839
Ni       0.97984357       4.79893601      11.73754114
Ni       0.94204142       4.88080345      27.51609551
Ni       8.42936620       0.62958370      11.74985249
Ni       8.30878504       0.68792791      27.35305919
Ni       5.84938026       4.79816168      11.78014753
Ni       5.78628792       4.84312308      27.43510384
Ni       1.14070755       3.48384111       3.92944230
Ni       1.02132500       3.56672244      19.52803905
Ni      -1.35122446       7.59495236       3.80593929
Ni      -1.58106386       7.73171064      19.59028080
Ni       6.00192511       3.40696249       3.82012529
Mg       5.79861031       3.40283437      19.66415477
Ni       3.42142112       7.58599825       3.99555925
Ni       3.25968271       7.63847711      19.49236916
Ni       1.07786147       0.73469221      11.76440569
Ni       0.98362637       0.89890306      27.41455138
Mg      -1.40957387       4.93032738      11.72482441
Ni      -1.56391779       5.07511543      27.38384069
Ni       5.97434495       0.73763079      11.69805739
Ni       5.88609910       0.68133052      27.40855640
Ni       3.45836725       4.79937200      11.68222244
Ni       3.39236876       4.94374755      27.29482644
Ni      -0.10927881       1.39141864       3.82929469
Ni      -0.20414214       1.47428925      19.60294681
Ni      -2.57337493       5.56992370       3.89655052
Ni      -2.67336804       5.58391138      19.60152428
Ni       4.78511729       1.34834033       3.85903829
Ni       4.67978105       1.48547933      19.54462708
Ni       2.24380051       5.47902653       3.84888003
Ni       2.15199929       5.62521658      19.54692640
Ni      -1.36591606       3.57221081       3.98192213
Ni      -1.48506267       3.61139769      19.68816119
Ni      -3.81407697       7.65627640       3.90786638
Ni      -3.88037040       7.77601564      19.54410786
Ni       3.54250768       3.44116343       3.83602429
Ni       3.48075287       3.52087897      19.55080878
Ni       0.92938678       7.72421908       3.86188129
Ni       0.86302709       7.60867838      19.53213907
Ni       2.40854075      -0.06815628       0.00419596
Ni       2.20980077       0.03219286      15.66749380
Ni      -0.10833576       4.12976937      -0.01909260
Ni      -0.27930204       4.20920068      15.59211116
Ni       7.34403621      -0.09000619      -0.10336642
Ni       7.23477469       0.01980278      15.66526615
Ni       4.75352390       4.18182413       0.01721354
Ni       4.66231573       4.18276523      15.67190159
Ni       1.22315602       2.04739836      -0.09510024
Ni       0.94568806       2.14933589      15.71902213
Ni      -1.30348008       6.17068315       0.02335533
Ni      -1.51282460       6.34744569      15.63353162
Ni       5.96956962       1.91317276      -0.06101306
Ni       5.87059043       2.09318406      15.57391559
Ni       3.55602849       6.20671323      -0.04557527
Ni       3.40066505       6.24590032      15.64865286
Ni      -1.33852479       2.10913784       7.80745377
Ni      -1.44445633       2.19704504      23.51578449
Ni      -3.93687603       6.34902248       7.78081651
Ni      -4.06514778       6.46148034      23.42201618
Ni       3.55645124       2.01412869       7.76622460
Ni       3.30947944       2.14259872      23.50914271
Ni       1.03113809       6.25185492       7.80264747
Ni       0.87339421       6.37205407      23.48690646
Ni       2.46676793      -0.08297707       7.88344762
Ni       2.35809600       0.09013661      23.49425705
Ni      -0.21554977       4.20787715       7.75427878
Ni      -0.34427337       4.15231629      23.46350969
Ni       7.04324706       0.01628818      23.40266213
Ni       4.77216873       4.11455532       7.79625204
Ni       4.64628360       4.23733053      23.48130405
Ni      -1.19819617       2.08157187       0.00251119
Ni      -1.40396022       2.16078469      15.55159106
Ni      -3.74655607       6.34848171      -0.04527568
Ni      -3.87047811       6.38022789      15.67278390
Ni       3.56165865       2.03184936      -0.05677228
Ni       3.45052869       2.09510454      15.67701483
Mg       1.13209887       6.14844256       0.03078035
Ni       0.96066921       6.31078592      15.68600128
Ni       1.14265504       2.12759772       7.78554069
Ni       1.07048076       2.12583367      23.38740986
Ni      -1.41175793       6.21852402       7.82436840
Ni      -1.56633665       6.42384512      23.43257004
Ni       5.98100280       1.99004254       7.84069421
Ni       5.80911849       2.15627766      23.50204558
Ni       3.54518377       6.22168899       7.80213399
Ni       3.28165911       6.23460999      23.45746365
