189
Lattice="9.768512423750437 -0.28524475701240065 -0.4262643259038167 -5.239847616745796 8.989491851489733 0.0748380380299917 0.18586291435084007 -0.5488176267275608 32.717810509406625" Properties=species:S:1:pos:R:3 pbc="T T T"
Mg       0.06247845      -0.21715001      14.78638596
Mg       0.10906886      -0.55697839      31.14247690
Ni      -2.56436713       4.37249032      14.87287125
Mg      -2.32746317       3.85381618      31.18010710
Mg       4.97938552      -0.35200344      14.58021811
Mg       5.05694000      -0.65998250      30.97967246
Mg       2.36618113       4.20097541      14.75162149
Mg       2.41493829       3.90469394      30.94563234
Mg       0.15665807      -0.11021731       6.56503016
Ni       0.11406198      -0.36031316      23.00329969
Mg      -2.63873588       4.31349204       6.64406316
Mg      -2.60400516       4.16980646      23.02365588
Mg       4.97692348      -0.33341936       6.27519867
Mg       4.97748725      -0.41206320      22.78731378
Mg       2.31150225       4.26038844       6.48955881
Mg       2.43585933       3.99385467      22.78092308
Mg       0.06407271      -0.19180444       9.75075566
Mg       0.18264180      -0.48803094      26.02621766
Mg      -2.58115823       4.34144559       9.74989807
Mg      -2.52485112       4.03468797      26.24013900
Mg       5.02403735      -0.20110432       9.49784591
Mg       5.05510678      -0.68359174      25.90131018
Mg       2.28547597       4.14906307       9.52446449
Mg       2.42445717       3.93932858      25.85049142
Mg       0.01920110      -0.03685601       1.60879960
Mg       0.07661044      -0.30651645      17.87230525
Mg      -2.58764633       4.56675445       1.60390851
Mg      -2.52570442       4.16855690      17.83794463
Mg       4.97308424      -0.22184051       1.35406316
Mg       5.03982836      -0.42748613      17.68196296
Mg       2.24971482       4.26497892       1.32323447
Mg       2.39117651       4.06220111      17.69785797
Mg       2.37096380       1.40649187       2.54058040
Mg       2.50196020       1.10762985      18.78634476
Mg      -0.27853374       5.87675845       2.45872054
Mg      -0.05457527       5.57820141      18.83604869
Mg       7.29733872       1.24644023       2.11019154
Mg       7.44965165       0.90137894      18.62243333
Mg       4.70675865       5.64529591       2.28436696
Mg       4.71550428       5.41615188      18.67578429
Mg      -0.05351734       2.81063047      10.69340721
Mg       0.10772616       2.52237524      27.03201724
Mg      -2.68374596       7.29213075      10.71275655
Mg      -2.61517628       6.90806783      26.98135139
Mg       4.85979481       2.60138125      10.43164531
Mg       4.86307190       2.42732040      26.81511005
Mg       2.22480522       7.05601879      10.49165119
Mg       2.26976004       6.79488837      26.81169402
Mg       2.37157904       1.23308172       5.46142279
Mg       2.56515555       0.99758695      21.80244758
Mg      -0.27264226       5.83635388       5.55864192
Mg      -0.15593961       5.54568801      21.99183375
Mg       7.37953899       1.12409094       5.36085447
Mg       7.39996061       0.90368416      21.65530178
Mg       4.72205393       5.61745971       5.28545718
Mg       4.83800910       5.42513811      21.63505307
Mg      -0.04742017       2.78016891      13.69607183
Mg       0.09268971       2.44023238      30.12370768
Mg      -2.57455097       7.17474913      13.86460041
Mg      -2.57993693       6.95756450      30.18796919
Mg       4.93898902       2.40723919      29.85712886
Mg       2.31262961       7.04219807      13.63192925
Mg       2.29550132       6.77333440      29.98817685
Ni       2.65477847       0.85410974      30.53629692
Ni      -0.20182502       5.75337286      14.25732194
Ni      -0.04916908       5.34120407      30.56598549
Ni       7.35355183       1.03163553      13.99128565
Ni       7.43983562       0.76783119      30.30861961
Ni       4.76203281       5.41889082      14.06588055
Ni       4.73113873       5.25628193      30.45441695
Ni       0.00243331       2.81490380       6.13186733
Ni       0.03995735       2.61887709      22.53515439
Ni      -2.65748311       7.24013025       6.07248652
Ni      -2.62663790       7.01241528      22.50917334
Ni       4.76919130       2.69870868       5.97855601
Ni       4.92522622       2.43919297      22.07143041
Ni       2.19113331       7.16806743       5.88678990
Ni       2.34642714       6.95769384      22.23951744
Ni       2.44911561       1.36129194      10.11043149
Ni       2.48712859       1.02248674      26.55615179
Ni      -0.22980690       5.74621222      10.10636041
Ni      -0.08101469       5.49543491      26.47366620
Ni       7.42518223       1.11406637       9.91077044
Ni       7.38640129       0.85606638      26.29861114
Ni       4.64967214       5.61605199       9.96276267
Ni       4.83287362       5.15297232      26.32757519
Ni      -0.11294168       2.84726176       2.01824439
Ni       0.04836540       2.52519656      18.32174202
Ni      -2.66847707       7.41386752       2.04947676
Ni      -2.60893213       7.19099584      18.37998942
Ni       4.77865381       2.89494183       1.77642410
Ni       4.90388211       2.49885065      18.18837542
Ni       2.16082156       7.23361211       1.81022464
Ni       2.24773059       6.91824712      18.25175050
Ni       2.33210834       2.65966944      12.06873017
Ni       2.46112616       2.41367165      28.54511195
Ni      -0.29705430       7.15752104      12.12699883
Ni      -0.11011319       6.88686135      28.44790895
Ni       7.27507372       2.58153919      11.89661658
Ni       7.35398489       2.21725809      28.16002256
Ni       4.64153856       6.98068425      11.98325469
Ni       4.72015515       6.71569966      28.34415846
Mg       3.69191128       0.52015247      12.04399501
Ni       3.73932206       0.11589274      28.49048603
Ni       1.08511566       4.95186394      12.07292378
Ni       1.26963991       4.72634455      28.48312980
Ni       8.62163413       0.25348386      11.90756904
Ni       8.78646722      -0.04757748      28.24808251
Ni       6.02160504       4.74705545      11.93815796
Ni       5.91945108       4.43188362      28.26100098
Ni       1.02182232       3.56645358       3.95216511
Ni       1.12391352       3.34530438      20.27347237
Ni      -1.50411784       8.07214442       3.97397200
Ni      -1.38525289       7.74318745      20.41136905
Ni       5.91226252       3.32703013       3.70666728
Ni       6.00361756       3.22200775      20.10186172
Ni       3.35580720       7.95233111       3.84801697
Ni       3.50865371       7.66389839      20.16102248
Ni       1.34183156       0.46801369      12.05199386
Ni       1.29398084       0.14492259      28.65055689
Ni      -1.36437261       5.01008391      12.25173511
Ni      -1.18606968       4.70417146      28.58684120
Ni       6.18484692       0.31521612      11.86015131
Ni       6.20243366       0.07049666      28.35609252
Ni       3.58803000       4.91604963      11.94262728
Ni       0.02517648       1.36275420       4.13711270
Ni       0.03629759       1.14681727      20.41507088
Ni      -2.70823666       5.98764547       4.08556424
Ni      -2.50249960       5.60757352      20.42100242
Ni       4.83090317       1.20836610       3.83934464
Ni       5.00789512       0.98130464      20.18762081
Ni       2.20663507       5.70825055       3.88636682
Ni       2.23228203       5.45672095      20.27604559
Ni      -1.27670121       3.62336652       4.15786529
Ni      -1.25105281       3.35603740      20.45829184
Ni      -3.94912774       8.12860469       4.03264032
Ni      -3.84013854       7.91691895      20.38016733
Ni       3.64012346       3.54896282       3.91413993
Ni       3.67464375       3.25934096      20.22359156
Ni       0.89870430       7.97339704       3.88002095
Ni       0.93946479       7.75417461      20.25492775
Ni       2.44254577      -0.05575437      -0.19452625
Ni       2.53831042      -0.31983717      16.27130529
Ni      -0.10999538       4.36031552       0.03793784
Ni      -0.09063920       4.11481973      16.33742976
Ni       7.36911287      -0.20684281      -0.26178001
Ni       7.43429322      -0.45639674      16.03598852
Ni       4.69889391       4.25963392      -0.32104657
Ni       4.81049448       3.94899686      16.12939749
Ni       1.28854444       2.18698817      -0.11913858
Ni       1.29552960       1.94593933      16.24580068
Ni      -1.47926189       6.67899673      -0.08319541
Ni      -1.38689544       6.39826375      16.24003056
Ni       5.97590412       2.01458271      -0.46139153
Ni       6.03945490       1.85608145      16.17352208
Ni       3.33759751       6.58117855      -0.22388883
Ni       3.46613624       6.19880442      16.15639903
Ni      -1.27818651       2.18941950       8.22422869
Ni      -1.12573401       1.86466717      24.56750892
Ni      -3.87089245       6.64091772       8.28110697
Ni      -3.80209651       6.33147086      24.59859182
Ni       3.72258957       1.93978583       8.02172674
Ni       3.76525664       1.66653509      24.31314370
Ni       0.93855584       6.44555212       7.98466475
Ni       1.12896703       6.07369258      24.34517001
Ni       2.41611900      -0.16597158       8.01136057
Ni       2.52615622      -0.52520338      24.50208209
Ni      -0.18031790       4.23298594       8.07836892
Ni      -0.05285010       4.01937686      24.44988456
Ni       7.35305415      -0.30691471       7.81303803
Ni       7.36016340      -0.64129468      24.27321728
Ni       4.87617658       4.10962701       7.97009997
Ni       4.83796651       3.81203844      24.31860014
Ni      -1.18731955       2.25163754       0.05943369
Ni      -1.23663853       1.94916703      16.41989005
Ni      -3.94553621       6.86422638       0.03526365
Ni      -3.78031104       6.37586297      16.40715340
Ni       3.68398976       2.06824585      -0.21351945
Ni       3.62487920       1.83742229      16.08706829
Ni       0.98045202       6.64425499      -0.23920305
Mg       1.10888059       6.38468888      16.23499027
Ni       1.19509828       2.06924403       8.08995321
Ni       1.26560277       1.76255946      24.42857394
Ni      -1.43462847       6.54779901       8.17027452
Ni      -1.29980132       6.27291169      24.51144805
Ni       6.03025120       1.83686558       7.87497839
Ni       6.12191135       1.66557000      24.18082241
Ni       3.47118691       6.26466966       7.97343046
Ni       3.47702748       6.17588733      24.16868965
