191
Lattice="9.835208803736595 0.20013806162354517 -0.009708091192906226 -4.8851830486928405 8.493682895792073 -0.20684899261891096 -0.07109809274304651 -0.08640805949706964 31.152387588573966" Properties=species:S:1:pos:R:3 pbc="T T T"
Mg      -0.03616945       0.01647400      14.11914483
Mg       0.01149731      -0.07127096      29.62836478
Mg      -2.47818637       4.21618560      14.03344937
Mg      -2.53353900       4.15962428      29.56886712
Mg       4.88785790       0.06044229      14.05679887
Mg       4.85847454      -0.03185091      29.68097870
Mg       2.43654842       4.30087555      13.99413781
Ni       2.36004643       4.27847281      29.54424145
Mg      -0.07692419      -0.04564854       6.26996593
Mg      -0.16930923      -0.14849112      21.92524130
Mg      -2.40825207       4.22623796       6.21306917
Mg      -2.51510798       4.14102793      21.79978418
Mg       5.03188118       0.15899834       6.35596695
Mg       4.96454523       0.03635169      21.87579139
Mg       2.41210043       4.27833442       6.22162613
Mg       2.46045809       4.29943758      21.79053026
Mg      -0.00042010      -0.01748809       9.28724384
Mg      -0.01405363      -0.14420527      24.87371101
Ni      -2.47567724       4.24865214       9.13465891
Mg      -2.48619111       4.19399614      24.69723707
Mg       4.89861495       0.04378353       9.21469320
Mg       4.82492295       0.06806603      24.91355482
Mg       2.37057596       4.30761400       9.16450280
Mg       2.52247989       4.16030854      24.70338330
Mg       0.03840909      -0.02380097       1.47113872
Mg      -0.05046289       0.01533709      17.00166092
Mg      -2.43736107       4.19887926       1.47043208
Mg      -2.53141792       4.16632183      17.04271846
Mg       4.84117894       0.07723460       1.49203592
Mg       4.87294605       0.09876199      17.09662078
Mg       2.52547911       4.27263202       1.36024671
Mg       2.35235362       4.29355365      16.90069954
Mg       2.55727765       1.48011202       2.29579859
Mg       2.40617624       1.38608548      17.93209546
Mg      -0.05681401       5.70717511       2.24874559
Ni       0.00017371       5.77356664      17.93769627
Mg       7.32883479       1.56882513       2.31181866
Mg       7.36099117       1.56655141      17.95859988
Mg       4.91083021       5.81299142       2.35205471
Mg       4.93225237       5.80697631      17.80860344
Mg      -0.17467464       2.71502118      10.13981147
Mg      -0.06317836       2.80490316      25.82559974
Mg      -2.42472833       7.08066015      10.00410934
Mg      -2.50563260       7.00789144      25.60208733
Mg       4.92333214       2.91809365      10.10279746
Mg       4.91889532       2.96983780      25.75362722
Mg       2.51885121       7.28184383      10.02266764
Mg       2.34384278       7.11979329      25.63742331
Mg       2.46179510       1.51887441       5.34692177
Mg       2.42920279       1.41141965      20.86227574
Mg       0.02633604       5.78167387       5.16257256
Mg      -0.06160947       5.65747947      20.78842748
Mg       7.36955470       1.51411975       5.18214986
Mg       7.39533743       1.55670906      20.80893897
Mg       4.93879250       5.78604663       5.21713771
Mg       4.89481082       5.68381402      20.77559008
Mg      -0.06739436       2.83532393      13.06920576
Mg      -0.06193569       2.75926922      28.67678814
Mg      -2.43472660       7.02790333      12.91275666
Mg      -2.44830531       7.06155463      28.48468396
Mg       4.87733734       2.97900247      13.02722146
Mg       4.85340610       2.89936438      28.59926296
Mg       2.37239424       7.16064897      12.90033424
Mg       2.47877213       7.11362099      28.45764697
Ni       2.39786505       1.39317647      13.56356880
Mg       2.35082730       1.39694656      29.10611061
Ni      -0.02954976       5.76597611      13.51240405
Ni      -0.03734831       5.61932273      29.04781430
Ni       7.31518121       1.53809959      13.57355766
Ni       7.33239729       1.56233330      29.16158258
Ni       4.87857491       5.77048302      13.53560567
Ni       4.87035224       5.79226069      28.98442923
Ni      -0.03951802       2.87186530       5.77800725
Ni      -0.00488927       2.83098280      21.35273408
Ni      -2.40447966       7.00955394       5.71440165
Ni      -2.48207703       6.99440579      21.18517006
Ni       4.90864366       2.90409817       5.80625987
Ni       4.78987126       2.93475751      21.29732555
Ni       2.50709896       7.24635661       5.71540150
Ni       2.38951586       7.17310276      21.20873266
Ni       2.49658593       1.39318232       9.71063883
Ni       2.44653905       1.46911214      25.27215033
Ni      -0.11882275       5.66798338       9.59736161
Ni      -0.01132540       5.70598302      25.13694953
Ni       7.35883610       1.54440181       9.74886345
Ni       7.28017351       1.47532447      25.36448838
Ni       4.93413832       5.71049234       9.66181622
Ni       4.92840049       5.70908055      25.13574235
Ni       0.00122290       2.76706014       1.88694572
Ni      -0.02881049       2.74401397      17.40089032
Ni      -2.45271451       7.16060566       1.73149096
Ni      -2.47642644       7.07699509      17.35586398
Ni       4.99836199       2.96848664       1.84586813
Ni       4.88722803       2.88929263      17.46176154
Ni       2.50849247       7.16079054       1.78769762
Ni       2.38605188       7.21381694      17.41941251
Ni       2.48691435       2.80235911      11.55873837
Ni       2.32187882       2.80942069      27.18869554
Ni       0.01856444       7.07997462      11.48307681
Ni      -0.00728321       7.10252486      27.03935438
Ni       7.37221116       2.99268126      11.50150071
Ni       7.21469086       2.94425792      27.13728205
Ni       5.01122854       7.16486324      11.51513164
Ni       4.81037271       7.17118418      27.00023361
Ni       3.63673183       0.75302563      11.72658523
Ni       3.66659434       0.69363469      27.18592619
Mg       1.22639686       4.94709146      11.51016135
Ni       1.20573141       4.92935838      27.08976075
Ni       8.51499154       0.85999942      11.70762009
Ni       8.57028651       0.80483749      27.15150608
Ni       6.23533756       5.12034947      11.55484326
Ni       6.11866904       4.99965758      27.18688070
Ni       1.15967921       3.56997580       3.83085575
Ni       1.24454203       3.49569472      19.44122014
Ni      -1.20562517       7.85255183       3.73893672
Ni      -1.32029296       7.83615894      19.29054710
Ni       6.24483483       3.70968804       3.79806984
Ni       6.10708230       3.65266995      19.34733310
Ni       3.57328413       7.91953812       3.64214431
Ni       3.67826292       7.93033354      19.26999181
Ni       1.08791123       0.77638526      11.64011660
Ni       1.22158399       0.70880648      27.25529723
Ni      -1.17598493       4.96297670      11.61701056
Ni      -1.34435070       4.87910413      27.23176792
Ni       6.16501001       0.68999671      11.73790011
Ni       6.02554287       0.77844377      27.26140002
Ni       3.71287136       5.05469853      11.52917172
Ni       3.70579042       4.96395266      27.16150312
Ni      -0.03994119       1.41665106       3.89352290
Ni       0.01542486       1.34112389      19.50796197
Ni      -2.45312140       5.70364873       3.77492881
Mg      -2.51085965       5.57754782      19.42091904
Ni       4.87896028       1.51110854       3.81235351
Ni       4.92101513       1.45783664      19.40377367
Ni       2.41547045       5.77776590       3.75889477
Ni       2.45217467       5.72437621      19.21671131
Ni      -1.19981263       3.53783253       3.88604463
Ni      -1.29507956       3.58791988      19.36669541
Ni      -3.64782670       7.69249453       3.77121567
Ni      -3.65857487       7.79659889      19.32090839
Ni       3.76523235       3.61149671       3.77974511
Ni       3.77435725       3.59216803      19.42005274
Ni       1.16112446       7.89326694       3.64287259
Ni       1.20831215       7.83790398      19.20319070
Ni       2.47555949       0.06425947       0.10856460
Ni       2.41215463       0.09966877      15.62478698
Ni       0.08616879       4.30861889      -0.17748511
Ni      -0.10284117       4.26451924      15.44266258
Ni       7.39099578       0.22325084      -0.00141472
Ni       7.36196692       0.03139219      15.52632005
Ni       4.94856294       4.43448852      -0.12677694
Ni       4.96659475       4.38243198      15.49903575
Ni       1.27738392       2.15492301      -0.00271199
Ni       1.25659061       2.15780041      15.52091402
Ni      -1.24723149       6.40461250      -0.15056904
Ni      -1.34664816       6.29587166      15.39382887
Ni       6.13252292       2.31107352      -0.01149886
Ni       6.16741697       2.08563485      15.53285132
Ni       3.62671377       6.48723018      -0.23373048
Ni       3.84174458       6.53948788      15.38272054
Ni      -1.25015379       2.04565777       7.72627496
Ni      -1.21987397       2.04194049      23.31127747
Ni      -3.70867178       6.38065021       7.63945546
Ni      -3.63091237       6.32192051      23.16242984
Ni       3.61892716       2.16855923       7.74880797
Ni       3.71249572       2.14523783      23.25923003
Ni       1.30040352       6.45643965       7.63468812
Ni       1.20685478       6.41648295      23.21655889
Ni       2.44423113       0.09710067       7.76289114
Ni       2.43418032      -0.00927610      23.38389682
Ni       0.09273873       4.25482117       7.71941242
Ni      -0.03570239       4.21569459      23.34125215
Ni       7.30235871       0.18851586       7.72424259
Ni       7.31893108       0.16065326      23.32095100
Ni       4.91105107       4.37180856       7.64419894
Ni       4.84099709       4.34737979      23.28421033
Ni      -1.25426178       2.13581315      -0.03304800
Ni      -1.19633458       2.06032260      15.54845410
Ni      -3.68848955       6.35062559      -0.10489129
Ni      -3.68053155       6.31198332      15.45789847
Ni       3.67891117       2.27029972      -0.02724653
Ni       3.69059262       2.19097926      15.51857186
Ni       1.24412483       6.51385185      -0.20885396
Ni       1.23566787       6.40356228      15.39284477
Ni       1.17592667       2.15571642       7.74899903
Ni       1.28730261       2.11892918      23.30401303
Ni      -1.26813853       6.33395372       7.69790450
Ni       6.16258319       2.32353126       7.78297047
Ni       6.09289405       2.17000660      23.23296747
Ni       3.72573359       6.50483360       7.59629632
Ni       3.62401961       6.42280435      23.19039745
