191
Lattice="9.336253126028152 -0.4883799803297225 -0.07142959819942 -4.642858197442022 8.82591526156068 -0.17452515119930534 -0.6176136782993672 0.3848667259388206 31.82498143045822" Properties=species:S:1:pos:R:3 pbc="T T T"
Mg      -0.28756677       0.15856630      14.36841485
Mg      -0.57924467       0.39529128      30.30942933
Mg      -2.55338898       4.61752712      14.33170720
Mg      -2.82246882       4.80105519      30.22275907
Ni       4.50071392      -0.10967679      14.31099211
Mg       4.10325302       0.16654994      30.28204270
Mg       2.06472408       4.40641412      14.22798860
Mg       1.77564867       4.45066445      30.23503249
Mg      -0.15822933       0.08308043       6.48634337
Mg      -0.41096371       0.25232639      22.42353436
Mg      -2.39017975       4.52641776       6.36921721
Mg      -2.77336588       4.71956011      22.33973105
Mg       4.55351821      -0.09764710       6.44667595
Mg       4.14799478       0.05325739      22.37908020
Mg       2.18345022       4.23956640       6.29113778
Mg       1.91882124       4.37427856      22.30443953
Mg      -0.22225597       0.22640411       9.38165600
Mg      -0.52199922       0.29199961      25.48265548
Mg      -2.41474728       4.51234438       9.33029200
Mg      -2.80680483       4.72789658      25.21792909
Mg       4.48346491      -0.08334238       9.42967372
Mg       4.18310486       0.06431315      25.36588519
Mg       2.09392450       4.27835316       9.34584013
Mg       1.78235857       4.50136566      25.20348630
Mg      -0.02834361      -0.00278583       1.61696276
Mg      -0.37810077       0.24583848      17.45282406
Mg      -2.47480609       4.39963853       1.46089283
Mg      -2.70593355       4.73126474      17.27346855
Mg       4.64997855      -0.25066863       1.54212419
Mg       4.36642547      -0.10175120      17.45951942
Mg       2.31476446       4.05485757       1.45257414
Mg       1.99625359       4.38222205      17.29204691
Mg       2.33880008       1.33722029       2.37243257
Mg       1.96388930       1.49436961      18.33901457
Mg      -0.01279115       5.77825967       2.28802847
Ni      -0.36159105       6.03657572      18.19475488
Mg       6.96556071       1.05014884       2.39180473
Mg       6.67271304       1.22950290      18.17795579
Mg       4.63138367       5.55612001       2.40194197
Mg       4.33782576       5.77180370      18.17013233
Mg      -0.17583078       2.99506165      10.34399214
Mg      -0.50380221       3.15651780      26.25591106
Mg      -2.53793076       7.41325977      10.18817092
Mg      -2.78108966       7.50548512      26.18658582
Mg       4.48789906       2.67410802      10.35632721
Mg       4.15659841       2.96676367      26.22991015
Mg       2.19434173       7.18724669      10.22435411
Mg       1.80038359       7.29494415      26.11339745
Mg       2.28970345       1.46519738       5.43471330
Mg       1.98662051       1.56570452      21.41039730
Mg      -0.17849285       5.76694103       5.24967389
Mg      -0.44839981       6.01251585      21.12580906
Mg       6.85235198       1.11206357       5.33120134
Mg       6.65064294       1.36213663      21.25785631
Mg       4.64251069       5.55430884       5.32185699
Mg       4.19560078       5.67513527      21.20676547
Mg      -0.25711979       3.09796142      13.36929116
Mg      -0.42169511       3.23450456      29.31669405
Mg      -2.58687045       7.41152213      13.33809366
Mg      -2.88403886       7.64189350      29.24304572
Mg       4.44129871       2.68407504      13.37287634
Mg       4.09085436       2.92781644      29.26442065
Mg       2.11580140       7.13400043      13.34814711
Mg       1.80641847       7.31842516      29.08752177
Ni       2.04514364       1.54291880      13.85241464
Ni       1.76706199       1.66320222      29.74304139
Ni      -0.31343907       5.87185127      13.79502861
Ni      -0.56347089       6.08796269      29.72311846
Ni       6.75573062       1.27997422      13.96624792
Ni       6.41587442       1.36358185      29.77505587
Ni       4.45432858       5.59585576      13.71344359
Ni       4.10848140       5.86017802      29.61708901
Mg      -0.18050573       2.88411913       5.90402638
Ni      -0.42233597       3.14753496      21.89436415
Ni      -2.46616630       7.38563071       5.78184598
Ni      -2.73796078       7.56125313      21.71853546
Ni       4.51820731       2.67207931       5.89022537
Ni       4.20001295       2.93193396      21.83171333
Ni       2.20813051       7.04675442       5.80984822
Ni       1.98723920       7.34760217      21.68038124
Ni       2.16308432       1.44790032       9.87506137
Ni       1.89715382       1.66394518      25.78340716
Ni      -0.12334956       5.90208191       9.76202168
Ni      -0.49793186       6.03925772      25.73980134
Ni       6.82946955       1.28137479       9.86463316
Ni       6.56373401       1.32484347      25.77990235
Ni       4.52857002       5.61015854       9.80182766
Ni       4.25460587       5.76922308      25.70175352
Ni      -0.11724047       2.96478511       1.88622591
Ni      -0.40627453       3.03088261      17.85136405
Ni      -2.34495986       7.24517606       1.93933178
Ni      -2.62538405       7.43689400      17.79216043
Ni       4.59468627       2.59892724       1.97251491
Ni       4.42363765       2.85909404      17.82696705
Ni       2.30174824       7.02582651       1.83591017
Ni       2.16995375       7.33125153      17.75926060
Ni       2.16962412       2.89981370      11.87290228
Ni       1.82804683       3.09227106      27.74560880
Ni      -0.31154212       7.21675248      11.79512548
Ni      -0.58117415       7.41286155      27.71943014
Ni       6.77464326       2.66363478      11.78052318
Ni       6.47858842       2.89292105      27.76607238
Ni       4.45837972       7.04752399      11.77323272
Ni       4.21834860       7.27068814      27.62511887
Ni       3.33582215       0.73910321      11.81519056
Ni       3.02621224       0.84496705      27.81536698
Ni       0.94806306       5.09737396      11.92161393
Ni       0.64037058       5.27670703      27.73533551
Ni       7.61676282       0.61274204      27.88288375
Ni       5.61781074       4.88572774      11.83608500
Ni       5.27260395       5.02805485      27.68283798
Ni       1.15909416       3.62084390       3.82783567
Ni       0.75455817       3.74392814      19.80502564
Mg      -1.23371391       7.95770324       3.82192714
Ni      -1.49164660       8.15440230      19.66021365
Ni       5.73647204       3.30259252       3.86549490
Ni       5.49255484       3.55674724      19.74789231
Ni       3.44421142       7.64517212       3.67320488
Ni       3.23481132       7.83625802      19.65817581
Ni       0.89943656       0.86461671      11.91872961
Ni       0.61055549       1.06074537      27.80507504
Ni      -1.41345544       5.17728089      11.76775875
Ni      -1.67007843       5.41692655      27.62484658
Ni       5.54472518       0.65428192      11.93391367
Ni       5.32054879       0.79823606      27.67713612
Ni       3.26128835       4.96111329      11.79936960
Ni       3.02143146       5.18049402      27.63834721
Ni      -0.06122360       1.55411227       3.97901275
Ni      -0.38045074       1.58928897      19.84793821
Ni      -2.41883664       5.97500847       3.75854188
Ni      -2.66738737       6.11132280      19.80990871
Ni       4.57362873       1.16696491       3.90701699
Ni       4.22584264       1.43299321      19.79512631
Ni       2.34378650       5.59215152       3.85686232
Ni       2.00471297       5.76521784      19.74557557
Ni      -1.19302562       3.71118445       3.88416601
Ni      -1.47197799       3.92396242      19.83950158
Ni      -3.57320424       8.14081117       3.89623337
Ni      -3.83592711       8.31897555      19.73423902
Ni       3.53881054       3.42372769       3.85261606
Ni       3.10648934       3.68272192      19.79278061
Ni       1.09830553       7.75308696       3.71640438
Ni       0.84433246       8.03021937      19.66755144
Ni       2.34347239      -0.01899929      -0.09341562
Ni       1.98927824       0.06025194      15.86643157
Ni      -0.00535540       4.28648543      -0.10998226
Ni      -0.30273898       4.45057124      15.78996528
Ni       7.06086644      -0.46731189      -0.08820418
Ni       6.71527474      -0.19433642      15.90253313
Ni       4.66556748       4.05312008      -0.01181840
Ni       4.36770105       4.21861339      15.72518825
Ni       1.20844444       2.04080100       0.00460147
Ni       0.80189721       2.29265009      15.94226387
Ni      -1.15900688       6.47556610      -0.14278031
Ni      -1.52212940       6.68402291      15.72081937
Ni       5.78736011       1.88651307      -0.05216833
Ni       5.54607908       2.01294916      15.83648375
Ni       3.57877717       6.36837533      -0.25643994
Ni       3.21496278       6.47353374      15.75220203
Ni      -1.43062080       2.36254589       8.07667430
Ni      -1.59977239       2.53027759      23.85751928
Ni      -3.57828262       6.66431237       7.86072332
Ni      -3.97636654       6.89698348      23.65459344
Ni       3.32205210       2.03346323       7.91576481
Ni       3.05711328       2.31652648      23.81464446
Ni       1.04720758       6.41360829       7.80840040
Ni       0.76394719       6.64356525      23.68243872
Ni       2.13314223      -0.03367889       7.91709925
Ni       1.88707695       0.13314365      23.84365101
Ni      -0.16818487       4.32166633       7.84368721
Ni      -0.46642713       4.54662325      23.87785438
Ni       6.81154440      -0.19200869       7.90044878
Ni       6.49664199      -0.21365484      23.83022379
Ni       4.54221260       4.05610296       7.81484069
Ni       4.26357436       4.42690247      23.71557742
Ni      -1.00071109       2.20529312      -0.15974907
Ni      -1.44674144       2.38742788      15.97719632
Ni      -3.48272678       6.63352073      -0.17848873
Ni      -3.77839473       6.77092938      15.79993274
Ni       3.49177927       2.02755241      -0.02258585
Ni       3.23510341       2.13868503      15.75161207
Ni       1.18175068       6.36741608      -0.16901194
Ni       0.93506858       6.54064106      15.74075777
Ni       1.05628787       2.09312620       7.86458899
Ni       0.69543822       2.28506136      23.86466269
Ni      -1.38066835       6.64166007       7.80677591
Ni      -1.62277133       6.81392400      23.71093843
Ni       5.70456262       1.97691480       7.88155485
Ni       5.36905818       2.22870281      23.75614274
Ni       3.35282616       6.28553119       7.79150300
Ni       3.13614633       6.54517968      23.62970195
