191
Lattice="9.878111110458475 0.13387762606530573 -0.07524699644825789 -4.506697433252265 8.339102683276694 0.1486636028030871 -0.15549360115147512 -0.3579858143208071 31.08532492343512" Properties=species:S:1:pos:R:3 pbc="T T T"
Mg      -0.04353902      -0.20665366      14.03792328
Mg      -0.09707604      -0.36536926      29.62120961
Mg      -2.32976298       3.91753339      14.07609976
Mg      -2.49707171       3.68897563      29.75021703
Mg       4.84416397      -0.12842203      14.02790175
Mg       4.73387426      -0.32232004      29.68921422
Mg       2.53844867       4.09800577      14.14285733
Mg       2.54817330       3.93824997      29.65756273
Mg      -0.07058705      -0.08956093       6.35054687
Mg      -0.04458747      -0.31848037      21.86866713
Mg      -2.42310182       4.12705050       6.42365374
Mg      -2.41525977       3.85204319      21.94463107
Mg       4.97638510      -0.01099255       6.28585556
Mg       4.82870099      -0.21928815      21.85268397
Mg       2.77115603       4.11654003       6.33985898
Mg       2.47476619       4.03012826      21.97924721
Mg      -0.15430887      -0.19937485       9.22621047
Mg      -0.12731547      -0.34593224      24.69429175
Mg      -2.30037327       4.05576246       9.30552228
Mg      -2.22789111       3.91796697      24.74805291
Mg       4.81107495       0.03306262       9.24200603
Mg       4.83504987      -0.26433259      24.76983633
Mg       2.73422720       4.07088856       9.19391314
Mg       2.54531907       4.10185376      24.80393175
Mg      -0.03236343       0.03742495       1.56454803
Mg      -0.10100633      -0.13606985      17.05186909
Mg      -2.33702947       4.13874583       1.49166337
Mg      -2.43080760       4.00326325      17.05885281
Mg       4.98428532      -0.02360766       1.40533566
Ni       4.88268493      -0.06428123      16.87928124
Mg       2.62856381       4.20145719       1.51169523
Mg       2.56662955       4.04551957      17.14147909
Mg       2.46349895       1.46049872       2.43555927
Mg       2.38650286       1.22227108      17.95758140
Mg       0.21784685       5.65961536       2.55281434
Mg       0.23457052       5.43866835      18.07612870
Mg       7.54269479       1.53886718       2.31329281
Mg       7.37997248       1.23592930      17.95317980
Mg       5.25745071       5.71025133       2.46155052
Mg       5.15153167       5.43843634      18.06854975
Mg       0.07569923       2.65501828      10.25981989
Mg      -2.17888402       6.88217585      10.35061841
Mg      -2.21510582       6.71414688      25.74535521
Ni       5.05799286       2.72642027      10.17732029
Mg       5.02499308       2.51666677      25.87401661
Mg       2.87313095       6.95262760      10.24069822
Mg       2.67082633       6.67625576      25.82801164
Mg       2.59326163       1.35417648       5.29520082
Mg       2.37908920       1.19922319      20.80609949
Mg       0.30845290       5.63162022       5.38230967
Mg       0.20641088       5.37707817      20.90872377
Mg       7.46967669       1.35986917       5.22568939
Mg       7.40055984       1.23119183      20.85046117
Mg       5.27222581       5.63404330       5.33773543
Mg       5.22051199       5.46432470      20.85689956
Ni       0.08936665       2.60408258      13.22639660
Ni      -0.03067901       2.51704268      28.74007474
Mg      -2.19310876       6.77366919      13.24092549
Mg      -2.26696041       6.61228505      28.73993277
Mg       4.96128325       2.71817454      13.07573172
Mg       4.89188759       2.42894878      28.69346286
Mg       2.73817818       6.86957358      13.09000167
Mg       2.75093071       6.66507842      28.69416341
Ni       2.59450964       1.23758936      13.57824346
Ni       2.44786684       1.12895744      29.18875677
Ni       0.19704370       5.44572957      13.69957405
Ni       0.14960460       5.36010082      29.18379596
Ni       7.40368641       1.32566243      13.48884700
Ni       7.25430045       1.15255345      29.11535589
Ni       5.18029223       5.46294647      13.60538442
Ni       5.14077448       5.28659283      29.17683792
Ni       0.13477343       2.71758782       5.89160805
Ni       0.06810522       2.55880537      21.47763574
Ni      -2.18051720       7.00989313       5.96027031
Ni      -2.23851816       6.70093797      21.55806226
Ni       5.14128436       2.83546636       5.78016249
Ni       4.98428799       2.56654188      21.40651991
Ni       2.76486788       6.98853833       5.94585242
Ni       2.74672660       6.77774551      21.40904794
Ni       2.46957637       1.37184863       9.77314435
Ni       2.36547847       1.10556101      25.21482742
Mg       0.22324441       5.48993703       9.76571409
Ni       0.14350471       5.31494741      25.36839608
Ni       7.40118076       1.38409696       9.67459472
Ni       7.40999989       1.13441136      25.16328739
Ni       5.18913595       5.48635369       9.78716180
Ni       5.08968500       5.31065224      25.34347778
Ni       0.17617746       2.74616387       1.96165474
Ni       0.09489335       2.58955023      17.56926547
Ni      -2.09901601       6.93781721       2.11902215
Ni      -2.17168761       6.69564670      17.59999679
Ni       5.09360205       2.84325446       1.90066441
Ni       4.99930763       2.61133937      17.54469091
Ni       2.81716791       7.04877551       2.02768879
Ni       2.72479727       6.87654510      17.53837952
Ni       2.54445155       2.75336584      11.64655102
Ni       2.42888729       2.49853069      27.19625079
Ni       0.28051248       6.82902328      11.82499471
Ni       0.20758989       6.81444747      27.30023034
Ni       7.53435168       2.76783152      11.62338016
Ni       7.46484484       2.71181402      27.21026471
Ni       5.22371387       6.95950071      11.68980915
Ni       5.18128854       6.74072492      27.28572719
Ni       3.63397915       0.62976701      11.64658948
Ni       3.60428651       0.42793743      27.26492997
Ni       1.38349002       4.80291735      11.71776995
Ni       1.35732299       4.55494825      27.24891300
Ni       8.64530320       0.70299016      11.59254619
Ni       8.62094739       0.42007990      27.12164812
Ni       6.30452747       4.84857438      11.70771577
Ni       6.27333768       4.71071958      27.22519574
Ni       1.42504433       3.47905666       3.89756162
Ni       1.34094281       3.30179625      19.61488458
Ni      -0.86657606       7.57541906       4.06646096
Ni      -0.91010570       7.48949030      19.57638461
Ni       6.32397208       3.53817196       3.80841108
Ni       6.22462766       3.34203273      19.33193318
Ni       4.17451215       7.71192489       4.03793703
Ni       3.94488960       7.56370379      19.52514681
Mg       1.25637659       0.53790780      11.65486859
Ni       1.12168205       0.46468201      27.14349520
Ni      -0.99567837       4.70116613      11.71971032
Ni      -1.11706845       4.62131070      27.30159995
Ni       6.21125422       0.66391116      11.64988163
Ni       5.98414769       0.44691247      27.16339977
Ni       3.94086944       4.85018073      11.71779067
Ni       3.84716776       4.70539882      27.23006559
Ni      -0.03822029       1.32231791       3.92893692
Ni      -0.02785865       1.16525843      19.45016033
Ni      -2.16826825       5.44687060       3.95071845
Ni      -2.32800339       5.31427896      19.50199288
Ni       4.92817171       1.54388981       3.90144763
Ni       4.94512957       1.28321686      19.40732560
Ni       2.72126469       5.57511386       3.92282798
Ni       2.52334079       5.33219099      19.52586549
Ni      -1.11326231       3.39271516       3.92872554
Ni      -1.13863633       3.26233915      19.40178704
Ni      -3.35223126       7.65695274       4.06405846
Ni      -3.37840974       7.46963419      19.63925084
Ni       3.86718403       3.56654761       3.86903576
Ni       3.84765965       3.36095356      19.42067543
Ni       1.63474340       7.57206313       3.98294401
Ni       1.54188532       7.58274047      19.49868110
Ni       2.42438124       0.05843050       0.06495758
Ni       2.31128012      -0.09269241      15.52299120
Ni       0.24054118       4.25262959       0.06202880
Ni       0.08257574       4.09152203      15.58464195
Ni       7.39539029       0.18049176      -0.10881253
Ni       7.38514372       0.02687760      15.51974041
Ni       5.17467359       4.21827956       0.02137209
Ni       4.99880413       4.10746886      15.52509930
Ni       1.38654836       2.11689889       0.01772024
Ni       1.29157936       1.86157506      15.49543899
Ni      -0.97665268       6.16893798       0.06936889
Ni      -1.02644287       6.06194476      15.61327859
Ni       6.19142964       2.14769877      -0.14313113
Ni       6.20936510       2.01160979      15.49790461
Ni       4.06546383       6.28404110       0.13181874
Ni       3.88524620       6.29490492      15.68565398
Ni      -1.20135902       2.01417703       7.83313035
Ni      -1.26449843       1.89183577      23.35621849
Ni      -3.37880149       6.09523068       7.91290267
Ni      -3.41648164       5.98372758      23.35960349
Ni       3.80272536       2.10466776       7.65781502
Ni       3.58481631       1.86571534      23.34745339
Ni       1.48894793       6.21163253       7.83273180
Ni       1.43858379       6.02178662      23.44426708
Ni       2.40896607      -0.10652053       7.76570213
Ni       2.26033384      -0.30610270      23.25776093
Ni       0.13131400       4.15612165       7.84966715
Ni       0.10526907       4.05410080      23.30774978
Mg       7.42037554       0.03541658       7.75560530
Mg       7.28457378      -0.12786322      23.30901001
Ni       5.17387904       4.11348817       7.75362006
Ni       5.01126417       4.00730831      23.38669622
Ni      -1.13435241       2.07632908      -0.00030004
Ni      -1.26708192       1.84158979      15.67241964
Ni      -3.36601257       6.19094652       0.12770050
Ni      -3.49239015       6.09047604      15.65518891
Ni       3.74032100       2.21867575       0.08731158
Ni       3.67783078       2.04161132      15.62961549
Ni       1.58368511       6.38479174       0.01676446
Ni       1.42019860       6.18235623      15.60743265
Ni       1.30749634       2.02562199       7.80258970
Ni       1.22719693       1.87034114      23.34574186
Ni      -0.96822716       6.21647361       7.89352126
Ni      -0.96143279       6.05017521      23.32701244
Ni       6.22989403       2.08708194       7.67455023
Ni       6.23731327       2.01353038      23.34239843
Ni       3.98498303       6.21722823       7.78234111
Ni       3.89803123       6.11766226      23.26067433
