192
Lattice="9.874412501602293 -0.17656559280536283 0.26320701298004884 -4.765449481080607 8.242437300467953 -0.3724066089582587 0.1741977650643304 -0.40300113609595994 31.665573869155214" Properties=species:S:1:pos:R:3 pbc="T T T"
Mg       0.03787929      -0.16973087      14.33545070
Mg       0.26425944      -0.41810813      30.16254251
Mg      -2.26310129       3.98865707      14.23524039
Mg      -2.21118663       3.78093508      29.95328759
Mg       4.90956551      -0.33968808      14.46858052
Mg       5.11429066      -0.47527478      30.36601676
Mg       2.65459947       3.79218194      14.34256377
Ni       2.71565038       3.60282958      30.14335987
Mg       0.03620038      -0.03244317       6.42408544
Mg       0.08241594      -0.23015367      22.27371312
Mg      -2.37641814       4.12923000       6.27556925
Mg      -2.20699545       3.90520404      21.99630028
Mg       4.94023051      -0.23298790       6.54642409
Mg       5.06958294      -0.39989837      22.45587281
Mg       2.58651932       4.00866264       6.30636623
Mg       2.59670499       3.73272031      22.24501928
Mg       0.05480529      -0.12084793       9.39973684
Mg       0.23188627      -0.29090982      25.22264849
Mg      -2.36391858       3.99128250       9.17678171
Mg      -2.34098278       3.81990623      25.13650823
Mg       4.94349170      -0.23010427       9.52108579
Mg       4.98854691      -0.41300264      25.41378498
Mg       2.62675056       3.88597751       9.42883640
Mg       2.60566746       3.70811748      25.13814595
Mg      -0.00709212      -0.05703257       1.47177716
Mg       0.12664600      -0.17002809      17.43552185
Mg      -2.27238952       4.08057676       1.39329522
Mg      -2.26633079       3.83844846      17.11862357
Mg       4.93577521      -0.16329537       1.68840387
Mg       4.99392628      -0.31022530      17.35510310
Mg       2.59855844       4.00202819       1.47542174
Mg       2.68528626       3.78389604      17.29301039
Mg       2.45387615       1.14383601       2.54108395
Mg       2.60101055       1.01835232      18.40164532
Mg       0.19963403       5.33455377       2.31086493
Mg       0.17823275       5.18254306      18.15254785
Ni       7.50440939       1.16569620       2.68588791
Mg       7.49856266       0.95436882      18.43448572
Mg       4.90682173       5.28293958       2.43634273
Mg       5.20576051       5.11090954      18.29599225
Mg       0.14093130       2.65297115      10.32691055
Mg       0.23020446       2.38557624      26.19686001
Mg      -2.30382860       6.75466104      10.10827900
Mg      -2.13185905       6.54326197      25.93110183
Ni       4.99581139       2.58270113      10.46119478
Mg       5.13204572       2.29799467      26.34399086
Mg       2.61979435       6.67717526      10.25831801
Mg       2.69325936       6.43496640      26.07830780
Mg       2.60543000       1.24680729       5.56015938
Mg       2.64341399       1.11627171      21.32545647
Mg       0.17395393       5.35309554       5.30524836
Mg       0.27886233       5.19436955      21.10190875
Mg       7.44358244       1.24860223       5.51108767
Mg       7.50049340       0.96556442      21.40410330
Mg       5.00732827       5.45295920       5.51711179
Mg       5.22644235       5.06072654      21.24181353
Mg       0.14053462       2.60918289      13.39918129
Mg       0.13243271       2.29571030      29.08044652
Mg      -2.23075452       6.63635080      13.07624887
Mg      -2.25207007       6.35866856      28.99951819
Mg       5.10719410       2.44924326      13.34348948
Mg       5.11880799       2.28999632      29.21717005
Mg       2.64623119       6.58006228      13.24778800
Mg       2.75346017       6.44483007      29.10752194
Ni       2.59089833       1.14531931      13.83698724
Ni       2.66595136       0.98183273      29.77955973
Ni       0.13752563       5.20769450      13.64467109
Ni       0.34046063       5.07957758      29.46589326
Mg       7.48598760       1.05448333      13.94560058
Ni       7.56036701       0.87843408      29.85989388
Ni       5.07422883       5.14677246      13.82223206
Ni       5.24654552       5.01948797      29.61914813
Ni       0.14721548       2.68640822       5.74151014
Ni       0.13966587       2.46687426      21.72497546
Ni      -2.36235860       6.73536570       5.63227095
Ni      -2.24997945       6.56282203      21.48677023
Ni       5.05253695       2.62105010       5.92122277
Ni       5.03772066       2.29885236      21.85695089
Ni       2.64730762       6.80489624       5.79312763
Ni       2.69911695       6.45419499      21.57636569
Ni       2.51024068       1.18182085       9.94765515
Ni       2.66077931       0.96821242      25.75690572
Ni       0.14298694       5.38110460       9.64145069
Ni       0.30243052       5.16344264      25.59940605
Ni       7.48586652       1.12433223      10.05896783
Ni       7.50978586       0.91705179      25.93745945
Ni       5.13652401       5.24492282       9.84624418
Ni       5.21342346       4.99733372      25.76866314
Ni       0.03993816       2.74642633       1.91549317
Ni       0.15267400       2.45965661      17.62143659
Ni      -2.33297605       6.82286725       1.62830430
Ni      -2.28553689       6.61941734      17.58892496
Ni       5.09465419       2.54390775       1.96809071
Ni       5.07550668       2.35341447      17.84894984
Ni       2.66707222       6.69654534       1.91985272
Ni       2.70359496       6.55178805      17.62039757
Ni       2.52116165       2.48701789      11.80783419
Ni       2.70144504       2.35915944      27.75106705
Ni       0.19477016       6.64803311      11.66487960
Ni       0.32090836       6.48181147      27.55890619
Ni       7.52569843       2.40296065      11.98616709
Ni       7.68989970       2.23146583      27.78569416
Ni       5.19702215       6.55454489      11.78707024
Ni       5.22392803       6.32602837      27.64605381
Ni       3.69405125       0.49166634      11.92642518
Ni       3.87552544       0.22857253      27.83320701
Ni       1.37879350       4.66818636      11.82513676
Ni       1.51156502       4.36888273      27.61590771
Ni       8.69273603       0.38815887      12.04159951
Mg       8.76313421       0.16718605      27.93577554
Ni       6.35967191       4.53684371      11.94557922
Ni       6.41944451       4.29406310      27.72683846
Ni       1.30520818       3.27334906       3.82536970
Ni       1.41467962       3.07610463      19.80152409
Ni      -1.05937991       7.44947027       3.67048456
Ni      -0.92717934       7.18303495      19.60900872
Ni       6.32246009       3.20294077       3.98767286
Ni       6.32895759       3.03308629      19.93175489
Ni       3.90921712       7.39106279       3.85228413
Ni       3.93434015       7.19890934      19.67501313
Ni       1.35818957       0.52024080      11.87951778
Ni       1.31033833       0.23838734      27.64952500
Ni      -1.13995561       4.60521702      11.72427113
Ni      -0.89257816       4.41370996      27.64460637
Ni       6.29676968       0.50923428      11.91537952
Ni       6.30886537       0.25007389      27.90212393
Ni       3.90961863       4.53109282      11.83022166
Ni       3.96131388       4.28464044      27.69033951
Ni       0.05554193       1.34963193       3.97450933
Ni       0.25629984       1.07931381      19.65336058
Ni      -2.27197552       5.42687850       3.72333767
Ni      -2.21022678       5.20170525      19.53775125
Ni       5.00090921       1.28572895       3.96667572
Ni       5.11330603       0.91696848      19.90991447
Ni       2.58697860       5.37268881       3.87266743
Ni       2.79368346       5.16390065      19.69913147
Ni      -1.14510366       3.45703237       3.85216316
Ni      -0.99242839       3.14779310      19.62178398
Ni      -3.57200366       7.48880306       3.65982211
Ni      -3.44876346       7.27623356      19.52792315
Ni       3.80824967       3.35163022       3.96307841
Ni       3.89636914       3.04738995      19.76661982
Ni       1.36120585       7.43450010       3.78385847
Ni       1.50370402       7.16654663      19.56318314
Ni       2.44997995      -0.05207176      -0.00233011
Ni       2.54530833      -0.25940100      15.83982970
Ni       0.05621617       4.11145936      -0.20726148
Ni       0.17379062       3.89757432      15.66089956
Ni       7.35564676      -0.08145410       0.24414577
Ni       7.48967992      -0.35208810      16.11984691
Ni       5.12630891       3.99639971       0.02527583
Ni       5.11517891       3.85538953      15.86270014
Ni       1.17215883       1.96215042      -0.06146780
Ni       1.35047007       1.78490532      15.80974321
Ni      -1.14340735       6.11853905      -0.21965769
Ni      -1.05273682       5.90957072      15.67938136
Ni       6.26128143       1.87995645       0.12103190
Ni       6.35614189       1.73687867      15.98517800
Ni       3.77424079       6.12590690      -0.07607287
Ni       3.92628417       5.83895790      15.78656556
Ni      -1.03554494       1.92710526       7.79735891
Ni      -1.13029960       1.73780422      23.62449218
Ni      -3.57342711       6.05607887       7.67526062
Ni      -3.47561843       5.81692379      23.48205355
Ni       3.77305154       1.82956542       7.92556834
Ni       3.93325757       1.70712652      23.68753774
Ni       1.36491361       6.05755563       7.76981084
Ni       1.50189710       5.87299393      23.64799990
Ni       2.54554055      -0.19276991       8.01279447
Ni       2.59610926      -0.37017681      23.77109063
Ni       0.07830816       3.96677235       7.77659961
Ni       0.28042200       3.68559902      23.59263229
Ni       7.48704389      -0.22951853       8.21391707
Ni       7.59171100      -0.46144346      24.03316788
Ni       5.13787603       3.95291295       7.94354915
Ni       5.14159677       3.59679980      23.77320185
Ni      -1.16281663       2.02875580      -0.09395965
Mg      -1.13864809       1.85350016      15.82018396
Ni      -3.55147158       6.09695048      -0.27727314
Ni      -3.42811327       5.98678825      15.56697693
Ni       3.67294187       2.01983104       0.14922373
Ni       3.82617119       1.86200187      15.92944682
Ni       1.39113358       6.04524004      -0.14423727
Ni       1.38867918       5.91722263      15.70923533
Ni       1.38015391       1.88731504       7.84896131
Ni       1.50003756       1.68057021      23.75128846
Ni      -1.07559803       6.03023542       7.68445865
Ni      -1.01316926       5.82950353      23.55496102
Ni       6.23684867       1.81546494       8.03963489
Ni       6.36949155       1.61673104      23.85395098
Ni       3.92344248       5.86242203       7.91799259
Ni       4.07484317       5.72414649      23.57871116
