190
Lattice="9.902894613048794 -0.12366941792360457 0.05468883933081014 -5.296737630727021 8.68924824910479 0.14884262619719935 0.405218432346809 -0.995215070338718 31.434392061428525" Properties=species:S:1:pos:R:3 pbc="T T T"
Mg       0.19530006      -0.44703659      14.35116755
Mg       0.33996863      -0.92687526      29.94177653
Mg      -2.43052374       3.88948144      14.30714094
Mg      -2.17963713       3.37337410      30.01080720
Mg       5.16258591      -0.43927648      14.27015469
Mg       5.27032473      -1.06805354      29.91765725
Mg       2.55628350       3.82160578      14.33722902
Mg       2.65525577       3.26402058      30.02290432
Mg       0.08887089      -0.14924610       6.38974312
Mg       0.20495837      -0.66065186      22.09796877
Mg      -2.55933619       4.19989081       6.37834304
Mg      -2.40517830       3.73438275      22.08600843
Mg       5.05312207      -0.22211685       6.41306151
Mg       5.22409977      -0.73005335      22.09406384
Mg       2.29304596       4.10011154       6.54363059
Mg       2.60809023       3.55633616      22.19706539
Mg       0.13300320      -0.29271613       9.38777866
Mg       0.26913620      -0.84681368      25.04509864
Mg      -2.54763468       4.07394085       9.48194743
Mg      -2.31759933       3.48358877      25.15449985
Mg       5.11068952      -0.31562911       9.37268625
Mg       5.38376503      -0.86734127      25.08917282
Mg       2.45008692       3.93903364       9.41162135
Mg       2.49984848       3.45754202      25.10102745
Mg       0.04848223      -0.03615513       1.50479528
Ni       0.13660982      -0.61743286      17.17861393
Mg      -2.59847710       4.24360221       1.55322162
Mg      -2.46109658       3.85572631      17.30144611
Mg       4.90063724      -0.14483520       1.62964950
Mg       5.15223439      -0.73404071      17.26760879
Mg       2.25138525       4.28090058       1.56862557
Mg       2.59697613       3.74263959      17.35255500
Mg       2.45662550       1.26097165       2.53421030
Mg       2.60173483       0.84175131      18.26363173
Mg      -0.08266312       5.65135444       2.58876841
Mg      -0.01116524       5.11893108      18.28406364
Mg       7.34969911       1.19485164       2.66137577
Mg       7.57322005       0.82484612      18.20889269
Ni       4.76063017       5.59461511       2.59228211
Mg       4.96103192       5.17612266      18.36185128
Mg       0.03470940       2.55045710      10.41047915
Mg       0.17799429       2.10600994      26.07905317
Mg      -2.66251524       6.92081914      10.43849532
Ni      -2.47248087       6.36034330      26.22488909
Mg       4.98292554       2.46837176      10.39803668
Mg       5.19736124       1.98852971      26.13185348
Mg       2.31885705       6.80259459      10.54998832
Mg       2.51673640       6.43151870      26.21065837
Mg       2.50237963       1.18794559       5.44446768
Mg       2.62950852       0.78323254      21.15083191
Mg      -0.09905067       5.63513523       5.50656357
Ni       0.07255179       5.09226921      21.23558651
Mg       7.50095246       1.24427509       5.53254133
Mg       7.60788319       0.55049078      21.18357701
Mg       4.73134679       5.45335292       5.51455486
Mg       4.99536601       5.10998949      21.23188777
Mg      -0.05618503       2.44744280      13.37961645
Mg       0.22772146       1.96333196      29.09633758
Mg      -2.57450536       6.82419172      13.35377878
Mg      -2.41938620       6.31709520      29.12933999
Mg       5.00919381       2.36247010      13.42286290
Mg       5.25492655       1.96566114      29.10129178
Mg       2.39526447       6.68103842      13.47379860
Mg       2.60106896       6.15985131      29.08646596
Ni       2.59484025       0.96743229      13.81984719
Ni      -0.04120383       5.41388245      13.90045987
Ni       0.18031186       4.84995862      29.53061882
Ni       7.54157453       0.90726804      13.79037843
Ni       7.79164667       0.40939122      29.58528176
Ni       4.92068317       5.25433788      13.90109153
Ni       5.04695548       4.81030347      29.63044495
Ni      -0.13924944       2.70319000       6.00628581
Ni       0.17990056       2.12555256      21.64958126
Ni      -2.65784285       7.10495907       6.04335383
Ni      -2.52589972       6.49512636      21.72255440
Ni       4.97991967       2.58376319       5.93040612
Ni       5.04727816       2.14096656      21.73645538
Ni       2.37254826       6.99973448       6.08612982
Ni       2.44205586       6.43592731      21.61879281
Ni       2.56910956       1.09239261       9.75333462
Ni      -0.02849060       5.46891211       9.98564437
Ni       0.04446056       4.84584794      25.67364027
Ni       7.49380604       1.03895774       9.91788277
Ni       7.68265561       0.52164923      25.65633859
Ni       4.82715561       5.35169037       9.97246543
Ni       5.03162545       4.87877148      25.65446891
Ni      -0.12210752       2.86606360       2.08569055
Ni       0.19568445       2.40974311      17.81658826
Ni      -2.71793729       7.25960360       2.17701205
Ni      -2.48069171       6.65330257      17.87772627
Ni       4.79924997       2.70459411       2.03266975
Ni       5.08672727       2.30462906      17.78959476
Ni       2.28520904       7.11944033       2.11963625
Ni       2.42260774       6.52213745      17.87043158
Ni       2.49783199       2.40743885      11.85070019
Ni       2.71370005       1.92442697      27.58310610
Ni      -0.11890366       6.80006138      11.93872440
Ni       0.12486737       6.37595206      27.64780437
Ni       7.51217996       2.47218745      11.90604248
Ni       7.74614907       1.96609586      27.57409549
Ni       4.73612464       6.74439189      11.89698290
Ni       4.98113898       6.24986588      27.57366167
Ni       3.87584308       0.25143011      11.81433477
Ni       4.05491765      -0.20389796      27.51659197
Ni       1.17683449       4.65158767      11.89967527
Ni       1.44114424       4.14316003      27.65942084
Ni       8.76449364       0.21455752      11.82051168
Ni       9.04799792      -0.22146180      27.56115325
Ni       6.13604687       4.48120298      11.87801035
Ni       6.32774567       4.00113375      27.65194512
Ni       1.17496140       3.46445321       4.03059698
Ni       1.36130456       2.89278998      19.80042890
Ni      -1.46983715       7.78894681       4.10679781
Ni      -1.33003022       7.33318202      19.72577231
Ni       6.13085763       3.36518399       4.09057011
Ni       6.35793621       2.85765983      19.77469600
Ni       3.47729514       7.68699578       4.17286901
Ni       3.68054599       7.21955478      19.75558094
Ni       1.29732958       0.43590746      11.85403797
Ni       1.54440101      -0.15421315      27.52776914
Ni      -1.30070466       4.72070688      11.93545145
Ni      -1.03256613       4.18658061      27.55390070
Ni       6.28385037       0.18806785      11.81792071
Mg       6.54463633      -0.13931612      27.57495156
Ni       3.56048659       4.62666604      11.87398187
Ni       3.86631810       4.10412194      27.51090893
Ni      -0.01845187       1.27920262       3.92213090
Ni       0.32021225       0.70981226      19.77269498
Ni      -2.65764533       5.60670304       4.05167761
Ni      -2.39553917       5.17514979      19.78302676
Ni       4.91954174       1.29048931       4.00731262
Ni       5.08127293       0.83507111      19.65836967
Ni       2.33415244       5.50448820       4.01763211
Mg       2.55222620       5.03420477      19.82103898
Ni      -1.33223463       3.41341891       3.97243754
Ni      -1.16636587       2.97361926      19.77332459
Mg      -3.98803723       7.78462287       4.07219049
Mg      -3.69674570       7.28782245      19.80123326
Ni       3.68121810       3.48681703       4.09885592
Ni       3.83004921       2.90835379      19.82471428
Ni       1.02739411       7.71411206       4.11670357
Ni       1.15672720       7.17235249      19.76502510
Ni       2.49012952       0.02441019       0.00090326
Ni       2.69862971      -0.51202647      15.75242115
Ni      -0.23540509       4.26780112       0.12036326
Ni       0.02698648       3.71982705      15.83859507
Ni       7.40742448      -0.02588595       0.08121645
Ni       7.60542527      -0.55325698      15.80016523
Ni       4.78016199       4.17473954       0.06458693
Ni       4.99011292       3.72543158      15.88014906
Ni       1.28715985       2.18145013       0.11960641
Ni       1.33140197       1.67994769      15.74806640
Ni      -1.52535107       6.49546335       0.11591912
Ni      -1.21409885       6.04033554      15.80373275
Ni       6.07204623       2.13568380      -0.02273330
Ni       6.32186641       1.53090931      15.91003625
Ni       3.47351849       6.43444322       0.13277135
Ni       3.62491758       5.99005981      15.86022918
Ni      -1.26399584       1.96107051       7.89338212
Ni      -0.91465443       1.39963036      23.66471685
Ni      -3.85904414       6.32596875       7.98268251
Ni      -3.58834362       5.69917906      23.66317949
Ni       3.74543922       1.90220695       7.90375002
Ni       3.97524496       1.34494124      23.57468909
Ni       1.00000888       6.16499100       7.95040499
Ni       1.31563190       5.68540365      23.72712527
Ni       2.53066066      -0.17865457       7.95143275
Ni       2.73449206      -0.72596073      23.60449950
Ni       0.00451478       4.09749680       7.97626342
Ni       0.04973348       3.52102357      23.61226933
Ni       7.65877094      -0.26034670       7.87770914
Ni       7.76032846      -0.88778045      23.56580964
Ni       4.83169755       3.96344037       8.01663995
Ni       4.96628785       3.42462690      23.71745820
Ni      -1.32358072       2.09737656       0.05399929
Ni      -1.03750604       1.62109799      15.75313893
Ni      -3.92818243       6.56974817       0.04346383
Ni      -3.79041891       6.03729504      15.79732536
Ni       3.73398277       2.14824329       0.09362813
Ni       3.80155708       1.65321833      15.81547721
Ni       0.93118539       6.43885093       0.05280529
Ni       1.27140327       6.00849630      15.84726114
Ni       1.27747069       1.91695027       7.88869056
Ni       1.58356588       1.44202692      23.66475775
Ni      -1.34469040       6.20874274       8.06425385
Ni      -1.11415197       5.86192881      23.67634096
Ni       6.07468450       1.89202073       7.93238286
Ni       6.40791167       1.28897475      23.62857941
Ni       3.58680482       6.17410772       8.02427007
Ni       3.81946884       5.76940250      23.75752954
