189
Lattice="9.762344010833683 -0.05507222383514797 -0.17498089351287485 -4.968394743653974 8.705125931786908 -0.15592335650583378 -0.038615190073535546 1.0701217333915736 32.73697577145734" Properties=species:S:1:pos:R:3 pbc="T T T"
Mg      -0.03378681       1.02571348      31.10570818
Mg      -2.54203402       4.78587771      14.78987437
Ni      -2.52088269       5.38770792      31.07248871
Mg       4.79817317       0.36343180      14.75965405
Mg       4.91327522       1.00546140      31.17011028
Mg       2.35722865       4.76462284      14.61824606
Mg       2.32811330       5.37582934      30.98117600
Ni      -0.04817019       0.17583097       6.68488624
Mg      -0.04922244       0.80753329      22.99402269
Mg      -2.43718028       4.56413908       6.60960386
Mg      -2.59062489       5.11032214      22.96863076
Mg       4.86630539       0.30078873       6.56051891
Mg       4.89175731       0.70391704      22.91355197
Mg       2.34733098       4.54704082       6.44430826
Mg       2.37584933       5.06269407      22.84130985
Mg      -0.00390302       0.29752587       9.67078639
Mg      -0.00914290       0.90351888      26.16022403
Mg      -2.60108301       4.61801529       9.63695671
Mg      -2.55497173       5.18424343      26.04098957
Mg       4.70454495       0.31061875       9.67998188
Mg       4.81893959       0.84489144      26.03009939
Mg       2.45405120       4.55512966       9.56793040
Mg       2.33119025       5.09770983      25.94430722
Ni       0.10865311      -0.10462344       1.55453993
Mg      -0.08825700       0.56088269      17.82188636
Ni      -2.51366948       4.46500666       1.42322220
Ni      -2.53920880       5.01327727      17.81930300
Mg       4.82181348      -0.09582794       1.38179461
Mg       4.94175799       0.59231151      17.90749655
Mg       2.44114313       4.32924887       1.37441812
Mg       2.35078585       4.88152310      17.77489576
Mg       2.48607981       1.47397643       2.49547785
Mg      -0.06710279       5.93522593       2.35148940
Mg      -0.10117208       6.41205761      18.72285395
Mg       7.37563821       1.40531091       2.33694460
Mg       7.28019631       1.97772490      18.78453857
Mg       4.74981052       5.94288491       2.27272649
Mg       4.78609976       6.28858285      18.60717779
Mg      -0.12116246       3.19262904      10.61745648
Mg       0.02584608       3.85448186      27.06250931
Mg      -2.40573374       7.61059675      10.57874657
Mg      -2.51771753       8.18785579      26.99800731
Mg       4.89326229       3.27091740      10.52651017
Mg       4.88776965       3.78679060      26.78027517
Mg       2.40072466       7.55857367      10.43646217
Mg       2.28757198       8.11937634      26.85409167
Mg       2.37174334       1.63775242       5.59269192
Mg       2.38557124       2.15487298      21.89141532
Mg       0.01397067       5.84351185       5.47681088
Mg      -0.10536322       6.46862956      21.81549499
Mg       7.31346705       1.55179834       5.52564576
Mg       7.32912221       2.05136448      21.93974493
Mg       4.83079762       5.97028004       5.41732193
Mg       4.78146328       6.41816927      21.79218381
Mg      -0.08332578       3.29325117      13.76573563
Mg      -0.12796143       3.88881131      30.09265594
Mg      -2.51713597       8.21489337      30.03261071
Mg       4.73266742       3.29109861      13.67997390
Mg       4.80600628       3.93237409      29.93271562
Mg       2.32432665       7.72291605      13.59112271
Mg       2.35757300       8.29890461      29.90793514
Ni       2.44665651       1.94083332      14.29928788
Ni       2.42673430       2.50136857      30.64324234
Ni       0.03336965       6.21034184      14.19611876
Ni      -0.10830750       6.80615222      30.52031635
Ni       7.24181934       1.82685221      14.11307742
Ni       7.26514566       2.46284485      30.51443248
Ni       4.87951882       6.16679219      14.10925430
Ni       4.76393110       6.82623936      30.44849823
Ni      -0.00785601       3.07293569       6.04510410
Ni       0.02993264       3.55698548      22.41213050
Ni      -2.54837832       7.36369597       5.89938832
Ni      -2.49186028       7.97517371      22.29892674
Ni       4.81336896       3.03896864       5.99483706
Ni       4.88571179       3.67943649      22.31669538
Ni       2.35523252       7.47812826       5.82676907
Ni       2.29787718       7.89620294      22.41225149
Ni       2.41204503       1.82069061      10.13452387
Ni       2.40447905       2.23661379      26.56039482
Ni      -0.05676215       6.12947403      10.09203969
Ni      -0.08268276       6.64668111      26.39741024
Ni       7.29743091       1.75097851      10.00203765
Ni       7.29749192       2.21361464      26.50116677
Ni       4.79801346       6.01106838       9.99487575
Ni       4.82746332       6.69517742      26.44976079
Ni       0.07880758       2.95406169       2.06636739
Ni      -0.01788064       3.47675936      18.19681726
Ni      -2.45595658       7.29608078       1.85819677
Ni      -2.48734541       7.76876354      18.27623882
Ni       4.82902418       2.97015972       1.76220071
Ni       4.75547614       3.49908673      18.34627982
Ni       2.31955864       7.32431685       1.76910263
Ni       2.32324687       7.77653793      18.25921141
Ni       2.41727564       3.21760545      12.21582505
Ni       2.36491300       3.78658577      28.51701839
Ni      -0.10176948       7.69470926      12.06398906
Ni      -0.18249582       8.18771105      28.36818203
Ni       7.23321850       3.22723673      12.00096792
Ni       7.24006721       3.72101536      28.46085194
Ni       4.78326401       7.63967370      11.98363297
Ni       4.78661168       8.15838168      28.34011371
Ni       3.64746883       1.07194635      12.17061438
Ni       3.60435251       1.64113677      28.51547778
Mg       1.08084337       5.50715964      12.06120074
Ni       1.13572427       5.99083877      28.53830316
Ni       8.52962057       1.05145344      12.01505684
Ni       8.49647083       1.65788316      28.47926273
Ni       6.04555905       5.43560711      12.02413125
Ni       5.96334372       5.92488441      28.37111583
Ni       1.18012905       3.72292079       3.87539334
Ni       1.19080514       4.30175433      20.36659790
Ni      -1.37170672       8.14367931       3.92002155
Ni      -1.37367283       8.72838342      20.24511695
Ni       6.01847314       3.76902604       3.94339059
Ni       6.05066007       4.23900115      20.19224225
Ni       3.62076901       8.09486821       3.83354995
Ni       3.55897904       8.66885334      20.18197149
Ni       1.09685986       1.12711269      12.18651949
Ni       1.16994746       1.59331256      28.68008724
Ni      -1.28239259       5.43564783      12.14574356
Ni      -1.24507876       5.97456314      28.56784142
Ni       6.08295421       1.03751844      12.08704398
Ni       5.99622169       1.68978053      28.52360522
Ni       3.65041774       5.46698347      11.98809992
Ni       3.54296646       6.01644805      28.48697287
Ni      -0.02899684       1.64885366       4.05798796
Ni       0.08312136       2.06398038      20.41249951
Ni      -2.48608452       5.91383311       3.95689192
Ni      -2.56096750       6.53019705      20.21682840
Ni       4.85108048       1.58425381       3.96474045
Ni       4.89857579       2.12537467      20.38199737
Ni       2.40209291       5.90875398       3.95825727
Ni       2.33776386       6.43107981      20.27973560
Ni      -1.23866650       3.69361494       4.02590282
Ni      -1.25583982       4.30658330      20.42524782
Ni      -3.67405779       8.06519580       3.89808899
Ni      -3.79435909       8.63140354      20.22883786
Ni       3.55651480       3.72381388       3.93119604
Ni       3.58366916       4.33558310      20.28607103
Ni       1.14561448       8.07892630       3.91722505
Mg       1.07778409       8.61015437      20.15929246
Ni       2.52262639       0.00970231      -0.11168310
Ni       2.42143358       0.60965986      16.29904251
Ni      -0.13251547       4.29384608      -0.11668720
Ni      -0.01100302       4.97668749      16.25329589
Ni       7.34320354      -0.01160192      -0.23208501
Ni       7.31927529       0.49895255      16.25085292
Ni       4.82381147       4.42117783      -0.26188270
Ni       4.84989900       4.88846126      16.26535716
Ni       1.22532869       2.16234606      -0.08614529
Ni       1.20130236       2.69484675      16.16922022
Ni      -1.30474687       6.48527868      -0.12795702
Ni      -1.31694251       7.12888481      16.24424762
Ni       6.11660150       2.10498958      -0.20604377
Ni       6.03426585       2.64444249      16.21937973
Ni       3.54033186       6.58350278      -0.24399707
Ni       3.54476486       7.08282117      16.13221465
Ni      -1.20941678       2.46186358       8.13044703
Ni      -1.26145096       2.97657826      24.55177189
Ni      -3.64161900       6.80562127       8.09877483
Ni      -3.75313140       7.28945419      24.36895882
Ni       3.64406220       2.40736827       8.13016308
Ni       3.71229823       2.90502856      24.35298544
Ni       1.20482022       6.75656708       8.01197068
Ni       1.11294718       7.37213238      24.31420541
Ni       2.46723534       0.25461137       8.19985130
Ni       2.33531898       0.76908078      24.49972982
Ni      -0.06659807       4.72816023       8.07901500
Ni      -0.12832828       5.13063163      24.48860117
Ni       7.31745774       0.26386089       8.13817159
Ni       7.35648221       0.72742344      24.39535034
Mg       4.84668152       4.57232277       7.96137946
Ni       4.74313052       5.18521614      24.29018587
Ni      -1.25637367       2.19644678      -0.04298224
Ni      -1.32985966       2.73482591      16.44697494
Ni      -3.70100611       6.52553235      -0.14410260
Ni      -3.73363480       7.06217947      16.23893424
Mg       3.63715079       2.08864391      -0.19747513
Ni       3.63708652       2.67313045      16.28909271
Ni       1.13328632       6.56525368      -0.21709045
Ni       1.23158813       6.99610310      16.22421441
Ni       1.27059482       2.33765895       8.05395678
Ni       1.15921419       2.99062214      24.47266647
Ni      -1.23547549       6.78791422       8.17907196
Ni      -1.31207149       7.33337318      24.38312348
Ni       6.10660830       2.34636790       8.00436242
Ni       6.05755616       2.92954876      24.34285074
Mg       3.60825818       6.70642436       7.89624004
Ni       3.53443721       7.30994080      24.35544750
