191
Lattice="9.840390869846251 0.059484355436121863 -0.08656822354682935 -4.951979922682954 8.629589920563223 -0.39642211503229485 0.1766589520874476 0.7917839792812782 32.21429042848698" Properties=species:S:1:pos:R:3 pbc="T T T"
Ni       0.01283413       0.36032939      14.61515480
Mg       0.10899913       0.72356811      30.63941837
Mg      -2.36214064       4.61853351      14.36410144
Mg      -2.26021064       5.02823926      30.50469216
Mg       4.93388803       0.44062546      14.63131023
Mg       5.07609970       0.78205717      30.72436651
Mg       2.51917319       4.66023494      14.38756169
Mg       2.63597259       5.11695254      30.32405777
Mg       0.01497819       0.18434245       6.48765306
Mg       0.12079013       0.53266054      22.62201318
Mg      -2.44873395       4.45845519       6.40887225
Mg      -2.37429923       4.90953651      22.53783664
Mg       4.98237751       0.17172875       6.54367690
Mg       5.04140263       0.64435641      22.64238527
Mg       2.50604267       4.49803852       6.34416870
Mg       2.59571402       4.92159267      22.42424920
Mg       0.05435822       0.27753675       9.44926683
Ni       0.05548802       0.70392054      25.70970948
Mg      -2.44937607       4.63786281       9.36561560
Mg      -2.41832654       4.87859053      25.46273075
Ni       5.03840486       0.30770934       9.54462292
Mg       5.04712718       0.68547187      25.53503427
Mg       2.62715671       4.59053453       9.29417903
Mg       2.58149027       5.03820994      25.41912209
Ni      -0.04145433       0.11102969       1.47423283
Mg       0.08036990       0.46763544      17.62466455
Mg      -2.52093608       4.33157317       1.32827169
Mg      -2.33932138       4.68805284      17.41891660
Mg       4.84940737       0.05844181       1.44752905
Mg       4.96569769       0.48474564      17.59509679
Mg       2.46257357       4.35333309       1.30204583
Mg       2.50328018       4.74033411      17.38560713
Mg       2.54002303       1.53030975       2.44531801
Mg       2.51312182       1.95710428      18.48826810
Mg       0.01279039       5.80303594       2.25140022
Mg       0.05606983       6.23079184      18.41743949
Mg       7.39307118       1.54915517       2.38131274
Mg       7.44508410       1.96906371      18.47128667
Mg       4.91500412       5.80775799       2.13506155
Mg       4.95902617       6.28033112      18.25376104
Mg       0.01166588       3.12370026      10.49714220
Mg       0.13571797       3.51976622      26.49228427
Mg      -2.48223674       7.45088189      10.24591789
Mg      -2.31063200       7.78904147      26.28243455
Mg       5.01935079       3.18275115      10.33533298
Mg       5.04231841       3.54074066      26.45103266
Ni       2.48950763       7.43513814      10.11333255
Mg       2.55730117       7.91630819      26.25134945
Mg       2.42261266       1.48688095       5.40230907
Mg       2.61465748       1.99238391      21.60774955
Mg       0.00295870       5.94333914       5.29890825
Mg       7.46156849       1.60241653       5.42562567
Mg       7.60140020       2.11009955      21.55578166
Ni       5.05472901       5.98862834       5.20792068
Mg       4.97233817       6.35187554      21.27990383
Mg       0.03685688       3.24324118      13.41600266
Mg       0.21482558       3.62540472      29.56158499
Ni      -2.43770040       7.50674065      13.28172269
Ni      -2.35308561       7.97528752      29.25688755
Mg       5.00405728       3.26377184      13.41083185
Mg       5.00963046       3.59085693      29.53907364
Mg       2.50813924       7.58268978      13.20668923
Mg       2.57178029       7.93998713      29.30307166
Ni       2.58127925       1.82855019      13.99016694
Ni       2.61284908       2.18202013      30.09011371
Ni       0.09160732       5.98906329      13.78895981
Ni       0.27389552       6.55147393      29.92071604
Ni       7.41433298       1.79266920      14.04164301
Ni       7.54593744       2.25719460      30.10835236
Ni       4.88030352       6.14769169      13.88103160
Ni       5.05108491       6.59974536      29.92319579
Mg       0.02486412       3.00126476       5.86881576
Ni       0.07660915       3.49000587      21.99048731
Ni      -2.47627503       7.30724695       5.73023392
Ni      -2.34386733       7.76656304      21.78073804
Ni       4.95052188       3.05620248       5.82265606
Ni       4.98701334       3.46281839      22.03354290
Ni       2.46794252       7.32220553       5.67944893
Ni       2.58996012       7.86743273      21.71998046
Ni       2.43204262       1.68444817      10.03321207
Ni       2.54535824       2.04933339      26.06459268
Ni       0.11547429       5.96026222       9.76988430
Ni       0.12218893       6.44633104      25.87813228
Ni       7.46705749       1.69835070      10.00098295
Ni       7.54062069       2.09424112      26.04358844
Ni       4.84160053       6.01799953       9.65312015
Ni       5.04310212       6.43925670      25.82464815
Ni      -0.05014377       2.91699283       1.95417278
Ni       0.07823466       3.31596138      17.88839397
Ni      -2.55707718       7.24065189       1.66120478
Ni      -2.32137077       7.68543252      17.72119607
Ni       4.95913763       3.06325225       1.70113172
Ni       5.05381484       3.41765887      17.97974522
Mg       2.44990240       7.26034574       1.55340533
Ni       2.56788111       7.69939790      17.74614348
Ni       2.51992100       3.19508670      11.88266628
Ni       2.53604567       3.69149821      28.03529847
Ni       0.02859643       7.51607710      11.70499086
Ni       0.27364266       7.93971106      27.82602134
Ni       7.44848469       3.22288125      11.84235351
Ni       7.55846336       3.62998099      28.05765133
Ni       4.90236363       7.54260620      11.70858921
Ni       4.96963900       7.91280999      27.76497705
Ni       3.79044376       0.98067437      12.04348859
Ni       3.80623891       1.48122612      27.99731888
Ni       1.29263193       5.28727328      11.76812008
Ni       1.37773233       5.76574217      27.99961659
Ni       8.70662393       1.06162235      12.04791628
Ni       8.73010105       1.43045425      27.99794197
Ni       6.22027614       5.37682327      11.79106596
Ni       6.26866688       5.73906760      27.90703188
Ni       1.18491845       3.65273741       3.80584539
Ni       1.40779293       4.10196509      19.97842954
Ni      -1.22362888       7.97961894       3.69133147
Mg      -1.11866812       8.41983401      19.70303541
Mg       6.17931403       3.71302897       3.76815653
Ni       6.26870471       4.10263981      19.97043886
Ni       3.72737490       8.05634426       3.54995434
Ni       3.83375913       8.44373028      19.73374099
Ni       1.30098085       1.09489957      12.04448427
Ni       1.33414699       1.46664431      28.17421840
Ni      -1.17307909       5.33942887      11.78386978
Ni      -1.07535771       5.75969450      27.95143061
Ni       6.20963955       1.02421670      11.95946412
Ni       6.28833336       1.50511155      28.00486798
Ni       3.62051217       5.33728715      11.77339577
Mg       3.83562526       5.74140534      27.94902273
Ni       0.06790092       1.57139798       4.01567642
Ni       0.12166633       1.88754979      20.13066332
Ni      -2.44362937       5.86375154       3.79460438
Ni      -2.36643584       6.30178419      19.84798682
Ni       4.89648970       1.57987810       3.96695951
Ni       5.09407673       1.99879762      20.02227290
Ni       2.51007379       5.80296857       3.80245137
Ni       2.61968249       6.32162775      19.89486629
Mg      -1.28586560       3.65794833       3.85340764
Ni      -1.15560179       3.98823451      19.96535925
Ni      -3.63341097       7.98349544       3.67117565
Ni      -3.51989285       8.38911893      19.77604914
Ni       3.71737474       3.56728645       3.82481587
Ni       3.70823202       4.06229453      19.90706932
Ni       1.21424826       8.00961532       3.55670485
Ni       1.32074195       8.42812648      19.66814198
Ni       2.55528916       0.01707197      -0.03610742
Ni       2.56508422       0.49551925      16.08662111
Ni      -0.05365095       4.29172546      -0.21021461
Ni      -0.04272337       4.73136259      15.87067067
Ni       7.30544718       0.02539196      -0.00663410
Ni       7.45753206       0.39339852      16.08539642
Ni       4.88832232       4.35450459      -0.15966149
Ni       4.91962638       4.84593106      15.79690931
Ni       1.23967495       2.18213303      -0.09206315
Ni       1.23748825       2.48343722      15.96562130
Ni      -1.23272713       6.56142600      -0.32052206
Ni      -1.07913155       6.93563915      15.75042204
Ni       6.10023802       2.11241225      -0.16270208
Ni       6.25370242       2.57067420      15.95453069
Ni       3.71116064       6.55143331      -0.34188205
Ni       3.73537813       6.94286685      15.69628914
Ni      -1.18720894       2.38210108       7.85578336
Ni      -1.12347790       2.89147418      24.05857502
Ni      -3.63818083       6.74469166       7.70190567
Ni      -3.46997761       7.08219390      23.89808543
Ni       3.72323625       2.33039336       7.90011337
Ni       3.73559063       2.71921426      24.07683571
Ni       1.21636707       6.66866481       7.60648694
Ni       1.35343123       7.07978839      23.79219588
Ni       2.47596997       0.17847446       8.07290181
Ni       2.56401310       0.50976172      24.11075026
Ni       0.05722670       4.49239316       7.85147749
Ni       0.09948259       4.87440269      23.92831496
Ni       7.53877628       0.28297753       8.05609411
Ni       7.57427945       0.60755214      24.07329941
Ni       5.04418181       4.58080761       7.77617896
Ni       4.90890108       4.88803187      23.92754745
Ni      -1.27391246       2.18684714      -0.15785855
Ni      -1.16826088       2.50786923      16.05487056
Ni      -3.63238716       6.42265890      -0.33398567
Mg      -3.60756543       6.87455042      15.80277101
Ni       3.75062325       2.04150756      -0.18311406
Ni       3.68051143       2.57664634      15.99810578
Ni       1.12608708       6.48807203      -0.25515049
Ni       1.25378907       6.88393748      15.75357362
Ni       1.31203717       2.38798759       7.90587014
Ni       1.35325344       2.79604990      24.03422971
Mg      -1.33995002       6.61392325       7.81280286
Ni      -1.13107329       7.11114968      23.92041012
Ni       6.22429491       2.41087205       7.94801111
Ni       6.21838043       2.74702606      23.97528590
Ni       3.63577839       6.71705980       7.68308244
Ni       3.77293247       7.10027769      23.78705025
