190
Lattice="10.22612026540865 -0.07683244056270203 0.36246806064256754 -5.197296950225887 8.4411903100409 -0.24904249793514638 -0.06908389567348773 -0.8738447254747793 31.87563065990775" Properties=species:S:1:pos:R:3 pbc="T T T"
Mg      -0.10198579      -0.34324598      14.45595708
Mg      -0.08666568      -0.82810173      30.36003907
Mg      -2.50979263       3.74747742      14.31790153
Ni      -2.72470811       3.33631682      30.22830040
Mg       5.18160935      -0.48945174      14.61463268
Mg       5.09258466      -0.87785770      30.54909502
Mg       2.51317001       3.72396249      14.43043300
Mg       2.56469662       3.39359729      30.46837607
Mg       0.04631458      -0.17519678       6.46555446
Mg      -0.03742783      -0.66036829      22.40924570
Mg      -2.61431616       4.05029698       6.33538542
Ni      -2.60666982       3.63998774      22.30459310
Mg       5.15434251      -0.23923337       6.62218343
Mg       5.13469836      -0.65511272      22.57837319
Mg       2.60019375       4.09662842       6.50072749
Mg       2.38756606       3.67000101      22.48678311
Mg       0.01306677      -0.23151606       9.45317500
Mg      -0.04474589      -0.69132316      25.39567863
Ni      -2.66170249       4.00415091       9.32500059
Mg      -2.67035964       3.54060616      25.33709951
Mg       5.11601811      -0.28249021       9.63214277
Ni       5.07445802      -0.75951107      25.55656357
Mg       2.51181929       3.96667947       9.61757946
Mg       2.53205719       3.48476640      25.49921770
Mg       0.01842880      -0.02768241       1.51844302
Mg      -0.04927922      -0.57340795      17.43434022
Mg      -2.61290451       4.13705616       1.36840316
Mg       5.15900359      -0.13331656       1.76646056
Mg       5.02414857      -0.57284970      17.62163697
Mg       2.52065829       4.15101986       1.51883307
Ni       2.38770191       3.67840093      17.50919218
Mg       2.56121531       1.37357705       2.47645761
Mg       2.44825807       0.86260115      18.36992666
Ni      -0.07670361       5.52286698       2.42167662
Ni      -0.13669255       5.08114823      18.30957843
Mg       7.69259350       1.25313921       2.79500812
Mg       7.63818930       0.92781019      18.54373741
Ni       5.09504359       5.43464749       2.61661376
Mg       4.97282659       5.09704330      18.52779587
Mg      -0.12083486       2.49861312      10.42163565
Ni      -0.04892782       2.07429307      26.32913410
Ni      -2.67003796       6.73650042      10.30453358
Mg      -2.67966671       6.34762872      26.23492817
Mg       5.04774393       2.52757506      10.61032046
Mg       5.04050075       2.04865132      26.51414324
Mg       2.47516269       6.64232723      10.50042977
Mg       2.48763938       6.28064168      26.46543408
Mg       2.52738815       1.13661634       5.59570364
Mg       2.45298465       0.75885986      21.54651028
Mg      -0.06128427       5.48938275       5.38096177
Mg      -0.10544473       5.01500016      21.34313033
Mg       7.66716852       1.16796364       5.73344736
Mg       7.58506258       0.86282319      21.69824959
Mg       4.97463388       5.46118650       5.55967928
Mg       4.99945448       4.99810641      21.56512805
Mg      -0.04863141       2.47435762      13.39375957
Mg      -0.13816798       1.97256262      29.43261954
Mg      -2.71743453       6.64473071      13.38394410
Mg      -2.66582988       6.24595827      29.20938700
Mg       5.04179978       2.36390286      13.62042168
Ni       5.08148267       1.93079848      29.73079701
Mg       2.41833594       6.63956700      13.46753921
Mg       2.37228127       6.14901265      29.38500122
Ni       2.53010465       0.98734570      13.88847067
Ni       2.41493484       0.58965276      29.92732259
Ni      -0.04996606       5.22096462      13.90084233
Ni      -0.24319908       4.88125975      29.86968124
Ni       7.56248374       0.97220153      14.34145324
Ni       7.60028793       0.50937358      30.10441231
Ni       5.09051504       5.19662885      13.98951013
Ni       5.03229531       4.68524716      30.01298807
Ni      -0.00073230       2.64850089       5.93936255
Ni      -0.16259565       2.23906776      21.85407137
Ni      -2.54426939       6.75789649       5.86490640
Mg      -2.52696567       6.39380719      21.74328232
Ni       5.04980080       2.61986753       6.15445369
Ni       4.96267724       2.26442984      22.02437571
Ni       2.45772262       6.82004771       6.00934610
Ni       2.43703243       6.33236070      21.90148548
Mg       2.51236541       1.07353091      10.08793943
Ni       2.46463322       0.72851227      25.93254767
Ni      -0.06437196       5.28890973       9.87846443
Ni      -0.07072583       4.93009704      25.84830451
Ni       7.70217155       1.09829605      10.26257792
Ni       7.53190007       0.59702380      26.19971921
Ni       5.08645931       5.32648476      10.06961946
Ni       4.99186200       4.78930146      25.99179520
Ni      -0.03162490       2.78111355       1.97174595
Ni      -0.04313832       2.33503248      17.88446241
Ni      -2.65617276       6.97512738       1.86252523
Ni      -2.75161849       6.55348806      17.79531942
Ni       5.01898832       2.81665514       2.16144427
Mg       5.08494503       2.27073368      18.10677231
Ni       2.47691995       6.91020645       2.03415221
Ni       2.60257232       6.49480896      18.02444262
Ni       2.47239040       2.47072984      11.89924816
Ni       2.49854510       2.08507301      27.91798892
Ni      -0.17545349       6.69823901      11.90050114
Ni      -0.16107102       6.33086831      27.75983068
Mg       7.62080654       2.42199324      12.09481396
Mg       7.58639438       2.02843160      28.05209460
Ni       5.02020396       6.61461013      12.05760006
Ni       5.10391479       6.19165966      27.97733483
Mg       3.75491695       0.37225921      12.06953918
Ni       3.79316669      -0.05558163      28.01883336
Ni       1.15656566       4.57941594      11.89104798
Ni       1.19856865       4.14647814      27.91224207
Ni       8.86916696       0.31453589      12.27047761
Ni       8.86546755      -0.14717926      28.13578295
Ni       6.35584987       4.56763957      12.19865766
Ni       6.34369823       4.05037277      28.03227570
Ni       1.19988237       3.37372355       3.97078656
Ni       1.16830366       2.90238652      19.93325023
Ni      -1.37549332       7.57262204       3.74256790
Ni      -1.31242124       7.16539906      19.81984226
Ni       6.35133377       3.28727421       4.27468009
Ni       6.33953015       2.84289621      20.19226185
Mg       3.80757230       7.55104326       4.04318871
Ni       3.71027377       7.03500134      19.96496452
Ni       1.18690378       0.28182240      11.93822654
Ni       1.20103151      -0.07954707      27.97883846
Ni      -1.43213807       4.59931340      11.82680964
Ni      -1.39867043       4.20874057      27.84570215
Ni       6.27464612       0.31648993      12.24887717
Ni       6.35039583      -0.10915334      28.03981992
Ni       3.84280708       4.52572264      12.04157684
Ni       3.71468049       4.06466887      27.95223230
Ni      -0.06643344       1.32986552       3.89907816
Ni      -0.10752394       0.76220020      19.91389165
Ni      -2.63784146       5.55148701       3.81807138
Ni      -2.59486321       5.05748954      19.75979087
Ni       5.08424919       1.25819664       4.14571214
Ni       5.04115004       0.80413990      20.14236629
Mg       2.47825187       5.51252335       4.03673493
Ni       2.40484210       4.96234183      20.03026285
Mg      -1.33371916       3.42886914       3.90183355
Ni      -1.36362711       2.89344389      19.94971222
Ni      -3.94176197       7.67508891       3.75599300
Ni      -3.89412220       7.18398473      19.77324209
Ni       3.82410927       3.33454109       4.10211808
Ni       3.81279057       2.90690299      20.05334396
Ni       1.19253211       7.60760760       4.03835985
Ni       1.18936691       7.22980875      19.85216411
Ni       2.50713272      -0.09993108       0.08264294
Mg       2.46900888      -0.43156551      16.08799749
Ni      -0.07437210       4.16699851      -0.00085984
Ni      -0.04281603       3.81027743      15.87520904
Ni       7.69758163      -0.00834847       0.21787231
Ni       7.56363625      -0.49570701      16.21834806
Ni       5.06670224       4.20391494       0.15411699
Ni       5.03034831       3.79830150      16.10103284
Ni       1.22419447       2.12973394       0.05953939
Ni       1.20989498       1.70655773      15.96283751
Ni      -1.38590893       5.95316586      15.76793937
Ni       6.24488570       2.03474343       0.22046226
Ni       6.32987953       1.59142782      16.14434426
Ni       3.80998009       6.28543698       0.12992115
Ni       3.71029735       5.86616676      16.00377622
Ni      -1.32976463       1.83656577       8.01609142
Ni      -1.39984369       1.45438019      23.83928816
Ni      -3.95205764       6.21254829       7.79303430
Ni      -3.84150499       5.58862401      23.71699702
Ni       3.67285089       1.85459563       8.12629720
Ni       3.79524736       1.32923270      24.01208156
Ni       1.19938225       6.07329975       7.91442417
Ni       1.20123704       5.68588380      23.86731328
Ni       2.47843376      -0.22029439       8.05699495
Ni       2.53553691      -0.65035678      23.97957071
Ni       0.08371502       3.98383316       7.89276720
Ni      -0.14829405       3.52528514      23.87356596
Ni       7.62825569      -0.24874139       8.26171634
Ni       7.54493392      -0.69693405      24.17161998
Ni       5.04167904       4.00385693       8.09213343
Ni       5.02124213       3.43249157      24.04928027
Mg      -1.32168790       2.18469278       0.02509192
Ni      -1.27029032       1.66333206      15.85719214
Ni      -3.90664133       6.26773128      -0.21307998
Ni      -3.86169193       5.88440329      15.81207776
Ni       3.83606695       2.04952628       0.09118706
Ni       3.81315627       1.64376317      16.10713723
Ni       1.23283049       6.28089498       0.10967322
Ni       1.17602999       5.79076230      15.88656367
Ni       1.19676566       1.91905306       8.01123182
Ni       1.19913450       1.38355292      23.92060244
Ni      -1.44692036       6.05747101       7.86269904
Ni      -1.49927710       5.65191736      23.77162676
Ni       6.42171990       1.80307344       8.15291610
Ni       6.27070116       1.43547359      24.13111379
Ni       3.75417824       6.09542360       8.02948324
Ni       3.73048411       5.64847938      24.03263857
