191
Lattice="9.942757959917445 0.42709995706010284 0.14211980308304314 -5.155758856508797 8.109457102036469 -0.2658422482777291 -0.9925102408447746 1.2459711134299065 31.560999117849047" Properties=species:S:1:pos:R:3 pbc="T T T"
Mg      -0.41937317       0.56498680      14.30336605
Ni      -0.89131142       1.24079481      30.15177946
Mg      -3.01018736       4.68549295      14.17014976
Mg      -3.50469245       5.30741065      29.94532334
Mg       4.46013158       0.75671969      14.26958907
Mg       4.02404918       1.37316448      30.19648025
Mg       1.95721527       4.84949241      14.16208307
Mg       1.49796228       5.50366613      29.98284842
Mg      -0.27243189       0.24946441       6.39108926
Mg      -0.60978524       0.86044971      22.23198536
Mg      -2.84332559       4.27313327       6.25214224
Mg      -3.20600585       4.89487989      22.06950507
Mg       4.84431416       0.44804570       6.39111736
Mg       4.31672808       1.09647780      22.30718627
Mg       2.17282339       4.51394145       6.36170923
Mg       1.71440507       5.07696589      22.15495868
Mg      -0.24620388       0.41284805       9.34793329
Mg      -0.63634747       0.89655073      25.13447224
Mg      -2.82554974       4.51259763       9.20666309
Mg      -3.38369043       5.08516473      24.97938135
Mg       4.67501137       0.66552751       9.42868707
Mg       4.21911581       1.21911359      25.15774000
Mg       2.01307973       4.61061013       9.33670801
Mg       1.57449789       5.24327691      25.10974827
Ni       0.02052263       0.14091172       1.45328126
Mg      -0.62244866       0.56477390      17.29737481
Mg      -2.64743130       4.08247605       1.33786133
Mg      -3.19477593       4.80172893      17.16434278
Mg       4.90788796       0.28052956       1.57992972
Mg       4.47510990       0.88660819      17.31154798
Ni       2.42249423       4.27422784       1.39516544
Mg       1.89704977       4.97759745      17.22602641
Mg       2.32508432       1.54726075       2.43390565
Mg       1.83333708       2.20775094      18.17072141
Mg      -0.19742557       5.52610029       2.37807563
Mg      -0.74222255       6.26138265      18.10470351
Mg       7.27077380       1.81085386       2.48325107
Mg       6.93148524       2.44287131      18.35809700
Mg       4.79083766       5.84784677       2.32689367
Mg       4.19030842       6.48606990      18.21603127
Mg      -0.35574633       3.15838667      10.30027898
Mg      -0.82788426       3.86488711      26.16103721
Mg      -2.95973244       7.25038933      10.12078604
Mg      -3.53453707       7.84337961      25.83536043
Mg       4.54205167       3.38775765      10.33558335
Mg       4.18380123       3.95705017      26.12930393
Mg       1.96476460       7.42657533      10.23781736
Mg       1.40605921       8.08752532      26.01635499
Mg       2.20036747       1.74252354       5.48000368
Mg       1.80206110       2.29359279      21.31594327
Mg      -0.25832709       5.70685233       5.26201107
Mg      -0.76321911       6.34315917      21.17757717
Mg       7.28004926       1.99578074       5.55502457
Mg       6.69389536       2.60162269      21.25401695
Mg       4.71975701       6.01275210       5.37938942
Mg       4.16081299       6.63211723      21.18929637
Mg      -0.43963651       3.40478601      13.33506041
Mg      -1.01357594       3.89834608      29.12962559
Mg      -3.00574563       7.37630211      13.16203948
Mg      -3.55322820       7.96585549      28.94073802
Mg       4.37323262       3.40635902      13.26969551
Mg       4.04782233       4.12211749      28.98833832
Mg       2.02574673       7.59389603      13.20496051
Mg       1.34717907       8.17180898      29.08262359
Mg       1.98540561       1.97013187      13.75647177
Ni       1.48175420       2.69602153      29.60278759
Ni      -0.47984572       6.01930752      13.70553569
Ni      -1.07185891       6.69224744      29.47920983
Ni       6.94837693       2.23868497      13.87624406
Ni       6.50032461       2.91822346      29.60019378
Ni       4.40659178       6.24638230      13.69763341
Ni       3.81547537       7.00934275      29.48461980
Ni      -0.26826572       3.02207230       5.77136588
Ni      -0.65778703       3.66575725      21.59920693
Ni      -2.85645948       7.13998999       5.77119467
Ni      -3.30484644       7.63798143      21.53195002
Ni       4.64669995       3.26753836       5.89857372
Ni       4.15356617       3.76069149      21.71538428
Ni       2.14277335       7.21329812       5.79353337
Ni       1.78093614       7.85574563      21.52089564
Ni       2.11640237       1.88630719       9.93503034
Ni       1.57528813       2.48257223      25.56108632
Ni      -0.47338442       6.00156169       9.75802202
Ni      -0.96017209       6.59956651      25.52639079
Ni       7.17989796       2.15471964       9.95556756
Ni       6.70466661       2.73193615      25.67944689
Ni       4.57344110       6.18674836       9.88697772
Ni       4.01818974       6.69443756      25.54246099
Ni      -0.16486038       2.84958094       1.79400542
Ni      -0.70820077       3.45672735      17.65068088
Ni      -2.68780750       6.85883271       1.77865715
Ni      -3.26487430       7.53527008      17.58290229
Ni       4.81308338       3.06131741       1.95350196
Ni       4.42169282       3.74447247      17.81828259
Ni       2.28777049       7.07839144       1.80343839
Ni       1.96164828       7.77958220      17.47909273
Mg       2.14419018       3.35569385      11.87689414
Ni       1.61401871       3.97017214      27.58425164
Ni      -0.53799587       7.41628242      11.61707765
Ni      -1.00523426       8.08033434      27.39429020
Ni       7.06751205       3.56395896      11.89341851
Ni       6.51743632       4.30548125      27.65125421
Ni       4.54456757       7.64139298      11.73032575
Ni       3.85821824       8.22602203      27.46334046
Ni       3.34977550       1.35135534      11.90108590
Ni       2.80272017       1.93167099      27.71691509
Ni       0.77693462       5.37429863      11.80925506
Ni       0.27487015       5.97260344      27.55764422
Ni       8.30067459       1.54439638      11.93181805
Ni       7.84619059       2.14041336      27.72348002
Ni       5.69777128       5.59277334      11.80292578
Ni       5.27698774       6.26176510      27.63312531
Ni       1.05460027       3.65764344       3.84613068
Ni       0.53408324       4.30310163      19.68429454
Ni      -1.44431152       7.77656329       3.75946217
Ni      -2.00469522       8.28983875      19.53493674
Ni       5.98068369       3.86444259       3.90996796
Ni       5.59300870       4.55344038      19.70189671
Ni       3.34848368       7.94837258       3.78398019
Ni       3.00845168       8.51375261      19.57272949
Ni       0.79428145       1.25832445      11.81152558
Ni       0.37293004       1.93857726      27.56766586
Ni      -1.60882516       5.24654930      11.68454361
Ni      -2.16125834       5.89499159      27.43172831
Ni       5.79637629       1.43712031      11.89133283
Ni       5.39000613       2.11925895      27.67597585
Ni       3.25143014       5.49698974      11.75769563
Ni       2.81799569       6.16018956      27.62733056
Ni      -0.12305511       1.61906088       3.98178789
Ni      -0.62533170       2.15270316      19.63688333
Ni      -2.72766372       5.52731886       3.69409383
Ni      -3.16742829       6.25599797      19.61636347
Mg       4.77133377       1.75624106       3.93162736
Ni       4.31247073       2.37594381      19.77876344
Ni       2.18387732       5.79217299       3.81138763
Ni       1.64312621       6.42184078      19.57382658
Ni      -1.38164323       3.57852934       3.78690996
Ni      -1.92381753       4.19982362      19.57120084
Ni      -3.98158664       7.56103237       3.79987987
Ni      -4.50382216       8.22016091      19.53314267
Ni       3.42781038       3.76341273       4.03584166
Ni       3.13688985       4.43689084      19.69332526
Ni       0.95043946       7.87466643       3.79236008
Ni       0.43543784       8.45396524      19.61960898
Ni       2.39629425       0.04990183      -0.05943942
Ni       2.00987958       0.73982863      15.72973092
Ni      -0.13379332       4.13688162       0.03249587
Ni      -0.57853104       4.82442492      15.72815898
Ni       7.49680495       0.36839609       0.16141161
Ni       6.88150512       0.97197960      15.97053891
Ni       4.87752715       4.43621464      -0.01686692
Ni       4.46563118       4.98867716      15.70663196
Ni       1.08959971       2.09597022       0.03141943
Ni       0.66422603       2.71613838      15.74042277
Ni      -1.42431217       6.15918008      -0.16446406
Ni      -1.90029234       6.81900709      15.62521711
Ni       6.15668826       2.38922750       0.04353104
Ni       5.71074085       2.96189578      15.75250699
Ni       3.63209909       6.45753982      -0.08501690
Ni       3.15487656       7.02829915      15.74229710
Ni      -1.46688736       2.31382766       7.85758060
Ni      -2.03699501       2.91704291      23.57627370
Ni      -4.15320255       6.43168435       7.56439389
Ni      -4.63529828       6.96165399      23.45481859
Ni       3.51950653       2.50251373       7.89397798
Ni       2.89321795       3.12055967      23.73798792
Ni       0.81459064       6.64269109       7.75913386
Ni       0.27661066       7.14334976      23.56536339
Ni       2.23941386       0.43271847       7.89492267
Ni       1.70990567       1.04543847      23.64654519
Ni      -0.28184682       4.53004515       7.74095075
Ni      -0.81395762       5.13722386      23.60762335
Ni       7.19753078       0.59614780       7.82909263
Ni       6.73653979       1.27112913      23.78590067
Ni       4.04201463       5.35791476      23.64409866
Ni      -1.32887936       1.97234440      -0.08732564
Ni      -1.82205406       2.66410294      15.73498671
Ni      -3.91257230       6.13084547      -0.16271156
Ni      -4.48983729       6.68799393      15.61111586
Ni       3.67588916       2.22706705       0.00192335
Ni       3.08776680       2.84963125      15.80640655
Ni       1.10834568       6.31594447      -0.12458784
Ni       0.60943063       6.71047530      15.59680049
Ni       0.98526966       2.44109582       7.84846547
Ni       0.49823359       3.06148932      23.73384449
Ni      -1.54983310       6.56378413       7.76548254
Ni      -2.05535852       7.15115096      23.56099288
Ni       5.96877110       2.65530720       7.85780468
Ni       5.53582304       3.32297613      23.73879192
Ni       3.36455701       6.69566606       7.77969210
Ni       2.86482913       7.40703437      23.64205405
