191
Lattice="10.039949919935806 -0.17595417927937057 -0.018464428537610884 -5.145165926662553 8.47670353983743 -0.16236980056991857 -0.7757565694555971 -0.32597861504454695 30.726842834184" Properties=species:S:1:pos:R:3 pbc="T T T"
Mg      -0.38401876      -0.11173848      13.90523172
Mg      -0.71452118      -0.37523054      29.20347729
Mg      -2.83032115       4.13552906      13.89064665
Mg      -3.34663823       3.93993181      29.16276835
Mg       4.65664292      -0.34598446      13.88773803
Mg       4.22631387      -0.38899623      29.21884848
Mg       2.13522091       3.97701738      13.83356623
Mg       1.70859034       3.92081643      29.17970389
Mg      -0.20207136      -0.10769699       6.27343322
Mg      -0.51723871      -0.23847370      21.57510227
Mg      -2.80094838       4.21112638       6.15961262
Mg      -3.06922324       3.96603706      21.55568992
Mg       4.91042449      -0.17870260       6.29063309
Mg       4.46678366      -0.33471126      21.61544935
Mg       2.29177387       4.08859334       6.21108966
Mg       1.84206498       4.00279178      21.53377283
Mg      -0.13454579      -0.13436213       9.14395366
Mg      -0.55958897      -0.29587496      24.37400216
Mg      -2.84607436       4.12632174       8.99418372
Mg      -3.18621339       4.02426218      24.40939916
Mg       4.73160110      -0.16904408       9.10763504
Mg       4.32784049      -0.42073749      24.55304776
Mg       2.21602535       4.04902641       9.01741746
Ni       1.80941351       3.87282074      24.41763884
Mg      -0.03599957      -0.00045273       1.46726638
Mg      -0.45125914      -0.21257339      16.81542969
Mg      -2.55346520       4.29152589       1.35505862
Mg      -2.93784995       4.07814149      16.63342629
Mg       5.01443257      -0.00059569       1.41812764
Mg       4.52074814      -0.25532867      16.82537654
Ni       2.32220447       4.21723840       1.33100267
Mg       1.95478433       4.04484508      16.66766947
Mg       2.41629651       1.30497050       2.44608449
Mg       1.97690215       1.18690264      17.75409779
Mg      -0.18516124       5.55854571       2.27367790
Mg      -0.63307402       5.45127375      17.58862376
Mg       7.47741308       1.22550191       2.35622389
Mg       7.18296121       1.01922860      17.74700122
Mg       4.91091140       5.53210868       2.23575801
Mg       4.50570163       5.45118329      17.71672208
Mg      -0.34356198       2.67695326      10.07484990
Mg      -0.65080112       2.49562326      25.32238731
Mg      -2.83825498       6.99871711       9.91803163
Mg      -3.25781745       6.77213881      25.18501591
Mg       4.76131014       2.43591670      10.01133717
Mg       4.25336142       2.44921807      25.38727401
Mg       2.10444312       6.75726331       9.93860469
Mg       1.67998355       6.67966807      25.24469844
Mg       2.33197780       1.25432806       5.26595910
Mg       1.99181035       1.14348969      20.56307744
Mg      -0.18857683       5.50022124       5.23432689
Mg      -0.67226606       5.41010851      20.49927341
Mg       7.29182916       1.27541096       5.19859820
Mg       7.02314302       1.04009707      20.57161187
Mg       4.97307544       5.46374288       5.20101115
Ni       4.39349065       5.32765726      20.60837856
Mg      -0.36751683       2.72547893      12.94532964
Mg      -0.75911740       2.62082923      28.30968832
Mg      -2.95591637       6.88183051      12.80366742
Mg      -3.27455224       6.70132943      28.22390468
Mg       4.50181007       2.50936479      12.95065682
Mg       4.20073145       2.47927272      28.24959997
Ni       2.12087935       6.88845882      12.83825551
Mg       1.70282382       6.65939126      28.17067336
Ni       2.12263585       1.22741488      13.47064082
Ni       1.82016172       1.05599545      28.71482072
Ni      -0.58010472       5.44410510      13.26860127
Ni      -0.76586025       5.24118891      28.65288044
Ni       7.22027754       1.18941852      13.40582019
Ni       6.79280907       1.09387567      28.81900185
Ni       4.54653284       5.32331869      13.24519911
Ni       4.26191806       5.13010298      28.65460315
Ni      -0.12934599       2.82507882       5.64008778
Ni      -0.54407010       2.56805640      21.13397749
Ni      -2.79571264       6.92612658       5.59076862
Ni      -3.06930280       6.78155649      21.08662766
Ni       4.70324185       2.69308895       5.73435208
Ni       4.43022918       2.48458138      21.03067475
Ni       2.24640535       6.80677858       5.56913531
Ni       1.87185030       6.77633041      20.94698253
Ni       2.13823365       1.18599261       9.65058428
Ni       1.86651503       0.98550795      24.92400482
Ni      -0.32237649       5.41708718       9.47605203
Ni      -0.63828607       5.22039172      24.93211029
Ni       7.27924734       1.16460275       9.57119222
Ni       6.84316334       1.11815786      24.86856732
Ni       4.76309354       5.38208858       9.54885202
Ni       4.30746830       5.25830267      24.89058291
Ni      -0.05051811       2.81653390       1.80554323
Ni      -0.48108166       2.57671606      17.16834361
Ni      -2.63162316       6.97664934       1.82093440
Ni      -3.05756374       6.86258796      17.17542136
Ni       4.99803045       2.69598833       1.92087207
Ni       4.60375539       2.54000295      17.21472321
Ni       2.44415510       6.88358583       1.73526296
Ni       2.00902716       6.81970651      17.15655172
Ni       2.17042158       2.59362229      11.38618330
Ni       1.76260290       2.49652456      26.81680348
Ni      -0.39496655       6.83508224      11.45553050
Ni      -0.82639338       6.56498876      26.76272394
Ni       7.25394920       2.49367625      11.42675817
Mg       6.80648105       2.31259614      26.84580190
Ni       4.62348314       6.79103907      11.32699130
Ni       4.29961822       6.62025516      26.76907982
Ni       3.46113550       0.48207131      11.52567804
Ni       3.02828607       0.27874554      26.86439008
Ni       0.87418667       4.70850377      11.47873179
Ni       0.49665266       4.61322868      26.73399593
Ni       8.51232829       0.43160719      11.45638710
Ni       8.02042376       0.22754315      26.85022982
Ni       5.99716062       4.68082198      11.37839212
Ni       5.62821845       4.50906788      26.66305106
Ni       1.08935040       3.38055654       3.77604359
Ni       0.71279137       3.32277378      19.11204120
Ni      -1.44600670       7.68466207       3.67803882
Ni      -1.78206832       7.48942916      19.03858081
Ni       6.18746385       3.37551807       3.80841143
Ni       5.74721990       3.15871447      19.19058210
Ni       3.59293274       7.59975372       3.73542390
Ni       3.21618499       7.41560376      19.11646543
Ni       0.53210682       0.48800994      26.85672121
Ni      -1.66876290       4.72404025      11.45403212
Ni      -1.94540694       4.67453214      26.85472490
Ni       5.97785147       0.43367830      11.59659008
Ni       5.65682545       0.34941860      26.83363960
Ni       3.43210995       4.69924423      11.45405105
Ni       2.90844866       4.61522323      26.77842884
Ni      -0.10554238       1.34893622       3.79955876
Ni      -0.51996328       1.18894292      19.18577341
Ni      -2.65661594       5.50386088       3.73172491
Ni      -3.03528797       5.34139498      19.11381401
Ni       4.89784344       1.26156440       3.75681978
Ni       4.47831974       1.09625585      19.09878471
Ni       2.31958493       5.59790066       3.71198580
Ni       1.96176052       5.45452124      19.15247595
Ni      -1.35059796       3.47979632       3.79699255
Ni      -1.77757599       3.37615998      19.21825340
Ni      -3.93471068       7.68446255       3.63077730
Ni      -4.36406803       7.57674843      19.09861948
Ni       3.60216733       3.31512266       3.75240741
Ni       3.28710790       3.25311552      19.11770199
Ni       1.06743585       7.62752880       3.62895924
Ni       0.69989322       7.38912168      19.02512049
Ni       2.47617680      -0.08427919       0.11878372
Ni       2.10870524      -0.16409262      15.29700219
Ni       0.02040549       4.22273566      -0.08692154
Ni      -0.47806742       4.05713276      15.26346341
Ni       7.50622055      -0.11004320      -0.01720856
Ni       7.17292611      -0.22392132      15.26900645
Ni       4.95921550       4.08384155      -0.13988090
Ni       4.58307549       3.89232985      15.22939622
Ni       1.13526575       2.06430522      -0.08728226
Ni       0.77550099       1.93231269      15.37092564
Ni      -1.32423756       6.29203005      -0.08351483
Ni      -1.73950106       6.21212509      15.24181198
Ni       6.26910178       1.97567249      -0.02081561
Mg       5.79929586       1.88367437      15.34969375
Ni       3.60860028       6.25554266      -0.14799255
Ni       3.29044730       6.04938271      15.23616246
Ni      -1.44757600       1.92781810       7.61263074
Ni      -1.94645969       1.93113392      23.03460281
Ni      -3.98251585       6.27883693       7.62188319
Ni      -4.44156529       6.14480824      23.02004819
Ni       3.47183610       1.94184637       7.67390702
Ni       3.09594177       1.73776603      23.11912748
Ni       0.94064868       6.25216690       7.55648160
Ni       0.71581699       5.94980142      22.91743002
Mg       2.31740922      -0.12675525       7.66859739
Ni       1.89095250      -0.20760338      23.00851257
Ni      -0.21347358       4.12951385       7.67081706
Ni      -0.65793922       3.94373437      22.96019454
Ni       7.39815653      -0.24118187       7.54607339
Ni       6.93579430      -0.35640312      23.00810980
Ni       4.80706663       3.99949412       7.68839135
Ni       4.41245430       3.90179453      22.88756256
Ni      -1.24205684       2.21768543      -0.07856426
Ni      -1.56259176       2.01174558      15.38376307
Mg      -3.89630184       6.39524313      -0.11245223
Ni      -4.13528325       6.13257313      15.21902059
Ni       3.75486886       2.06955538      -0.05603269
Ni       3.36870357       1.84471738      15.30206555
Ni       1.20857755       6.20585032      -0.04278239
Ni       0.80159254       6.13003039      15.24537063
Ni       1.10652604       2.02654411       7.58315596
Ni       0.60629670       1.69710200      22.95684871
Ni      -1.60323266       6.17355174       7.53057689
Ni      -1.88661922       6.08198234      22.94163507
Ni       6.02725807       1.86781983       7.63384669
Ni       5.77730487       1.70453215      22.93020053
Ni       3.47450056       6.18941301       7.57399678
Ni       3.03401195       5.99594052      22.95422442
