189
Lattice="9.833344135177155 -0.08882237850980987 -0.0669449409255507 -4.926178974272178 8.50119782314432 -0.0864449549804133 -0.4725364609153464 0.3114817122206389 31.528093790590788" Properties=species:S:1:pos:R:3 pbc="T T T"
Mg      -0.23717278       0.17181770      14.25676022
Mg      -0.36072000       0.32608370      30.03964171
Mg      -2.56970353       4.41875744      14.24442507
Mg      -2.84158802       4.54887980      29.96344895
Mg       4.64347408       0.10320502      14.30859445
Mg       4.53995695       0.20251148      29.99600980
Mg       2.30480691       4.29056412      14.19671919
Mg       2.09057396       4.40020219      29.99510041
Mg      -2.51059046       4.25673991       6.37478129
Mg      -2.70562925       4.40535648      22.14541272
Mg       4.78420218       0.00115075       6.38281135
Mg       4.46634387       0.14126212      22.12952384
Mg       2.43125565       4.27972012       6.32269795
Ni       2.11417006       4.49481905      22.08497754
Ni      -0.22863533       0.10997615       9.35554967
Mg      -0.43151746       0.16185121      25.13771289
Mg      -2.60942653       4.43913188       9.22863453
Mg      -2.75525002       4.50641650      25.05208098
Mg       4.82748421       0.03051355       9.24351828
Mg       4.53139593       0.24527639      25.08034432
Mg       2.37495328       4.23903684       9.30459314
Ni       2.09248962       4.39485428      25.06405272
Mg      -0.02906812       0.11972299       1.46591768
Ni      -0.35118804       0.15791326      17.28425383
Mg      -2.47438378       4.25934770       1.34039759
Mg      -2.58841065       4.45798498      17.19316243
Mg       4.94105353      -0.06854069       1.36487460
Mg       4.61640923       0.12521866      17.28632473
Mg       2.45043911       4.19297880       1.46326707
Mg       2.11654045       4.35291961      17.16588180
Mg       2.36237656       1.45340848       2.42104321
Mg       2.22073605       1.55823964      18.18282575
Mg      -0.10881095       5.58818112       2.37175424
Mg      -0.27594054       5.78865187      18.13767764
Mg       7.36073374       1.35108381       2.32252320
Mg       7.10992757       1.51032751      18.14196942
Mg       4.77721774       5.60529741       2.36362927
Mg       4.60432167       5.83122331      18.04381560
Ni      -0.16322612       2.98208208      10.20120970
Mg      -0.37504542       3.10434508      26.08889655
Mg      -2.66851905       7.23571151      10.21858983
Mg      -2.89995294       7.28285321      25.98230721
Mg       4.81404250       2.89875394      10.26792027
Mg       4.52145789       3.08144552      25.90009156
Mg       2.36030095       7.08215702      10.20408065
Mg       2.13648941       7.37471396      25.94544856
Mg       2.35370160       1.38099250       5.43599842
Mg       2.22218384       1.58391661      21.29895821
Mg      -0.12793104       5.78082077       5.34824826
Mg      -0.38860689       5.75031977      21.07813662
Mg       7.26939873       1.39354558       5.34920663
Mg       6.94869245       1.57625436      21.17139632
Mg       4.86385195       5.63297084       5.22321106
Mg       4.62220188       5.69182100      21.09195628
Ni      -0.25132549       2.96323003      13.34769137
Mg      -0.45199915       3.05288088      29.10753741
Mg      -2.73729646       7.16008850      13.26311760
Mg      -2.82390809       7.34063861      28.95634774
Mg       4.68088756       3.00740971      13.21173723
Mg       4.42093861       3.07733949      28.99858071
Mg       2.24205452       7.10805892      13.08947677
Ni       2.25663107       1.62052169      13.70841675
Ni       2.00770754       1.59643397      29.50490126
Ni      -0.20026352       5.82883753      13.72654544
Mg      -0.45616861       5.92513058      29.42325350
Ni       7.10863451       1.51032096      13.77193850
Ni       6.97778757       1.68881754      29.49081974
Ni       4.73513078       5.69279485      13.58210460
Ni       4.42421464       5.86783964      29.44450282
Ni      -0.12759572       2.89689792       5.88321019
Ni      -0.31860793       3.03696425      21.71746813
Ni      -2.56559146       7.12772154       5.91123143
Ni      -2.83611182       7.29758915      21.59287402
Ni       4.84704124       2.71827956       5.81839977
Ni       4.59794361       2.92379006      21.62370789
Ni       2.34970684       7.15738634       5.77574837
Ni       2.10149135       7.26807889      21.54390752
Ni       2.26381001       1.48518077       9.81789252
Ni       2.06792630       1.66283793      25.51497965
Ni      -0.16879647       5.80979011       9.79356200
Ni      -0.52826996       5.81060078      25.55959522
Ni       7.20338867       1.49097498       9.74403811
Ni       7.03417325       1.56466516      25.49354067
Ni       4.65869863       5.80622754       9.78531680
Ni       4.47415524       5.75872846      25.54820608
Ni      -0.07253281       2.84915933       1.86205542
Ni      -0.27986096       2.93993589      17.77774190
Ni      -2.48394792       7.05243712       1.96435148
Ni      -2.85090471       7.24414373      17.64632903
Ni       4.91249349       2.78196770       1.88921260
Ni       4.65024231       3.01873761      17.66521864
Ni       2.53364486       7.01609254       1.88192660
Ni       2.19957548       7.28101094      17.56619281
Ni       2.24440352       2.91379197      11.77263322
Ni       2.06615561       2.99147010      27.50456749
Ni      -0.16715490       7.11282679      11.69361713
Ni      -0.45209287       7.29158287      27.46183615
Ni       7.14901000       2.93620612      11.93584110
Ni       6.98385175       3.05651979      27.42501830
Ni       4.75042998       7.13808004      11.73315338
Ni       4.57349696       7.18121806      27.43085138
Ni       3.45661293       0.80979930      11.80245178
Ni       3.29886431       0.96215603      27.61713227
Ni       0.95099247       5.05761617      11.69874575
Ni       0.79750603       5.15229622      27.55429700
Ni       8.38353548       0.76052363      11.68912145
Ni       8.18689019       0.87890807      27.57069602
Ni       5.85702762       5.07179416      11.71430091
Ni       5.74548110       5.06275233      27.45044727
Ni       1.25372773       3.58000790       3.89210916
Ni       0.95220263       3.64496237      19.67825409
Ni      -1.31511607       7.91837982       3.85621368
Ni      -1.51990360       7.90237365      19.49938183
Ni       6.09448978       3.56021341       3.77130535
Ni       5.77512001       3.68058414      19.64413188
Ni       3.53345292       7.77058771       3.77840555
Ni       3.35911849       7.98063394      19.66899128
Ni       1.02609121       0.88365306      11.83150145
Ni       0.70040872       0.88183202      27.55937741
Ni      -1.37026417       5.00837229      11.70859716
Ni      -1.57531814       5.24169643      27.51928195
Ni       5.89380739       0.74343351      11.89244770
Ni       5.79667369       0.92154677      27.67698241
Ni       3.59053013       5.06146617      11.64937048
Ni       3.33504573       5.15616468      27.48540789
Ni      -0.02722825       1.42452208       3.89792974
Ni      -0.30615335       1.70621174      19.55608321
Ni      -2.46297348       5.75108354       3.85158380
Ni      -2.76706124       5.94476465      19.65587267
Ni       4.88246926       1.49911993       3.84381343
Ni       4.60594287       1.49646020      19.59850018
Mg       2.44161829       5.64922425       3.82366792
Ni       2.21002767       5.78400106      19.60975553
Ni      -1.27357792       3.59947476       3.85260805
Ni      -1.44596358       3.75094670      19.70444844
Ni      -3.71366227       7.86833997       3.90964007
Ni      -4.03376523       8.07181251      19.53582678
Mg       3.62314213       3.53258413       3.82029026
Ni       3.36964427       3.66802773      19.70199308
Ni       1.18072207       7.76267521       3.78303002
Ni       0.88907723       7.93455027      19.67668899
Ni       2.44598234       0.03989680       0.00754096
Ni       2.23924266       0.06471900      15.73642228
Ni       0.01890460       4.17226950      -0.08908438
Ni      -0.27313900       4.38755391      15.73221200
Ni       7.39261309      -0.13373287      -0.10186001
Ni       7.13377257       0.01812066      15.78028059
Ni       4.91933098       4.05739545      -0.12851436
Ni       4.77107841       4.35045174      15.74679634
Ni       1.26044617       2.11830824      -0.04767780
Ni       0.99141517       2.30444880      15.71551643
Ni      -1.23544428       6.35003862       0.02396545
Ni      -1.45801474       6.50729605      15.66793436
Ni       6.13400415       2.07100846      -0.08654644
Ni       5.89206339       2.26560513      15.67076536
Ni       3.66120371       6.32647771      -0.16835060
Ni       3.50945033       6.50224439      15.71586097
Ni      -1.34450369       2.19216543       7.85797630
Mg      -1.64657173       2.42761319      23.74608783
Ni      -3.78130190       6.44958741       7.78724358
Ni      -4.06819566       6.66376727      23.56055725
Ni       3.54553024       2.17618757       7.79425423
Ni       3.37074719       2.29683727      23.57608904
Ni       1.02616674       6.43138741       7.82596891
Ni       0.84093991       6.61000197      23.58846506
Ni       2.32618024       0.11296462       7.78468793
Ni       2.16921737       0.27316824      23.64940393
Ni      -0.08913122       4.29589068       7.89281703
Ni      -0.35907542       4.48572779      23.59986592
Ni       7.22134934      -0.02974200       7.86828874
Ni       7.03254303       0.08818184      23.57997897
Ni       4.76582349       4.29491643       7.68855019
Ni       4.58045082       4.36460246      23.50892565
Ni      -1.25707515       2.18060821       0.04900955
Ni      -1.47853121       2.30389566      15.76228293
Ni      -3.66660127       6.36514707      -0.11188035
Mg      -3.96553045       6.44000031      15.72327847
Ni       3.76094932       2.11698998      -0.04701716
Ni       3.45724611       2.27785608      15.65353398
Mg       1.23802428       6.25016567      -0.08598345
Ni       0.95906457       6.39863071      15.65393713
Ni       1.19578758       2.12433668       7.92291095
Ni       0.85206494       2.25987679      23.69340654
Ni      -1.43712887       6.45941840       7.79454865
Ni      -1.51292597       6.60740553      23.64497602
Ni       6.08883520       2.12651012       7.77412468
Ni       5.78887990       2.38400157      23.63267277
Ni       3.55162243       6.46062226       7.79800756
Ni       3.25847158       6.56613436      23.55256040
