191
Lattice="9.771761866483436 -0.17085567194439966 0.11443288784731677 -4.781979227157722 8.743803408438128 0.13614816571051497 -0.11330850849520303 -0.5665447020455153 32.90536647023031" Properties=species:S:1:pos:R:3 pbc="T T T"
Mg      -0.12298510      -0.24136218      14.83139069
Mg      -0.13285876      -0.45912166      31.29396817
Mg      -2.42795022       4.11493909      15.05541521
Mg      -2.50231979       3.81518958      31.46553862
Mg       4.90456364      -0.41659654      15.01356581
Mg       4.81578388      -0.54927255      31.44617153
Mg       2.47719152       4.03946853      14.97156361
Mg       2.36870206       3.84174702      31.51003094
Mg      -0.01250359      -0.13712447       6.67776939
Mg      -0.13978544      -0.34032410      23.12329087
Mg      -2.37919233       4.22782758       6.72204547
Mg      -2.45033321       3.93483615      23.18248601
Mg       4.79767842      -0.14912535       6.72897918
Mg       4.81690353      -0.49549755      23.18089150
Mg       2.46014488       4.13549138       6.80003923
Mg       2.38098386       3.80728811      23.24928937
Ni      -0.11063318      -0.21189549       9.77160033
Mg      -0.08430179      -0.42007205      26.33987829
Mg      -2.32965306       4.14168568       9.81230357
Mg      -2.49822758       3.86285524      26.33481029
Mg       4.92871229      -0.21460643       9.79389011
Ni       4.80303392      -0.48169456      26.27907612
Ni       2.44767855       4.04553239       9.93482854
Mg       2.39294073       3.89573779      26.34011149
Mg      -0.02591853      -0.03013142       1.64771095
Mg      -0.10609132      -0.33533737      17.95105937
Mg      -2.38905325       4.42344238       1.65686727
Mg      -2.37592977       4.15605879      18.09069673
Mg       4.99761639      -0.12905206       1.71175481
Mg       4.79800768      -0.40482320      17.94825019
Mg       2.42615677       4.32472806       1.67470064
Ni       2.39485680       3.96175240      18.13787231
Mg       2.40895422       1.27905429       2.55261587
Mg       2.34649128       1.10936118      19.04922992
Mg       0.07084702       5.71065622       2.68026992
Mg      -0.01419938       5.49669406      19.20914268
Mg       7.34231114       1.41830700       2.68133387
Mg       7.29507086       1.03126256      19.06030924
Mg       4.89125082       5.66582457       2.68853350
Mg       4.89368534       5.35009132      19.23273608
Mg       0.09711323       2.68603639      10.81969238
Mg      -0.11707923       2.43863947      27.34171095
Mg      -2.39152279       7.12388225      10.87161500
Mg      -2.48378643       6.82380980      27.38048500
Mg       4.85707847       2.59889148      10.89499921
Mg       4.86979876       2.19691674      27.26622513
Mg       2.54667922       6.97187947      11.14019502
Ni       2.34088832       6.78882808      27.41701586
Mg       2.40180529       1.29386309       5.71955390
Mg       2.50025699       0.95900504      22.16186623
Mg       0.07387256       5.61206791       5.65364462
Mg      -0.01910778       5.42642697      22.23011879
Mg       7.35454218       1.21890581       5.82556669
Mg       7.29519735       0.95968074      22.13519953
Mg       4.99595669       5.56688748       5.84239830
Mg       4.87379179       5.28468034      22.33293647
Mg      -0.02172910       2.64015641      13.94484061
Mg      -0.18454758       2.34756907      30.45478581
Mg      -2.37801268       7.00299417      14.06971763
Ni      -2.44010670       6.68482644      30.41891708
Mg       4.86669790       2.58165154      13.95891994
Mg       4.82511870       2.30217598      30.47350673
Mg       2.47497384       6.96832447      14.09536650
Mg       2.34261077       6.71988067      30.54688353
Ni       2.41076227       1.13838024      14.34081543
Ni       2.33382133       0.84317132      30.87000546
Ni       0.05386214       5.51390215      14.49489976
Ni       0.01720476       5.25299745      31.03297332
Ni       7.31711140       1.00308744      14.58082672
Ni       7.29008059       0.78775589      31.04004369
Ni       4.91138122       5.41371942      14.62662297
Ni       4.94395980       5.23388285      30.99821919
Ni      -0.02320877       2.78366922       6.29770992
Ni      -0.00997353       2.48616722      22.70685032
Ni      -2.32649969       7.22328213       6.35730870
Ni      -2.45970830       6.88741701      22.83849331
Ni       5.01728772       2.70461923       6.29205143
Ni       4.84517876       2.42102513      22.76602844
Ni       2.56342266       7.08033970       6.40861801
Ni       2.47125933       6.75850841      22.83645630
Ni       2.40565514       1.18959334      10.36045494
Ni       2.40054828       0.92763839      26.75565749
Ni      -0.02716116       5.62536047      10.40688899
Ni      -0.02502797       5.30315826      26.82767230
Ni       7.28146942       1.07581204      10.43734832
Mg       7.21750064       0.87550375      26.82926665
Ni       4.90358040       5.48649587      10.38462148
Ni       4.89300826       5.20774253      26.94653002
Ni       0.02077088       2.80600191       2.14060247
Ni      -0.00984351       2.44682693      18.52948634
Ni      -2.37444992       7.31643551       2.22547293
Ni      -2.49201447       6.88268865      18.53505988
Ni       4.88196340       2.79451342       2.08049904
Ni       4.89896973       2.53171768      18.62550502
Ni       2.53575242       7.08521390       2.19941762
Ni       2.58694905       6.86025498      18.79721620
Ni       2.43710521       2.68731887      12.38982950
Ni       2.45716843       2.40891697      28.89475522
Ni       0.06076701       7.05442110      12.55501123
Ni      -0.04881353       6.71917078      28.97575308
Ni       7.42671365       2.54955826      12.49567590
Ni       7.21893951       2.31519909      28.91142163
Ni       4.90726050       6.89784356      12.55909535
Ni       4.77543970       6.73425728      29.07251370
Ni       3.70076082       0.45750897      12.33475335
Ni       3.45163427       0.22260216      28.81855170
Ni       1.25920916       4.83022973      12.51558629
Ni       1.19840409       4.63568872      29.01847735
Ni       8.55042368       0.32033020      12.50979822
Ni       8.50968129       0.09386349      28.92833070
Ni       6.11359616       4.77385007      12.52871536
Ni       6.12407840       4.41162121      28.98280251
Ni       1.27003927       3.51962626       4.26159084
Ni       1.13503182       3.30942064      20.75750006
Ni      -1.13573206       7.88071978       4.22173667
Ni      -1.12063881       7.61925787      20.77765148
Ni       6.12094492       3.55218662       4.22570290
Ni       6.04149055       3.08038999      20.67348898
Ni       3.74683840       7.82421291       4.33203680
Ni       3.58310099       7.45957784      20.81254663
Ni       1.20194582       0.51351671      12.36295826
Ni       1.08916461       0.15271256      28.83388638
Ni      -1.14308339       4.87087052      12.44622397
Ni      -1.29489548       4.38082294      28.84292057
Ni       6.05655081       0.45132782      12.49468024
Ni       6.05920935       0.12818138      28.83779578
Mg       3.69113727       4.85201281      12.59518860
Ni       3.76162350       4.44597558      28.88780621
Ni      -0.06442543       1.39390544       4.22847334
Ni      -0.08235610       1.09348862      20.67934810
Ni      -2.51582105       5.82487694       4.20166638
Mg      -2.53646443       5.48839867      20.61752505
Ni       4.86232898       1.27042845       4.21403718
Ni       4.91365134       0.97190672      20.65178189
Mg       2.49948260       5.70303343       4.21755687
Ni       2.44605266       5.40091818      20.66013960
Ni      -1.23250159       3.62609108       4.18769255
Ni      -1.22829135       3.29553230      20.66766711
Ni      -3.57278673       7.92389764       4.31325871
Ni      -3.70400319       7.59729282      20.63344857
Ni       3.73500741       3.56497235       4.33392733
Ni       3.62130334       3.23421703      20.68928981
Ni       1.24250976       7.83011624       4.36795720
Ni       1.24439184       7.54983191      20.71612934
Ni       2.45831331      -0.11887724       0.05099143
Ni       2.38914401      -0.27012565      16.53033433
Ni       0.05188700       4.36323652       0.12275179
Ni       7.29485382      -0.15770720       0.04721552
Ni       7.24075373      -0.39826620      16.52270042
Ni       4.97544572       4.26228302       0.03767411
Ni       4.96539817       3.98953253      16.61074946
Ni       1.32446159       2.12616936       0.03912234
Ni       1.26353747       1.80852036      16.59799846
Ni      -1.15608033       6.59425228       0.14078563
Ni      -1.18498698       6.15615016      16.61241053
Ni       6.09437426       2.10669019       0.18754617
Ni       6.09796943       1.74215793      16.61306614
Ni       3.69194852       6.42419637       0.17550543
Ni       3.74036194       6.19480309      16.50378609
Ni      -1.27535749       2.03281720       8.26553219
Ni      -1.27090226       1.78749308      24.73767540
Ni      -3.56740532       6.46533531       8.33027563
Ni      -3.74008792       6.13389469      24.77314043
Ni       3.62975349       1.92244006       8.27293789
Ni       3.60642934       1.62089978      24.79280088
Ni       1.28762286       6.33829358       8.37981654
Ni       1.19004515       6.11667710      24.78318955
Ni       2.34411241      -0.13399609       8.36593510
Ni       2.36888842      -0.53959507      24.76613946
Ni       0.06507327       4.19748195       8.32162590
Ni      -0.09128723       3.85305411      24.76713459
Mg       7.33844336      -0.30791664       8.32449488
Ni       7.22188323      -0.51755114      24.62859383
Ni       4.94739799       4.12045614       8.35576120
Ni       4.92297516       3.90900697      24.86378455
Ni      -1.19523398       2.23046091       0.05086747
Ni      -1.33779629       1.88062544      16.42778491
Ni      -3.54091547       6.50854812       0.08658515
Ni      -3.63545985       6.22097840      16.59243574
Ni       3.67252120       2.10283346       0.10909227
Mg       3.60948766       1.80117950      16.45835736
Ni       1.35975766       6.39304244       0.09539139
Ni       1.24667934       6.08390444      16.55190441
Ni       1.19153539       2.00328784       8.31280713
Ni       1.21322029       1.80407219      24.80593925
Ni      -1.22152810       6.39649008       8.30422955
Ni      -1.28728688       6.10625339      24.76856205
Ni       6.09035479       1.88853898       8.35384695
Ni       6.02649552       1.58476358      24.75152479
Ni       3.63246983       6.26802569       8.43340925
Ni       3.63712001       5.97944852      24.79947720
