189
Lattice="9.605169754339194 0.3088566679548628 -0.0810111678650042 -4.818506119265713 8.472300719876955 0.02605873933170061 0.9332726780269165 -1.5215302729094144 31.431190633525812" Properties=species:S:1:pos:R:3 pbc="T T T"
Mg       0.80951595      -1.50522757      29.97490994
Mg      -1.92558024       3.54304043      14.30912394
Mg      -1.50084931       2.81067072      30.01566755
Mg       5.24052811      -0.59382709      14.07377004
Mg       5.81224264      -1.28938538      29.97011285
Mg       2.75218414       3.67284967      14.21241791
Mg       3.21821141       2.98263233      29.88756271
Mg       0.19207691      -0.33163320       6.41900808
Mg       0.69180211      -1.06359837      22.05320947
Mg      -2.14131989       3.99956078       6.34642603
Mg      -1.77541588       3.11788909      22.11584278
Mg       4.99208073      -0.20923932       6.35429200
Mg       5.47760506      -0.97068211      22.03514178
Mg       2.62641825       4.07631282       6.39208513
Mg       3.09847144       3.32342802      22.06629152
Mg       0.29174739      -0.46011075       9.24332118
Ni       0.74181846      -1.22991804      24.99566334
Mg      -2.14838011       3.82626684       9.37594512
Mg      -1.64917689       3.00763501      25.05871739
Mg       5.04074479      -0.32980730       9.29648942
Mg       5.55203378      -1.00966454      25.05029144
Mg       2.72667015       3.91028630       9.31758333
Mg       3.06388926       3.09944140      24.97620868
Mg       0.02488452      -0.13678238       1.52401029
Mg       0.49388850      -0.90533111      17.21278576
Mg      -2.35297232       4.20408175       1.39601512
Mg      -1.80971117       3.51743063      17.23511833
Mg       4.76377590       0.06478211       1.30168233
Mg       5.23107270      -0.66054195      17.07399246
Mg       2.41395588       4.34228521       1.45466577
Mg       2.87024354       3.53910614      17.12935542
Mg       2.51089317       1.41769018       2.39890189
Mg       2.94496612       0.69164310      18.14205313
Mg       0.10319930       5.58795618       2.50463570
Mg       0.56633767       4.89691577      18.04532054
Mg       7.39082939       1.61076170       2.37603330
Mg       7.72476744       0.77748931      18.09570746
Ni       4.84203304       5.73248627       2.34711566
Mg       5.34132139       4.96460536      18.01723723
Mg       0.32152507       2.37125243      10.22386206
Mg       0.80692903       1.58215422      25.97129479
Mg      -2.14186281       6.63226527      10.29405320
Mg      -1.60525816       5.97736959      26.06000396
Mg       5.07950986       2.52006468      10.32741702
Mg       5.49460542       1.84929083      25.87028084
Mg       2.74502633       6.81373809      10.21877339
Ni       2.57897920       1.32341602       5.36616901
Mg       2.97267113       0.48937037      21.06926348
Mg       0.12882539       5.50214989       5.34287416
Mg       0.60192256       4.67478013      21.20266613
Mg       7.31904736       1.40977091       5.32440843
Mg       7.85715245       0.65992080      21.03791347
Mg       4.92495129       5.65574913       5.27708065
Mg       5.40066339       4.84697089      21.09266054
Ni       0.35857496       2.29925174      13.29211256
Mg       0.84640454       1.46654377      28.94502225
Mg      -1.97881795       6.49098079      13.24495627
Ni      -1.60934986       5.69552767      28.97096862
Mg       5.18328174       2.42513304      13.27522967
Mg       5.66786387       1.53865979      28.90052181
Mg       2.78479714       6.56314664      13.25959502
Mg       3.21559647       5.86569875      28.96962032
Ni       2.81723777       0.85825192      13.79076552
Ni       3.23594065       0.08751332      29.44395767
Ni       0.43080718       4.95684666      13.76064432
Ni       0.85093192       4.26565837      29.55136614
Ni       7.57730652       0.98366933      13.67981648
Ni       8.03425227       0.17193583      29.39556333
Ni       5.15352159       5.27535635      13.65584220
Ni       5.65422590       4.38009808      29.43783591
Ni       0.23349922       2.63116909       5.91081463
Ni       0.65747682       1.97985212      21.52794328
Ni      -2.28403275       6.75446823       5.99722800
Ni      -1.77460501       6.06005149      21.64639776
Ni       4.94871959       2.82386696       5.81559919
Ni       5.45550819       1.95325012      21.53031804
Ni       2.56853799       6.97935145       5.92246988
Ni       2.92414506       6.22337863      21.56424261
Ni       2.75843369       1.10793332       9.80845332
Ni       3.17714808       0.18210053      25.50443953
Ni       0.30067777       5.21679930       9.80370597
Ni       0.74948800       4.46403383      25.50434897
Ni       7.43352789       1.21814625       9.74966295
Ni       8.01141963       0.44736476      25.43922021
Ni       4.99778192       5.43609188       9.85855013
Ni       5.63383997       4.70934745      25.40902231
Ni       0.05696848       2.82653124       1.95709918
Ni       0.59505564       1.96785968      17.70230133
Ni      -2.44322794       7.01622588       1.97492523
Ni      -1.89085973       6.33109953      17.71078808
Ni       4.83982824       2.82378439       1.89537078
Ni       5.37818900       2.17233944      17.62932798
Ni       2.44791695       7.19743528       1.89565435
Ni       2.96339867       6.37599726      17.70068740
Ni       2.80223880       2.35788467      11.76780994
Mg       3.21325801       1.63762259      27.53020156
Ni       0.33522883       6.61049686      11.71151430
Ni       0.87742207       5.83855913      27.47598000
Ni       7.52927499       2.52390077      11.68311775
Ni       7.95727259       1.81745845      27.46602497
Ni       5.06774141       6.75933196      11.66118310
Ni       5.66028666       5.97863816      27.46026740
Ni       3.93077338       0.27660308      11.64142483
Ni       4.45863611      -0.53921066      27.52516125
Ni       1.58155067       4.49297438      11.74312811
Ni       2.01546300       3.72204255      27.47607472
Ni       8.79184906       0.47911408      11.75085795
Ni       9.22871348      -0.36977361      27.48911131
Ni       6.32879918       4.64620967      11.73603134
Ni       6.73418691       3.84361111      27.42916021
Ni       1.36808824       3.39317179       3.94605171
Ni       1.80177416       2.68923304      19.55772786
Ni      -1.13320710       7.71274472       3.97687308
Ni       6.12234695       3.62830104       3.80125743
Ni       6.62161120       2.81539693      19.58021575
Ni       3.74524121       7.84301891       3.82251389
Ni       4.23890209       7.05523224      19.61104793
Ni       1.59304955       0.20726425      11.77299972
Ni       2.09063840      -0.44795689      27.56315700
Ni      -0.88515477       4.41308664      11.79142210
Ni      -0.46615161       3.52590251      27.50751488
Ni       6.41060989       0.35817945      11.77192097
Ni       6.77634510      -0.38724102      27.56648385
Ni       3.94347232       4.59711743      11.72045535
Ni       4.40128799       3.81373094      27.42595959
Ni       0.05604342       1.30282951       3.85973576
Ni       0.55664703       0.52226594      19.68214519
Ni      -2.29985398       5.48429429       4.00958629
Mg      -1.77033806       4.77488152      19.65880178
Ni       4.94456802       1.38180413       3.92674324
Ni       5.36007806       0.62540909      19.56207667
Ni       2.49047364       5.68666858       3.84680325
Ni       2.91111324       4.85494988      19.65152735
Ni      -1.07383779       3.39537898       3.91905422
Ni      -0.64057058       2.58500694      19.62391753
Ni      -3.49243540       7.60280721       3.88114662
Ni      -3.00562985       6.91244100      19.67205821
Ni       3.76126324       3.61570202       3.85295289
Mg       4.07836308       2.69163383      19.53313949
Mg       1.40043771       7.77895879       3.90493748
Ni       1.75382403       6.97476380      19.57341994
Ni       2.34837919       0.08987833      -0.02237856
Ni       2.91744719      -0.58489302      15.71495278
Ni       0.05180563       4.27705553      -0.01677529
Ni       0.46633851       3.64204333      15.76276936
Ni       7.22484272       0.26799130      -0.04025675
Ni       7.69453654      -0.54609223      15.65800770
Ni       4.80169253       4.55113873      -0.03632526
Ni       5.23894110       3.77102515      15.58812705
Ni       1.13885533       2.16457270       0.00613715
Ni       1.62712672       1.38160551      15.68168779
Ni      -1.19839089       6.50950131      -0.04533845
Ni      -0.75421051       5.64862487      15.68454079
Ni       5.96315773       2.29966428      -0.11322125
Ni       6.48543901       1.58128060      15.69322971
Ni       3.65896068       6.60575124       0.01576118
Ni       4.05524487       5.84877902      15.61826102
Ni      -0.94855525       1.73699464       7.99311038
Ni      -0.48334742       0.90600599      23.57863959
Ni      -3.33643436       5.98812910       7.80583820
Ni      -2.94112380       5.35139628      23.60815623
Ni       3.85550870       1.94162022       7.87435311
Ni       4.28251863       1.17766042      23.46100915
Ni       1.48441344       6.15415828       7.74806435
Ni       1.90113481       5.33958048      23.55173011
Ni       2.62622071      -0.19775525       7.83116676
Ni       3.11399914      -1.05923193      23.65701407
Ni       0.23914567       3.95982590       7.83763632
Ni       0.67753474       3.20497304      23.50555062
Ni       7.43921903      -0.11810472       7.77657670
Ni       7.85826316      -0.87645198      23.44933174
Ni       5.07002814       4.06203861       7.77673250
Ni       5.49029921       3.30653023      23.59555814
Ni      -1.15757581       2.08817585      -0.01594995
Ni      -0.70160865       1.37350101      15.68133524
Ni      -3.58562043       6.37276730       0.01217970
Ni      -3.15729733       5.61281458      15.74934640
Ni       3.61737693       2.19748883      -0.00499695
Ni       4.08958133       1.55807859      15.70748499
Ni       1.20829495       6.54021597       0.11940537
Ni       1.64529278       5.76230363      15.84560670
Mg       1.50498509       1.72327095       7.81981532
Ni       1.87062177       1.00958319      23.53020785
Ni      -0.93729208       6.02523134       7.79837886
Ni      -0.47511892       5.18128721      23.61363275
Ni       6.29185625       2.01548975       7.77064984
Ni       6.79680966       1.26397449      23.53516966
Ni       3.86280981       6.28972145       7.78573570
Ni       4.24911550       5.48229422      23.49908303
