191
Lattice="10.02448864195016 0.49160637904120014 -0.37416771589542985 -5.172251898955247 8.294834902366501 0.05738916083097304 -0.26927750459941757 -0.2550243990077153 32.376427117888824" Properties=species:S:1:pos:R:3 pbc="T T T"
Ni      -0.13595979      -0.16584089      14.73240493
Mg      -0.23536954      -0.24006275      30.78487028
Mg      -2.71596940       4.00654239      14.70800082
Mg      -2.86300463       3.90368413      30.88822224
Mg       4.92441991       0.07176493      14.55541267
Mg       4.82537129      -0.01875122      30.69338132
Mg       2.21396408       4.27497555      14.53666698
Mg       2.15370310       4.16411502      30.71055166
Mg      -0.11809823       0.01279066       6.56276636
Mg      -0.23615124      -0.25495883      22.81916047
Mg      -2.60881593       4.10606225       6.68714273
Mg      -2.75334040       3.92318235      22.78017618
Mg       4.92488025       0.26482446       6.41731281
Mg       4.84629278       0.02155118      22.52070755
Mg       2.35729052       4.32229796       6.40106643
Mg       2.16316764       4.18521065      22.66093221
Mg      -0.09314149      -0.02260041       9.61826412
Mg      -0.17502643      -0.21195518      25.77458888
Mg      -2.73213927       4.06426331       9.66503044
Mg      -2.80060740       3.98501074      25.77450709
Mg       4.90556815       0.19732656       9.41113586
Mg       4.70484500       0.01190453      25.69471246
Mg       2.26103102       4.32317477       9.49765688
Mg       2.22043168       4.16105215      25.64413688
Mg      -0.01330732      -0.00560933       1.51065481
Mg      -0.15328812      -0.17532458      17.73058424
Mg      -2.65915825       4.14132512       1.58347743
Mg      -2.67343799       3.95494258      17.61976917
Mg       5.01725902       0.29085711       1.31182288
Mg       4.90675018       0.15346959      17.44083808
Ni       2.32508835       4.38352545       1.28789795
Mg       2.33304810       4.32781268      17.54087409
Mg       2.44892613       1.57470416       2.37051161
Mg       2.31263480       1.40159958      18.57440480
Mg      -0.14402273       5.62021783       2.45923181
Mg      -0.23842159       5.63276823      18.60960472
Mg       7.46252381       1.71874435       2.18961753
Mg       7.39239510       1.69146383      18.41207596
Mg       4.91841154       5.92066826       2.27991818
Mg       4.79897796       5.80080437      18.49353786
Mg      -0.12800746       2.73855754      10.62306869
Mg      -0.29339438       2.63805288      26.74372794
Mg      -2.68417153       6.89113428      10.67879982
Mg      -2.87074863       6.78317855      26.70823829
Mg       4.84081757       3.05790505      10.35487316
Mg       4.82321452       2.85030888      26.65211281
Mg       2.32337253       7.17274320      10.39179094
Mg       2.11460766       6.93286244      26.63850044
Mg       2.43266607       1.54670867       5.46311847
Mg       2.19391258       1.35986478      21.58548506
Mg      -0.15385527       5.57054469       5.58211694
Mg      -0.28424664       5.50571066      21.60163117
Mg       7.47182007       1.82072027       5.21779184
Mg       7.32197210       1.59022026      21.45442047
Mg       4.83546616       5.91528153       5.30716842
Mg       4.74743189       5.84550229      21.59610700
Mg      -0.27927472       2.73180566      13.57982366
Mg      -0.32637177       2.62012997      29.81845067
Mg      -2.73377407       6.81802837      13.71956484
Mg      -2.85440622       6.69090798      29.86681786
Mg       4.83651518       3.05670434      13.37104120
Mg       4.76370204       2.80807280      29.71294645
Mg       2.23911256       7.04980473      13.51176008
Ni       2.01432654       7.05962852      29.62232620
Mg       2.35015378       1.41673006      14.03856129
Ni       2.22626947       1.23258999      30.19001340
Ni      -0.25406219       5.64409098      14.07619443
Ni      -0.36537794       5.42728130      30.29975592
Ni       7.44256484       1.71186612      13.87011618
Ni       7.32406171       1.63276638      29.95767336
Ni       4.77356932       5.90941553      13.80477701
Ni       4.67486987       5.72365614      30.11974316
Ni      -0.13314280       2.69152344       6.01613510
Ni      -0.21872192       2.66221190      22.29357849
Ni      -2.76938828       6.98262061       6.08077977
Ni      -2.79199212       6.83948901      22.22649132
Ni       5.08944760       3.05152301       5.81043228
Ni       4.76208066       2.99088839      22.04654296
Ni       2.29291825       7.26748213       5.79851160
Ni       2.31538999       7.09466468      22.02180563
Ni       2.32294552       1.51653623       9.99292705
Ni       2.26922394       1.35383416      26.28540024
Ni      -0.26446029       5.60720968      10.00339471
Ni      -0.32491370       5.44942438      26.21137674
Ni       7.43531822       1.73271393       9.81815602
Ni       4.85743789       5.79617039       9.81847844
Ni       4.61102556       5.74973883      26.00914034
Ni      -0.09873791       2.93004408       2.02800172
Ni      -0.16120291       2.71514360      18.09889281
Ni      -2.67738442       6.92569862       1.98607067
Ni      -2.76838547       6.91618661      18.17340417
Ni       4.96206690       2.95518108       1.77921084
Ni       4.77719866       2.99795439      17.93188780
Ni       2.33104177       7.15014724       1.86069936
Ni       2.18739117       7.11672675      18.02121722
Ni       2.40791927       2.85869153      11.96071334
Ni       2.10314540       2.86192222      28.16976033
Ni      -0.21452763       6.96177372      11.97108860
Ni      -0.32977295       7.03687413      28.14681932
Ni       7.37142414       3.17609393      11.77147047
Ni       7.19632671       2.98262853      28.09752875
Ni       4.87815526       7.32712351      11.91780793
Ni       4.60236073       7.11699646      28.04210235
Ni       3.74501051       0.78617040      11.97389320
Ni       3.42310010       0.66118593      28.20841512
Ni       1.12643412       4.99796843      12.11230848
Ni       0.87857932       4.81614239      28.28672446
Ni       8.66947452       1.14143281      11.77660386
Ni       8.45677084       0.92813659      28.06504502
Ni       6.05583595       5.21344553      11.83663519
Ni       5.96738599       5.20218803      27.95962941
Mg       1.19127409       3.55957623       3.93945131
Ni       1.07288096       3.46333981      20.06429238
Ni      -1.44582814       7.81978415       4.03946142
Ni      -1.56981751       7.58084094      20.15127159
Ni       6.14933939       3.77439729       3.77495481
Ni       6.02444216       3.71041534      19.93405451
Ni       3.57698626       8.05230868       3.72787085
Ni       3.53540817       7.91458691      19.95229820
Ni       1.14148530       0.59721905      12.07542319
Ni       1.00995935       0.60297165      28.22710251
Ni      -1.47230328       4.84216933      12.12999101
Ni      -1.62968445       4.70490891      28.41384820
Ni       6.24196091       0.92637223      11.81243267
Ni       6.02584886       0.85712498      28.08782295
Ni       3.59202141       5.07068456      11.94430003
Ni       3.32104307       4.96322894      28.10074220
Ni      -0.11340834       1.39858669       4.00893367
Ni      -0.18650889       1.35314755      20.23876493
Ni      -2.66032502       5.55130875       4.12784769
Ni      -2.83923222       5.40881986      20.30272177
Ni       5.04959388       1.69253094       3.75665584
Ni       4.81022640       1.45923194      20.01903330
Ni       2.41384084       5.82979367       3.97007218
Ni       2.24298379       5.54845648      19.96942044
Ni      -1.29749623       3.47811172       4.04059753
Ni      -1.50096473       3.31458802      20.21898157
Ni      -4.03018785       7.66364223       4.04799838
Ni      -4.07762219       7.58736743      20.32405808
Ni       3.62987294       3.69573020       3.81058192
Ni       3.49887631       3.48298071      20.06970148
Ni       1.07897979       7.85020591       3.80665233
Ni       0.98536476       7.79642732      20.05973387
Ni       2.56761743       0.10697384      -0.07842585
Ni       2.39020949       0.02376911      16.10781428
Ni      -0.03249767       4.30035359      -0.13861907
Ni      -0.20027979       4.14599623      16.07038099
Ni       7.53762327       0.40976094      -0.25475278
Ni       7.37338493       0.21905056      15.90138200
Ni       4.94265800       4.52758729      -0.22030459
Ni       4.85989766       4.41389160      15.79722476
Ni       1.22160934       2.34704840      -0.09620042
Ni       1.08172861       2.09082755      16.13097487
Ni      -1.35129416       6.32625455      -0.03542249
Ni      -1.48856081       6.15543859      16.19874142
Ni       6.28387234       2.38493487      -0.31483809
Ni       6.09376996       2.26477529      15.88165166
Ni       3.72054722       6.57173727      -0.23808070
Ni       3.55576933       6.51555361      15.92899272
Ni      -1.30669915       2.04486331       8.17273981
Ni      -1.47577273       1.82774300      24.28003425
Ni      -3.97652096       6.21144537       8.05588458
Ni      -4.00904851       6.02724170      24.23553107
Ni       3.66355312       2.18358403       7.94485191
Ni       3.51599607       2.09444365      24.16550775
Ni       1.05439055       6.46322454       7.97881784
Ni       0.97399662       6.28832183      24.18694665
Ni       2.43668155       0.03432569       7.99194521
Ni       2.33479383      -0.06599075      24.18299324
Ni      -0.21171651       4.15308674       7.93373431
Ni      -0.26591591       4.06553531      24.13351649
Ni       7.38784721       0.27865986       7.87437515
Ni       7.28557791       0.12222233      23.98378383
Ni       4.86948368       4.41890853       7.83887653
Ni       4.73291725       4.26521819      23.98535285
Ni      -1.31873847       2.00088409       0.01823019
Ni      -1.44036971       2.05937850      16.28842351
Ni      -3.88784531       6.20694736       0.07918714
Ni      -4.08084691       6.11469428      16.19505006
Ni       3.74538960       2.42471325      -0.21547654
Ni       3.59354918       2.16283230      15.99214957
Ni       1.13537905       6.54042347      -0.06628785
Ni       1.06343142       6.36209686      16.12101492
Ni       1.14225256       2.06020799       7.93315043
Ni       0.94639418       1.92141485      24.21030498
Ni      -1.47156079       6.36583052       8.11597277
Ni      -1.61568940       6.13484459      24.26882696
Mg       6.23278223       2.39664255       7.92627829
Ni       6.03920606       2.30591131      23.96089041
Ni       3.52617734       6.59068591       7.81896635
Ni       3.40544665       6.41678527      23.99902003
