191
Lattice="9.915472456916872 -0.18456045141111355 0.13764113558014981 -4.995614096199116 8.461257434719247 -0.11645768825585873 -0.10523821218648541 0.26074775566799974 32.19508402606656" Properties=species:S:1:pos:R:3 pbc="T T T"
Mg      -0.14268862       0.09869576      14.62558184
Mg      -0.04871188       0.30955469      30.75213281
Mg      -2.50190923       4.32753208      14.53358769
Mg      -2.68131357       4.42585223      30.66748315
Mg       4.88458016       0.01015018      14.63489029
Mg       4.79407766       0.15367480      30.75963274
Mg       2.32076019       4.23627978      14.60199695
Mg       2.23265450       4.38252105      30.71096582
Mg      -0.08401965       0.09758305       6.54435859
Mg      -0.10263132       0.24482192      22.59371488
Mg      -2.38148675       4.28886903       6.35776012
Mg      -2.54255044       4.40866903      22.53714025
Mg       4.86929790      -0.04879243       6.57952091
Mg       4.87684449       0.05456376      22.60195619
Mg       2.46915703       4.13497714       6.57569984
Mg       2.40561231       4.32510134      22.79127126
Mg      -0.13758092       0.03422465       9.50212915
Mg      -0.11006587       0.23236504      25.65822107
Mg      -2.51417637       4.24024912       9.50925476
Mg      -2.58964977       4.40571546      25.68940110
Mg       4.99499814       0.04049896       9.61389124
Mg       4.89003980       0.16831031      25.80892406
Ni       2.42878637       4.25219323       9.58576149
Mg       2.41042152       4.42345603      25.60814736
Ni      -0.03021764      -0.03593557       1.46820019
Mg       0.02977964       0.11111810      17.58935059
Mg      -2.46670489       4.29007320       1.36145495
Mg      -2.51613699       4.37779743      17.59992185
Mg       4.93994105      -0.05441962       1.63525709
Mg       4.94080228       0.08843915      17.66389473
Mg       2.46793513       4.09173042       1.53727244
Mg       2.38200994       4.29978834      17.60985373
Mg       2.42696389       1.38678270       2.44181867
Mg       2.42952907       1.49265202      18.63222086
Mg       0.01866359       5.43011539       2.55287218
Mg      -0.08518625       5.71493425      18.66583245
Mg       7.33135569       1.25669378       2.66601662
Mg       7.43142451       1.43485600      18.59752036
Mg       5.00303608       5.43248248       2.57593471
Mg      -0.09747010       2.89680562      10.57102713
Mg      -0.09304437       3.02293315      26.59751668
Mg      -2.55217662       7.06286718      10.57861393
Mg      -2.58249805       7.24011983      26.58987964
Mg       5.01869867       2.71473528      10.56638904
Mg       4.75391803       2.92331457      26.61908103
Mg       2.38753727       7.00502984      10.65621032
Mg       2.39870425       7.18312741      26.66257938
Mg       2.44398847       1.32578486       5.52544899
Mg       2.46749887       1.50157810      21.68964710
Mg       0.02567609       5.59618511       5.60974325
Ni      -0.17155770       5.78750428      21.57614848
Mg       7.32192235       1.30573987       5.59854230
Mg       7.36771549       1.41472062      21.79766949
Mg       4.89956486       5.58058864       5.53177897
Mg       4.78823766       5.57902737      21.66185301
Mg      -0.11142721       2.88436639      13.57998148
Mg      -0.13065064       3.13048518      29.62739343
Mg      -2.56720366       7.22073221      13.47745150
Mg      -2.59575126       7.32624505      29.60591452
Mg       4.91060583       2.74897122      13.63669735
Mg       4.84965891       3.00729875      29.75721837
Mg       2.38007647       7.01121071      13.71078769
Mg       2.31335559       7.28626603      29.73727070
Ni       2.42010261       1.47048868      14.18685331
Ni       2.39013973       1.51629536      30.17768725
Ni      -0.04828361       5.76705611      14.04532824
Mg      -0.05081000       5.77599611      30.06504418
Ni       7.44976654       1.35194175      14.24752611
Ni       7.34363923       1.51203048      30.31107591
Ni       4.94229798       5.60982106      14.11326849
Ni       4.82705306       5.73947249      30.22689143
Ni      -0.05851884       2.80097600       6.02456482
Ni      -0.17050483       3.02288543      22.02126221
Ni      -2.51267016       7.05376343       5.90989792
Ni      -2.51779728       7.19148989      22.09367038
Ni       4.92029995       2.74995769       6.12127323
Ni       4.92105603       2.86942822      22.16889562
Ni       2.41868509       6.99208806       6.00093073
Ni       2.39793437       7.17938115      22.13460821
Ni       2.42389862       1.37189319      10.01414351
Ni       2.49177114       1.51027311      26.19589813
Ni      -0.04360652       5.64606309      10.07887453
Ni      -0.10101040       5.80163401      26.12393448
Ni       7.37581250       1.34269875      10.17969729
Ni       7.35795007       1.47452412      26.22508711
Ni       4.90490554       5.58858064      10.16677528
Ni       4.85955482       5.72960044      26.18122463
Ni       0.00188233       2.80049126       2.06576734
Ni      -0.08183245       3.06135907      18.08999052
Ni      -2.58522687       6.96613154       1.83851610
Ni      -2.51596274       7.20273904      17.99233678
Ni       4.83262025       2.70480520       2.06974301
Ni       4.88371237       2.79068772      18.22992405
Ni       2.49273727       6.91028906       2.03457642
Ni       2.40877447       7.06580563      18.14244494
Ni       2.35361425       2.88471701      12.20716109
Ni       2.37609531       2.95587970      28.21300843
Ni      -0.03439740       7.13505524      12.10475989
Ni      -0.10438789       7.24751949      28.21360862
Ni       7.50659323       2.77584439      12.08494965
Ni       7.32053056       2.83221644      28.25181901
Ni       4.96741270       6.94890191      12.05615669
Ni       4.82595527       7.08335629      28.13648985
Ni       3.60882016       0.76387290      12.15279169
Ni       3.66166135       0.71941342      28.16361056
Ni       1.18199551       4.91281494      12.06036196
Ni       1.14957352       5.17210634      28.12515175
Ni       8.60554443       0.63032310      12.19319109
Ni       8.58258655       0.83312379      28.32808722
Ni       6.17288712       4.87225151      12.14648605
Ni       6.04787198       4.94425422      28.25037239
Ni       1.14281433       3.56650755       4.05503140
Ni       1.21044162       3.65967230      20.10864427
Ni      -1.29435106       7.79584703       3.97407358
Ni      -1.30631537       7.87982850      20.09150693
Ni       6.14454949       3.47522756       4.06399377
Ni       6.04116530       3.53910794      20.24790891
Ni       3.68915390       7.67984950       4.01348017
Ni       3.61334523       7.71771004      20.13699556
Ni       1.20759284       0.79385237      12.08873770
Ni       1.11950725       0.89943986      28.06614325
Ni      -1.28121925       4.91634919      12.11313068
Ni      -1.34554190       5.09960252      28.16030106
Ni       6.10276920       0.69591102      12.16991884
Ni       6.06044108       0.88222626      28.16653538
Ni       3.69295877       4.86995620      12.18902547
Ni       3.62128134       5.00577934      28.21849446
Ni      -0.11679205       1.33718934       3.93636000
Ni      -0.06689236       1.62524628      20.04625200
Ni      -2.49348397       5.70343865       3.97967347
Ni      -2.45405046       5.77902240      20.06861919
Mg       4.95348241       1.38246014       4.12355491
Ni       4.88121059       1.46341923      20.13750230
Ni       2.47368865       5.52615666       3.97160899
Ni       2.42722910       5.73223261      20.20080895
Ni      -1.26811498       3.55704122       4.03594553
Ni      -1.45012007       3.69956966      20.02522415
Ni      -3.77681281       7.87944382       3.97396522
Ni      -3.75239628       7.94355364      20.16144654
Ni       3.65447810       3.42051009       4.05768054
Ni       3.64201235       3.58205077      20.21733664
Ni       1.20624606       7.71645156       4.03514996
Ni       1.18551842       7.77821735      20.08644498
Ni       2.47511146      -0.02496729       0.00941515
Ni       2.45935463       0.16078705      16.21029649
Ni       0.00872878       4.10707623       0.04562070
Ni      -0.12652989       4.31327433      16.06107631
Ni       7.32935422      -0.17615835       0.15565454
Ni       7.41036575       0.02415366      16.12829163
Ni       4.91843022       4.02542808       0.08410992
Ni       4.99407501       4.23340977      16.21595168
Ni       1.26610664       2.13602616       0.03694523
Ni       1.25421202       2.16421279      16.17589847
Ni      -1.27203986       6.30112512      -0.03198198
Ni      -1.28274960       6.43196288      16.02337439
Ni       6.24361973       1.93078313       0.09282125
Ni       6.12924454       2.08049457      16.12084768
Ni       3.70609706       6.17814284      -0.09562578
Ni       3.66560569       6.35870755      16.09284309
Ni      -1.24995018       2.24345469       7.97961742
Ni      -1.36977836       2.38864765      24.05563075
Ni      -3.80558736       6.42452169       7.90318151
Ni      -3.93463350       6.61249927      24.05995064
Ni       3.67621843       2.05152087       8.18047340
Ni       3.53739711       2.16447750      24.23388512
Ni       1.16814939       6.36474460       8.06742071
Ni       1.13907630       6.47804813      24.19279626
Mg       2.41163819       0.02672970       8.09725746
Ni       2.41932664       0.21464398      24.14829967
Ni      -0.09335716       4.30418009       7.97663845
Ni      -0.13617212       4.44137424      24.06203306
Ni       7.34682516       0.00688523       8.12788923
Ni       7.36272809       0.11457714      24.33171262
Ni       4.96693705       4.10522847       8.14173350
Ni       4.73563964       4.27950764      24.15530714
Ni      -1.30859015       2.03883935      -0.00538557
Ni      -1.35034692       2.28103996      16.07304137
Ni      -3.79060989       6.27562922      -0.11172504
Ni      -3.78412920       6.45086823      16.08022999
Ni       3.65414977       2.00872716       0.08733735
Ni       3.66363452       2.13953581      16.08748944
Ni       1.28577220       6.31820565      -0.03285970
Ni       1.22238129       6.31170682      16.17103552
Ni       1.23551744       2.17090226       8.12655233
Ni       1.15682223       2.18569048      24.08223415
Ni      -1.18089356       6.40662305       7.99163864
Ni      -1.29682259       6.45729786      24.12116434
Ni       6.10147108       2.06904530       8.13466243
Ni       6.02762954       2.22312527      24.16456283
Ni       3.68752664       6.19027611       8.08937692
Ni       3.68654852       6.40297705      24.20130222
