192
Lattice="9.765548461725414 -0.20454216323303018 0.17133069129510253 -4.814322936778484 8.825274206047355 -0.36237110914090925 -0.21675003172651103 -0.8828965637219037 32.341528431153584" Properties=species:S:1:pos:R:3 pbc="T T T"
Mg      -0.13741763      -0.42310268      14.59331746
Ni      -0.22660387      -0.79773737      30.81260397
Mg      -2.56033809       3.98598966      14.45510907
Mg      -2.60529880       3.57146739      30.67968846
Mg       4.77700088      -0.51717618      14.66477130
Mg       4.65329828      -0.84124194      30.88453507
Mg       2.30540957       3.92145669      14.53748648
Mg       2.27464612       3.43590429      30.75424035
Mg      -0.13021846      -0.14498305       6.56642133
Mg      -0.21969592      -0.66098752      22.70555321
Mg      -2.41992786       4.25198123       6.44438870
Mg      -2.46355160       3.75289094      22.53813817
Mg       4.83781828      -0.18678570       6.67621426
Mg       4.65489000      -0.83494833      22.81468852
Mg       2.44564707       4.09799919       6.40744583
Mg       2.30887105       3.66815970      22.58144098
Mg      -0.09568821      -0.28058818       9.56376753
Mg      -0.15874310      -0.63755477      25.75797261
Mg      -2.37145700       4.21626597       9.44055655
Mg      -2.49597969       3.61872585      25.72892474
Mg       4.82676528      -0.29022216       9.70101537
Mg       4.69794078      -0.78408978      25.87252002
Mg       2.36105120       4.05255747       9.44983915
Mg       2.21930486       3.59288205      25.58940226
Mg      -0.04372953      -0.04377475       1.49205245
Mg      -0.06686660      -0.48438566      17.72480196
Mg      -2.45262936       4.36825603       1.37981422
Mg      -2.55235356       3.97515849      17.49303168
Mg       4.85272684      -0.17631754       1.55039901
Mg       4.80352449      -0.49206075      17.89396310
Mg       2.47044368       4.22812384       1.37705369
Mg       2.30925136       3.87968520      17.61978010
Mg       2.40689836       1.36828939       2.49795832
Ni       2.31483404       0.88200036      18.62390362
Mg       0.06981430       5.77029750       2.36432678
Mg      -0.08090017       5.23519126      18.61736946
Mg       7.29008066       1.21367038       2.58163613
Mg       7.15657233       0.79802868      18.68060108
Mg       4.87772360       5.65473344       2.33020287
Mg       4.83336680       5.18000499      18.55257959
Mg      -0.08854184       2.65686640      10.48532264
Mg      -0.08463230       2.23596590      26.63202068
Mg      -2.46359849       6.97769739      10.39412873
Mg      -2.51489598       6.58730928      26.42861089
Mg       4.89405278       2.49471220      10.63174733
Mg       4.73258221       2.12115525      26.67204247
Mg       2.35527826       6.95859105      10.39192879
Ni       2.35817687       6.48366266      26.59338110
Mg       2.41287046       1.32514369       5.51859331
Mg       2.25999753       0.87747056      21.76217845
Mg      -0.00506008       5.58675345       5.38973451
Mg      -0.09585685       5.20544145      21.50983796
Mg       7.30450186       1.09662741       5.63540937
Mg       7.22290357       0.72690332      21.71450817
Mg       5.00487038       5.45480295       5.38622163
Mg       4.74676562       5.07349754      21.66851415
Mg      -0.03019225       2.59772524      13.59270314
Mg      -0.20383760       2.17777993      29.73337739
Mg      -2.48987040       6.93564532      13.39157669
Mg      -2.55319715       6.51312306      29.42669670
Mg       4.80629811       2.43571404      13.62846918
Ni       4.70406260       2.09162097      29.87339008
Mg       2.40694747       6.88918140      13.45725231
Mg       2.22826902       6.39633394      29.58563966
Ni       2.38397198       1.08858871      14.12623085
Ni       2.30069290       0.55784281      30.39381943
Ni      -0.06215094       5.37978397      13.91986611
Ni      -0.16159093       5.03557376      30.09650340
Ni       7.30387982       0.93873725      14.25880956
Ni       7.13925863       0.43118224      30.43630930
Ni       4.90716805       5.31760269      14.00332416
Ni       4.74936792       4.94345182      30.33685920
Mg       0.04036974       2.67595671       5.96068902
Ni      -0.17747871       2.36127183      22.13758953
Ni      -2.35704273       7.09464582       5.82718201
Ni      -2.54373197       6.76324119      21.93826493
Ni       4.88299185       2.62750231       6.03817363
Ni       4.80219099       2.28098798      22.29883065
Ni       2.44334976       7.05841494       5.83017767
Ni       2.36444777       6.61749397      22.09128521
Ni       2.37732927       1.11226875      10.12524824
Ni       2.31852768       0.64470366      26.20895268
Ni       0.08065161       5.57606580       9.93185402
Ni      -0.08801317       5.09105618      26.03572518
Ni       7.26455410       0.99178152      10.29114627
Ni       7.18621371       0.59361685      26.37660750
Ni       4.88205625       5.41630859      10.09233990
Ni       4.64125371       5.00422034      26.16527008
Ni      -0.01005400       2.86802801       1.91075159
Ni      -0.10179212       2.41704105      18.09464413
Ni      -2.42772593       7.24093941       1.71338740
Ni      -2.53556202       6.83935715      17.95320428
Ni       4.92086815       2.70140374       2.06294140
Ni       4.76856805       2.26643518      18.17369666
Ni       2.52998911       7.21586275       1.84698963
Ni       2.33312339       6.69910094      18.01980346
Ni       2.40852169       2.46883735      12.13017227
Ni       2.36839145       2.17887802      28.21964617
Ni      -0.10212102       6.88468835      11.87613741
Ni      -0.14715540       6.44771527      28.01269019
Ni       7.33856351       2.28387542      12.25567167
Ni       7.16864904       1.99347903      28.35161494
Ni       4.84532538       6.82467725      11.92404842
Ni       4.85221636       6.27794090      28.16948019
Ni       3.55696259       0.27869157      12.13938565
Ni       3.49099654      -0.10908557      28.47957764
Ni       1.22264587       4.72811506      11.94573472
Ni       1.11205014       4.38571621      28.12999553
Ni       8.45746853       0.31081918      12.19559409
Ni       8.28941388      -0.20721688      28.39954979
Ni       6.11497571       4.64430522      12.07481419
Ni       5.91173700       4.13086484      28.29729703
Ni       1.28052998       3.46047734       3.98957948
Ni       1.13940248       2.97911625      20.15502298
Ni      -1.26622140       7.86198097       3.81171989
Ni      -1.32631774       7.62863547      19.95787018
Ni       6.13989946       3.30954597       4.00243561
Ni       6.00358215       2.87226852      20.21032676
Ni       3.72475237       7.73136052       3.87306536
Ni       3.60630112       7.42461504      20.05952194
Ni       1.15312040       0.29854334      12.12926051
Ni       1.05427416      -0.05702906      28.31256101
Ni      -1.26058001       4.73598010      11.94686799
Ni      -1.42969552       4.39763285      28.10796248
Ni       6.06095043       0.26904970      12.21364847
Mg       5.91017191      -0.08337907      28.38308593
Mg       3.51616147       4.67045348      12.12525062
Ni       3.55925040       4.28780690      28.16462847
Ni      -0.01897588       1.38796311       3.91092228
Ni      -0.08533824       1.01330726      20.16568084
Ni      -2.40958215       5.75495597       3.86318301
Ni      -2.50933571       5.35575650      19.97626566
Ni       4.89927897       1.26306862       4.01554665
Ni       4.62312547       0.82947957      20.31124196
Ni       2.38027222       5.71984333       3.91863920
Ni       2.29355236       5.20292669      20.09608687
Ni      -1.21364744       3.44342353       3.84219789
Ni      -1.35898267       3.14999981      20.06669887
Ni      -3.64789956       8.00762775       3.69175621
Ni      -3.81611721       7.52823919      19.86229775
Ni       3.62093684       3.52403262       4.01694151
Ni       3.54024444       2.91046425      20.22472255
Ni       1.25228989       7.84903131       3.72502211
Ni       1.20839705       7.41709322      19.93671604
Ni       2.49279086      -0.02903078       0.00092194
Ni       2.34099012      -0.42727959      16.13897080
Ni       0.09203461       4.35452175      -0.22784788
Ni       0.04403846       3.83135791      16.03814797
Ni       7.32564890      -0.08046413       0.05568617
Ni       7.18354900      -0.68049851      16.26614914
Ni       4.85599529       4.29129486      -0.04327705
Ni       4.64777245       3.73645410      16.12125816
Ni       1.26556033       2.16070605      -0.06976599
Ni       1.15726101       1.51720517      16.20854318
Ni      -1.09493632       6.56091309      -0.20474195
Ni      -1.25086869       6.10605718      15.97278063
Ni       6.10526650       2.00599642       0.05014421
Ni       6.01645848       1.60338110      16.17754627
Ni       3.75471963       6.37304361      -0.15000386
Ni       3.59173757       6.06370777      16.09882348
Ni      -1.30977263       2.06122507       8.01931620
Ni      -1.33124079       1.56556208      24.22076995
Ni      -3.69967943       6.49295823       7.79878789
Ni      -3.74087774       5.94619602      23.95304611
Ni       3.65284333       1.90406531       7.99249397
Ni       3.46137038       1.39577862      24.17498930
Ni       1.24531467       6.30582813       7.91524227
Ni       1.13556157       5.92530198      24.14903333
Ni       2.42865029      -0.28637629       8.10640410
Ni       2.28088705      -0.79780630      24.29069166
Ni      -0.07465232       4.19063467       7.88493120
Ni      -0.15461976       3.72747684      24.17138627
Ni       7.25731094      -0.41634514       8.23462446
Ni       7.17033085      -0.74957857      24.36984896
Ni       4.84643180       3.93956294       8.00175244
Ni       4.72770401       3.61388597      24.12305742
Ni      -1.21196788       2.18176525      -0.10807576
Ni      -1.29113973       1.73426240      16.08840628
Ni      -3.58089602       6.57862166      -0.25021235
Mg      -3.76604323       6.15683478      15.94187253
Ni       3.69170578       2.13162090       0.07405410
Ni       3.52850376       1.58765637      16.16323911
Ni       1.25010470       6.50260984      -0.18388712
Ni       1.14901297       6.15992800      15.95951844
Ni       1.23603615       1.99992633       8.07640256
Ni       1.05776234       1.50599992      24.21483101
Ni      -1.16114208       6.37154312       7.86030440
Ni      -1.29809018       5.84978444      24.09093904
Ni       6.05802087       1.82805335       8.10073208
Ni       5.94026675       1.36606325      24.34353688
Ni       3.65315048       6.20717703       7.86765434
Ni       3.61867775       5.79857173      24.04923377
