190
Lattice="9.87738760466713 0.033189404845703235 -0.21732758978163264 -4.85843429695403 8.581293539871158 0.019305123002370365 -0.8014481749014156 0.4333983577214681 31.4759647518713" Properties=species:S:1:pos:R:3 pbc="T T T"
Mg      -0.29625371       0.16495442      14.19431077
Ni      -0.74363505       0.40915360      29.98194110
Mg      -2.77317932       4.40759297      14.25348339
Mg      -3.27346622       4.73472412      30.03114851
Mg       4.52656014       0.21266845      14.20959630
Mg       4.12901563       0.37443754      29.88682266
Mg       2.13511565       4.52778482      14.26264335
Ni       1.72947918       4.75897902      29.95515848
Mg      -0.18393469       0.11599481       6.42572746
Mg      -0.53077252       0.22722250      22.17738874
Mg      -2.54157563       4.38885138       6.36384119
Ni      -3.15119425       4.55515248      22.17373132
Mg       4.75995628       0.13212066       6.23867900
Ni       4.39998745       0.36289601      22.03221170
Ni       2.37158746       4.47353784       6.25030206
Mg       1.93691952       4.50857076      21.95340145
Mg      -0.30420898       0.12584846       9.28026701
Mg      -0.59839160       0.32174255      25.10300004
Mg      -2.64332670       4.43910103       9.41317164
Mg      -3.10980018       4.64037611      25.09032049
Mg       4.66518546       0.14212264       9.27064588
Mg       4.23950439       0.29540543      24.98121180
Mg       2.25874975       4.42300954       9.18057562
Mg       1.91178906       4.65576051      25.00707427
Mg      -0.07107297       0.07937224       1.56130395
Mg      -0.41318703       0.24362551      17.20404977
Mg      -2.34127057       4.28834865       1.48413355
Mg      -2.87853939       4.55157532      17.16442205
Mg       4.92059632       0.15784135       1.42379769
Mg       4.57590813       0.24740766      17.13710221
Mg       2.47850879       4.45854687       1.39022439
Mg       2.08033466       4.54994891      17.20594411
Mg       2.42134011       1.42820515       2.40951710
Mg       2.04617503       1.68931241      18.15132793
Mg       0.02193651       5.78017717       2.30310900
Mg      -0.37978320       5.98528361      18.07916611
Mg       7.30047775       1.47582339       2.28211413
Mg       6.81781296       1.63449538      17.99166949
Mg       4.87583011       5.77391179       2.27776028
Mg       4.55498988       5.94400481      18.06122719
Mg      -0.23411753       3.13156798      10.34256333
Mg      -0.63559462       3.26374968      26.02013031
Mg      -2.61207501       7.36924818      10.39141627
Mg      -3.02580505       7.55672737      26.04435355
Mg       4.77333193       3.10493016      10.09733344
Mg       4.28333707       3.21808889      25.97219980
Mg       2.28599582       7.25216265      10.17046965
Mg       1.87713313       7.60661689      25.93485298
Mg       2.33076232       1.54938873       5.27972013
Mg       2.04816034       1.79014943      21.06637609
Mg      -0.11920302       5.83368548       5.34776116
Mg      -0.47531241       5.97063689      21.13962244
Mg       7.33332403       1.64377683       5.19814654
Mg       6.91782908       1.72718924      21.00867275
Mg       4.82969657       5.76157652       5.28992808
Ni       4.51308926       5.88233155      20.95368352
Mg      -0.37257594       3.19538610      13.32345214
Mg      -0.70741234       3.18931809      29.02159994
Mg      -2.70005594       7.36315983      13.25082214
Mg      -3.12214527       7.53744191      29.00585129
Mg       4.57571051       3.18508204      13.07694647
Mg       4.29051792       3.32108414      28.86366413
Mg       2.19488627       7.39670192      13.09073276
Ni       1.91584763       7.50691887      28.89345627
Ni       2.09774748       1.59877784      13.64386922
Ni       1.65589433       1.80186705      29.51552272
Ni      -0.35176945       5.93892944      13.75703902
Ni      -0.69697140       6.18098336      29.43575379
Ni       7.03798162       1.67821093      13.56763186
Mg       6.67036407       1.77788408      29.20792264
Ni       4.62807128       5.92409811      13.59559292
Ni       4.36712411       6.10365810      29.39726007
Ni      -0.04683036       2.94026449       5.84373155
Ni      -0.51700042       3.23036551      21.62556530
Ni      -2.58779774       7.29967644       5.83440125
Ni      -2.95401463       7.52120478      21.62162360
Ni       4.76755866       3.04995589       5.77853780
Ni       4.41246913       3.11576955      21.52684520
Ni       2.38951369       7.31316832       5.82346513
Ni       2.01830862       7.34673776      21.49703354
Ni       2.19431643       1.62210439       9.68567233
Ni       1.83364729       1.76612783      25.58872062
Ni      -0.19255948       5.87832529       9.81195778
Ni      -0.52591722       6.15673292      25.57840452
Ni       7.22975218       1.59380657       9.67669869
Ni       6.80981601       1.87973625      25.42842030
Ni       4.65637925       5.85535255       9.69608308
Ni       4.32103340       6.02903246      25.35792188
Mg      -0.02547565       2.92502412       1.90391165
Ni      -0.35794218       2.97363206      17.75791407
Ni      -2.48177771       7.26521523       1.95324820
Ni      -2.85943540       7.40377544      17.60411536
Ni       4.84498447       2.92766733       1.88213684
Ni       4.51391173       3.26517500      17.62892278
Ni       2.46272509       7.19097053       1.84396760
Ni       2.06018564       7.35455727      17.53458426
Ni       2.21850805       3.02640534      11.74817401
Ni       1.77248551       3.32760760      27.46062120
Ni      -0.18952134       7.38801601      11.78162871
Ni      -0.59519727       7.47468287      27.50039673
Ni       7.13247454       3.06109919      11.59033452
Ni       6.61866193       3.16608226      27.32869178
Ni       4.72433797       7.33161600      11.54442494
Ni       4.26618894       7.51527879      27.39612498
Ni       3.39702492       0.89912461      11.65719435
Ni       3.02306183       1.10340706      27.49883035
Ni       0.99115647       5.30159055      11.58532564
Ni       0.60918516       5.42169420      27.47770246
Ni       8.41575683       0.95343392      11.63909997
Ni       8.01038270       1.14080804      27.37787094
Ni       5.86549622       5.16945494      11.60669061
Ni       1.13908825       3.63487595       3.77962898
Ni       0.88707756       3.84253388      19.60472024
Ni      -1.25773453       7.87500115       3.96116162
Ni      -1.62815549       8.06502590      19.58108862
Ni       6.08622466       3.72131809       3.81103773
Ni       5.71601242       3.86242213      19.51716723
Ni       3.71527314       7.93315404       3.74523296
Ni       3.25844092       8.24082567      19.62198782
Ni       0.96336644       0.86896416      11.71498134
Ni       0.58404718       1.09359639      27.47264311
Mg      -1.49701448       5.16892715      11.65952269
Ni      -1.84926867       5.46960447      27.47205237
Ni       5.87549830       0.93581909      11.66709213
Ni       5.37465831       1.09968751      27.34439847
Ni       3.36297992       5.16926035      11.66561590
Ni       3.10337341       5.50717437      27.40386704
Ni      -0.11779438       1.54031529       3.90385536
Ni      -2.52828966       5.77022814       3.89737885
Ni      -3.00977554       6.10094037      19.75045108
Mg       4.87598815       1.49639107       3.81458351
Ni       4.48710449       1.67380979      19.50811508
Ni       2.43281153       5.89853492       3.74615516
Ni       1.98040812       6.06748544      19.59381499
Ni      -1.30911933       3.62737685       3.88091207
Ni      -1.61672348       3.92492270      19.70243548
Ni      -3.69731027       7.96771118       3.96415436
Ni      -4.18975389       8.16281975      19.65338780
Ni       3.64469104       3.66769243       3.69333675
Ni       3.26487879       3.85408865      19.61450289
Ni       1.22663456       7.83544623       3.76405268
Ni       0.90494937       8.15506700      19.54675702
Ni       2.37565981      -0.03659926      -0.04220953
Ni       2.10606432       0.18536365      15.69917305
Ni       0.03529804       4.28393719      -0.03161796
Ni      -0.27865744       4.54356444      15.78639098
Ni       7.47432084       0.07735401      -0.14990921
Ni       6.97322971       0.25121260      15.61016594
Ni       5.00585887       4.37993589      -0.22390391
Ni       4.51791017       4.52585055      15.66167272
Ni       1.24467341       2.16564280      -0.02410746
Ni       0.80910069       2.45317057      15.68679639
Ni      -1.20977322       6.38570964      -0.05909936
Ni      -1.59651004       6.61213032      15.71193486
Ni       6.24827687       2.10399383      -0.17999857
Ni       5.83977094       2.37045920      15.62838184
Ni       3.80271423       6.46714698      -0.14070778
Ni       3.34150464       6.64581252      15.48351702
Ni      -1.45577915       2.20367262       7.87583327
Ni      -1.85066110       2.49394705      23.60413733
Ni      -3.90198105       6.57235062       7.85193568
Ni      -4.20500640       6.79635350      23.63314712
Ni       3.55875340       2.19678986       7.82222222
Ni       3.05060139       2.47469175      23.52200295
Ni       1.12614390       6.50039680       7.82940623
Ni       0.70863051       6.74961163      23.50966478
Ni       2.26268684       0.07408424       7.77716708
Mg       1.81102149       0.44419544      23.56233526
Ni      -0.19090975       4.37688280       7.86423999
Mg      -0.58982192       4.56282733      23.62057796
Ni       7.23420281       0.21617970       7.62756208
Ni       6.67278609       0.26890975      23.37548842
Ni       4.81764084       4.43968457       7.71814070
Ni       4.35793403       4.59636173      23.44305316
Ni      -1.22090273       2.14934675       0.02488662
Ni      -1.59444324       2.35066512      15.74986370
Ni      -3.72559594       6.39796153      -0.00002781
Ni      -4.00914683       6.64133360      15.74106665
Ni       3.72121765       2.23434929      -0.06089746
Ni       3.30712841       2.36430519      15.50261610
Ni       1.27902829       6.38459035      -0.09119951
Ni       0.89539161       6.59643943      15.72101759
Ni       1.12842207       2.31375610       7.85573947
Ni       0.64149352       2.58322689      23.63963357
Ni      -1.37215927       6.53596053       7.79213070
Ni      -1.74230782       6.82487532      23.58303222
Ni       5.86317522       2.24745524       7.75469677
Ni       5.62614419       2.57090076      23.44605091
Ni       3.52732427       6.54880888       7.71846062
Ni       3.20402989       6.81563398      23.32302998
