190
Lattice="9.777082121237887 0.04811878026876866 -0.07621433593562515 -4.7508685084890265 8.624363325591496 -0.13764862271835296 -0.34552516940109473 -1.1061162673441882 32.64348444515311" Properties=species:S:1:pos:R:3 pbc="T T T"
Mg      -0.18227726      -0.47215467      14.86121124
Mg      -0.31371682      -1.08958682      31.10811599
Mg      -2.45784223       3.89851117      14.65585127
Mg      -2.67020648       3.23581777      30.94708893
Mg       4.80410430      -0.46953117      14.66416851
Mg       4.57869035      -1.03088918      31.07218058
Mg       2.26219209       3.82760921      14.68769211
Mg       2.12591039       3.28515916      31.05182250
Mg      -0.07207570      -0.28572382       6.61192642
Mg      -0.23439488      -0.66798260      22.87498318
Mg      -2.37306315       4.03898782       6.58217050
Mg      -2.58288367       3.52653448      22.77761108
Mg       4.80831902      -0.21711581       6.56530553
Mg       4.54883820      -0.69684490      22.99593010
Mg       2.37938026       4.19691284       6.57570555
Mg       2.27542005       3.49370979      22.81945898
Mg      -0.05589335      -0.32864053       9.57589498
Mg      -0.26686729      -0.98850331      26.02554695
Mg      -2.41792341       4.00183881       9.71770355
Mg      -2.62783355       3.49566116      25.86114471
Mg       4.81156152      -0.28965819       9.70195864
Mg       4.58202411      -0.87384188      25.99091012
Mg       2.49422921       3.92236524       9.55210610
Mg       2.24898387       3.52713186      26.00684157
Mg       0.03872356      -0.02520797       1.58705778
Mg      -0.13119065      -0.57915595      17.88061433
Mg      -2.36608936       4.33099575       1.46870716
Mg      -2.60935781       3.61731296      17.74685547
Mg       4.94316026       0.08933541       1.42958519
Mg       4.69920752      -0.65884358      17.81386309
Mg       2.49826919       4.30422256       1.50565040
Mg       2.29248812       3.76552287      17.73776970
Mg       2.45635862       1.38537602       2.48324617
Mg       2.31215139       0.81729439      18.88357222
Mg       0.01571451       5.71073723       2.47148717
Mg      -0.10017102       5.19685860      18.73862439
Mg       7.38286146       1.42585588       2.42598801
Mg       7.26636366       0.76382167      18.76303475
Mg       4.99438638       5.75161250       2.34454257
Mg       4.72539306       5.07799799      18.74758767
Ni      -0.04895317       2.59190250      10.60016066
Ni      -0.22966822       2.05780134      26.89465530
Mg      -2.34656124       6.85763731      10.57265031
Mg      -2.62710130       6.26145436      26.85169160
Mg       4.81398826       2.62442453      10.54958543
Mg       4.67614943       1.99621673      26.89883078
Mg       2.41501149       6.84396665      10.61806926
Mg       2.25808145       6.38546559      26.88726367
Mg       2.41458747       1.24615208       5.57347600
Ni       2.11462268       0.72680507      21.89413187
Mg       0.00452092       5.60328580       5.40612262
Mg      -0.16025183       5.06273016      21.78738689
Mg       7.30643140       1.38903248       5.60035488
Mg       7.05446652       0.70533519      21.77505432
Mg       4.96872132       5.60901594       5.38961731
Mg       4.74498500       5.09744670      21.76159545
Mg      -0.15623430       2.38296821      13.66921133
Ni      -0.27058024       1.81614029      30.09933241
Mg      -2.41290126       6.74688554      13.65042210
Mg      -2.66900639       6.18159514      29.94096124
Mg       4.81793249       2.37532491      13.78322876
Mg       4.61734733       1.85777835      30.02355866
Mg       2.35238350       6.70915119      13.58208694
Mg       2.24220168       6.17561123      29.96160839
Ni       2.31747947       1.03208930      14.12919990
Ni       2.07162885       0.38139518      30.57831123
Ni      -0.08619152       5.30684500      14.15170081
Ni      -0.22300130       4.61957681      30.46246211
Ni       7.19936471       0.94288056      14.21836448
Ni       7.08642004       0.45416047      30.52622716
Ni       4.79865517       5.30934186      14.09369877
Ni       4.71878478       4.75299593      30.48288253
Ni      -0.12315676       2.70773448       6.07566806
Ni      -0.22720252       2.07867681      22.40651613
Ni      -2.44371105       7.03948667       5.96496589
Ni      -2.59256505       6.38955500      22.28246940
Ni       4.96304880       2.74683440       6.02877579
Ni       4.74640303       2.11043332      22.25818525
Ni       2.51963032       7.05529444       5.97302408
Ni       2.29087604       6.37966900      22.19894731
Ni       2.23189850       0.57798376      26.47563785
Ni      -0.02408402       5.42440431      10.09903719
Ni      -0.15078943       4.84962534      26.41550052
Ni       7.17644397       1.17338117      10.08679649
Ni       7.12888867       0.72004632      26.46724433
Ni       4.82325289       5.40271976       9.99607276
Mg       4.67516443       4.84314312      26.36746056
Ni      -0.00504149       2.75257106       2.03104395
Ni      -0.12727013       2.22936347      18.27752276
Ni      -2.44423136       7.07129454       1.92796338
Ni      -2.58488383       6.59981774      18.18570046
Ni       4.98892082       2.81790539       2.01130666
Ni       4.69016671       2.28616663      18.32573882
Ni       2.49217066       7.06141844       1.85835089
Ni       2.37343156       6.60349099      18.28544866
Ni       2.38171143       2.49007969      12.15439455
Ni       2.14200105       2.00469400      28.47029986
Ni      -0.08229715       6.83160477      12.01717637
Ni      -0.26912608       6.18327843      28.49164750
Ni       7.15498880       2.01045115      28.50539338
Mg       4.84804752       6.76278993      12.05173854
Ni       4.77023846       6.27896908      28.36510259
Ni       3.59275832       0.37113771      12.14315657
Ni       3.35351379      -0.19286005      28.52164727
Ni       1.26626548       4.70464237      12.08429350
Ni       1.02583647       4.15428270      28.36905493
Ni       8.44157867       0.37573991      12.18230055
Ni       8.21958523      -0.21520199      28.50394442
Ni       5.99336252       4.66300227      12.06381608
Ni       5.96355700       4.08937049      28.46724317
Ni       1.14102727       3.50525962       3.99438266
Ni       1.14331784       2.92591069      20.18202727
Ni      -1.17193808       7.78364290       3.92069033
Ni      -1.34251465       7.22298792      20.30420097
Ni       6.18502106       3.51286439       4.01949538
Ni       5.91278919       2.89659684      20.28185428
Ni       3.80328902       7.81960748       4.02226083
Ni       3.55558253       7.21471585      20.26079344
Ni       1.04237226       0.26108628      12.13275208
Ni       0.94943350      -0.28974262      28.58960449
Ni      -1.31590473       4.73580034      12.16118922
Ni      -1.45078456       4.05251212      28.43096504
Ni       5.96344089       0.27049330      12.15146838
Ni       5.76824174      -0.30996347      28.58554672
Ni       3.56723884       4.63912331      12.05033961
Ni       3.45886383       4.09732102      28.36034154
Ni      -0.07458989       1.28102440       4.03330551
Ni      -0.16342293       0.82333888      20.40880275
Ni      -2.46802352       5.61868852       4.03517231
Ni      -2.56623865       4.99712756      20.34983126
Ni       4.77688073       1.31406219       3.95097408
Ni       4.81497739       0.76173067      20.40259101
Ni       2.43668519       5.64246506       3.93435620
Ni       2.35000572       5.16157387      20.18211692
Ni      -1.17533089       3.46214267       3.93636502
Ni      -1.31073614       3.01658491      20.34466171
Ni      -3.51118589       7.83036767       3.83534645
Ni      -3.73183180       7.21195420      20.23885735
Ni       3.66093109       3.50267314       3.93780530
Ni       3.50001170       2.94702013      20.31364539
Ni       1.35557963       7.80270824       3.99684327
Ni       1.13805025       7.21764750      20.30704684
Ni       2.42496407       0.07754992      -0.08802003
Ni       2.36136118      -0.60306644      16.36259129
Ni       0.10241813       4.29675814      -0.01616812
Ni      -0.09901040       3.78134411      16.24124614
Ni       7.20591759      -0.03937924      -0.07587988
Ni       7.14505158      -0.49819847      16.18034166
Ni       4.89478002       4.26062836      -0.23920148
Ni       4.72481992       3.88442207      16.35195480
Ni       1.23554800       2.18189200      -0.05992583
Ni       0.98782550       1.70329327      16.20474580
Ni      -1.10719333       6.47436612      -0.15344570
Ni      -1.28402527       5.98128072      16.21857135
Ni       6.15638042       2.24856515      -0.14629883
Ni       6.00465876       1.64921759      16.32000586
Ni       3.76705371       6.53183955      -0.06047938
Ni       3.63483677       5.94221303      16.11545242
Ni      -1.27989264       1.90388754       8.05707717
Ni      -1.46966533       1.24499521      24.52091066
Ni      -3.63241933       6.27435458       8.08665864
Ni      -3.78775668       5.66706951      24.37339578
Ni       3.62023321       1.94565929       8.10668672
Ni       3.45497349       1.31256660      24.44025164
Mg       1.28408991       6.21842631       7.96295980
Ni       0.99547965       5.65442418      24.30308726
Ni       2.30911500      -0.30022620       8.13859637
Ni       2.13279781      -0.80241733      24.47287553
Ni       0.02942205       4.01160249       8.07969988
Ni      -0.28164314       3.57779639      24.44271510
Ni       7.26971311      -0.30371888       8.12725841
Ni       7.11229024      -0.84645736      24.31788404
Ni       4.83751227       4.01617172       8.06686048
Ni       4.75185812       3.39262384      24.31330125
Ni      -1.21600763       2.12370161       0.00299067
Mg      -1.43897164       1.64217267      16.20964650
Ni      -3.58220703       6.50844451      -0.06133940
Ni      -3.72836537       5.84339473      16.18540703
Ni       3.71770156       2.16667667      -0.11202392
Ni       3.59755430       1.54075310      16.21132223
Ni       1.34677333       6.40722188      -0.11516264
Ni       1.19069841       5.91086840      16.22332727
Ni       1.14804564       1.83748449       8.26271724
Ni       1.02408234       1.36311990      24.39193662
Ni      -1.16984850       6.07174305       8.09113521
Ni      -1.47750991       5.70797431      24.47967638
Ni       6.02752993       1.93894798       8.03879135
Ni       5.92344077       1.26240132      24.36223984
Ni       3.71691733       6.17669113       7.98378068
Ni       3.49819540       5.56826503      24.35760653
