192
Lattice="10.189338568293843 0.1471524800623823 0.08698210465556303 -5.188580887787711 8.52056247887805 0.008677819988829546 0.7296723954399214 -0.11167606585217137 32.048892037783624" Properties=species:S:1:pos:R:3 pbc="T T T"
Mg       0.35222828      -0.15463284      14.46566821
Ni       0.70798374      -0.11872262      30.52839481
Mg      -2.16293949       4.31909586      14.52914403
Mg      -1.84042909       4.19751104      30.54027556
Mg       5.41111530      -0.05336807      14.46574300
Mg       5.84766131      -0.07807563      30.55580146
Mg       2.80079169       4.27133455      14.54347377
Mg       3.12910679       4.21161411      30.55719035
Mg       0.09005525       0.00278693       6.55166776
Mg       0.56849099      -0.02917846      22.47300482
Mg      -2.38386027       4.19690519       6.49398338
Mg      -2.15807162       4.10278938      22.48115761
Mg       5.20969770       0.10621546       6.53775086
Mg       5.67396493      -0.02918031      22.63800897
Mg       2.58481738       4.35811358       6.65249721
Mg       2.89608683       4.18687690      22.66556254
Mg       0.27372017      -0.01507560       9.51059699
Mg       0.57558679      -0.03895289      25.52777031
Mg      -2.42576450       4.28112970       9.56988900
Mg      -2.10467284       4.15748106      25.51930360
Mg       5.34812895       0.04706179       9.61480902
Mg       5.67760078       0.01864446      25.59143040
Ni       2.68210768       4.33393638       9.62725571
Ni       3.11650985       4.30453775      25.48844014
Mg      -0.09310842       0.01195981       1.53880600
Mg       0.30974499       0.03529829      17.48135792
Mg      -2.47274155       4.17353578       1.45817727
Mg      -2.18112392       4.16558714      17.45439536
Mg       5.10173956       0.04669474       1.55019146
Mg       5.56022072       0.06512288      17.56967881
Mg       2.50490533       4.40297376       1.56076833
Mg       2.88094141       4.19904630      17.59213035
Mg       2.58646498       1.42768404       2.46685780
Mg       3.02097594       1.35915743      18.54705863
Mg      -0.00071934       5.58223933       2.55772989
Mg       0.35631539       5.74195046      18.66868671
Mg       7.61408195       1.57276616       2.58268702
Mg       8.18377658       1.43159455      18.58993504
Mg       5.05783854       5.69230991       2.53812144
Mg       5.52236556       5.66817906      18.53352804
Mg       0.20691920       2.77597845      10.52951551
Mg       0.69208869       2.79400383      26.49011080
Mg      -2.47046027       7.13425765      10.55724327
Ni      -2.05460392       7.02486980      26.58695805
Mg       5.24319267       2.90580908      10.55478997
Mg       5.60445175       2.82885984      26.56628422
Mg       2.64098131       7.18650256      10.62232686
Mg       3.06346016       7.13620048      26.51644666
Mg       2.63880230       1.47766909       5.52598291
Mg       3.06328025       1.43217734      21.54705580
Mg       0.03649644       5.65445018       5.58434445
Mg       0.33814470       5.60382787      21.66715642
Mg       7.70822979       1.49205028       5.53409350
Mg       8.13443604       1.44755377      21.67434939
Mg       5.17474149       5.75640434       5.69691214
Mg       5.55285029       5.73287022      21.68105923
Mg       0.17254250       2.75474943      13.55565112
Mg       0.67533622       2.77649068      29.63717071
Mg      -2.27662667       6.98013789      13.53298685
Mg      -1.97830639       7.01077614      29.56681654
Mg       5.38230070       2.92325664      13.55222048
Mg       5.79181417       2.83850875      29.61433406
Mg       2.84062467       7.11245999      13.66174362
Mg       3.16726069       7.05756238      29.64160450
Mg       2.80149651       1.37761521      13.94655531
Ni       3.23156570       1.40626876      30.05453739
Ni       0.23921530       5.76813977      14.07652254
Ni       0.63876551       5.62813082      30.07071817
Ni       7.91772792       1.49693065      14.12792965
Ni       8.30146097       1.38923946      30.18548426
Ni       5.39460293       5.77306867      14.12288580
Ni       5.72714504       5.65888188      30.12898092
Ni       0.07478618       2.84491541       6.05005870
Ni       0.47646679       2.76494661      22.14861739
Ni      -2.48173510       7.13666243       6.04760558
Ni      -2.12795045       7.06499556      22.08079146
Ni       5.25904665       2.92712085       6.07845373
Ni       5.62801249       2.86464290      22.18277940
Ni       2.56295131       7.23200228       6.12076298
Ni       2.97416047       7.10416664      22.08192519
Ni       2.80647222       1.40702741       9.96865537
Ni       3.11661845       1.37036884      25.99286828
Ni       0.15764748       5.65981468      10.05383782
Ni       0.61109329       5.66234537      26.03154950
Ni       7.89582377       1.48863147      10.00708615
Ni       8.22045141       1.54534157      26.18426997
Ni       5.40121129       5.84110773      10.11019815
Ni       5.61268147       5.77035375      26.12401624
Ni      -0.03494219       2.87427648       2.06470223
Ni       0.43747883       2.82477230      17.94430575
Ni      -2.54032156       7.08818498       2.02031160
Ni      -2.27054285       7.08350096      17.97489979
Ni       5.10883908       2.93199477       2.05153992
Mg       5.56477389       2.87101489      17.98192490
Ni       2.48852902       7.14413944       2.00555368
Ni       2.90893631       7.13763848      18.02916476
Ni       2.81962368       2.91862125      12.08373113
Ni       3.17239128       2.80499217      28.17107834
Ni       0.14947868       7.10302818      12.04017268
Ni       0.49161501       7.02210091      28.10179911
Ni       7.95877256       3.02673715      12.06423330
Ni       8.29185875       2.88134635      28.10653802
Ni       5.29386168       7.23609800      12.11246373
Ni       5.62225389       7.19769858      28.02674390
Ni       4.05571464       0.74067572      12.09801173
Ni       4.49000961       0.71537680      28.09537904
Ni       1.48602533       5.06327578      12.04747338
Ni       1.89715588       4.93005998      28.17067941
Ni       9.22300244       0.83932609      12.04196756
Ni       9.50699048       0.67263117      28.13297585
Ni       6.51865359       5.07915585      12.14068871
Ni       7.02722641       4.95562451      28.12279535
Ni       1.32182916       3.60989405       4.06349886
Ni       1.77740903       3.46450756      19.99156477
Ni      -1.23047564       7.91403549       4.03052407
Ni      -0.88540065       7.68327834      20.08247686
Ni       6.32967249       3.71604993       4.14743108
Ni       6.81909670       3.61234294      20.04674843
Ni       3.91830669       7.82560077       4.14916486
Ni       4.13656846       7.87876237      20.23469486
Ni       1.61292579       0.66566529      12.04954697
Ni       1.82117745       0.68999624      28.14868124
Ni      -1.06630071       4.97807002      12.06242414
Ni      -0.61055750       4.85839087      28.01119581
Ni       6.71378440       0.76365936      12.13042342
Ni       7.00363612       0.57686100      28.18790355
Ni       4.15864899       4.99346160      11.98046725
Ni       4.22467880       4.89853672      28.15093882
Ni       0.03545953       1.38824271       4.09023195
Ni       0.47769368       1.38866889      19.99309845
Ni      -2.38877616       5.66892985       3.92763798
Ni      -2.26125770       5.68119816      20.01157019
Ni       5.09355738       1.49736036       4.12404905
Ni       5.55408137       1.41556870      20.14493629
Ni       2.52097777       5.68179925       3.99750000
Ni       2.95568555       5.65187654      19.98070614
Ni      -1.23481596       3.59546799       4.09051041
Ni      -0.84554067       3.48562764      20.04733230
Ni      -3.86754022       7.82046297       3.92965159
Ni      -3.48880116       7.75143256      20.02681861
Ni       3.77327554       3.63120924       4.10005511
Ni       4.14113180       3.44492759      20.07515806
Ni       1.29060562       7.79642344       4.06137266
Ni       1.59191864       7.75148086      20.14840661
Ni       2.48525364       0.08759293      -0.05240748
Ni       2.92553175       0.00679026      16.02786250
Ni      -0.03828696       4.27230143      -0.06070495
Ni       0.28795870       4.30774209      16.14283019
Ni       7.78667297       0.10007449      -0.01132891
Ni       8.05101927       0.15097338      16.05790248
Ni       5.00443246       4.41855903       0.03803316
Ni       5.41416253       4.32004325      16.06873398
Ni       1.23508831       2.16086411       0.13885069
Mg       1.58945280       2.16612529      15.99017581
Ni      -1.34347862       6.49447076      -0.03638442
Ni      -0.90645218       6.38389968      16.12455937
Ni       6.46172368       2.31600597       0.17983766
Ni       6.69799413       2.21331039      16.09682757
Ni       3.79491679       6.49697129       0.10974030
Ni       4.18138733       6.42460767      16.03415512
Ni      -1.15154571       2.20277609       8.07073948
Ni      -0.73109540       2.11756014      23.99146965
Ni      -3.74658485       6.26362378       8.02623531
Ni      -3.28948315       6.31680791      24.04819293
Ni       3.95891726       2.09029188       8.04924352
Ni       4.22994322       2.11565455      24.12526603
Ni       1.27352408       6.45385984       8.01432893
Ni       1.77864020       6.34749081      24.12979337
Ni       2.71480990       0.01986340       8.07536315
Ni       3.05422558      -0.06938840      24.09190435
Ni       0.04851239       4.24528725       8.00962422
Ni       0.43667602       4.27575473      24.10565604
Ni       7.85877835       0.15627977       8.06862814
Ni       8.24309561       0.03991376      24.03924736
Ni       5.20138482       4.40123897       8.10481183
Ni       5.60709312       4.38060593      24.10990020
Ni      -1.34789788       2.00360420       0.01394501
Ni      -0.92484267       2.10038153      16.02009244
Mg      -3.90800634       6.36554595      -0.04991849
Ni      -3.56193648       6.37612853      16.00818191
Ni       3.87465151       2.10888207       0.03914293
Ni       4.15110399       2.15754060      16.02677458
Ni       1.24583851       6.41092539       0.07016471
Ni       1.71468612       6.38338848      16.10127466
Ni       1.47534921       2.05184440       8.01045520
Ni       1.80744630       1.99013585      24.12666277
Ni      -1.09502132       6.43978933       7.97825461
Ni      -0.72425895       6.28799495      24.14808993
Ni       6.51069640       2.21128938       8.08900677
Ni       6.93153785       2.09290752      24.12130193
Ni       3.95786289       6.50040079       8.12913667
Ni       4.24404508       6.47802117      24.14505055
