188
Lattice="9.582393495972655 -0.030160251981335113 0.37862402860985217 -4.708024434123605 8.53859885935223 -0.37264666614367076 0.327875537969622 -0.9473982780861243 31.258794249669318" Properties=species:S:1:pos:R:3 pbc="T T T"
Mg       0.23667161      -0.36994874      14.24157043
Mg       0.37496601      -0.81238540      29.79611530
Mg      -2.17291154       3.88483704      14.00006389
Mg      -1.94722136       3.40267669      29.56226547
Mg       4.92385606      -0.42947011      14.43003952
Mg       5.10567371      -0.95809753      29.99339425
Mg       2.54026087       3.85780064      14.22261717
Mg       2.78137505       3.28202646      29.82596744
Mg       0.08001255      -0.20791195       6.33084959
Mg       0.20844964      -0.69675071      21.89027497
Mg      -2.30794421       4.09231765       6.22902977
Mg      -2.18838615       3.61046168      21.81014795
Ni       5.08774858      -0.66753335      22.16005750
Ni       2.46851547       4.13279182       6.41143410
Mg       0.13969212      -0.37753814       9.27748454
Mg       0.25451843      -0.67994996      24.88686404
Mg      -2.19983273       3.93687800       9.07518888
Mg      -2.13804323       3.54543138      24.76145088
Mg       4.81976887      -0.23923326       9.44605301
Mg       5.08862789      -0.73035929      25.08049386
Mg       2.54764087       3.96901424       9.22213987
Mg       2.81821783       3.43931870      24.86798673
Mg       0.04551372      -0.06637259       1.43816888
Mg       0.21330817      -0.60352473      17.17174356
Mg      -2.28626850       4.23307517       1.22208425
Mg      -2.05841009       3.73080092      16.98577748
Mg       4.84475690      -0.12754853       1.70479338
Mg       4.92604527      -0.49825202      17.41475615
Mg       2.50016558       4.20607441       1.37214740
Mg       2.66218217       3.74390646      17.11473545
Mg       2.45150362       1.51379951       2.47071134
Mg       2.59713215       0.86908076      18.23702117
Mg       0.09956790       5.60389508       2.27989953
Mg       0.19582194       5.22468684      17.85760020
Mg       7.28426937       1.34563988       2.76412266
Mg       7.34440355       0.74722941      18.31746702
Mg       4.89127043       5.50535029       2.48283540
Mg       5.14659223       5.07094302      18.08084587
Mg       0.14902465       2.52649944      10.16833783
Mg       0.32439050       2.09380986      25.81693945
Mg      -2.21039542       6.84518841      10.03633728
Mg      -1.98190660       6.37263378      25.65901238
Mg       4.98802557       2.50812751      10.45571976
Mg       5.08318071       2.08166746      26.08022130
Mg       2.56533577       6.82330208      10.21363285
Ni       2.49780490       1.26999955       5.49705128
Mg       2.55027515       0.74513811      21.03579934
Mg       0.19099298       5.54979847       5.35810894
Mg       0.28889291       5.08543404      20.92711391
Mg       7.23196257       1.19459401       5.65805907
Mg       7.43140608       0.71443002      21.23405235
Mg       5.01401555       5.56653505       5.42719476
Mg       4.97546376       5.06803265      21.07648344
Mg       0.09225817       2.41271880      13.06307173
Mg       0.32480019       1.96147748      28.68965268
Mg      -2.08690482       6.71008779      12.87685736
Mg      -2.10772374       6.21354932      28.53837670
Mg       4.86862718       2.43128818      13.26371153
Mg       5.09815918       1.94517182      28.81321941
Mg       2.63797524       6.71125900      13.10853340
Mg       2.86319979       6.18888299      28.79805412
Ni       2.47091330       1.00106667      13.75097388
Ni       2.64782280       0.53753374      29.46239261
Ni       0.13453154       5.34197217      13.51802586
Ni       0.35691683       4.79673806      29.13669108
Ni       7.26503925       1.07622163      13.89711127
Ni       7.50260444       0.42632714      29.58133408
Ni       4.89345653       5.16602928      13.70086814
Ni       5.13127854       4.77523598      29.29457851
Ni       0.14145493       2.67199905       5.83016028
Ni       0.25758393       2.21040761      21.46999292
Ni      -2.23653181       7.01136730       5.62288126
Ni      -2.15836856       6.46730364      21.32668105
Ni       4.91750646       2.71242621       5.93079857
Ni       5.01021863       2.21793903      21.60024760
Ni       2.61696276       6.88869742       5.78437361
Ni       2.66449444       6.49138952      21.49152618
Ni       2.53429791       1.18269436       9.85977305
Ni       2.72752821       0.66306018      25.48049279
Ni       0.11332703       5.30272358       9.66522070
Ni       0.32602457       4.88168935      25.29076993
Ni       7.28898150       1.17085445       9.97424632
Ni       7.51071364       0.63918285      25.59549462
Ni       4.95226490       5.32252730       9.82699119
Ni       5.06962770       4.89377313      25.44524867
Ni       0.06716888       2.77254425       1.87827092
Ni       0.32307261       2.39261889      17.60813369
Ni      -2.28464695       7.01635346       1.66814534
Ni      -2.15085350       6.59991994      17.22093920
Ni       4.81454009       2.76508067       2.10727395
Ni       5.04775920       2.27409954      17.69334864
Ni       2.54178867       6.96311961       1.87424096
Ni       2.72636359       6.60866755      17.57867391
Ni       2.58117041       2.42363591      11.72388609
Ni       2.75774297       2.03078270      27.39887051
Ni       0.19179550       6.77392247      11.48583416
Ni       0.31898499       6.25909416      27.20212955
Ni       7.43429133       2.50225289      12.01844603
Ni       7.37247614       1.99413066      27.53583018
Ni       4.87708745       6.70189627      11.74022386
Ni       5.13038737       6.25871744      27.35185461
Ni       3.66711682       0.42536797      11.87607176
Ni       3.93253054      -0.22476723      27.56608954
Ni       1.36623144       4.54094174      11.74234281
Ni       1.49587276       4.10977771      27.37527105
Ni       8.53595562       0.25451537      12.01494114
Ni       8.76665465      -0.15994993      27.65789592
Ni       6.27128071       4.57262463      11.89943005
Ni       6.36747701       4.07583929      27.41086997
Ni       1.27988336       3.46704637       3.86003532
Ni       1.46487111       2.92247257      19.50788306
Ni      -1.13104124       7.71497338       3.70007703
Ni      -0.98115584       7.24790075      19.31877620
Ni       6.00745684       3.44869583       4.09767561
Ni       6.21087121       3.03951110      19.71981528
Ni       3.76438522       7.69852284       3.86937835
Ni       3.76364150       7.17994179      19.51766275
Ni       1.35344776       0.27028987      11.75532418
Ni       1.46684641      -0.17770247      27.46095273
Ni      -1.02987881       4.67811257      11.47607978
Ni      -0.83378744       4.13384674      27.20498626
Ni       6.11304309       0.32804114      11.93247974
Ni       6.32214913      -0.16489651      27.54088194
Ni       3.71521646       4.64100596      11.70817669
Ni       3.94544937       4.21231289      27.36925646
Ni       0.11703581       1.41666596       3.93165222
Ni       0.34332065       0.80868980      19.47994814
Ni      -2.31420410       5.43080387       3.63891430
Ni      -2.18048312       5.18022899      19.34489119
Ni       4.86467664       1.34219570       4.17265447
Ni       4.99710866       0.86252159      19.65660442
Mg       2.39002124       5.59504703       3.90228809
Ni       2.64953650       5.06059898      19.52242782
Ni      -1.15953215       3.47932345       3.77190058
Ni      -0.98241805       2.93835050      19.44392388
Ni      -3.38917061       7.74286008       3.61644684
Ni      -3.28876917       7.26173300      19.21325146
Ni       3.66223795       3.42995713       3.99724888
Ni       3.74111014       2.92410405      19.58394600
Ni       1.32889172       7.65403313       3.79041391
Ni       1.49028359       7.23662780      19.30967863
Mg       2.43310265      -0.06113211       0.15547038
Mg       2.57598481      -0.42833733      15.81792854
Ni       0.17045346       3.84060822      15.44289699
Ni       7.12946826      -0.01355214       0.30475635
Ni       7.35317270      -0.53561125      15.88894903
Ni       4.85626656       4.21208940       0.12469869
Ni       5.03467025       3.78655724      15.67665940
Ni       1.21047438       2.14907392       0.00957285
Ni       1.49102593       1.62042723      15.61119729
Ni      -1.08179711       6.39860135      -0.20747510
Ni      -0.97834460       5.91809008      15.57562570
Ni       6.01521641       2.05548920       0.16747949
Ni       6.23852435       1.64925641      15.86366914
Ni       3.64301712       6.38135916      -0.01166324
Ni       3.86101717       5.92417815      15.66088062
Ni      -1.04878842       1.84210541       7.72294831
Ni      -0.91544023       1.26639083      23.33962138
Ni      -3.55292452       6.21572271       7.53522276
Ni      -3.26277667       5.65181280      23.14628106
Ni       3.78144642       1.90387352       7.93852747
Ni       3.87014325       1.42243893      23.50230124
Ni       1.24690251       6.12485376       7.69930865
Ni       1.60865704       5.64325999      23.34747849
Ni       2.40698058      -0.27145605       7.97967070
Ni       2.64412914      -0.65597709      23.57796626
Ni       0.19547252       3.97824524       7.69402899
Ni       0.31275036       3.63054978      23.28058884
Ni       7.21744675      -0.20919111       8.07302144
Ni       7.41452155      -0.73760387      23.73013401
Ni       4.90191257       4.12278742       7.90566858
Ni       5.07972677       3.52752085      23.57456605
Ni      -1.20377206       2.11202420      -0.09296963
Ni      -1.08214596       1.61686307      15.50245814
Ni      -3.51828408       6.44347746      -0.19296581
Ni      -3.39173341       6.02428704      15.34262929
Ni       3.57353642       2.11653317       0.13356522
Ni       3.78957038       1.64111354      15.66416144
Ni       1.24513898       6.31644181      -0.05539380
Ni       1.48439991       5.97855472      15.53089072
Ni       1.24831060       1.88441721       7.85469738
Ni       1.42775460       1.39295372      23.44303299
Ni      -1.02012012       6.14314765       7.63823428
Ni      -0.76328332       5.67931557      23.34816309
Ni       6.08519349       1.79630704       8.01835145
Ni       6.28811970       1.28693318      23.59930450
Ni       3.75834206       6.10704435       7.81670865
Ni       3.94630365       5.66789115      23.52753818
