191
Lattice="9.921093462619172 -0.054917650759118176 0.042531140677529576 -4.741428251836524 8.399359926390598 -0.05104330027000514 2.494541885840253 0.020942032451664525 31.78264305273103" Properties=species:S:1:pos:R:3 pbc="T T T"
Mg       1.16891813       0.02140261      14.36966247
Mg       2.29161976       0.01671839      30.29532637
Mg      -1.19157353       4.16028231      14.33597573
Mg       0.06176773       4.21942418      30.25251995
Mg       6.07432740      -0.09214953      14.39545849
Mg       7.32216959      -0.00606257      30.36642699
Mg       3.63964306       4.14061532      14.41440838
Mg       5.03305645       4.09335877      30.23742939
Mg       0.41903853       0.06148966       6.48863976
Mg       1.71993423       0.00072557      22.29919343
Mg      -1.80107578       4.15578208       6.44441550
Mg      -0.62194531       4.16018836      22.34251255
Mg       5.38705091       0.02587746       6.34900907
Mg       6.68363950      -0.01451529      22.40021569
Mg       3.09121575       4.16414580       6.49224381
Mg       4.28116803       4.22343752      22.23957696
Mg       0.69032156      -0.02102968       9.40728513
Mg       2.00107971       0.07637930      25.22744081
Ni      -1.66203683       4.26769872       9.38217477
Mg      -0.43410247       4.20694122      25.25949658
Mg       5.64684168      -0.00107879       9.46233251
Ni       6.93588080      -0.01514818      25.39641653
Mg       3.30778810       4.15077176       9.46394068
Mg       4.51962590       4.20111970      25.27967575
Mg       0.10405700      -0.08558914       1.47329227
Mg       1.34771703      -0.06887906      17.35510019
Mg      -2.21518464       4.14825452       1.46393814
Mg      -1.03673190       4.22168839      17.32410962
Mg       5.09205819      -0.08287628       1.44701588
Mg       6.25292977      -0.01423610      17.34327029
Mg       2.77304306       4.12771356       1.46635022
Mg       3.96901453       4.17510854      17.42322227
Mg       2.77904910       1.37318961       2.54433830
Mg       4.01225782       1.42685856      18.33832044
Ni       0.28927091       5.67922952       2.49161201
Mg       1.60756622       5.65302585      18.31313571
Mg       7.77618394       1.35863715       2.51793975
Mg       8.98704400       1.43659294      18.38950737
Mg       5.30027228       5.45364121       2.52511978
Mg       6.67466307       5.53161449      18.32144811
Mg       0.87810622       2.75564344      10.42660766
Mg       2.14158485       2.73636669      26.23005569
Mg      -1.44444251       6.97805901      10.39612694
Mg      -0.22298740       6.92731146      26.22626308
Mg       5.94342341       2.76345540      10.44291675
Mg       7.06955309       2.75750803      26.32252548
Mg       3.46729823       6.99563282      10.41379297
Mg       4.69258930       7.01765667      26.25412104
Mg       2.96483748       1.35690424       5.48441758
Mg       4.29130053       1.43484748      21.39395826
Mg       0.58955139       5.58975033       5.34551240
Mg       1.86685472       5.67377256      21.38037262
Mg       7.88049121       1.34951185       5.50217056
Mg       9.12461197       1.29284533      21.36118082
Ni       5.56306712       5.57477230       5.39216511
Ni       6.81295421       5.62851813      21.42846920
Mg       1.05800620       2.90002275      13.34082731
Mg       2.38247419       2.84967385      29.26398149
Mg      -1.16366213       6.96489440      13.35288913
Mg       0.03551533       6.99978003      29.37919728
Mg       6.09367574       2.79706807      13.41895941
Mg       7.27791794       2.77812300      29.27261264
Mg       3.65185813       6.89553443      13.34068910
Mg       4.91712179       6.97552316      29.29654506
Ni       3.62792809       1.38396762      13.76413661
Ni       4.78959794       1.38630039      29.69757052
Ni       1.25345517       5.58253318      13.94976831
Ni       2.43916952       5.62895617      29.72929327
Ni       8.54690152       1.40995785      13.89472772
Ni       9.84262825       1.40364013      29.83009677
Ni       6.19792149       5.55645620      13.91337713
Ni       7.50971669       5.52447844      29.85646903
Ni       0.53747529       2.76126937       6.03183052
Ni       1.88912225       2.82323237      21.95113109
Ni      -1.83130531       6.91049453       5.97917420
Ni      -0.50972147       7.02116723      21.85839648
Ni       5.45541633       2.81828530       5.98651488
Ni       6.75964059       2.76673541      21.96241811
Ni       3.19460884       6.92239942       5.91580881
Mg       3.22420448       1.30852595       9.97090171
Ni       4.51974368       1.38778942      25.87345845
Ni       0.81513237       5.60909906       9.92817272
Ni       2.18767111       5.53150519      25.82812356
Ni       8.14661902       1.36551571       9.98802032
Ni       9.55004910       1.47852683      25.78005357
Ni       5.81052096       5.59338135       9.99913500
Ni       7.16693631       5.51577634      25.78657227
Ni       0.25471263       2.79666620       2.00757117
Ni       1.51986588       2.73290399      17.89978990
Ni      -2.11932607       6.95426612       2.04642328
Ni      -0.88440984       6.97226286      17.89215312
Ni       5.16732217       2.66881847       1.94274630
Ni       6.43422478       2.71861479      17.82663618
Ni       2.88068533       6.93169872       2.03030690
Ni       4.02877519       7.02058723      17.86947087
Ni       3.48656147       2.81874160      11.94821670
Ni       4.82591936       2.74844965      27.79796682
Ni       1.16726125       7.04660916      11.91776461
Ni       2.33937081       6.93166151      27.78298389
Mg       8.47361106       2.74251686      11.87742455
Ni       9.75283071       2.82173709      27.76453940
Ni       6.01122568       6.96119203      11.90363853
Ni       7.25277321       7.00581489      27.75113575
Ni       4.61352973       0.70831326      11.96655191
Ni       5.90676074       0.71256035      27.88792671
Ni       2.23256153       4.77938768      11.94298361
Ni       3.60619149       4.88925711      27.71375055
Ni       9.70077748       0.68573614      11.97848148
Ni      10.93078174       0.61374244      27.84082871
Ni       7.20964666       4.83813483      11.99692764
Ni       8.47314635       4.82883472      27.74516793
Ni       1.57808965       3.47360707       4.00441215
Ni       2.84043863       3.55769274      19.81138784
Ni      -0.74668981       7.69798089       3.95051197
Mg       0.46548677       7.71962218      19.87629418
Ni       6.62879890       3.47411794       3.99194767
Ni       7.82127941       3.33803240      19.91129952
Ni       4.27966087       7.57181063       4.01172611
Ni       5.53809246       7.69785869      19.79836667
Ni       2.12194563       0.61527216      11.94212987
Ni       3.42687902       0.67503470      27.75421517
Ni      -0.15189973       4.90735617      11.90314433
Ni       1.06479067       4.81836695      27.74498641
Ni       7.07462892       0.70458966      11.96451784
Ni       8.42766903       0.62076372      27.90662566
Ni       4.75566569       4.89915853      11.94423448
Ni       6.00753422       4.96292313      27.88475578
Ni       0.36705629       1.40236301       3.95694956
Ni       1.47547897       1.31085633      19.88024686
Ni      -2.11385083       5.54308806       3.91587746
Ni      -0.81832261       5.62479707      19.78734675
Ni       5.33072847       1.46803745       4.05590036
Ni       6.55553816       1.47500837      19.93225814
Ni       2.98809910       5.62223910       3.98636021
Ni       4.12926723       5.59247864      19.77486171
Ni      -0.71976011       3.45200062       3.84955875
Ni       0.39510789       3.56784265      19.82376076
Ni      -3.27313455       7.71799830       3.86204626
Ni      -1.91037554       7.76581415      19.80285513
Ni       4.14526749       3.42426731       3.95572568
Ni       5.41209690       3.49030340      19.94473838
Ni       1.78994475       7.63950428       3.88126905
Ni       3.06182274       7.68744049      19.73029282
Ni       2.50713115      -0.05161744       0.02129328
Ni       3.72920624       0.04842079      15.87106179
Ni       0.12992268       4.22556259      -0.04866924
Ni       1.34760239       4.13861439      15.90680743
Ni       7.46141079      -0.02836719       0.08529813
Ni       8.67429490      -0.10495823      16.04793199
Ni       5.10798082       4.24143871       0.00041577
Ni       6.29202997       4.19753622      15.92309921
Ni       1.34748199       2.05948342       0.02573347
Ni       2.60092245       2.07744276      15.89864744
Ni      -1.06591930       6.32799328       0.01621915
Ni       0.15482294       6.27115465      15.81391587
Ni       6.31707509       2.04150085      -0.01842541
Ni       7.44095264       2.11020877      15.94885543
Ni       3.85337341       6.24264349      -0.09591072
Ni       5.15342752       6.30354300      16.01477274
Ni      -0.58468405       2.07167692       7.95809608
Ni       0.68646848       2.16180868      23.78860739
Ni      -2.83526898       6.26797581       8.03128479
Ni      -1.66756221       6.31438518      23.78417170
Ni       4.43038147       2.09697864       8.02472419
Ni       5.60220966       2.12669616      23.91364427
Ni       2.00208205       6.26947613       8.01430684
Ni       3.30697861       6.33548415      23.77962106
Ni       3.13636286      -0.05278259       7.96622235
Mg       4.35565845      -0.00781197      23.81939200
Ni       0.62743068       4.11904767       7.99503588
Mg       1.97903358       4.24024908      23.80317657
Ni       8.10965485       0.02401311       7.89499369
Ni       9.39978120       0.04276745      23.85976742
Ni       5.65949086       4.17776042       7.91729182
Ni       6.93814277       4.12479937      23.88052862
Ni      -1.12651903       2.13998969       0.00300517
Ni       0.06861014       2.10832761      15.92047649
Ni      -3.53072402       6.28083851      -0.04876526
Ni      -2.36347293       6.22773590      15.84826724
Ni       3.77505511       2.09186671      -0.03075969
Ni       5.01721855       2.03148069      15.90762811
Ni       1.43154288       6.35748441      -0.07951842
Ni       2.61761187       6.29830837      15.89552602
Ni       1.84664469       2.08291966       7.83422432
Ni       3.17633318       2.09708325      23.85545776
Ni      -0.41878689       6.25825294       7.90419772
Ni       0.73536551       6.34586935      23.80863059
Ni       6.85359542       2.01861765       7.97089531
Ni       8.15907982       2.11956994      23.85678832
Ni       4.56937420       6.26385137       8.01692128
Ni       5.78496996       6.30815876      23.89386027
