191
Lattice="9.488505159519256 -0.1018981302406446 0.1299639875121575 -4.685794177913643 8.49515346070041 0.1493506423670318 0.398414890168917 -1.0785582197382528 31.941397023207983" Properties=species:S:1:pos:R:3 pbc="T T T"
Mg       0.21327833      -0.37861119      14.51980590
Mg       0.34839433      -1.06639515      30.33897964
Mg      -2.10407396       3.74282359      14.55635192
Mg      -1.96364074       3.20989787      30.50417973
Mg       4.89850271      -0.56589101      14.53497260
Mg       5.12178439      -1.03855249      30.48715955
Mg       2.59149361       3.72648955      14.57169987
Mg       2.79938767       3.28958588      30.58421934
Mg       0.07325555      -0.25327739       6.44767180
Mg       0.38287672      -0.75850033      22.40185845
Mg      -2.20604763       4.09204004       6.56748004
Mg      -2.06880859       3.48577886      22.59078541
Mg       4.86566348      -0.22746422       6.55517158
Mg       5.07061729      -0.88549541      22.47121680
Ni       2.45011791       3.88350673       6.59379458
Mg       2.75899962       3.36690872      22.63246985
Mg       0.11796780      -0.33952521       9.46092071
Mg       0.35662249      -0.79628134      25.43912319
Mg      -2.24798841       3.98203139       9.54602550
Mg      -1.94394173       3.46359931      25.38062918
Mg       4.87038571      -0.39500113       9.60404322
Mg       5.07342254      -0.91262802      25.50382062
Mg       2.55849949       3.86857300       9.61520630
Ni       2.73917067       3.36106859      25.62291450
Mg       0.03789180      -0.02348260       1.46116638
Mg       0.24524563      -0.48662722      17.48067744
Mg      -2.31396253       4.18224642       1.65547010
Mg      -2.16945661       3.62980098      17.60828857
Mg       4.72256948      -0.10561497       1.58368046
Ni       2.40311305       4.18009285       1.74914794
Mg       2.65438146       3.58770549      17.62338287
Mg       2.41711357       1.29906389       2.58116855
Mg       2.61135374       0.69582177      18.50706761
Mg       0.08850401       5.49641810       2.72645648
Mg       0.30089377       4.96410228      18.57912023
Mg       7.15991492       1.24825051       2.56812231
Mg       7.38154015       0.63642279      18.54075730
Mg       4.73964573       5.49493851       2.72883427
Mg       5.07009326       4.95781562      18.71405824
Mg       0.16226755       2.43435694      10.57110578
Mg       0.34103838       1.87349193      26.57081168
Mg      -2.11859312       6.65987719      10.62041052
Mg      -1.95690081       6.17597550      26.63171581
Mg       4.86521174       2.36227640      10.52376194
Mg       5.19618685       1.95941842      26.62202999
Mg       2.61114439       6.58110846      10.71758769
Mg       2.75525833       6.09501347      26.70168653
Mg       2.36978316       1.20639296       5.62431047
Mg       2.65998413       0.71590616      21.50122473
Mg       0.18102394       5.48051049       5.67158490
Mg       0.28561193       4.91412560      21.59691450
Mg       7.12928274       1.11390192       5.62467871
Mg       7.44443854       0.61679613      21.58047655
Mg       4.76013351       5.35470319       5.69677475
Mg       5.06244251       4.79046067      21.66317374
Mg       0.12103865       2.35618233      13.63624759
Mg       0.40324135       1.81418724      29.48439459
Mg      -2.12656277       6.57454687      13.68939917
Mg      -1.92866581       6.09678976      29.54453378
Mg       4.93908562       2.31062518      13.55305429
Mg       5.10516208       1.68422210      29.58129068
Mg       2.50082883       6.70358743      13.71180739
Mg       2.74120108       6.05698665      29.78678724
Ni       2.57122310       0.84372368      13.98560549
Ni       2.77534223       0.31611032      30.03126586
Ni       0.18646333       5.13044928      14.09867708
Ni       0.38983652       4.59690866      30.01264557
Ni       7.35388797       0.95225230      14.05116965
Ni       7.53036654       0.36864619      30.05695776
Ni       4.97526652       4.98315286      14.22664410
Ni       5.15637541       4.58026169      30.10201748
Ni       0.04826521       2.55275586       6.05998679
Ni       0.29102240       2.10257877      21.93713425
Ni      -2.31373462       6.81486524       6.10705016
Ni      -2.07620575       6.25923886      21.97104687
Ni       4.80939966       2.53216175       6.13145580
Ni       5.08822696       2.03910035      22.06147958
Ni       2.51490886       6.81304486       6.23724584
Ni       2.69477830       6.20187657      22.19748471
Ni       2.46778989       1.00765958       9.98340848
Ni       2.72888937       0.41570325      26.08173565
Ni       0.18391208       5.24110855      10.09195502
Ni       0.30656520       4.74556571      26.06963178
Ni       7.25043482       1.01942973      10.15730381
Ni       7.40125116       0.53144232      26.03191192
Ni       4.89632503       5.21320698      10.18705361
Ni       5.10971445       4.76488263      26.11441888
Ni       0.00317168       2.78972854       2.17413909
Ni       0.22835212       2.29900002      18.02537491
Ni      -2.27466536       7.01506345       2.09228415
Ni      -2.08772868       6.38864379      18.10927467
Ni       4.74101079       2.72856008       2.10207008
Ni       4.95098433       2.16702732      18.22474618
Ni       2.46458600       6.98777352       2.09840280
Mg       2.69392202       6.39000041      18.17643097
Ni       2.48225710       2.37868453      12.10452412
Ni       2.82236771       1.93124085      28.05160585
Ni       0.25847234       6.63379208      12.18334202
Ni       0.37050656       6.09741299      28.15236052
Ni       7.27257262       2.30722701      12.17188826
Ni       7.51741921       1.78846987      28.07933000
Ni       4.87957482       6.57150632      12.28697234
Ni       5.10446257       6.01750884      28.31730066
Ni       3.75169185       0.21968850      12.10221610
Ni       3.89371655      -0.29138792      28.14417004
Ni       1.43071281       4.51733339      12.18303724
Ni       1.52078280       3.91374393      28.05155673
Ni       8.50080124       0.23882007      12.07306580
Ni       8.68534345      -0.26357581      28.08192050
Ni       6.10882156       4.39026487      12.23584260
Ni       6.25153283       3.89860335      28.13120092
Ni       1.20802272       3.37713891       4.07332945
Ni       1.40484429       2.85127766      19.99762496
Ni      -1.08103766       7.54112740       4.09717070
Ni      -0.83160637       7.05014227      20.14059862
Ni       6.00642178       3.23520349       4.09014544
Ni       6.18406797       2.73571953      20.16324571
Ni       3.65851398       7.59189907       4.26621622
Ni       3.81382768       7.00687033      20.19394423
Ni       1.31111502       0.36043829      12.04422381
Ni       1.54797962      -0.29984310      27.93027006
Ni      -1.01652388       4.52974105      12.11744270
Ni      -0.78286863       3.92562574      28.01496711
Ni       6.09777106       0.20169318      12.08860584
Ni       6.25829301      -0.23668428      28.06766228
Ni       3.72291001       4.48748892      12.21532658
Ni       3.89933923       3.95340614      27.97841590
Ni       0.15083989       1.22099056       3.98999067
Ni       0.29867208       0.72838331      19.98306630
Ni      -2.16614774       5.54805854       4.11333643
Ni      -2.10929969       5.04437270      20.11345334
Ni       4.83499968       1.24457933       4.00851083
Ni       4.97375972       0.72011473      20.08164628
Ni       2.43937935       5.46258180       4.11111300
Ni       2.63630666       4.96021982      20.14960206
Ni      -1.12394129       3.38163929       4.03585837
Ni      -0.90040007       2.87383644      19.99206905
Ni      -3.44465336       7.65434417       4.16513829
Ni      -3.26476024       7.17792801      20.10821804
Mg       3.62353928       3.38747148       4.11773696
Ni       3.76499832       2.76587809      20.13198222
Ni       1.38450416       7.52624169       4.20655964
Ni       1.55535710       7.11874167      20.26134636
Ni       2.33093057      -0.03494346       0.02982533
Ni       2.61123856      -0.62400759      16.02104058
Ni       0.07846065       4.22389239       0.10815794
Ni       0.20839892       3.63600719      16.14339997
Ni       7.20093409      -0.06331258       0.20338195
Ni       7.29462000      -0.63461597      16.04623603
Ni       4.76046808       4.25289938       0.17443558
Ni       4.90741092       3.66424262      16.12623131
Ni       1.22889540       2.08521624       0.10655306
Ni       1.35239375       1.58585965      16.05553426
Ni      -1.11518808       6.25626252       0.11795551
Ni      -0.94653537       5.79773453      16.18712967
Ni       5.99106460       2.04753557       0.06428817
Ni       6.11447379       1.50569396      16.03575807
Ni       3.66766228       6.32146871       0.17686544
Ni       3.87234862       5.70815435      16.15778345
Ni      -1.03477614       1.91461171       8.03464398
Mg      -0.83429893       1.30064671      24.00850257
Ni      -3.35803337       6.09267093       8.09809163
Ni      -3.19934723       5.52755461      24.10138348
Ni       3.58672788       1.80517124       8.06584429
Ni       3.88224712       1.22650188      24.05022024
Ni       1.39811587       6.08019389       8.08861829
Ni       1.56466325       5.52515120      24.13267043
Ni       2.45716681      -0.23461614       7.97105383
Ni       2.74103096      -0.81385988      24.04801827
Ni       0.05644643       4.00224093       8.03791377
Ni       0.33067486       3.42617667      24.01869344
Ni       7.15914367      -0.35778434       7.97221412
Ni       7.38784039      -0.86404565      24.03293359
Ni       4.84697461       3.97048748       8.24471202
Ni       4.96821681       3.38812795      24.19203309
Ni      -1.11446928       2.18090522       0.05770704
Ni      -1.00829242       1.56808727      15.99124432
Ni      -3.46619911       6.41377312       0.15992280
Ni      -3.41192269       5.84180125      16.03020285
Ni       3.48785186       1.93994578       0.05157616
Ni       3.86062719       1.57225399      16.15239201
Ni       1.25170662       6.30293668       0.14635258
Ni       1.42523116       5.85891497      16.10697362
Ni       1.24689929       1.78380807       7.98047037
Ni       1.46234112       1.37441238      24.08917520
Ni      -1.00648371       6.04867026       8.11288212
Ni      -0.81610280       5.44263344      24.10907506
Ni       6.12604739       1.72556461       8.11837187
Ni       6.31636895       1.18399959      24.10973812
Ni       3.70782078       6.08071872       8.11795933
Ni       3.83997085       5.49681234      24.11444356
