189
Lattice="9.895013547594903 0.13976237553540105 0.10750651887264145 -5.1016882860089785 8.443829448043752 -0.10343092640299925 0.18587210522017641 0.1536523767006725 32.73293965441692" Properties=species:S:1:pos:R:3 pbc="T T T"
Mg       0.16207043       0.03755053      14.73699741
Mg       0.19662026       0.19093766      31.14010336
Mg      -2.35371580       4.37637863      14.82156761
Mg      -2.42239339       4.39752747      31.17300247
Mg       5.03769103       0.13968088      14.81824652
Mg       5.13436175       0.23832280      31.20247548
Mg       2.47094033       4.35680450      14.84413899
Mg       2.62430842       4.41500436      31.22368753
Mg       0.01842882       0.02566524       6.62225104
Mg       0.16563275       0.11519182      22.95565531
Mg      -2.54484945       4.32472155       6.67261326
Ni      -2.41254534       4.31531611      22.90792256
Mg       5.02775393       0.04259341       6.70826956
Mg       5.05603167       0.15388169      23.02664281
Mg       2.43610642       4.42994400       6.69317490
Mg       2.49982078       4.41535218      23.00954724
Mg       0.02084895       0.02624541       9.67927025
Mg       0.11805673       0.21074458      26.13740761
Mg      -2.51117528       4.31256673       9.61543991
Mg      -2.38948477       4.34971835      26.03592678
Mg       5.05435085       0.12226773       9.77637758
Mg       5.12171234       0.21932542      26.08939224
Mg       2.47708375       4.33468542       9.72780885
Mg       2.55887545       4.40938778      26.13395363
Mg       0.04531633       0.01809217       1.61243510
Mg       0.11836579       0.22017163      17.94362536
Ni      -2.54474342       4.13260735       1.57752641
Mg      -2.51894163       4.25145836      17.91372470
Mg       4.83743922       0.09035716       1.55994551
Mg       5.07611978       0.14041325      17.88524920
Mg       2.33317412       4.36499224       1.40569294
Mg       2.46273408       4.43554796      17.91389127
Mg       2.47130877       1.43019095       2.57783378
Mg       2.62139177       1.60260646      18.95669429
Mg      -0.09265252       5.69307828       2.50043031
Mg       0.00365371       5.66807014      18.93539988
Mg       7.45958361       1.46345510       2.66228616
Mg       7.48009967       1.61038883      18.99686388
Mg       4.83603875       5.77810663       2.53779940
Mg       4.91817434       5.77238366      18.90706790
Mg       0.07714595       2.86086909      10.74761364
Mg       0.11235893       2.94293395      27.09268169
Mg      -2.53226538       7.15158496      10.59271391
Mg      -2.42867066       7.16914844      27.00848408
Mg       4.97902405       2.91082261      10.73560317
Ni       5.13584611       2.97397540      27.05630318
Mg       2.45985673       7.12488288      10.69215617
Mg       2.42926517       7.28738494      27.10968346
Mg       2.50129122       1.52153129       5.62605761
Mg       2.61184448       1.61693679      21.95257771
Mg      -0.07643455       5.71084999       5.61670119
Ni      -0.09731650       5.75594058      22.04585983
Ni       7.44048766       1.49657479       5.73883358
Mg       7.53932786       1.70924522      22.04213111
Mg       4.93589324       5.88270697       5.71303176
Ni       5.04297850       5.92417122      22.04296391
Mg      -0.03621823       2.95876209      13.80377708
Mg      -2.48253034       7.16884243      13.76468916
Mg      -2.47738131       7.29611261      30.24353352
Mg       4.95315132       3.03971916      13.88585125
Mg       5.05034275       3.20614447      30.18188621
Mg       2.43530195       7.10336303      13.86433484
Mg       2.54142719       7.27631975      30.16101511
Ni       2.54432378       1.48932994      14.30909304
Ni       2.54363379       1.60775150      30.71573458
Ni       0.02639121       5.75002178      14.31665760
Ni       0.01780973       5.70100170      30.67795468
Ni       7.45272119       1.66238922      14.33984340
Ni       7.59966355       1.68838092      30.74133113
Ni       4.97311446       5.82230959      14.39779202
Ni       4.99143406       5.84462114      30.74950871
Ni      -0.01161033       2.85918116       6.15978238
Ni       0.05112842       3.00945939      22.50396936
Ni      -2.63890025       7.06585088       6.08326423
Ni      -2.43511437       7.26861803      22.47061877
Ni       4.94043037       2.93466104       6.25438736
Ni       5.08767393       2.98808592      22.59816354
Ni       2.37898229       7.05636485       6.11860458
Mg       2.43744776       7.23308124      22.48938028
Ni       2.48132954       1.47842012      10.23617515
Ni       2.55717729       1.56081756      26.50200784
Ni      -0.06003811       5.61721816      10.16442288
Ni       0.06580850       5.77504655      26.59552468
Ni       7.40111210       1.56373379      10.33542631
Ni       7.53281169       1.63567808      26.66202607
Ni       4.98562215       5.80358088      10.15858470
Ni       4.93121201       5.82174312      26.65955373
Ni      -0.06287831       2.97073433       1.89334670
Ni       0.09011803       2.93733997      18.30341013
Ni      -2.47196336       7.10124338       1.93732349
Ni      -2.49393318       7.08994717      18.35283767
Ni       4.95561695       2.86849353       2.08260744
Ni       4.98695507       2.95485071      18.43896644
Ni       2.50722567       7.16840747       1.98804983
Ni       2.48565343       7.30741852      18.36067411
Ni       2.51018913       2.94853084      12.25668958
Ni       2.49334580       3.08787444      28.57495061
Ni      -0.00611328       7.10537581      12.31000495
Ni       0.10128273       7.22179929      28.58028173
Ni       7.45196924       3.02222156      12.36982746
Ni       7.51790800       3.04969631      28.71521015
Ni       4.96358989       7.28410796      12.34173598
Ni       4.98330696       7.30557876      28.72580858
Ni       3.75052790       0.82195278      12.24392878
Ni       3.82694435       0.85398012      28.69189349
Ni       1.25925947       4.99386690      12.27838255
Ni       1.23068866       5.14365662      28.59341795
Ni       8.80918692       0.98528375      28.76031446
Ni       6.14702434       5.11634254      12.29550558
Ni       1.23242825       3.55108178       4.10007585
Ni       1.28888626       3.68161702      20.58182765
Ni      -1.34211280       7.91378603       4.09076520
Ni      -1.28503016       7.85819006      20.40262752
Ni       6.18813348       3.62199835       4.13840224
Ni       6.20756610       3.75380787      20.50574585
Ni       3.56848932       7.83723513       4.06946519
Ni       3.72720262       7.84636236      20.42915059
Ni       1.30280841       0.90101547      12.32515911
Mg       1.39037731       0.92789574      28.55990968
Ni      -1.27289893       4.97252932      12.22633376
Ni      -1.15827384       5.10342650      28.64785071
Ni       6.24981849       0.80832765      12.37760582
Ni       6.47105264       0.92612879      28.67269381
Ni       3.75121321       5.11099388      12.27288302
Ni       3.80761857       5.07570083      28.66779337
Ni      -0.04767956       1.48390249       4.19499693
Ni       0.02782087       1.49883794      20.41290671
Ni      -2.58954092       5.73919463       4.03325425
Ni      -2.44583857       5.74176952      20.30133558
Ni       4.90578697       1.52388129       4.13855735
Ni       5.02177572       1.61437942      20.45641923
Ni       2.38418031       5.77112894       3.99671984
Ni       2.43947814       5.78718694      20.41735501
Ni      -1.32586092       3.53471929       3.94714991
Mg      -1.20562729       3.71830390      20.40358962
Ni      -3.84733737       7.77405999       3.98413727
Ni      -3.77162639       7.83614145      20.31999652
Ni       3.61626285       3.69410036       4.17597904
Mg       3.68008564       3.67561237      20.49537214
Ni       1.15338646       7.78568636       3.97167361
Ni       1.24430955       7.94053676      20.42540991
Mg       2.49696379      -0.03598910      -0.04397138
Ni       2.62601269       0.13704500      16.38763465
Ni      -0.09183702       4.33144703      -0.01265778
Ni       0.12927906       4.26224454      16.33788097
Ni       7.43213797       0.06759423       0.11844675
Ni       7.46703667       0.08743336      16.39230519
Ni       4.88484369       4.42989562       0.08792895
Ni       4.90553939       4.34944574      16.41761832
Ni       1.22438932       2.12117054       0.00009676
Ni       1.31835179       2.18642093      16.36234795
Ni      -1.48523805       6.39179000      -0.01816713
Ni      -1.28421636       6.49878341      16.35771320
Ni       6.19444281       2.19669632       0.07173525
Ni       6.21431916       2.35621444      16.47109799
Ni       3.61577480       6.32582537      -0.00898624
Ni       3.62447105       6.62995258      16.37591377
Ni      -1.25773381       2.21159309       8.23296342
Ni      -1.23110013       2.21300203      24.55162418
Mg      -3.75402074       6.37575685       8.10327961
Ni      -3.67268827       6.54850153      24.42460296
Ni       3.71710369       2.25558714       8.16958973
Ni       3.79167915       2.37120657      24.56263153
Ni       1.20216245       6.43894255       8.15493182
Ni       1.29859569       6.52639033      24.54257357
Ni       2.46917404       0.05847093       8.20317546
Ni       2.66397443       0.21868571      24.62067336
Ni      -0.03425999       4.26728009       8.12591172
Ni       0.08513824       4.32805075      24.53510925
Ni       7.43099536       0.16073829       8.22158375
Ni       7.59648917       0.15809969      24.64309779
Ni       4.92528098       4.39326786       8.22686472
Ni       5.06208754       4.33923779      24.59741191
Ni      -1.33980521       2.18777584      -0.01495897
Ni      -1.03855456       2.12453110      16.30334605
Ni      -3.82329250       6.27372228      -0.05827033
Ni      -3.75304191       6.36531745      16.20686011
Ni       3.59931094       2.27465262       0.07907969
Ni       3.83482852       2.18596984      16.39541277
Ni       1.04976633       6.38498337       0.03277082
Ni       1.18766615       6.52927221      16.37400486
Ni       1.21037052       2.19196417       8.18232843
Ni       1.15030127       2.18809892      24.55023085
Ni      -1.29194760       6.43343030       8.08570425
Ni      -1.19895545       6.45471597      24.52352915
Ni       6.16526954       2.23403916       8.27945193
Ni       6.22756682       2.38108077      24.60242886
Ni       3.59366197       6.45642282       8.11798585
Ni       3.72579543       6.62416792      24.53932190
