192
Lattice="9.895402880814967 0.49987051354954326 0.014908015522901823 -4.96974091594926 8.420860536276159 0.1833738083981288 0.39831065363909585 0.41286390196989775 31.29800750669183" Properties=species:S:1:pos:R:3 pbc="T T T"
Mg       0.19221415       0.07423597      14.14402554
Mg       0.34209889       0.34834876      29.82142307
Mg      -2.22898262       4.40645827      14.25664079
Mg      -2.08255813       4.54530602      29.93450476
Mg       5.17421022       0.51042644      14.21649628
Mg       5.35607742       0.57748260      29.88134868
Mg       2.63283362       4.70586393      14.26046601
Mg       2.81419309       4.82894704      30.02869765
Mg       0.04906888       0.06707435       6.29399648
Mg       0.27538867       0.22476380      21.93729113
Ni      -2.38686600       4.24997159       6.46022458
Mg      -2.23390596       4.47161040      22.16960488
Mg       5.05421903       0.33627277       6.38673637
Mg       5.27238954       0.67406215      22.14592747
Mg       2.54955792       4.49553765       6.50399407
Mg       2.65982182       4.80563594      22.11145289
Mg       0.03939927       0.24054846       9.23242163
Mg       0.30627720       0.23228113      24.89985553
Mg      -2.35916586       4.29410006       9.42151079
Mg      -2.22962602       4.48218458      25.02044536
Mg       5.14817497       0.39216083       9.34737090
Mg       5.36378058       0.54516370      24.96182572
Mg       2.53418096       4.56972365       9.31618649
Mg       2.76918008       4.86368727      25.09621130
Mg       0.01336651       0.01109622       1.44178523
Mg       0.21819490       0.27027840      17.15522574
Mg      -2.39741516       4.25707835       1.59335961
Mg      -2.28654244       4.53445868      17.25725837
Mg       4.99298581       0.33931475       1.44330061
Mg       5.18974413       0.44858688      17.10703003
Mg       2.60569710       4.45072629       1.55826791
Mg       2.64837674       4.69602598      17.27474182
Ni       2.56957499       1.59387761       2.49101443
Mg       2.72108249       1.79492054      18.05238548
Mg      -0.00065685       5.85731931       2.51260038
Mg       0.25649504       5.99044460      18.19842319
Mg       7.62247164       1.87626288       2.54847202
Ni       7.64672195       2.06215506      18.15668605
Mg       5.00577505       6.15843916       2.56993868
Mg       5.05708114       6.25903816      18.27232109
Mg       0.10493486       3.01864032      10.37680677
Mg       0.34243698       3.19098956      25.94396934
Mg      -2.25353932       7.20609289      10.34305310
Mg      -2.20231715       7.42443331      26.08072485
Mg       5.07786392       3.27278397      10.29961547
Ni       5.23832784       3.49702953      25.95635145
Mg       2.55938535       7.48299710      10.36645470
Mg       2.72682797       7.79292432      26.10312077
Mg       2.48224339       1.55983926       5.45567730
Mg       2.68906574       1.93298207      21.07862544
Mg      -0.01600564       5.87970685       5.49326891
Mg       0.32219665       6.12610228      21.11499872
Mg       7.44532387       1.86033448       5.40936464
Mg       7.59857851       2.06965323      21.08410675
Mg       4.96965825       6.13456665       5.49047460
Mg       5.20505849       6.33107716      21.10507638
Mg       0.22892818       2.98149777      13.25797403
Mg       0.35218912       3.21929625      28.94783452
Mg      -2.32639959       7.20382391      13.33995777
Mg      -2.13453409       7.45635735      29.14485805
Mg       5.08375134       3.27079999      13.22943427
Mg       5.30328831       3.52839361      28.87690218
Mg       2.65886354       7.46499766      13.36199301
Mg       2.81107624       7.63257898      29.00336041
Ni       2.63670393       1.72106028      13.73677886
Ni       2.87382153       1.95304894      29.44854832
Ni       0.27330172       6.03356292      13.83433546
Ni       0.36909934       6.22443635      29.37155782
Ni       7.54514955       1.92329023      13.77609212
Ni       7.79375989       2.18586762      29.39283590
Ni       4.93436487       6.23566682      13.85308417
Ni       5.37024302       6.38159187      29.43148920
Ni       0.07389405       2.98187900       5.94019521
Ni       0.28956834       3.13328404      21.51708651
Ni      -2.40017335       7.29948397       6.02974634
Ni      -2.22186351       7.42151736      21.65972834
Ni       5.04453545       3.24910701       5.94976364
Mg       5.19334958       3.44897026      21.68067454
Ni       2.48285005       7.43262845       6.14138154
Ni       2.78423453       7.67083843      21.67557393
Ni       2.56043584       1.71971411       9.88915295
Ni       2.82800853       1.91043859      25.41080947
Ni       0.20590054       5.95952043       9.99089602
Ni       0.34908695       6.12599631      25.56482845
Ni       7.53043243       1.95980214       9.81677326
Ni       7.80994775       2.08895757      25.42280835
Ni       5.06723290       6.12736957       9.93906105
Ni       5.26520843       6.48532637      25.47691317
Ni      -0.01038115       2.86189335       2.03272956
Ni       0.23773446       3.07063979      17.67189368
Ni      -2.54580385       7.17907383       2.11859964
Ni      -2.27628574       7.32496410      17.73461808
Ni       5.02980530       3.14839635       2.04618682
Ni       5.17407096       3.36807519      17.69673809
Ni       2.48136092       7.34073283       2.09853690
Ni       2.63566259       7.53182812      17.76854884
Ni       2.65894664       3.16676568      11.75660109
Ni       2.77775051       3.36914298      27.41669652
Ni       0.13998305       7.34275517      11.92332722
Ni       0.33151564       7.59990996      27.55106254
Ni       7.43485018       3.51088992      11.77048591
Ni       7.75905272       3.58020168      27.50205608
Ni       5.04702967       7.71305856      11.93402411
Ni       5.31956514       7.87418835      27.54639135
Ni       3.86862802       1.18782769      11.89145099
Ni       4.06810277       1.25931224      27.39238535
Ni       1.33057002       5.18764338      11.82983234
Ni       1.62840894       5.49964298      27.47054627
Ni       8.78434257       1.24397605      11.74626422
Ni       9.05203139       1.51347722      27.34933553
Ni       6.40851843       5.45175118      11.85465425
Ni       6.52310650       5.70395528      27.51640216
Ni       1.30805901       3.63903166       3.90250211
Ni       1.51753195       3.88846503      19.61502175
Ni      -1.17826537       7.92860174       4.03145310
Ni      -0.97076014       8.11663593      19.70222526
Ni       6.22611866       4.08231351       3.94328248
Ni       6.46643517       4.18575831      19.63052519
Ni       3.81288152       8.15763545       4.08096968
Ni       3.96037111       8.32354866      19.85003907
Ni       1.32166295       0.91835283      11.78610899
Ni       1.59265959       1.15841467      27.33231798
Ni      -1.16597388       5.15242094      11.86690155
Ni      -0.95752040       5.32250605      27.47143552
Ni       6.27090941       1.17450420      11.76488143
Ni       6.54189157       1.46803541      27.44882315
Ni       3.77812601       5.40821679      11.82025442
Ni       3.96686548       5.69281123      27.39668373
Ni       0.13422675       1.53914755       3.88987208
Ni       0.23527942       1.76222508      19.63909302
Ni      -2.50305695       5.65226743       4.01117894
Ni      -2.24226574       5.90953998      19.65759143
Ni       5.05509319       1.72256922       3.88948753
Ni       5.26047862       2.00298030      19.66988430
Ni       2.49545268       5.90696046       4.03540364
Ni       2.70942754       6.18947956      19.72902104
Ni      -1.24632697       3.60889226       3.93053131
Ni      -0.94798245       3.84498156      19.68554035
Ni      -3.66061422       7.84173122       4.07419634
Ni      -3.46667706       8.01220861      19.67680832
Ni       3.80433903       3.92172103       4.12017587
Ni       4.04147055       4.07132179      19.60669476
Ni       1.29855905       8.11554502       4.00515784
Ni       1.48052042       8.22674903      19.74344220
Ni       2.48721032       0.09510741      -0.02324947
Ni       2.55700748       0.45522866      15.60141461
Ni       0.09054584       4.29974908       0.10384796
Ni       0.17852905       4.60850382      15.76697202
Ni       7.45691428       0.37859351       0.02755090
Ni       7.58271801       0.46788784      15.61856218
Ni       4.96455244       4.60071702       0.05515562
Ni       5.10600506       4.79211895      15.74716706
Mg       1.19273034       2.21487057       0.07156750
Ni       1.46499773       2.54329765      15.69832060
Mg      -1.27010395       6.34260834       0.13262335
Ni      -1.05179775       6.56332534      15.72709310
Ni       6.27574664       2.43334237       0.00845790
Ni       6.43951255       2.69389550      15.69711288
Ni       3.62453277       6.75729841       0.06026733
Ni       3.86080526       6.96341026      15.71004555
Ni      -1.13863902       2.15439717       7.93260766
Ni      -0.95738951       2.38098475      23.43770571
Mg      -3.56462838       6.46764856       7.91787331
Ni      -3.35314365       6.62423008      23.64856744
Ni       3.81955127       2.41280737       7.83613926
Ni       4.02822729       2.65640145      23.53181041
Ni       1.30441225       6.66779612       8.01841002
Ni       1.50016024       6.80048675      23.57881600
Ni       2.53811215       0.17194055       7.68675398
Ni       2.80134766       0.43555526      23.39292102
Ni      -0.00103229       4.49763058       7.87691699
Ni       0.27899974       4.61661123      23.58178177
Ni       7.57189024       0.45827759       7.88778405
Ni       7.71756986       0.67383966      23.44395303
Ni       4.96230116       4.69489584       7.96204249
Ni       5.24746752       4.91959336      23.57662103
Ni      -1.28979271       2.01359644       0.12032974
Ni      -1.12607204       2.35196874      15.73026075
Ni      -3.75373689       6.39565604       0.10461965
Ni      -3.58003128       6.43378126      15.82433603
Ni       3.70759815       2.31027466       0.02784533
Ni       3.89706494       2.58477905      15.71976517
Ni       1.30094001       6.55995071       0.08779749
Ni       1.49097832       6.81271171      15.74677454
Ni       1.45348513       2.29384430       7.89687884
Ni       1.59648412       2.56743721      23.53668876
Ni      -1.13703200       6.53121957       7.97242092
Ni      -0.91246092       6.78332345      23.63753758
Ni       6.19055485       2.59398860       7.98631640
Ni       6.42070651       2.72232527      23.55018759
Ni       3.80880327       6.80270753       7.99951647
Ni       3.92686305       6.97667073      23.59257908
