190
Lattice="9.981512667378183 0.011685131946112046 0.045475157936564446 -5.192250889945764 8.355052988218453 0.010660007985607393 -0.9726613456003058 0.029035147736045246 30.978646667218495" Properties=species:S:1:pos:R:3 pbc="T T T"
Mg      -0.46739203       0.03395279      13.99020857
Mg      -1.03694116      -0.00554202      29.49006787
Mg      -2.98480628       4.25775112      14.04130576
Mg      -3.53336052       4.20665500      29.57420874
Ni       4.48699820       0.11675907      14.02715208
Mg       4.07393285       0.06543001      29.61155010
Mg       1.91563738       4.23784847      13.99830815
Mg       1.45335186       4.19654339      29.53192900
Mg      -0.24212481       0.02902855       6.35256310
Mg      -0.67211446       0.01558012      21.79001566
Mg      -2.83525779       4.15532596       6.27873965
Mg      -3.35125051       4.20020391      21.82619963
Ni       4.86788237      -0.04492827       6.31226749
Mg       4.28680903      -0.04365973      21.76964189
Mg       2.16010000       4.18672887       6.32703479
Mg       1.70072671       4.27998917      21.83889265
Mg      -0.27374652      -0.07451402       9.25953698
Mg      -0.80154231      -0.02986120      24.71792384
Ni      -2.99004736       4.22505736       9.18774780
Mg      -3.39447656       4.15130566      24.76252180
Mg       4.68833851      -0.00569711       9.19347688
Mg       4.21022955       0.01612236      24.65813739
Mg       2.02013084       4.18218979       9.20388700
Mg       1.69657479       4.19966880      24.77312503
Mg      -0.06472632      -0.05994414       1.39937031
Mg      -0.49402292      -0.04133011      16.96728342
Mg      -2.74698385       4.14672097       1.45660479
Mg      -3.17100688       4.14033134      16.85580812
Mg       4.97557278       0.02489529       1.49629299
Mg       4.57249210       0.02402412      16.99107299
Mg       2.30207472       4.14646609       1.52992724
Mg       2.39796931       1.28701551       2.45368439
Ni       1.92700745       1.45505759      17.89322844
Mg      -0.27409363       5.54452725       2.58213107
Mg      -0.68286581       5.65411719      17.96609319
Mg       7.41885296       1.42871783       2.49858421
Mg       6.89527190       1.36099461      17.86919527
Mg       4.75506441       5.57558066       2.43620381
Mg       4.23398849       5.59583613      17.90655574
Mg      -0.32712173       2.81200966      10.13903264
Mg      -0.84620014       2.79186875      25.60474481
Mg      -3.03495209       6.95687540      10.20224474
Mg      -3.44722711       7.04412970      25.66213669
Mg       4.72654046       2.85978027      10.15747322
Mg       4.04847513       2.83428525      25.63708680
Mg       1.96754677       6.99299941      10.16558810
Mg       1.61014694       7.03050533      25.66536114
Mg       2.35091047       1.41664879       5.29057981
Mg       1.74361446       1.47899406      20.89668179
Mg      -0.36154079       5.56577916       5.38744927
Mg      -0.73181862       5.55825673      20.83178804
Mg       7.27005953       1.29885926       5.41679875
Mg       6.78833010       1.33428866      20.80433094
Mg       4.60144532       5.65972671       5.38264660
Mg       4.14295160       5.65007562      20.93805544
Ni      -0.51910981       2.82224787      13.08696551
Mg      -0.95774573       2.76956340      28.67886228
Mg      -3.12293217       6.96364071      13.08706223
Mg      -3.57817825       7.02327336      28.55708011
Mg       4.52588488       2.79281725      13.09188479
Mg       3.98934588       2.83476422      28.62681244
Mg       1.92734547       7.07925054      13.13172645
Mg       1.46716575       6.98280250      28.53361566
Ni       1.99354780       1.48347295      13.56746150
Ni       1.55847136       1.38436877      29.07523744
Ni      -0.49115680       5.59133253      13.57425034
Ni      -0.97533528       5.56495266      29.15514435
Ni       7.02450880       1.34867747      13.58026660
Ni       6.60481322       1.34302516      29.07255880
Ni       4.40715425       5.59068152      13.63229968
Ni       3.94580133       5.60442215      29.02226048
Ni      -0.19394191       2.71354446       5.73780139
Mg      -0.70992539       2.85980788      21.38072816
Ni      -2.84964484       7.02324002       5.84812696
Ni      -3.42971014       7.00856532      21.24226540
Ni       4.70528657       2.84062021       5.80982759
Ni       4.24096604       2.80655843      21.26770918
Ni       1.65368002       7.02062146      21.32105141
Ni       2.16694816       1.38011337       9.70871565
Ni       1.69705583       1.43062701      25.10753706
Ni      -0.48468103       5.57128595       9.80224383
Ni      -0.95103705       5.62936210      25.18562324
Ni       7.15698195       1.39946880       9.75153928
Mg       6.65169793       1.43886005      25.24890585
Ni       4.55998275       5.56833101       9.71469409
Ni       4.10588217       5.57994842      25.20132251
Ni      -0.09315125       2.70557020       1.94387945
Ni      -0.60772936       2.71118105      17.48185853
Ni      -2.68444086       7.06029367       1.96382043
Ni      -3.22104543       6.92971885      17.41701651
Ni       4.90472384       2.80862539       1.92445088
Ni       4.34088374       2.76584128      17.46788545
Ni       2.26743184       6.95630633       1.96352367
Ni       1.81624874       6.93573859      17.31735259
Ni       2.03709778       2.83173843      11.62945208
Ni       1.65116181       2.79500471      27.18845284
Ni      -0.52841568       6.96976644      11.59415019
Ni      -0.99821269       7.04739584      27.18021370
Ni       7.11484535       2.81512922      11.64471977
Ni       6.45738176       2.82991698      27.16305878
Ni       4.47545973       7.01530204      11.67701629
Ni       3.94486307       7.02092871      27.25831918
Ni       3.38536592       0.65176409      11.60237423
Ni       2.87093677       0.77274339      27.09382075
Ni       0.83906789       4.93986180      11.65306978
Ni       0.31149092       5.02412219      27.19625951
Ni       8.32176072       0.77598282      11.62127459
Ni       7.82270129       0.70852946      27.18001882
Ni       5.69357770       4.82599732      11.68248337
Ni       5.31519771       4.90101774      27.16202810
Ni       1.05041263       3.50660503       3.85468593
Ni       0.69564648       3.44533176      19.46831802
Ni      -1.59282215       7.70211818       3.80766198
Ni      -2.06334326       7.59773995      19.32172319
Ni       6.08838593       3.51729761       3.91748820
Ni       5.59310654       3.58608804      19.42009938
Ni       3.42482298       7.68176627       3.91607319
Ni       2.93938890       7.69984183      19.46165929
Ni       0.84411099       0.70873324      11.57952580
Ni       0.35091920       0.65252066      27.12698013
Ni      -1.67271953       4.94285745      11.64632135
Ni      -2.15832847       4.83135265      27.14193808
Ni       5.84959859       0.74092322      11.64759850
Ni       5.47498852       0.69022836      27.14067541
Ni       3.35673085       4.82441981      11.73821427
Ni       2.88477162       4.87662826      27.11319533
Mg      -0.14329142       1.37859195       3.89054468
Ni      -0.72077289       1.43348577      19.24716932
Ni      -2.73763233       5.60661568       3.86063442
Ni      -3.23292470       5.62258492      19.42610537
Ni       4.89847124       1.36103327       3.90762300
Ni       4.44396854       1.32647999      19.34348911
Ni       2.10456073       5.58460095       3.95340047
Ni       1.80928705       5.67186293      19.33347188
Ni      -1.50148020       3.50410835       3.87637456
Ni      -1.93297368       3.57924665      19.30110079
Ni      -4.11336219       7.64867171       3.85006444
Ni      -4.57457837       7.71667738      19.38510854
Ni       3.56748142       3.45574565       3.92110281
Ni       3.12233104       3.46115765      19.43702937
Ni       0.88925435       7.63120271       3.97122949
Ni       0.45269813       7.67918549      19.40078192
Ni       2.47473128       0.02551258       0.05485563
Ni       2.03931947      -0.09647374      15.53041753
Ni      -0.04749162       4.20186150      -0.00749861
Ni      -0.65255632       4.28214667      15.42664319
Ni       7.54016815       0.01803510      -0.04734907
Ni       7.03575877      -0.00218234      15.58958709
Ni       4.96854077       4.15670250       0.03938431
Ni       4.37675268       4.20147039      15.51842354
Ni       1.16795548       2.05742714      -0.02623078
Ni       0.67123423       2.10213201      15.51592596
Ni      -1.41827499       6.18048214       0.00644974
Ni      -1.82821273       6.31526535      15.46464397
Ni       6.23258381       2.03587814       0.04456811
Ni       5.67510985       2.13390646      15.52941660
Ni       3.60627009       6.27704498       0.06522569
Ni       3.12465333       6.28961493      15.51731406
Ni      -1.55738387       2.21068802       7.66965203
Ni      -2.01927106       2.05572848      23.23771187
Ni      -4.14931005       6.29907718       7.63953918
Ni      -4.68991908       6.26018816      23.30808976
Ni       3.50504440       2.13743200       7.70582854
Ni       2.97297238       2.12623611      23.21215120
Ni       0.77794839       6.23309159       7.73654868
Ni       0.38345066       6.30763352      23.18776946
Ni       2.26651753      -0.06185054       7.76099233
Ni       1.77291843      -0.02950967      23.17613144
Ni      -0.33042030       4.16094173       7.79082038
Ni      -0.91068192       4.26290869      23.30696679
Ni       7.21183775      -0.00878378       7.81016451
Mg       6.74185853      -0.02046473      23.23405723
Ni       4.61294111       4.23728225       7.70037199
Ni       4.12670754       4.13077135      23.25562014
Ni      -1.30169163       2.04367288      -0.02480669
Ni      -1.69622499       2.06767639      15.47036271
Ni      -3.89793479       6.20867062      -0.02546858
Ni      -4.37140421       6.37925257      15.49943094
Mg       3.70186942       2.07857874       0.01396219
Ni       3.16651361       2.08107456      15.46169333
Ni       1.08549087       6.30725945       0.01091158
Ni       0.59224159       6.25161136      15.51314675
Ni       0.94103308       2.13957222       7.81101523
Ni       0.47917691       2.09181568      23.37308270
Ni      -1.65959747       6.25338856       7.76187922
Ni      -2.12467371       6.40913435      23.22041971
Ni       5.86274044       2.17691672       7.80522594
Ni       5.43105035       2.07963492      23.24479850
Ni       3.28482377       6.30932276       7.83010248
Ni       2.88037761       6.33103504      23.24195890
