189
Lattice="10.337558084385803 0.08577343408519598 0.0971963920205626 -5.312857173551813 8.383662210027097 -0.19021369679145197 0.27644188547383824 0.21209273285684263 32.016454562567" Properties=species:S:1:pos:R:3 pbc="T T T"
Mg       0.15740468       0.14300395      14.45788185
Mg       0.22386661       0.16663784      30.55282196
Mg      -2.52641361       4.34125198      14.32916473
Mg      -2.47241445       4.33959587      30.38240203
Mg       5.31761260       0.21772241      14.59845439
Mg       5.47730927       0.16498740      30.53718737
Mg       2.61639825       4.33831353      14.45785198
Mg       0.07401567       0.03740527       6.53242465
Mg       0.23022953       0.19365798      22.47491297
Mg      -2.50334619       4.21390135       6.39372812
Mg       5.23180748       0.10224565       6.58921825
Ni       5.40152999       0.12729558      22.59229391
Mg       2.60642021       4.27980116       6.40116956
Mg       2.72919956       4.39337732      22.47332680
Mg       0.14547771       0.10415546       9.57113385
Mg       0.22404074       0.24853705      25.53014931
Mg      -2.57247300       4.28356000       9.41934148
Mg      -2.46836879       4.35854219      25.46798996
Mg       5.27274877       0.10074793       9.60746948
Mg       5.40266662       0.18502288      25.47024114
Mg       2.61123962       4.35780686       9.55678617
Mg       2.75128666       4.39668701      25.48688115
Mg       0.00983442      -0.06195790       1.52634886
Mg       0.21058464       0.12891015      17.62053692
Mg      -2.63157984       4.25275237       1.45176242
Mg      -2.48721692       4.28391681      17.43081528
Mg       5.23915569       0.07058288       1.63987974
Mg       5.37287667       0.15216335      17.58990270
Mg       2.58871196       4.21103934       1.42246135
Mg       2.66920311       4.33456542      17.43046671
Mg       2.57972192       1.37902119       2.41716404
Mg       2.73151337       1.61040430      18.50685889
Mg       0.02401941       5.64988541       2.36648129
Mg       0.09046726       5.84791344      18.48102349
Mg       7.73162307       1.46449624       2.51249124
Mg       7.95659221       1.55476198      18.55628673
Mg       5.06556425       5.75296333       2.45202921
Mg       5.23468399       5.75456106      18.43180619
Mg       0.01706162       2.86509153      10.53060283
Mg       0.17708661       2.95705257      26.56626292
Mg      -2.66124126       6.99577221      10.38908218
Mg      -2.47144097       7.08859678      26.26569192
Ni       5.19303093       2.91307333      10.47900627
Mg       5.27080452       3.00686608      26.58006669
Mg       2.40689945       7.09659216      10.45600847
Mg       2.73217801       7.25222492      26.37776892
Mg       2.52370454       1.41526848       5.50768475
Mg       2.68344885       1.56738873      21.48482992
Mg      -0.07567061       5.70288814       5.48241375
Mg       0.12115567       5.72202480      21.38776169
Mg       7.79764534       1.50123913       5.54523063
Mg       8.02563235       1.56998085      21.66611220
Mg       5.18313196       5.68693685       5.42443403
Mg       5.30653116       5.80520375      21.44534308
Mg       0.05754964       2.90617013      13.46852912
Mg       0.16270895       2.99086045      29.39390872
Mg      -2.51731726       7.07217878      13.33123104
Ni      -2.41343247       7.14852389      29.39424375
Mg       5.23956619       2.98949348      13.44709460
Mg       5.35917642       2.98409561      29.37699813
Ni       2.69578298       7.04789951      13.38532911
Mg       2.75252903       7.20535510      29.40884114
Ni       2.75365824       1.52653370      14.01102623
Ni       2.85084217       1.62076072      29.97641639
Ni       0.02063472       5.67117316      13.96090485
Ni       0.14366198       5.76055579      29.90654841
Ni       7.86385479       1.52963315      14.00128928
Ni       7.96256756       1.64768917      29.91967138
Ni       5.22433822       5.75639291      14.00464009
Ni       5.30654535       5.85681255      29.96349175
Ni       0.06263885       2.89516202       6.02122642
Ni       0.09769543       3.03270573      22.02489038
Ni      -2.61361518       7.02416467       5.87277203
Ni      -2.56551443       7.18082774      21.85829003
Ni       5.14843056       2.92974970       5.97207631
Ni       5.38803497       2.97948160      21.99906527
Ni       2.48824088       7.16776615       5.89715587
Ni       2.68444342       7.19950195      21.87857601
Ni       2.67063145       1.47210374      10.09747438
Ni       2.73358025       1.55706577      26.17851708
Ni      -0.04125762       5.71947144       9.87673357
Ni       0.18043103       5.85473276      25.86734205
Ni       7.81450957       1.58812541      10.06971940
Ni       8.03897425       1.66162562      26.07764876
Ni       5.13526665       5.72937925      10.02653835
Ni       5.28681837       5.83404430      25.94323696
Ni      -0.09374680       2.77493629       1.94033304
Ni       0.11726569       2.89697447      17.99357110
Ni      -2.79832034       7.03120198       1.85267160
Ni      -2.61247182       7.11695988      17.83621128
Ni       5.12044387       2.90767492       1.94340635
Ni       5.29362646       2.94783040      18.04362156
Ni       2.47661973       6.98719388       1.88138883
Ni       2.62714188       7.20256469      17.94607874
Ni       2.63515223       2.83779616      11.91170234
Ni       2.79594619       3.03774696      28.01930375
Ni      -0.04029353       7.07687777      11.86382435
Ni      -0.02166565       7.21055107      27.93376328
Ni       7.67967241       2.99535224      11.96536128
Ni       7.93607443       2.97384867      28.10684470
Ni       5.12880473       7.10022627      12.01455037
Mg       5.28900915       7.21842046      27.76903358
Ni       3.92820311       0.81295935      12.02252103
Ni       4.18867294       0.89089455      28.08984727
Ni       1.33937720       5.01100841      11.96676429
Mg       1.48853342       5.14246168      27.89634010
Ni       9.20739619       0.71466163      12.04895682
Ni       9.32807108       0.96217266      28.14126651
Ni       6.48008483       5.03245823      12.00594979
Ni       6.64252937       5.14325901      27.99345655
Ni       1.27458724       3.61191774       3.84043618
Ni       1.42786035       3.65602099      19.98562310
Ni      -1.41411958       7.75427153       3.80393257
Ni      -1.33696246       7.96005587      19.83291112
Ni       6.42115929       3.60877993       4.00137288
Ni       6.62599720       3.71133260      19.96371375
Ni       3.77802032       7.83077145       3.92982584
Ni       3.93515216       7.89551157      19.95811839
Ni       1.54178904       0.93489753      28.01073610
Ni      -1.21193245       4.97566573      11.94217538
Ni      -1.13967094       5.07256568      27.93125846
Ni       6.60833074       0.79653697      12.10994622
Ni       6.69628815       0.95095046      28.08083453
Ni       3.90103086       4.96018173      12.05076526
Mg       3.90618128       5.15509270      27.94412887
Ni      -0.03944307       1.49425651       3.95566968
Ni       0.19958708       1.58161125      20.06032254
Ni      -2.58836976       5.66843681       3.86844607
Ni      -2.54929986       5.62704174      19.96527416
Ni       5.14993970       1.42256808       4.00971772
Mg       5.31384981       1.69007098      20.05295170
Ni       2.47599294       5.74017004       3.93737254
Ni       2.61027899       5.80072383      19.90623861
Ni      -1.31147426       3.42383051       3.90851022
Ni      -1.16691406       3.69480742      19.83156057
Ni      -3.92222587       7.68256085       3.76908109
Ni      -3.80470674       7.75721562      19.80936940
Ni       3.81494633       3.64737111       4.04757522
Ni       3.95200462       3.70135578      19.92338202
Ni       1.13126795       7.69397193       3.77694168
Ni       1.24692352       7.77316331      19.84220382
Ni       2.56668291       0.04365419       0.02568695
Ni       2.71579662       0.08924067      16.06672672
Ni      -0.03194673       4.15451519      -0.04386801
Ni       0.04080531       4.32697497      15.84062398
Ni       7.71561562       0.11470853       0.02113857
Ni       7.87782286       0.17084951      16.16617542
Ni       5.06846666       4.26628504       0.00883534
Ni       5.28377249       4.36684510      15.90459675
Ni       1.32608175       2.09340941      -0.01668102
Ni       1.33811536       2.25590207      15.91955192
Ni      -1.43405237       6.31327663      -0.06556632
Ni      -1.20623841       6.38433034      15.86723675
Ni       6.47179617       2.22568153       0.11791278
Ni       6.52657216       2.26582259      16.00933020
Ni       3.73138996       6.28888823      -0.07077927
Ni       3.94893597       6.44558298      15.90867681
Ni      -1.35600757       2.20577951       7.99835626
Ni      -1.07798702       2.19199748      23.93515271
Ni      -4.01386260       6.32090120       7.90950490
Ni      -3.81423831       6.43990367      23.75955524
Ni       3.91925535       2.16374585       8.05453105
Ni       4.04551955       2.29307759      24.05501548
Ni       1.29213661       6.34727707       7.79009864
Ni       1.37822373       6.41908809      23.84623243
Ni       2.62009039       0.04688212       8.06396020
Ni       2.85223155       0.17802750      24.02962487
Ni      -0.01289595       4.25513855       7.93907556
Ni       0.05986471       4.35928293      23.92725700
Ni       7.83725173       0.04540145       8.09251166
Ni       8.02969110       0.21990898      24.11311493
Ni       5.16427383       4.33240581       8.05638218
Ni       5.24271787       4.49570892      23.87486035
Ni      -1.29264487       2.10813849      -0.03626963
Ni      -1.22970800       2.22959079      15.97599272
Ni      -3.91151003       6.32648591      -0.15345865
Ni      -3.87990043       6.42509369      15.76340303
Ni       3.85999821       2.20284929      -0.00979476
Ni       4.04934272       2.28466607      15.98027546
Ni       1.02326046       6.30817140      -0.00749592
Ni       1.30513143       6.42339876      15.83066643
Ni       1.35764151       2.17387216       7.94949970
Ni       1.49474084       2.30009832      24.01234148
Ni      -1.41834401       6.33877857       7.94810374
Ni      -1.20831969       6.40690838      23.81894628
Ni       6.45778833       2.26260923       8.05205481
Ni       6.60054637       2.33347194      24.01791085
Ni       3.75091379       6.33104941       8.02756945
Ni       3.91180085       6.47445628      23.86266344
