191
Lattice="9.808077346042957 -0.15011181037366955 -0.42394500930277196 -4.5802056011827705 8.476582859563079 0.46752105859374316 -0.21509870616011564 -0.880748611646666 32.530585555256614" Properties=species:S:1:pos:R:3 pbc="T T T"
Mg      -0.12116776      -0.37794949      14.75105462
Mg      -0.12155478      -0.82972312      31.00420007
Mg      -2.35291898       3.78696369      14.94379543
Mg      -2.61635404       3.32829835      31.25967841
Mg       4.85477830      -0.52493475      14.56106994
Mg       4.70212340      -0.93492183      30.79542416
Mg       2.55446677       3.76641612      14.71049199
Mg       2.43487070       3.25247526      30.99285322
Mg      -0.04272179      -0.26821481       6.62421966
Mg      -0.19519892      -0.67350693      22.85372373
Mg      -2.30351240       4.14125535       6.84396501
Mg      -2.39953574       3.65479664      23.10621787
Mg       4.85550294      -0.34650728       6.45909189
Mg       4.76894913      -0.64803917      22.67516902
Mg       2.61419307       3.96159023       6.54083014
Ni       2.56713235       3.47207468      22.82959725
Mg       0.02885037      -0.33804253       9.63573891
Mg      -0.17561422      -0.66986868      25.89799798
Mg      -2.23765998       4.00280386       9.92535145
Mg      -2.44891291       3.53614069      26.17340757
Mg       4.79386548      -0.30467720       9.51592821
Mg       4.75491591      -0.81324716      25.65719881
Mg       2.53124429       3.86039370       9.68541906
Mg       2.46685809       3.47016299      25.99106123
Mg      -0.01848006      -0.15877605       1.57419595
Mg      -0.17598392      -0.49791056      17.78135750
Mg      -2.35487870       4.24275467       1.77581894
Mg      -2.39092698       3.74742076      18.07916919
Mg       4.87798533      -0.14977814       1.37052709
Mg       4.78813041      -0.56981637      17.62846638
Mg       2.48883639       4.14638090       1.59989184
Mg       2.40954696       3.74821408      17.72760463
Mg       2.44784645       1.29282989       2.49764859
Mg       2.42587985       0.87935251      18.81884362
Mg       0.21295083       5.59511923       2.67898630
Mg       0.02670134       5.03400648      18.87415760
Mg       7.40127884       1.27742894       2.36229946
Mg       7.28625845       0.77854616      18.46403978
Mg       5.11546053       5.48082847       2.46316902
Ni       4.94099421       5.02048730      18.72382003
Mg       0.02955156       2.40732746      10.76148993
Mg       0.01148519       1.98274283      27.09110408
Mg      -2.27716079       6.83078348      11.07629972
Mg      -2.34862980       6.44760496      27.26378222
Mg       4.85338400       2.42748594      10.55737788
Mg       4.84841572       1.92357533      26.77981183
Mg       2.72048048       6.66310291      10.77286126
Mg       2.49701670       6.23629376      27.02097460
Mg       2.49622305       1.29650454       5.55127827
Mg       2.37013444       0.91975810      21.69054143
Mg       0.13540266       5.37849020       5.74126985
Mg       0.09929339       4.99512124      22.01910327
Mg       7.40191751       1.03494135       5.31801012
Mg       7.23239742       0.71384842      21.59427261
Mg       5.04416991       5.41794224       5.54910248
Mg       4.94447789       4.99298670      21.82453079
Mg      -0.14343790       2.35782826      13.78819552
Mg      -0.08139625       2.04444117      30.10922668
Mg      -2.23837711       6.63983577      14.11014743
Mg      -2.37475414       6.23481439      30.37496460
Mg       4.95515844       2.34457055      13.58608351
Ni       4.78969217       1.90198324      29.90666056
Mg       2.67280194       6.50568615      13.91017202
Mg       2.54063651       6.09955636      30.07971575
Ni       2.36447933       0.99962020      14.19327869
Ni       2.35608273       0.56573248      30.49077149
Ni       0.14451183       5.21047449      14.45047920
Ni      -0.00138125       4.78759604      30.73090747
Ni       7.32296996       0.92356383      13.88237222
Ni       7.27785605       0.38337452      30.18784097
Ni       4.92905273       5.15415624      14.19552671
Ni       4.93836835       4.77081939      30.45866381
Ni       0.06364927       2.57957260       6.22293429
Ni       0.11078143       2.12858107      22.54054850
Ni      -2.32838400       6.92217703       6.41038848
Ni      -2.27845857       6.51794681      22.69363807
Ni       5.01384307       2.59393798       6.01790142
Ni       4.85425008       2.13684922      22.27762640
Ni       2.74838078       6.81295630       6.13467222
Ni       2.61007497       6.28611449      22.47971053
Ni       2.47763707       1.06795033      10.08122154
Ni       2.39654010       0.59410903      26.39774749
Ni       0.13523568       5.27467113      10.36772258
Mg       0.02201520       4.95704236      26.63598600
Ni       7.30496473       1.00497782       9.82845774
Ni       7.23581034       0.56714952      26.14725950
Ni       4.99942128       5.26802833      10.06688525
Ni       4.99974424       4.86392985      26.39680859
Ni       0.14588358       2.73283983       2.10944522
Ni       0.04071784       2.29530566      18.40611745
Ni      -2.15684962       7.06489090       2.31402528
Ni      -2.32778859       6.49591938      18.57440365
Ni       4.93532774       2.77875072       1.92136301
Ni       4.85590724       2.25275968      18.12825889
Ni       2.63765995       6.86355974       2.14930299
Ni       2.52911932       6.39222759      18.36188886
Ni       2.41439151       2.35192638      12.18007360
Ni       2.46218280       1.97633734      28.43402025
Ni       0.01728602       6.20875273      28.70559017
Ni       7.43440171       2.31609866      12.03259849
Mg       7.29156325       1.86372891      28.16015349
Ni       5.16025721       6.63859573      12.12647702
Ni       4.94703422       6.13034108      28.42503853
Ni       3.62969321       0.45008131      12.05624017
Ni       3.52954460      -0.14123477      28.38248009
Ni       1.32608398       4.61297063      12.15852286
Ni       1.26241156       4.10693030      28.51100673
Ni       8.49757727       0.20437394      11.78761010
Ni       8.42221616      -0.19496698      28.08376755
Ni       6.27396920       4.46638642      12.04192329
Ni       6.16489392       4.08994314      28.32911411
Ni       1.32625963       3.37048416       4.09979400
Ni       1.23681126       2.90107296      20.22444728
Ni      -1.04590139       7.60955778       4.33682695
Ni      -1.08750540       7.13192147      20.62383432
Ni       6.36614047       3.34297874       3.91451154
Ni       6.15135649       2.82930242      20.14124719
Ni       3.81878499       7.49167885       4.18718178
Ni       3.71767163       7.10367405      20.46543162
Ni       1.27078471       0.37112517      12.23831791
Ni       1.07892010      -0.10581412      28.37903030
Ni      -1.05902179       4.59397677      12.31561610
Ni      -1.23332062       4.13511466      28.66215444
Ni       6.04450743       0.38354383      12.00259621
Ni       6.03024082      -0.17139993      28.16464791
Ni       3.80093420       4.51554845      12.16651258
Ni       3.70463478       4.10901999      28.42075015
Ni       0.05231131       1.32547752       4.12116712
Ni      -0.01013097       0.94131609      20.38635495
Ni      -2.20194302       5.58962286       4.28156183
Ni      -2.30519351       5.16419142      20.62076209
Ni       4.97031257       1.24583836       3.79249664
Ni       4.95147911       0.71448390      20.07954381
Ni       2.64622637       5.49592609       4.22449814
Ni       2.51946419       4.98302000      20.34825912
Ni      -1.13076146       3.44673740       4.25541718
Ni      -1.22484342       2.94388646      20.53786865
Ni      -3.43812326       7.72174250       4.50530016
Ni      -3.46558836       7.20150009      20.73531309
Ni       3.83657420       3.29196943       4.02322479
Ni       3.73957688       2.88611651      20.30077488
Ni       1.49332319       7.56336668       4.20612878
Ni       1.36585589       7.19426247      20.41405865
Ni       2.46217508      -0.02363483      -0.18930602
Ni       2.41769729      -0.50726469      16.16189783
Ni       0.25596190       4.22075490       0.07125927
Ni       0.17497863       3.73221745      16.43861596
Ni       7.35708601      -0.15888170      -0.42459937
Ni       7.26702698      -0.61743202      15.93494513
Ni       5.06330191       4.10782472      -0.13307727
Ni       4.86907932       3.72533719      16.13047042
Ni       1.31975704       2.16459846      -0.05145568
Ni       1.21091166       1.70741507      16.21607085
Ni      -1.02015041       6.29263177       0.26151849
Ni      -1.01323342       5.95097525      16.48196145
Ni       6.13333398       2.07553645      -0.15518674
Ni       6.10346730       1.55549359      15.98932952
Ni       4.00025566       6.23878432       0.00182019
Ni       3.76338331       5.81480700      16.28412278
Ni      -1.13534385       1.91589375       8.24924043
Ni      -1.29381956       1.49788574      24.57611603
Ni      -3.47556832       6.22979185       8.37121333
Ni      -3.62568828       5.63267228      24.78280795
Ni       3.69016402       1.83017019       7.98096771
Ni       3.57719837       1.40937757      24.26288534
Ni       1.42925837       6.09169710       8.33418473
Ni       1.39493891       5.55232999      24.44272850
Ni       2.39888731      -0.15732982       8.04021020
Ni       2.34366200      -0.79429380      24.26463214
Ni       0.10277666       3.99811164       8.21391551
Ni      -0.03891144       3.52581702      24.56351217
Ni       7.34132091      -0.36226476       7.85610407
Ni       7.19540057      -0.72010619      24.15055227
Ni       5.01961517       4.01379958       8.08257848
Ni       4.89568581       3.44151226      24.35358162
Ni      -1.17816781       2.06149833      -0.03596756
Ni      -1.27329600       1.66918881      16.38144539
Ni      -3.46834405       6.41094913       0.47722402
Ni      -3.62691980       5.88166117      16.56434438
Ni       3.68891461       1.96973162      -0.06254044
Mg       3.65643575       1.56946171      16.18006677
Ni       1.42644930       6.28605642       0.11202958
Ni       1.34527779       5.79312855      16.41482062
Ni       1.23657701       1.87190458       8.08439348
Ni       1.15607186       1.40948445      24.33873652
Ni      -0.99951363       6.13285102       8.37599380
Ni      -1.10180668       5.65943943      24.60753169
Ni       6.12998469       1.73930793       7.97479860
Ni       6.06925335       1.33030019      24.39139365
Ni       3.85877419       6.06319267       8.10346282
Ni       3.78725069       5.51226299      24.43886886
