191
Lattice="9.215940283228443 0.12199673956760111 0.12567766754185336 -4.842984981873029 8.445859821884325 -0.018559875788867943 0.3938205295583663 0.27802924513851957 30.48942485058477" Properties=species:S:1:pos:R:3 pbc="T T T"
Mg       0.24387576       0.15700936      13.82267084
Mg       0.39131644       0.24473863      29.03497182
Mg      -2.15256613       4.36207257      13.83997201
Mg      -2.01725664       4.46935094      29.04491865
Mg       4.90387179       0.18654850      13.87346400
Mg       4.92003934       0.30828038      29.12358021
Mg       2.42696148       4.36345938      13.88563044
Mg       2.50491049       4.50513927      29.11307871
Mg       0.10569469       0.03960362       6.17970533
Mg       0.25062288       0.14699236      21.36576918
Mg      -2.35246225       4.23128580       6.21740387
Mg      -2.17267782       4.43897027      21.51669951
Mg       4.71732928       0.07698791       6.25178075
Mg       4.92943100       0.31799055      21.47710496
Mg       2.35438098       4.35735554       6.29097169
Mg       2.44941898       4.44651433      21.39364680
Mg       0.13628602       0.18380214       9.00125001
Mg       0.31817678       0.14985014      24.33390340
Mg      -2.33193823       4.28876383       9.11498480
Mg      -2.15338653       4.42477126      24.29082929
Mg       4.74784526       0.15221951       9.12589545
Mg       4.90978751       0.26013954      24.41211885
Ni       2.33888696       4.36362744       9.06655038
Mg       2.47441606       4.62548400      24.31538374
Ni      -0.04923801       0.04811597       1.45401729
Mg       0.30881236       0.08274667      16.70807889
Mg      -2.47599007       4.30131521       1.53271682
Mg      -2.20848960       4.34851485      16.70227325
Mg       4.60022423      -0.04137764       1.40006597
Mg       4.78227604       0.20100236      16.65881144
Mg       2.21287770       4.19443070       1.55082593
Mg       2.47036486       4.42525424      16.74508128
Mg       2.33595869       1.53072104       2.47059002
Mg       2.48309505       1.58110637      17.60636842
Mg      -0.14703867       5.72907076       2.43183445
Mg       0.04659943       5.77252489      17.62322843
Mg       6.88063547       1.50147807       2.51187098
Mg       7.06919808       1.67197631      17.75429927
Mg       4.53207876       5.73160569       2.48012927
Mg       4.61953442       6.00936369      17.74453758
Mg       0.11047308       2.87042314      10.08574894
Mg       0.34402924       3.06031253      25.30562738
Mg      -2.31491606       7.11939663       9.98620944
Mg      -2.16933572       7.35261551      25.30055770
Mg       4.64896913       2.96882235      10.16745427
Mg       4.84484945       3.05075884      25.24030915
Mg       2.24375406       7.22530021      10.07113808
Mg       2.36763270       7.27525180      25.26640566
Mg       2.48719267       1.45926488       5.31561565
Mg       2.54779671       1.66319237      20.49613654
Ni      -0.04049988       5.68852992       5.30622323
Mg       0.03899781       5.86655478      20.52689971
Mg       6.95149618       1.51365632       5.36946124
Mg       7.11459493       1.66834102      20.50800207
Mg       4.53638586       5.80720830       5.39253150
Mg       4.61734932       5.91632710      20.56658869
Mg       0.04304349       2.93562737      12.86405640
Mg       0.37089484       3.03260370      28.19651486
Mg      -2.33883245       7.16512071      12.81664091
Mg      -2.15633699       7.34809419      28.08275238
Mg       4.70351089       3.06342576      12.91544178
Mg       4.80866654       3.10595095      28.19576499
Mg       2.17467037       7.29342376      13.02594217
Mg       2.48727365       7.36431980      28.19289437
Ni       2.51952245       1.52108458      13.53495540
Ni       2.61230190       1.74909204      28.66258655
Ni      -0.04452654       5.78508286      13.38447874
Ni       0.25138494       5.95930420      28.58028960
Ni       6.99063619       1.50339064      13.43024366
Ni       7.26352005       1.81907745      28.58071347
Ni       4.61165920       5.90778735      13.40179158
Mg       4.91337423       6.03546496      28.62732522
Ni      -0.02446711       2.91422907       5.73927360
Ni       0.12990886       3.16075458      21.01654812
Ni      -2.36635528       7.12496583       5.75161430
Ni      -2.22521004       7.23648837      21.01561952
Ni       4.63877879       3.02615618       5.80094920
Ni       4.78480756       3.08461268      20.99841595
Ni       2.17739313       7.14753903       5.77583629
Ni       2.34729953       7.31046892      21.02745493
Ni       2.42738641       1.57342425       9.49648345
Ni       2.57204531       1.65181839      24.81069430
Ni      -0.03191618       5.73855475       9.57162608
Ni       0.11745408       5.93598303      24.82403671
Ni       7.02060062       1.59103931       9.64989515
Ni       7.20608313       1.78571767      24.85315680
Ni       4.60659471       5.87447394       9.69209760
Ni       4.79551049       5.89548289      24.88740040
Ni      -0.04678196       2.80175003       1.95561605
Ni       0.15891320       3.01794929      17.11447834
Ni      -2.45482511       7.06807261       1.85511502
Ni      -2.26488219       7.28016891      17.18389316
Ni       4.57396293       2.82661940       1.96322767
Ni       4.77080245       3.05522677      17.21061693
Ni       2.11754120       7.12622125       2.01938837
Ni       2.27552835       7.35429394      17.15256956
Ni       2.35349982       2.95700636      11.48626726
Ni       2.65043162       3.15933592      26.67564797
Ni      -0.04909787       7.18159240      11.43190281
Ni       0.09757323       7.27688419      26.67903606
Ni       7.01904946       3.01793331      11.48677363
Ni       7.21141971       3.21522334      26.75782823
Ni       4.53233842       7.23744220      11.50135237
Ni       4.75151009       7.43245997      26.75533838
Ni       3.55622649       0.89765976      11.52401270
Ni       3.74964644       1.00428198      26.66138684
Ni       1.16762299       5.11202273      11.36687760
Ni       1.40634916       5.21430101      26.71626850
Ni       8.26480020       1.02874470      11.48235728
Ni       8.45654402       1.02936690      26.82236099
Ni       5.79857820       5.17150623      11.54968919
Ni       5.94860843       5.25738102      26.78743237
Ni       1.09082332       3.63445043       3.91338697
Ni       1.23729872       3.73305515      19.17016342
Ni      -1.29280838       7.76172200       3.79224822
Ni      -1.11095287       7.99025024      19.06569972
Ni       5.76712815       3.63697686       3.91354230
Ni       3.21946228       7.85405298       3.91721740
Ni       3.48187596       7.92564350      19.15927937
Ni       1.28494469       0.82548477      11.40731992
Ni       1.49726171       0.94544958      26.75875095
Ni      -1.12711291       5.01782996      11.44847903
Ni      -0.94039702       5.24410939      26.70544806
Ni       5.91256848       0.89890234      11.57991297
Ni       6.09673856       1.00421914      26.81441130
Ni       3.44222755       5.12419655      11.53829065
Ni       3.59077579       5.29541464      26.76972640
Ni       0.08523447       1.39499047       3.87006709
Ni       0.22859796       1.65304545      19.11949417
Ni      -2.44404627       5.73106755       3.76712440
Ni      -2.21585255       5.75748685      19.03448462
Ni       4.71063043       1.51873698       3.91084129
Ni       4.89145086       1.64359241      19.09139545
Ni       2.30249560       5.67365543       3.89278721
Ni       2.39444264       5.89807046      19.12490989
Ni      -1.23809180       3.46647447       3.80709544
Ni      -0.99351801       3.69093521      19.02078137
Ni      -3.59523856       7.79528768       3.75120234
Ni      -3.44485630       7.86954462      19.09838857
Ni       3.39777894       3.65282317       3.85759832
Ni       3.57078723       3.74456649      19.09122946
Ni       0.99317194       7.91679257       3.80772099
Ni       1.14275841       7.99809679      19.01779212
Ni       2.35745148       0.05238003       0.10515204
Ni       2.45474236       0.21974942      15.28245944
Ni      -0.17745784       4.21871004       0.11592804
Ni      -0.01839076       4.33046327      15.28517779
Ni       6.92621272       0.05767602       0.13774845
Ni       7.10401425       0.29641710      15.30296835
Ni       4.49458508       4.37284894       0.06704369
Ni       4.68984028       4.45625108      15.41207894
Ni       1.04748089       2.11402473       0.03846305
Ni       1.28439192       2.23495143      15.36185848
Ni      -1.39278832       6.25833331       0.01339311
Ni      -1.10091866       6.49705862      15.25934296
Ni       5.66683016       2.25658388       0.13095052
Ni       5.84435111       2.31336650      15.28766308
Ni       3.27834251       6.44826646       0.07235835
Ni       3.49791340       6.56362387      15.34642810
Ni      -1.10101365       2.16125920       7.63736697
Ni      -0.84687866       2.30824263      22.79250782
Ni      -3.53897916       6.40036136       7.57164781
Ni      -3.30056775       6.66371144      22.95059426
Ni       3.38804747       2.23846988       7.60595236
Ni       3.65283095       2.42923854      22.95161613
Ni       1.03586349       6.54841838       7.55964456
Ni       1.34211957       6.60526095      22.89711455
Ni       2.45380713       0.00113981       7.66337095
Ni       2.62128880       0.24850784      22.93029654
Ni      -0.01549699       4.38317586       7.67967506
Ni       0.15891508       4.42131847      22.98130093
Mg       6.94722382       0.10411508       7.79023755
Ni       7.16316675       0.27555224      22.97251804
Ni       4.58187115       4.29624076       7.74485006
Ni       4.73307833       4.56969964      22.91353310
Ni      -1.21762480       2.13556656      -0.07980908
Ni      -0.90421900       2.19684505      15.24773081
Ni      -3.64899901       6.34605504      -0.00882195
Ni      -3.31699781       6.53043839      15.18903271
Ni       3.37890418       2.17143829       0.03032723
Ni       3.62566618       2.31770685      15.37491726
Ni       1.05628339       6.41333230       0.07546337
Mg       1.22067110       6.46623286      15.31896075
Ni       1.19753242       2.21584261       7.59564866
Ni       1.42169845       2.38314259      22.93973270
Ni      -1.17736496       6.49029491       7.61941497
Ni      -1.06813760       6.62400288      22.90250814
Ni       5.77813058       2.15929932       7.63303631
Ni       6.00928973       2.48284394      23.01308008
Ni       3.41992338       6.45428485       7.70358179
Ni       3.57552768       6.64062647      22.99806600
