191
Lattice="9.885115022853702 -0.28311665801334973 0.18124530974267894 -4.986129254938243 8.654742566779014 -0.1465728548788065 0.6292853888308199 -0.3323400725749211 32.686704388069714" Properties=species:S:1:pos:R:3 pbc="T T T"
Ni       0.29184141      -0.17926421      14.77557221
Mg       0.54336470      -0.30687056      31.19859547
Mg      -2.18964503       4.20537819      14.72959512
Mg      -1.90343594       4.02326213      31.09119438
Mg       5.19571145      -0.22311393      14.86441767
Mg       5.54242505      -0.42257224      31.21019333
Mg       2.81182874       4.00684184      14.84905808
Mg       3.09885674       3.88057346      31.17307480
Ni       0.13027408      -0.10533917       6.64667821
Ni       0.47453648      -0.23901070      22.96999072
Mg      -2.41339880       4.25436462       6.56182274
Mg      -2.01198497       4.13132303      22.88613372
Mg       5.11553975      -0.31760095       6.70385041
Mg       5.32383829      -0.36375682      23.05898300
Mg       2.64661959       4.09908752       6.71171457
Mg       2.85649039       3.92608411      22.97142953
Ni       0.15168055      -0.13086904       9.75559894
Mg       0.38992483      -0.29685162      26.00752502
Mg      -2.31810469       4.18404276       9.65870091
Mg      -2.03415546       4.02549323      25.88760630
Mg       5.15618395      -0.24462904       9.70423546
Mg       5.45896105      -0.37851571      26.16852007
Mg       2.64588566       4.01784546       9.76964539
Ni       2.95357538       3.94684036      26.00035519
Mg       0.05030531      -0.01291536       1.58325161
Mg       0.24826845      -0.08544716      17.91885481
Mg      -2.52431847       4.28143948       1.52145672
Mg      -2.21815290       4.07477622      17.74003302
Mg       5.05818352      -0.21047530       1.65342199
Mg       5.29983482      -0.30865582      17.99937575
Mg       2.41396673       4.20235624       1.56998327
Mg       2.79787121       3.98562659      17.90809180
Mg       2.48157972       1.26144492       2.54997496
Mg       2.84323587       1.15111351      18.90752969
Mg       0.06901381       5.61864472       2.56885696
Ni       0.34672853       5.52465947      18.90248988
Mg       7.43992347       1.23929353       2.72778491
Ni       7.80794832       0.97372945      19.10330005
Mg       4.97702660       5.48156825       2.59636724
Mg       5.22793014       5.35731597      18.91049447
Mg       0.10957271       2.72780075      10.65662283
Mg       0.45288161       2.54557009      27.11172964
Mg      -2.24603747       7.15218948      10.60329790
Mg      -1.99455618       6.94470322      26.92989446
Ni       5.15641092       2.72162102      10.70144785
Mg       5.47627806       2.44524481      27.13270335
Mg       2.65049692       6.93395345      10.65355885
Mg       2.99662627       6.75903173      27.01171393
Mg       2.51190840       1.30703546       5.63499094
Mg       2.86361854       1.07568357      22.03468491
Mg       0.04130047       5.63270560       5.60669294
Mg       0.42876273       5.50831537      21.85401479
Mg       7.60299634       1.16690475       5.70028483
Mg       7.83527313       0.84981394      22.09609509
Mg       4.96257027       5.46325443       5.59312281
Ni       5.35000736       5.37742428      22.11897930
Mg       0.26270378       2.71892191      13.78353454
Mg       0.49628614       2.54490994      30.23768497
Mg      -2.30022274       7.00166973      13.72412057
Mg      -1.94156219       6.82564217      30.13141539
Mg       5.25727317       2.55198479      13.82655847
Mg       5.47713860       2.39019027      30.18511341
Mg       2.71300856       6.85880963      13.85122429
Mg       3.03021233       6.71161695      30.09842254
Ni       2.76690986       1.24511025      14.35787219
Ni       3.16299534       1.08898358      30.69926119
Mg       0.24621253       5.52291390      14.26207045
Ni       0.52995453       5.37795983      30.64147972
Ni       7.69021656       0.98901328      14.44290201
Ni       8.04423989       0.88190691      30.71356176
Ni       5.15080745       5.30484281      14.38440266
Ni       5.45820339       5.26082790      30.74232600
Ni       0.08202340       2.73506304       6.07474637
Ni       0.42273561       2.50277699      22.49460546
Ni      -2.37448669       7.16406850       6.03437387
Ni      -2.16823438       6.91472665      22.31308826
Ni       5.07111717       2.56911129       6.14377480
Ni       5.36147127       2.48608383      22.63111465
Ni       2.52291310       7.00164502       6.13048304
Ni       2.91926819       6.66867955      22.50313509
Ni       2.70003267       1.14276373      10.31477561
Ni       3.00493900       1.01618577      26.55138617
Ni       0.15208605       5.55623467      10.14662538
Ni       0.55870464       5.40244374      26.56425057
Ni       7.59206410       1.04278782      10.31260414
Ni       7.92261639       0.87788583      26.71171737
Ni       5.07543561       5.36213424      10.24625913
Ni       5.40936476       5.28825408      26.48965687
Ni       0.01356182       2.82219895       2.03083999
Ni       0.34989602       2.64823592      18.38823498
Ni      -2.42803150       7.15741197       1.94448711
Ni      -2.20525151       7.01057548      18.25817958
Ni       5.01107975       2.59779083       2.10464432
Ni       5.32221249       2.48289611      18.45374557
Ni       2.45516102       7.02518347       2.05438196
Ni       2.78436392       6.88084968      18.44040092
Ni       2.69781204       2.60842502      12.25306810
Ni       3.00041654       2.47948642      28.57193624
Ni       0.24383518       6.93082435      12.23699199
Ni       0.55397925       6.80594037      28.46029895
Ni       7.67075132       2.55849077      12.36044472
Mg       7.96708151       2.34796962      28.73815314
Ni       5.03942208       6.89415286      12.22881240
Ni       5.46202022       6.62575755      28.71677397
Ni       3.93273078       0.46630683      12.26622386
Ni       4.24109067       0.36839718      28.65775710
Ni       1.54062340       4.84010039      12.26757198
Ni       1.77976941       4.62217439      28.60864494
Ni       8.94630212       0.34279029      12.47606503
Ni       9.14534251       0.19916561      28.81428145
Ni       6.39185530       4.66194788      12.33113893
Ni       6.69554673       4.51448350      28.60792698
Ni       1.31007769       3.47414383       4.13462379
Ni       1.66574268       3.25698195      20.42359489
Ni      -1.15139025       7.77476753       3.97715568
Ni      -0.81434444       7.66772333      20.30985219
Ni       6.32904196       3.38768324       4.21163601
Ni       6.65262684       3.06165655      20.52199564
Ni       3.79383015       7.59830881       4.06048959
Ni       4.02791443       7.47123756      20.35688008
Ni       1.45788267       0.52936739      12.33008493
Ni       1.81782262       0.38554302      28.67958587
Ni      -0.90928618       4.89899116      12.23826645
Ni      -0.69988549       4.80756192      28.60300199
Ni       6.41119616       0.45851699      12.30670692
Ni       6.70861066       0.22918601      28.69603962
Ni       3.76542159       4.69291415      12.32668099
Ni       4.30420604       4.61012891      28.59258336
Ni       0.06255439       1.38082213       4.06635625
Ni      -2.38454242       5.71139808       3.99463324
Ni      -1.99021113       5.49851072      20.31212011
Ni       5.02588479       1.22708840       4.17669204
Ni       5.41622597       1.09439172      20.50318027
Ni       2.53227180       5.56062876       4.06669412
Ni       2.85083378       5.33332043      20.32492725
Mg      -1.16831653       3.50957195       3.99996206
Ni      -0.93154390       3.34557921      20.32996910
Ni      -3.69306250       7.93048925       4.02351371
Ni      -3.30072871       7.72456104      20.27382673
Mg       3.71081836       3.49600264       4.06756137
Ni       4.06944151       3.20680804      20.50392617
Ni       1.34475835       7.70454126       4.07045757
Ni       1.51582732       7.52241555      20.56020623
Ni       2.39115743      -0.13969486       0.05800848
Ni       2.77563154      -0.19001284      16.34690546
Ni      -0.04756080       4.22268004      -0.09071216
Ni       0.20733891       4.05381133      16.29110213
Ni       7.31717655      -0.24757250       0.06564293
Ni       7.80158887      -0.34145402      16.53757584
Ni       4.94146783       4.13313613       0.04217071
Mg       5.19544717       3.88454260      16.35311636
Ni       1.25174162       2.05117713       0.00234760
Ni       1.53478091       1.87365787      16.37113293
Ni      -1.27563381       6.39984769      -0.08254336
Ni      -1.06078942       6.19922421      16.37365537
Mg       6.21321925       2.02457469       0.16136059
Ni       6.51986355       1.67591713      16.52239423
Ni       3.65169718       6.25266384      -0.02546002
Ni       4.04987528       6.13231893      16.39690477
Ni      -1.10838549       2.03516940       8.04605778
Ni      -0.79964542       1.80216651      24.48071685
Ni      -3.55104372       6.41771284       8.06305592
Ni      -3.32582296       6.18754028      24.48835791
Ni       3.79735190       1.85979612       8.13963379
Ni       4.16314436       1.75605912      24.53075859
Ni       1.41244487       6.25841148       8.14407272
Ni       1.73078371       6.00972413      24.55423629
Ni       2.63965288      -0.23281749       8.20455767
Ni       2.90481776      -0.28077236      24.62429824
Ni       0.19623826       4.22562722       8.16293108
Ni       0.49310205       3.97268568      24.45469789
Ni       7.53912461      -0.31078360       8.20420060
Mg       7.81297773      -0.48248903      24.61493735
Ni       5.15067902       4.05456016       8.23868081
Ni       5.37414982       3.91707171      24.53887960
Ni      -1.27651288       2.10438479       0.02419375
Ni      -0.98433232       1.98841767      16.27481507
Ni      -3.78780717       6.49323156      -0.00930328
Ni      -3.44100565       6.31437389      16.28513884
Ni       3.64561865       2.01679572       0.10917993
Ni       3.98196921       1.85641475      16.37247591
Ni       1.31700436       6.28534836      -0.03680742
Ni       1.53137681       6.17848726      16.37400054
Ni       1.47577059       2.04972865       8.24546300
Ni       1.65560870       1.86289397      24.55704029
Ni      -1.19555051       6.29506756       8.07262147
Ni      -0.78130584       6.15013020      24.56079051
Ni       6.44937667       1.81283817       8.19574479
Ni       6.63726226       1.64363410      24.64487987
Ni       3.83317241       6.22487089       8.18871055
Mg       4.13781866       6.02345128      24.48027729
