189
Lattice="9.712406900745197 0.07299415177580174 -0.029425324225250918 -4.767151327009096 8.439206904411156 0.17623777917438987 -0.17383355267354336 -0.4942953790943113 31.70698584571247" Properties=species:S:1:pos:R:3 pbc="T T T"
Mg      -0.07286914      -0.21038816      14.36881176
Mg      -0.12675493      -0.46287822      30.24450167
Ni      -2.57556675       3.74556168      30.31400040
Mg       4.75985231      -0.19820553      14.32337682
Mg       4.63594248      -0.46581427      30.12625782
Mg       2.37170073       4.00483598      14.51881830
Ni       2.37023024       3.73646632      30.22310151
Mg      -0.06115612      -0.06076136       6.44106609
Mg      -0.09341498      -0.37403434      22.29774605
Mg      -2.43951728       4.14026606       6.44215250
Mg      -2.50907020       3.83776590      22.23549944
Mg       4.79623970      -0.10068987       6.49860668
Ni       4.61830976      -0.29081699      22.23945794
Mg       2.47409337       4.11807136       6.47275572
Mg       2.29430095       3.87853863      22.33366097
Mg       0.01488357      -0.12605551       9.49336667
Ni      -0.20268957      -0.32461131      25.37378528
Mg      -2.51012055       4.09602467       9.51153765
Mg      -2.48510447       3.83310269      25.34432217
Mg       4.82052884      -0.03498636       9.35144767
Mg       4.71131224      -0.35324385      25.20813681
Mg       2.48431978       4.06298245       9.56256208
Mg       2.30001096       3.87980726      25.39258680
Mg      -0.01026045      -0.03466730       1.54244816
Mg      -0.08485514      -0.22536306      17.26036030
Mg      -2.37440221       4.24384667       1.60984954
Mg      -2.50677213       3.96504658      17.35375449
Mg       4.83540938       0.03604216       1.48340775
Ni       4.70762484      -0.27080155      17.38936270
Mg       2.56488206       4.20205281       1.52707435
Mg       2.29726770       4.02097911      17.35835184
Mg       2.46821685       1.46279370       2.46877199
Mg       2.35712761       1.11273251      18.20917627
Mg       0.06790152       5.54774363       2.59290918
Mg       0.00531856       5.33351611      18.41869141
Mg       7.24734422       1.28319514       2.33024596
Mg       7.17994493       1.28717979      18.24350967
Mg       4.85765295       5.62039603       2.56544315
Mg       4.86089449       5.47172105      18.40830333
Mg      -0.01323279       2.70331378      10.35613340
Mg      -0.03627155       2.52486389      26.38930106
Mg      -2.39313491       6.85379268      10.54762342
Mg      -2.51956636       6.62683217      26.43713232
Mg       4.84103372       2.69087855      10.44523014
Mg       4.72848692       2.36931838      26.24080504
Mg       2.46467038       6.91539999      10.58042612
Mg       2.34939447       6.64395513      26.27015791
Ni       2.37724306       1.38509700       5.54878475
Ni       2.40049823       1.19078736      21.29181988
Mg       0.14915520       5.52659655       5.56377982
Mg      -0.04069512       5.26770904      21.47807904
Mg       7.24232683       1.42501190       5.52231328
Mg       7.15934422       1.09279912      21.31969129
Mg       4.77335519       5.67180887       5.44740028
Ni       4.83077009       5.35616801      21.39640437
Mg      -0.09511697       2.63847756      13.34318522
Mg      -0.16615882       2.30254846      29.24759419
Mg      -2.33842153       7.00672253      13.57250402
Mg      -2.51754730       6.59531194      29.27704902
Mg       4.71749590       2.64004312      13.47651960
Mg       4.66689397       2.31464832      29.29218084
Mg       2.49402639       6.94942491      13.52095723
Mg       2.37018355       6.63972459      29.38590272
Ni       2.30838474       1.14630582      13.87838439
Ni       2.33441474       0.90611309      29.71145361
Ni      -0.04461035       5.41976110      13.95555118
Ni      -0.06400238       5.28270152      29.88497798
Ni       7.27197982       1.19540865      13.86301167
Ni       7.23015948       0.91686082      29.69061116
Ni       4.84601565       5.39454716      14.01213317
Ni       4.76883516       5.23335602      29.85273247
Ni       0.06697746       2.73064547       5.93199672
Ni      -0.07084291       2.41810353      21.86189904
Ni      -2.36274231       6.95692355       6.12849020
Ni      -2.53106161       6.66453192      21.94585876
Ni       4.82074426       2.75005818       6.03338974
Ni       4.70222283       2.40108868      21.78060006
Ni       2.48318275       7.02491167       6.01756860
Ni       2.40148686       6.79812796      21.96383728
Ni       2.34273575       1.22394655      10.02122907
Ni       2.31805820       1.01316350      25.82816468
Ni      -0.01042943       5.43302357      10.00463045
Ni      -0.12155445       5.28968763      25.78105849
Ni       7.31626723       1.27007633       9.86770021
Ni       7.20524765       1.01724748      25.77963984
Mg       4.92363861       5.46118062      10.05125282
Ni       4.75934932       5.29686007      25.84046747
Ni      -0.03508486       2.75111014       2.00968299
Ni      -0.07465437       2.60692691      17.94375368
Ni      -2.33981857       7.00741718       2.21470454
Ni      -2.44780786       6.80692179      17.99531464
Mg       4.88653884       2.78030540       2.12698782
Ni       4.78172992       2.55971026      17.88514365
Ni       2.46633485       7.09453259       2.08701952
Ni       2.43600636       6.73230281      17.98512441
Ni       2.39927026       2.68460520      11.94132611
Ni       2.36368270       2.41303909      27.73932912
Ni       0.04588414       6.87425577      12.05349656
Ni      -0.02473834       6.66287346      27.82932801
Ni       7.28306458       2.68935146      11.98714382
Ni       7.22262664       2.35472043      27.65935462
Ni       4.95559744       6.97202040      11.97259834
Ni       4.84582875       6.59348932      27.91179319
Ni       3.62644879       0.50292821      11.95354941
Ni       3.46528631       0.25328236      27.75771939
Ni       1.17121587       4.79699010      11.95138327
Ni       1.10270403       4.59069496      27.77255131
Ni       8.43496672       0.68158306      11.91339989
Ni       8.32886248       0.37571159      27.74401404
Ni       6.09048497       4.75793835      12.03405246
Ni       6.00765882       4.58165904      27.79037351
Ni       1.19194842       3.49205653       3.99432195
Ni       1.15889816       3.30143189      19.89068782
Ni      -1.23639907       7.64818136       4.03150309
Ni      -1.34925889       7.48995867      19.98425349
Ni       6.13611905       3.49651076       3.99934869
Ni       5.92487535       3.19974540      19.88333179
Ni       3.66209564       7.70372426       4.10004298
Ni       3.61143927       7.44958449      19.94680601
Ni       1.07045002       0.50918642      11.82531128
Ni       1.10609676       0.17305579      27.65569792
Ni      -1.30527974       4.75692800      11.98540206
Ni      -1.29199874       4.56258702      27.86374734
Ni       5.89334265       0.57729651      11.96436351
Ni       6.02451641       0.33147241      27.76721773
Ni       3.67291131       4.77409324      11.91513072
Ni       3.51288788       4.48501581      27.87313340
Ni      -0.07267288       1.39870113       3.98918405
Ni      -0.09990868       1.10645056      19.82200816
Ni      -2.38343087       5.49683443       4.02314450
Ni      -2.46266294       5.36461667      19.94994723
Ni       4.82759419       1.40984467       3.97369384
Ni       4.74652522       1.13418576      19.79941477
Ni       2.49023261       5.58670538       4.01366734
Mg       2.36172425       5.40072392      19.99114044
Ni      -1.26858893       3.48576310       4.05532532
Ni      -1.27015760       3.19185762      19.81267233
Ni      -3.73069529       7.72293686       4.17865483
Ni      -3.63726820       7.39033812      19.97746433
Ni       3.63764143       3.46793272       4.00181201
Ni       3.56898954       3.23899122      19.95339405
Ni       1.19865383       7.75557030       4.16185488
Mg       1.18171336       7.38395202      20.01379657
Mg       2.36064188      -0.08736954       0.03231928
Ni       2.30149755      -0.22746705      15.89574687
Ni      -0.03076817       4.23230942      -0.02984241
Ni       7.38092147       0.01331412       0.02436059
Ni       7.17164720      -0.17520651      15.83889018
Ni       4.94638397       4.36117077       0.12752883
Ni       4.82300682       4.09499618      15.91122785
Ni       1.29699127       2.12231316       0.10874934
Mg       1.31162200       1.97385428      15.86229718
Ni      -1.09263141       6.45354126       0.09145995
Ni      -1.19186767       6.02980118      15.97766490
Ni       6.08739916       2.11491575      -0.05553271
Ni       6.00397368       1.91062287      15.87688520
Ni       3.73693426       6.43278692       0.17632119
Ni       3.62234946       6.14389054      15.99643937
Ni      -1.21809504       2.00376427       8.02983079
Ni      -1.40960562       1.72331837      23.83392240
Ni      -3.63420090       6.20086254       8.07415936
Ni      -3.67934916       6.08266016      23.85635461
Ni       3.62222080       2.03294764       8.04113445
Ni       3.51631230       1.72694556      23.88160801
Ni       1.20243112       6.26929762       7.97992313
Ni       1.13755073       5.94219669      23.84063983
Ni       2.39237096      -0.12260275       7.95443277
Ni       2.35041631      -0.32393680      23.84063982
Mg      -0.05225142       4.06841381       8.02413065
Ni      -0.05748589       3.89539111      23.85543172
Ni       7.20768626      -0.05288988       7.87204410
Ni       7.21180273      -0.35831949      23.82554741
Ni       4.82232001       4.13703548       7.93467615
Ni       4.76925560       3.88971845      23.82347374
Ni      -1.16503480       1.99755884       0.06571221
Ni      -1.34571556       1.85335786      15.82502488
Ni      -3.61515250       6.26858258       0.10520659
Ni      -3.64226925       6.13048581      15.94551947
Ni       3.70382710       2.13543431      -0.02278261
Ni       3.51707007       1.93233603      15.84464860
Ni       1.28288479       6.35337794       0.14903377
Ni       1.27703604       6.10693509      15.90715813
Ni       1.16130693       1.95245786       8.00174291
Ni      -1.17398972       6.21519877       8.05903773
Ni      -1.36515790       5.87396558      23.88201497
Ni       6.10634091       1.99409918       7.91313224
Ni       6.01075681       1.84672430      23.83093346
Ni       3.56122406       6.33234304       8.07532035
Ni       3.67536373       6.00067025      23.88170741
