190
Lattice="9.614492216513407 -0.07085967975093314 -0.10323541872857064 -4.792792205763254 8.630848050940239 -0.014872360430583579 0.2725333798577951 0.5990474158665816 32.05374731863656" Properties=species:S:1:pos:R:3 pbc="T T T"
Mg       0.12975990       0.18395730      14.42347218
Mg       0.24351720       0.56304994      30.45992820
Mg      -2.32262898       4.55459421      14.49042026
Ni      -2.22891383       4.91064610      30.50522399
Mg       4.96715232       0.28572471      14.38005909
Mg       5.16322629       0.52550236      30.47707771
Mg       2.56885874       4.49237042      14.41281081
Mg       2.67453058       4.70514309      30.46306981
Mg       0.03842492       0.20508536       6.60890500
Mg       0.18930811       0.39032195      22.46023182
Ni      -2.33459429       4.45253706       6.44429836
Mg      -2.20228953       4.81056218      22.50350972
Mg       4.86361604       0.12024789       6.44626594
Mg       5.02267541       0.39779689      22.53613690
Mg       2.54001187       4.48131089       6.38697392
Mg       2.56880659       4.72552017      22.50725507
Mg       0.08634382       0.19856246       9.48952900
Mg       0.22374192       0.49644965      25.56981935
Mg      -2.13096692       4.70386294      25.55530194
Mg       4.85746424       0.13346889       9.40914940
Mg       4.91013395       0.44266096      25.48901069
Mg       2.51021818       4.37294782       9.48611491
Mg       2.57441931       4.79292360      25.46205112
Mg       0.06622348      -0.02909157       1.46527920
Mg       0.22147679       0.33415588      17.60074392
Mg      -2.30422909       4.33080985       1.48384239
Mg       4.74613994      -0.03856886       1.51265214
Mg       4.94967229       0.32595575      17.44879895
Mg       2.41781627       4.27432894       1.58946965
Mg       2.57552669       4.61270822      17.50763683
Mg       2.40390475       1.32291529       2.43813860
Mg       2.54629227       1.68005230      18.53023509
Mg      -0.00807659       5.74376539       2.42105869
Mg       0.24257251       6.02670546      18.43817855
Mg       7.24778243       1.36885164       2.39870806
Mg       7.37415926       1.70907779      18.42645987
Mg       4.78322798       5.77439992       2.40414672
Mg       4.92084937       6.09684207      18.38981947
Mg       0.05143869       3.02902176      10.50863259
Mg       0.24216007       3.40847443      26.56539700
Mg      -2.32266877       7.31847805      10.53666027
Mg      -2.20186617       7.66378777      26.36907937
Ni       4.95521944       3.06691332      10.42766571
Mg       5.07053367       3.28259841      26.45229701
Mg       2.55900511       7.26806388      10.46678723
Mg       2.67098751       7.59743100      26.54146846
Ni       2.46549063       1.45329346       5.53356250
Mg       2.57789429       1.90632135      21.55562091
Mg       0.06504310       5.84257235       5.48633614
Mg       0.18815720       6.10493370      21.40279217
Ni       7.34560658       1.43301873       5.45449615
Mg       7.33144276       1.85269101      21.50161186
Mg       4.90649898       5.79991586       5.44943848
Mg       5.01317192       6.09736641      21.41298657
Mg       0.18133974       3.15048569      13.54461879
Mg       0.14671261       3.42751143      29.56745941
Mg      -2.25799288       7.52824633      13.60248869
Ni      -2.00617936       7.77243092      29.48924579
Mg       4.85717298       3.11413510      13.43580835
Mg       5.07938943       3.28678605      29.46903773
Mg       2.50653400       7.43114387      13.44973403
Mg       2.65951642       7.71639583      29.59288787
Ni       2.55538976       1.72687860      13.93265922
Ni       2.70572811       1.93382137      30.01148504
Ni      -0.02240711       5.91634252      14.01604519
Ni       0.28565420       6.35344679      30.01115913
Ni       7.36679129       1.67270204      13.97388668
Ni       7.50792537       1.93362716      29.94879516
Ni       4.86562927       5.89319680      13.80416943
Ni       5.10709219       6.17263062      29.84855752
Ni       0.09976843       2.98363336       5.96960499
Ni       0.26712421       3.32323397      21.93582252
Ni      -2.36421503       7.31001680       5.98061035
Ni      -2.07143585       7.63542410      22.01616763
Ni       4.93705910       2.84348513       5.94382183
Ni       5.06332340       3.27673092      21.94128813
Ni       2.56008544       7.20792899       5.97723706
Ni       2.66733793       7.55012230      21.96667521
Ni       2.50987420       1.60879409      10.00478246
Ni       2.62445329       1.92758896      25.98467074
Ni       0.06081493       5.83388782      10.00116913
Ni       0.27172969       6.26179154      26.04146268
Ni       7.31876630       1.59211488       9.95362390
Mg       7.46383108       1.78041492      26.04154225
Ni       4.91499227       5.90524640       9.94916892
Ni       5.06146775       6.21068719      25.99682638
Mg      -0.01168464       2.87479928       2.03545564
Ni       0.19822124       3.17597464      18.02231162
Ni      -2.39748435       7.20809028       2.01381509
Ni      -2.19841716       7.43395596      18.05754480
Ni       4.81476404       2.96157365       1.91133143
Ni       4.99827195       3.13701805      17.93873442
Mg       2.42434459       7.23895286       1.93775206
Ni       2.61139593       7.49319211      17.98070535
Ni       2.55819762       3.05619385      12.07432057
Ni       2.64344617       3.46659857      27.96561173
Ni       0.11142576       7.40822402      12.04949101
Ni       0.22636227       7.74742605      27.92218749
Ni       7.30165664       2.97669501      11.88447839
Ni       7.43552003       3.38350524      27.99517750
Ni       4.92891826       7.31158401      11.93708647
Ni       5.09491722       7.66409214      28.00656651
Ni       3.76154870       0.89617929      11.98389439
Ni       3.80038825       1.14063418      27.95506094
Ni       1.35853759       5.24715038      11.95922757
Ni       1.43093319       5.48450343      27.87463000
Ni       8.49105174       0.86399585      11.90621097
Ni       8.69544874       1.21061731      27.95202270
Ni       6.11128065       5.23674656      11.94701955
Ni       6.27725251       5.43985535      28.01794920
Ni       1.18224311       3.62601580       3.99835534
Ni       1.36256734       3.92272858      19.90662150
Ni      -1.08362436       7.97650384       3.92716455
Ni      -0.94112177       8.20541166      20.04576254
Ni       6.00347849       3.64641517       3.93394031
Ni       6.20716401       3.80611751      19.95421476
Ni       3.65237713       7.88487603       3.96754856
Ni       3.75080207       8.14538631      19.86036430
Ni       1.35972937       0.98666520      11.94875230
Ni       1.39595000       1.24932067      28.10753781
Ni      -1.08941167       5.34725169      11.95859658
Ni      -0.86412275       5.51503964      28.02931257
Ni       6.12255946       0.90479253      11.97692573
Ni       6.24413835       1.18774113      27.89368082
Ni       3.65104974       5.16904298      11.87978117
Mg       3.83550584       5.52433509      28.00652056
Ni       0.11759371       1.51061756       4.08355627
Ni       0.10704696       1.78586450      20.01409397
Ni      -2.37664769       5.79293141       3.95841425
Ni      -2.25998705       6.20520895      19.98588193
Ni       4.84778992       1.47153568       3.92884589
Ni       4.93681830       1.72181118      19.92373649
Ni       2.51818187       5.85343500       3.94795160
Ni       2.59136812       6.11724121      20.01761519
Ni      -1.15833038       3.54555700       4.03218483
Ni      -1.00329260       3.95367535      20.04789582
Ni      -3.52340840       8.02878417       4.09508209
Ni      -3.40055430       8.21683764      19.98155926
Ni       3.64337011       3.66282098       4.02837633
Ni       3.83147625       3.85775306      20.00591248
Ni       1.22627739       7.94024955       3.90489612
Ni       1.39727338       8.27471685      19.87232228
Ni       2.41152756      -0.10681091      -0.01531083
Ni       2.55133261       0.31468534      16.00166470
Ni       0.02762898       4.33180332      -0.00812313
Ni       0.23599227       4.62528201      16.05139650
Ni       7.26946270      -0.11516940      -0.09952321
Ni       7.33212319       0.25513415      15.91916196
Ni       4.89587055       4.26693585      -0.03894488
Ni       5.03427564       4.46597746      15.98048291
Ni       1.21122179       2.13567105      -0.01133552
Ni       1.35686906       2.41289731      15.98741427
Ni      -1.28888881       6.40094846      -0.00426901
Ni      -1.03722540       6.72285517      15.97860840
Ni       6.04387135       2.11531319      -0.06426773
Ni       6.19120074       2.42509320      15.89630416
Ni       3.63392271       6.43868358      -0.10641050
Ni       3.76034838       6.69762136      15.87403257
Ni      -1.10558717       2.33324061       8.04495252
Ni      -0.96229077       2.61240646      24.03997617
Ni      -3.47082447       6.63907793       7.94813713
Ni      -3.43323489       6.91547592      24.01010932
Ni       3.64321276       2.36540733       7.95556703
Ni       3.77272136       2.57640293      23.96117086
Ni       1.27815683       6.63624417       7.93023429
Ni       1.42741980       6.81273487      23.92619437
Ni       2.38407282       0.09950482       7.98927069
Ni       2.52667669       0.35799050      23.95914034
Ni       0.23775088       4.52083127       7.96100802
Ni       0.23206816       4.79300387      24.00708338
Ni       7.21490786       0.11457491       7.91483243
Ni       7.45680803       0.36778820      23.92623825
Ni       4.88815802       4.34165259       7.99455146
Ni       5.08484142       4.73523025      24.01455887
Ni      -1.28419018       2.15881437      -0.05939427
Ni      -1.05365707       2.36627112      16.05216271
Mg      -3.58010335       6.48770368      -0.07917423
Ni      -3.49347581       6.78033784      16.04875331
Ni       3.50179951       2.02621686      -0.01545398
Ni       3.74893861       2.49937815      16.00611320
Ni       1.27160110       6.29932033      -0.05321202
Ni       1.38269363       6.72825380      15.96310373
Mg       1.32610727       2.29589638       7.99585883
Ni       1.43077431       2.52487294      23.97089695
Ni      -1.11987072       6.58365915       7.98007899
Ni      -0.97142850       6.88698133      23.88428801
Ni       6.15257181       2.24271358       7.94840931
Ni       6.20047017       2.56043698      24.06185667
Ni       3.68348801       6.55465046       7.90852542
Ni       3.83146518       6.85073539      23.91968141
