189
Lattice="9.911000118133895 0.09690279965361807 -0.03271174356908396 -4.726831595245833 8.457606657847851 -0.18961791612277892 -0.05123707791226755 0.22980753913112817 31.89089863250661" Properties=species:S:1:pos:R:3 pbc="T T T"
Mg      -0.05928374       0.20538596      14.44518236
Mg      -0.02291689       0.23167904      30.44317741
Mg      -2.37233122       4.33437542      14.26815150
Mg      -2.37603560       4.36616271      30.27628508
Mg       4.91435416       0.14093432      14.42194682
Ni       4.87223586       0.29461194      30.43092492
Mg       2.54580569       4.35870179      14.31252691
Mg       2.45196363       4.41603663      30.26224513
Mg       0.06840101       0.05427508       6.40839854
Mg      -0.08302322       0.16630241      22.41144552
Mg      -2.42971453       4.32270010       6.41769802
Ni      -2.45242942       4.31691625      22.33616958
Mg       4.94108750       0.08362078       6.40905153
Mg       4.90387826       0.11879905      22.45430515
Mg       2.62047771       4.35889383       6.33582214
Mg       2.53818344       4.45102646      22.34588613
Mg       0.07186752       0.02809748       9.53578385
Mg      -0.05459325       0.16402774      25.50669660
Mg      -2.29922505       4.34417808       9.33344929
Mg      -2.38193106       4.50503943      25.23930938
Mg       4.96480251       0.07343471       9.48949920
Mg       4.86355649       0.25301560      25.37197704
Mg       2.58919198       4.35372851       9.38092116
Mg       2.61455474       4.36286492      25.33683715
Ni       0.00129600      -0.01499040       1.49809504
Mg       0.02674181       0.14057540      17.54765693
Mg      -2.38590939       4.22039337       1.44089681
Mg      -2.37815251       4.34886237      17.33590622
Mg       4.96551405       0.03136726       1.53847806
Mg       4.90783230       0.13123385      17.36146267
Mg       2.54719797       4.24572468       1.32137684
Mg       2.60902340       4.31115819      17.40728951
Mg       2.44887569       1.39242430       2.43936050
Mg       2.47016669       1.52837976      18.30341479
Mg       0.04517162       5.77922500       2.35687464
Mg       0.12701939       5.82861517      18.36285647
Mg       7.45886109       1.47856468       2.35139137
Mg       7.41550281       1.59942233      18.33295439
Mg       5.09264576       5.76935640       2.37548787
Ni       5.04025052       5.84795106      18.31274757
Mg       0.06555203       2.88274670      10.47395216
Ni       0.04983750       3.01279240      26.38153771
Mg      -2.30147440       7.19380463      10.32941861
Mg      -2.31944490       7.22774741      26.21976542
Mg       5.10751246       3.02193487      10.38396252
Mg       4.98366531       3.12295661      26.37842114
Mg       2.67972349       7.14960174      10.32799373
Mg       2.59266314       7.30949066      26.33872734
Mg       2.52104488       1.41887121       5.45694222
Mg       2.55275040       1.69013000      21.35764077
Mg       0.11572229       5.85005820      21.30682045
Mg       7.55686326       1.46102375       5.31418806
Mg       7.43141035       1.62895724      21.43898062
Mg       5.11836481       5.76831474       5.37364476
Ni       5.08117874       5.80907436      21.21231034
Mg       0.07072117       2.94939727      13.33569247
Ni       0.01927633       3.11588786      29.24061199
Mg      -2.27304959       7.14751959      13.29317444
Mg      -2.43487021       7.35479642      29.23558599
Mg       5.02784031       3.04115778      13.38372724
Mg       4.90661786       3.09994676      29.34108965
Mg       2.75269412       7.18645961      13.24308716
Mg       2.66844977       7.41465874      29.26855673
Ni       2.58829162       1.48205806      13.91016564
Ni       2.48916869       1.66418270      29.82987630
Ni       0.19714131       5.79372727      13.82162835
Ni       0.16988431       5.84402382      29.75370001
Ni       7.39000706       1.65536372      13.80667218
Ni       7.46770585       1.69914052      29.77907866
Ni       5.01344733       5.88761297      13.76085775
Ni       4.99492464       5.96721418      29.72292752
Ni       0.11466040       2.85589297       5.80849920
Ni       0.10368456       3.07893618      21.87083704
Ni      -2.16075207       7.14386615       5.86644822
Ni      -2.38197387       7.30073467      21.76786381
Ni       4.96545059       2.90079543       5.97699664
Ni       4.91285626       2.94463287      21.82581707
Ni       2.60569088       7.05325236       5.79941406
Ni       2.73444918       7.20164903      21.78517646
Ni       2.50166788       1.51031861       9.88038523
Ni       2.43788248       1.72838241      25.90093699
Ni       0.08648545       5.78758156       9.85239729
Ni       0.11223950       5.91582831      25.81377369
Ni       7.49510823       1.59278370       9.83432525
Ni       7.39900226       1.59377630      25.88188989
Ni       5.10814305       5.77381489       9.77157252
Ni       5.06716323       5.96410955      25.76440360
Ni       0.09682073       2.84298575       1.91987504
Ni       0.04341821       2.95086407      17.80163498
Ni      -2.35546712       7.08988321       1.88048006
Ni      -2.31366468       7.16781287      17.71116207
Mg       5.00236299       2.84732059       1.87769703
Ni       4.95295786       2.97206631      17.79310032
Ni       2.67745799       7.19562727       1.76908375
Ni       2.66585812       7.20670037      17.83062155
Ni       2.47152491       2.96133295      11.82489088
Ni       2.49243587       3.18704751      27.75357266
Ni       0.02564169       7.16015422      11.71853167
Ni       0.10081465       7.20075724      27.78849821
Ni       7.52831577       3.01890812      11.83419106
Mg       7.47332701       3.10437924      27.86656029
Ni       5.10945749       7.20013894      11.74030059
Ni       5.10363012       7.28800904      27.76098440
Ni       3.67431287       0.89046897      11.95556307
Ni       3.79517875       0.84743007      27.85293781
Ni       1.32458688       5.07031920      11.77929520
Ni       1.30921010       5.12992850      27.77042838
Ni       8.63819651       0.87225958      12.01046252
Ni       8.62405725       1.07743023      27.85214044
Ni       6.29887256       5.11065129      11.85884144
Ni       6.25461149       5.29832740      27.79016011
Ni       1.32832408       3.57469938       3.88774798
Ni       1.31731980       3.70287103      19.85921610
Ni      -1.10124734       7.80527885       3.79553351
Ni      -1.05112010       7.90219672      19.76944830
Ni       6.28509942       3.56310742       3.85407162
Ni       6.23705834       3.76367614      19.81169998
Ni       3.95849741       7.93409793       3.78566316
Ni       3.97136015       7.97181591      19.73067470
Ni       1.23504804       0.80712833      11.96420201
Ni       1.26143337       0.92263118      27.85177438
Ni      -1.03687662       5.09031319      11.84791977
Ni      -1.09734210       5.12768097      27.73692680
Mg       6.18827006       0.90427864      11.96961513
Ni       6.11636603       0.93720532      27.85823304
Ni       3.80795401       5.04196085      11.83479377
Ni       3.70418057       5.17621012      27.76993150
Ni       0.00785397       1.44951127       3.98411370
Ni       0.08782865       1.51569489      19.84466194
Ni      -2.27365284       5.73186256       3.84236601
Ni       4.96282841       1.45700047       3.95092424
Mg       4.99376841       1.61265908      19.89571835
Ni       2.56323150       5.67031208       3.85382824
Ni       2.58754783       5.77642522      19.83820246
Ni      -1.24357611       3.51403184       3.93661294
Ni      -1.06657290       3.66084135      19.81009265
Mg      -3.42920852       7.82354491       3.83390339
Ni      -3.49840969       7.92787738      19.73397553
Ni       3.80822330       3.57366817       3.98905202
Ni       3.72484986       3.66685869      19.83082724
Ni       1.44109260       7.78865511       3.73958578
Ni       1.38308010       7.92879006      19.73998135
Ni       2.50368546       0.00888083       0.02340396
Ni       2.53574186       0.08709163      15.83575276
Ni       0.17816772       4.23869580      -0.05214534
Ni       0.12415925       4.36167806      15.87184052
Ni       7.31923233       0.08855619       0.00897278
Ni       7.35963305       0.17713274      16.01204075
Ni       5.14010713       4.30539569      -0.10307686
Ni       5.01220970       4.45398301      15.84069824
Ni       1.34062415       2.13197800      -0.06242331
Ni       1.25520731       2.28048250      15.87152340
Ni      -0.94302182       6.36629694      -0.19840383
Ni      -1.07194115       6.44050242      15.79138227
Ni       6.26298976       2.28318844      -0.12826906
Ni       6.26452259       2.29333084      15.88692567
Ni       3.91159444       6.43993326      -0.12158122
Ni       3.84522841       6.49432763      15.79987841
Ni      -1.16557868       2.14625159       7.91991688
Ni      -1.17187792       2.31529817      23.85559748
Ni      -3.55236035       6.29980264       7.74739734
Ni      -3.55271195       6.53874807      23.81559060
Ni       3.81445745       2.27268138       7.96809445
Ni       3.80905720       2.34503308      23.88887274
Ni       1.37882206       6.46893419       7.83381402
Ni       1.44770408       6.59726665      23.69294245
Ni       2.52384526       0.07457510       7.87120037
Ni       2.38414002       0.25491302      23.90911377
Ni       0.07257918       4.31001427       7.88500084
Ni       0.07073854       4.48836023      23.79074774
Ni       7.39964012       0.23353667       7.91386696
Ni       7.35736655       0.26653851      23.87176748
Ni       5.01951105       4.32330699       7.85727218
Ni      -1.06065143       2.05035844       0.04486286
Ni      -1.15833837       2.24135223      15.87414925
Ni      -3.48851626       6.34972098      -0.04627927
Ni      -3.55338395       6.40625097      15.75205126
Ni       3.85012778       2.08483149      -0.03561313
Ni       3.71131484       2.34031180      15.77834560
Ni       1.38050602       6.38961068      -0.15456866
Ni       1.39705065       6.55564785      15.82690511
Ni       1.26321697       2.22141578       7.88707015
Ni       1.16070717       2.29808286      23.85917408
Ni      -1.06802259       6.47257037       7.79174051
Ni      -1.02895442       6.55417058      23.81888741
Mg       6.24904689       2.27028054       7.91713173
Ni       6.10681503       2.34408487      23.89773556
Ni       3.89360887       6.46648213       7.82797187
Ni       3.86870162       6.58534378      23.82776709
