190
Lattice="10.032952689754895 -0.4538509958041236 0.005762949784039891 -5.0578115275390125 8.96450352394352 0.19273255001588557 0.35941078201571314 -0.08691534853254625 31.561266914758697" Properties=species:S:1:pos:R:3 pbc="T T T"
Mg       0.18869459      -0.00842303      14.32614225
Mg       0.28988694      -0.11555130      30.17058312
Mg      -2.38566691       4.43247141      14.38457458
Mg      -2.15909189       4.34570423      30.25444300
Mg       5.21820256      -0.31892286      14.34057461
Mg       5.36654551      -0.26325469      30.17051267
Mg       2.61040030       4.16854354      14.42171298
Mg       2.76859364       4.19864777      30.20420374
Mg       0.10381350      -0.10261078       6.36307720
Mg       0.22958485      -0.12580774      22.19775969
Ni      -2.47114314       4.38817758       6.47000475
Mg      -2.28012544       4.35310460      22.21627965
Mg       5.12398005      -0.22510097       6.35598150
Mg       5.26570489      -0.25948866      22.19200835
Mg       2.50899577       4.24835907       6.59160098
Mg       2.76300824       4.26558714      22.35377553
Mg       0.08714549      -0.04975360       9.43046242
Mg       0.35001796      -0.04598363      25.09258512
Mg      -2.46180602       4.51160742       9.41147980
Mg      -2.18163316       4.40892988      25.19253170
Mg       5.10833168      -0.21910889       9.44414289
Mg       5.26621754      -0.26044044      25.15239470
Mg       2.64434596       4.27270788       9.49614447
Mg       2.78087096       4.19365394      25.28079928
Mg       0.02021949      -0.08489569       1.48512437
Mg       0.23833804      -0.05404751      17.28096680
Mg      -2.55647495       4.46095021       1.53841449
Mg      -2.35844754       4.51218634      17.32893211
Mg       5.19123498      -0.29711154      17.23332986
Mg       2.56732826       4.17937374       1.57619050
Mg       2.52862648       1.28678674       2.44315659
Mg       2.71087924       1.34296778      18.32035033
Mg      -0.06616606       5.80587505       2.62288833
Mg       0.11804108       5.67336770      18.35157427
Mg       7.57068484       1.02823525       2.47330125
Mg       7.71721026       1.12511148      18.28891916
Mg       4.96952472       5.58590628       2.64230335
Mg       5.14700871       5.52999338      18.37108857
Mg       0.03910714       2.97005756      10.43615871
Mg       0.27290270       2.83971058      26.16987685
Mg      -2.33359853       7.35403529      10.45843507
Mg      -2.25575197       7.32708634      26.33079877
Mg       5.14081660       2.65795115      10.47049414
Mg       5.34158962       2.55359253      26.19755616
Mg       2.56874787       7.10238936      10.53624572
Mg       2.81290995       7.11402299      26.30044238
Mg       2.56196607       1.32463220       5.41671660
Mg       2.74692504       1.27239557      21.16788402
Mg      -0.01659965       5.88755162       5.51681835
Mg       0.20112678       5.79717312      21.33324968
Mg       7.53882102       1.08858995       5.45244412
Mg       7.78009387       0.98173095      21.25633711
Mg       5.02962436       5.71619975       5.63587957
Mg       5.35140386       5.52985489      21.39277495
Mg       0.19217019       2.94133835      13.37153878
Mg       0.24159064       2.71425782      29.24884700
Mg      -2.42985058       7.30393087      13.50866686
Mg      -2.23846176       7.27781580      29.29042556
Mg       5.08776856       2.63578455      13.32410249
Mg       5.29683634       2.60240286      29.15459400
Mg       2.67575888       7.09351508      13.54581033
Mg       2.81557616       7.15645997      29.25848930
Ni       2.70139927       1.28312754      13.81796850
Ni       2.85135469       1.28231037      29.60753130
Ni       0.15939030       5.75729989      13.96233448
Ni       0.36803449       5.64869150      29.72440771
Ni       7.65875751       1.13475562      13.85337004
Ni       7.92434829       1.07262322      29.62986067
Ni       5.05979865       5.61040149      14.01566478
Ni       5.24542036       5.62758968      29.71778704
Ni       0.13374095       2.93474968       6.00977812
Ni       0.16875769       2.86525119      21.76965657
Ni      -2.41993609       7.31978127       6.04928578
Ni      -2.27943926       7.28932298      21.92926652
Ni       5.05447563       2.72267582       5.94701395
Ni       5.26192252       2.58442622      21.84000976
Ni       2.43474631       7.20512739       6.02334582
Ni       2.71895207       7.10615377      21.86609636
Ni       2.58126007       1.41197951       9.88276666
Ni       2.79776353       1.26728387      25.61878376
Ni       0.16927127       5.90618355      10.01242724
Ni       0.36948859       5.78865477      25.79984242
Ni       7.57932371       1.07868416       9.86741560
Ni       7.83146358       1.02020697      25.68850849
Ni       5.07859574       5.53733628      10.00065295
Ni       5.22567288       5.49725575      25.74647802
Ni       0.07077646       2.90742421       1.98034362
Ni       0.15976998       2.88944452      17.86834880
Ni      -2.45635934       7.35668049       2.13013897
Ni      -2.27802142       7.35383520      17.88475475
Ni       5.02147021       2.66605117       2.01787943
Ni       5.28648336       2.63597825      17.80879713
Ni       2.53768834       7.07231339       2.17173239
Ni       2.68914462       7.19723332      17.91102637
Ni       2.57806006       2.73386066      11.97335144
Ni       2.90277362       2.64352082      27.71848728
Ni       0.11946135       7.21675527      12.04246012
Ni       0.26028053       7.21249984      27.77068273
Ni       7.61894387       2.58723108      11.90912152
Ni       7.83650496       2.47927895      27.63121191
Ni       5.15299312       7.09365915      12.01557652
Ni       5.22165704       6.99609432      27.86501399
Ni       3.85834689       0.61481091      11.89416230
Ni       4.12464236       0.47571474      27.63618401
Ni       1.33141939       5.07893960      11.91586109
Ni       1.55337576       4.92300172      27.74977403
Ni       8.98944765       0.32816249      11.82177984
Ni       9.14202235       0.22285776      27.65363146
Ni       6.46319352       4.78479651      11.98914010
Ni       6.51344428       4.74381617      27.79754880
Ni       1.25140878       3.56797030       4.01933437
Ni       1.43865108       3.44316175      19.77867777
Ni      -1.29165548       8.08735459       4.07213284
Ni      -1.02066415       8.00320254      19.92107502
Ni       6.31361542       3.37351610       4.14695288
Ni       6.51139976       3.28088304      19.72534835
Ni       3.80681506       7.77878767       4.12565174
Ni       3.99925248       7.78928669      19.94129045
Ni       1.41872416       0.60974072      11.88185791
Ni       1.60847203       0.63839897      27.60681290
Ni      -1.19077279       5.09071878      11.89045562
Ni      -0.93237745       5.04324039      27.71792007
Ni       6.45999840       0.37812436      11.92748152
Ni       6.59701824       0.34899609      27.65086106
Ni       3.92682214       4.93235775      11.93380903
Ni       4.07367854       4.82605555      27.74128112
Ni       0.13387873       1.47781377       4.04690175
Ni       0.24480430       1.36091888      19.87393113
Ni      -2.52241113       5.90598344       4.01112487
Ni      -2.26646510       5.82408409      19.86400911
Ni       5.06412658       1.26632407       3.95236243
Ni       5.20677988       1.24077432      19.75857121
Ni       2.50386365       5.63728798       4.03618710
Ni       2.62784451       5.73461965      19.85352605
Ni      -1.27911348       3.73853000       3.99004339
Ni      -1.03046174       3.60612609      19.82586062
Ni      -3.79571489       8.13915032       4.11108687
Ni      -3.64093552       8.05021461      19.80615925
Ni       3.82569046       3.44373569       4.06182502
Ni       3.90690335       3.33492355      19.86085170
Ni       1.32267871       7.91726226       4.04907092
Ni       1.44454942       7.92287360      19.83330838
Ni       2.55773229      -0.16127939      -0.09771804
Ni       2.62123709      -0.16355026      15.71898179
Ni      -0.02228576       4.38462075       0.13960720
Ni       0.12225349       4.38763644      15.88914163
Ni       7.44188960      -0.32220778      -0.01083647
Ni       7.73581994      -0.36205975      15.82447460
Ni       5.02708673       4.11518544       0.10745631
Mg       5.14449416       4.09279762      15.90542681
Ni       1.26464876       2.02347859       0.04081945
Ni       1.45268451       2.09496688      15.88185708
Ni      -1.24081687       6.59503451       0.19833214
Ni      -1.10320317       6.50436442      15.95858055
Ni       6.29779163       1.94417490       0.05562643
Ni       6.46789813       1.86977469      15.83253249
Ni       3.75788172       6.38683998       0.15999626
Ni       3.84687535       6.34887929      15.91797349
Ni      -1.17897697       2.10418873       7.88946936
Ni      -1.07024309       2.11222260      23.78318687
Ni      -3.67937681       6.72755610       7.97576673
Ni      -3.52608819       6.75259128      23.83314297
Ni       3.77449964       2.07544062       8.03026599
Ni       4.05415460       1.91617647      23.83545265
Ni       1.36141269       6.46363493       8.11932211
Ni       1.47228083       6.49349584      23.79960543
Ni       2.46736380      -0.07696150       7.92210331
Ni       2.76334516      -0.14677995      23.64310441
Mg       0.01025906       4.35227209       8.00380188
Ni       0.31673019       4.23911495      23.73274511
Ni       7.68574622      -0.40450372       7.82590204
Ni       7.83192526      -0.43175364      23.66394316
Ni       5.13123130       4.22372810       7.95032382
Ni       5.20911624       4.11330740      23.78896494
Ni      -1.16394956       2.23658715       0.02549906
Ni      -1.07222141       2.20716965      15.86262716
Ni      -3.72843693       6.76521797       0.13704525
Ni      -3.61701050       6.74033677      15.83690185
Ni       3.63289231       2.05900694       0.00501158
Ni       3.89928082       1.97137505      15.76067207
Ni       1.28861803       6.46376075       0.21860008
Ni       1.38654433       6.51307523      15.99080774
Ni       1.41452899       2.15724915       7.90645177
Ni       1.56843637       2.00950380      23.81079176
Ni      -1.15775715       6.55720425       7.93416025
Ni      -1.00023734       6.57881049      23.89114719
Ni       6.33439729       1.89067782       7.88741653
Ni       6.47486226       1.84411118      23.65971377
Ni       3.85045855       6.30034547       8.07251406
Ni       4.04419540       6.28638071      23.85925245
