190
Lattice="10.194720662547612 0.31036722345571777 -0.11485313092592708 -4.623881863559857 8.248120477320409 0.05376726527743627 -0.3914379322626646 -0.9031381818048084 31.492075525350764" Properties=species:S:1:pos:R:3 pbc="T T T"
Mg      -0.14303984      -0.40105343      14.29044704
Mg      -0.37886658      -0.86712858      30.03974534
Mg      -2.50414579       3.68112600      14.34551500
Mg      -2.66821561       3.23487408      30.09100721
Ni       4.91097106      -0.38936118      14.20461568
Mg       4.64263083      -0.74286632      29.84703185
Ni       2.56573294       3.89530834      14.26436250
Mg       2.38883078       3.34589969      29.95446940
Mg      -0.13414922      -0.20622163       6.42841910
Mg      -0.23888485      -0.64376515      22.20605799
Mg      -2.26809214       4.00856188       6.36933379
Mg      -2.65910843       3.52447166      22.12394839
Mg       4.98406451       0.03391573       6.36388873
Mg       4.73278821      -0.52454022      22.09139821
Mg       2.69363973       4.07089936       6.39689198
Ni       2.48956621       3.60254757      22.07097534
Mg      -0.12129203      -0.28858853       9.40209822
Mg      -0.28492140      -0.78785359      25.11708062
Mg      -2.39842872       3.87993788       9.39768747
Mg      -2.54690761       3.47478026      25.07664118
Mg       4.94645636      -0.18892763       9.23893601
Mg       4.81049388      -0.63153301      25.07069691
Mg       2.69288998       4.04922620       9.32432471
Mg       2.51702490       3.53649706      25.05153064
Mg      -0.01863459      -0.01584130       1.41441357
Mg      -0.17624568      -0.48413696      17.19296175
Mg      -2.33749407       4.12185860       1.48340975
Ni      -2.49730806       3.59510573      17.26222493
Mg       4.98364123       0.14338332       1.49829665
Mg       4.87690492      -0.34020444      17.16659967
Mg       2.75570687       4.14866987       1.38698217
Mg       2.58182483       3.78638538      17.22540106
Mg       2.55652993       1.40351728       2.47814551
Mg       2.46656407       1.00238774      18.14214692
Mg       0.37897958       5.51450324       2.34936455
Mg       0.10370367       5.08118628      18.19502167
Mg       7.82154217       1.50133225       2.39487517
Mg       7.36047662       1.08785138      18.17781986
Mg       5.37876675       5.73350755       2.35350826
Mg       5.28234380       5.29350157      18.15161045
Ni      -0.00754650       2.50173486      10.36835056
Mg      -0.18529802       2.10728601      26.08540281
Mg      -2.27178187       6.65973315      10.27601038
Mg      -2.45538880       6.13387834      26.11104484
Mg       5.27917524       2.62685009      10.28811695
Mg       4.87687951       2.19780790      25.98508564
Mg       2.79333362       6.84538739      10.35187575
Mg       2.58660103       6.40671471      26.00930920
Mg       2.43701293       1.31001024       5.37918260
Mg       2.43233517       0.80439764      21.19142981
Mg       0.25943460       5.46007916       5.43245968
Mg      -0.01477743       5.03469501      21.17110674
Mg       7.58040103       1.50991690       5.33983060
Mg       7.49282815       1.05593703      21.03404723
Mg       5.34413127       5.66597543       5.38398872
Mg       5.13338218       5.21195493      21.02360360
Mg      -0.00601682       2.46996592      13.30025412
Mg      -0.16506885       1.98455447      29.06484391
Mg      -2.21413499       6.56606307      13.32506738
Mg      -2.49311613       6.12463071      29.07905781
Mg       5.07241827       2.64091597      13.28589599
Mg       4.94794740       2.16553806      28.95504831
Mg       2.78050317       6.75093425      13.31601884
Mg       2.61175865       6.20609165      28.91167824
Ni       2.36092695       1.07872031      13.76427669
Ni       2.28018658       0.64061770      29.44518106
Ni       0.17124845       5.20341135      13.79557361
Ni       0.00737806       4.76045619      29.56977048
Ni       7.52533778       1.26384928      13.65698210
Ni       7.28247649       0.87661093      29.44191233
Ni       5.19369943       5.35730963      13.72658319
Ni       5.07591317       4.89490313      29.45749476
Ni       0.06431678       2.59299590       5.80492485
Ni      -0.06845492       2.12014658      21.66146163
Ni      -2.17664197       6.78371104       5.92243890
Ni      -2.35034574       6.25364633      21.69200352
Ni       5.13016822       2.73893085       5.88297506
Ni       4.87130259       2.26187252      21.61290314
Ni       2.83627772       6.86134728       5.81348121
Ni       2.57089024       1.23995461       9.78719294
Ni       2.30306146       0.81295093      25.50124835
Ni       0.13653056       5.34698248       9.84628810
Ni       0.01650101       4.86674521      25.61589966
Ni       7.62464014       1.36144171       9.71110777
Ni       7.39479416       0.79333092      25.53134662
Ni       5.21241624       5.36797735       9.74201603
Ni       5.19151621       5.11665961      25.49611461
Ni       0.19607890       2.74747044       1.99328030
Ni      -0.06043692       2.31647362      17.66503832
Ni      -2.19911378       6.85852391       1.98702850
Ni      -2.36501217       6.48037865      17.73138878
Ni       5.19467566       2.88044563       1.89356309
Ni       4.91809342       2.48737579      17.69622185
Ni       2.90022594       6.95809600       1.94670273
Ni       2.62506215       6.56837787      17.71033119
Ni       2.61166957       2.49537696      11.74862444
Ni       2.33569647       2.06415243      27.59162274
Ni       0.28256317       6.64521965      11.77130353
Ni       0.15974609       6.19081868      27.55870766
Ni       7.60575270       2.66020591      11.75111139
Ni       7.45860184       2.22965589      27.53601296
Ni       5.23766444       6.88016397      11.80775743
Ni       5.19546772       6.36065619      27.52340697
Ni       3.67907259       0.48726695      11.73677461
Ni       3.53098075       0.09801046      27.54691690
Ni       1.51020752       4.55733129      11.75767937
Ni       1.23097133       4.07645732      27.48757618
Ni       8.79439060       0.64393092      11.73636938
Ni       8.63932651       0.19216567      27.37751646
Ni       6.57167064       4.77032322      11.83610571
Ni       6.25012246       4.29354401      27.53353840
Ni       1.42241943       3.29056753       3.89640137
Ni       1.19798721       2.92411287      19.69420662
Ni      -0.88823975       7.61621170       3.94548655
Ni      -1.09717593       7.16033140      19.62599785
Ni       6.54367677       3.62242458       3.85571086
Ni       6.29716522       3.14273492      19.51680696
Ni       4.19784847       7.67243126       3.82605360
Ni       4.03973751       7.16599920      19.61628080
Ni       1.19148895       0.37788874      11.76229770
Ni       1.03946220      -0.02003312      27.52114117
Ni      -1.02956570       4.55124970      11.85126967
Ni      -1.26053510       4.08237505      27.53789181
Ni       6.23269933       0.59906677      11.75812407
Ni       6.07307527       0.09007604      27.46484311
Ni       3.89863202       4.74774693      11.74940620
Ni       3.76847929       4.30242756      27.52977588
Ni       0.01760497       1.31862871       4.00037190
Ni      -0.09115813       0.84190555      19.61875519
Ni      -2.34622826       5.45017405       3.97381792
Ni      -2.43596280       4.93829010      19.68672086
Ni       5.05470430       1.43710020       3.83014148
Ni       4.82565870       1.06691460      19.54461082
Ni       2.80177724       5.58866218       3.90754498
Ni       2.65613404       5.16257679      19.62895483
Ni      -1.21572009       3.32605170       3.92906594
Ni      -1.32960675       2.87828931      19.73442661
Ni      -3.45595710       7.41223371       3.95545294
Ni      -3.66384361       6.97687085      19.80439469
Ni       4.00652284       3.47235924       3.95814034
Ni       3.73601575       3.09726809      19.53980643
Ni       1.61721629       7.60071202       3.97851568
Ni       1.37142708       7.19182433      19.71605763
Ni       2.57454809       0.07464315      -0.03348792
Ni       2.39755926      -0.33022697      15.72287669
Ni       0.36380201       4.17833082      -0.02831828
Ni       0.04132514       3.70504561      15.76555973
Ni       7.72778783       0.17403120      -0.07696102
Ni       7.47655352      -0.15539939      15.68033737
Ni       5.26560871       4.37779789      -0.08060805
Ni       5.06748502       3.88196391      15.65583215
Mg       1.37005206       2.17305111      -0.07525245
Ni      -0.94829033       6.29100673      -0.05530151
Ni      -1.18136801       5.82680244      15.72833537
Ni       6.60099095       2.33178354      -0.09083328
Ni       6.27465972       1.80625975      15.62067923
Ni       4.12407994       6.34262290      -0.07732367
Ni       4.03740962       5.97847179      15.63033403
Ni      -1.22171064       1.85517853       7.87893810
Ni      -1.49378194       1.30882838      23.53446020
Ni      -3.61093862       6.01790148       7.90908024
Ni      -3.80836568       5.50300964      23.73435091
Ni       3.93814212       2.00236042       7.76501083
Ni       3.64830747       1.55178572      23.56202595
Ni       1.52054976       6.10870700       7.93155108
Mg       1.27356920       5.70183868      23.65042408
Ni       2.56606622      -0.12942672       7.89405789
Ni       2.23620384      -0.55294526      23.57737384
Ni       0.12005359       4.01128858       7.84442598
Ni      -0.03921179       3.48592400      23.62033120
Ni       7.47012496       0.02429565       7.76602102
Ni       7.22899014      -0.40399062      23.54532727
Ni       5.08936396       4.13726484       7.85755418
Ni       5.00595230       3.64859092      23.60962563
Ni      -1.10699069       2.14410221       0.00400393
Ni      -1.35934047       1.58875220      15.75942657
Ni      -3.55964187       6.18796003       0.04623611
Ni      -3.66680272       5.68112746      15.76957384
Ni       3.96887867       2.26789574      -0.04141440
Mg       3.71900974       1.73986773      15.63780749
Ni       1.72295270       6.35764316      -0.03435339
Ni       1.34863631       5.84639529      15.74150664
Ni       1.29353256       1.92456675       7.76530116
Ni       1.13009495       1.38510991      23.61771821
Ni      -0.96707538       5.97940124       7.92777394
Mg      -1.25551354       5.57105099      23.59626900
Ni       6.35136630       2.13181098       7.86042800
Ni       6.15855015       1.52889232      23.45955572
Mg       4.09743272       6.10832261       7.86916118
Ni       3.84869919       5.74401387      23.55844605
