190
Lattice="9.46707692125508 0.10780699231392425 -0.009196746678698317 -4.839618867920813 8.555968775023613 0.150648608348226 -0.22339513354424803 -0.06438369698423048 32.61235420555001" Properties=species:S:1:pos:R:3 pbc="T T T"
Mg      -0.13477347       0.00501089      14.78021613
Mg      -0.26974115      -0.02619591      31.09712443
Mg      -2.48434847       4.27191292      14.88920439
Mg      -2.70934020       4.19328090      31.16737277
Mg       4.64968926       0.01699161      14.78431745
Mg       4.54172745       0.03529818      31.13196427
Mg       2.19781003       4.31611527      14.95039993
Mg       2.06498254       4.24688981      31.12398151
Mg      -0.03064206      -0.05000594       6.59811172
Mg      -0.07162642      -0.09192358      22.89672553
Mg      -2.49417567       4.33938956       6.67236400
Mg      -2.61289710       4.18194515      22.94535641
Mg       4.75320218       0.08790959       6.55221251
Ni       4.53653898       0.12487746      22.92201663
Mg       2.30593898       4.33812366       6.80783383
Mg       2.17607104       4.20558255      22.92084693
Mg       0.01091294      -0.02808957       9.60222412
Mg      -0.17825328       0.05922097      25.94531194
Mg      -2.46807406       4.29773408       9.78855942
Mg      -2.69422356       4.20560150      26.05892829
Mg       4.64629776       0.02404975       9.73512554
Mg       4.52463447       0.04575700      26.01538998
Mg       2.27406833       4.29255912       9.81120196
Mg       2.13469224       4.29546672      26.04888882
Mg      -0.10547890      -0.02471620       1.52186012
Mg      -0.14677656      -0.12944313      17.83265240
Mg      -2.44638039       4.28432110       1.60534476
Mg      -2.56996162       4.25165231      17.85277421
Mg       4.73516455      -0.01776426       1.58447365
Mg       4.58708963       0.00629737      17.90378938
Mg       2.34938074       4.39834901       1.58506199
Mg       2.12881951       4.28847894      17.89077632
Mg       2.40410961       1.47697599       2.45130803
Mg       2.14137019       1.34622422      18.82790811
Mg      -0.15145563       5.73826186       2.66609592
Mg      -0.22109816       5.71964266      18.92229183
Mg       7.08796394       1.47534169       2.49463653
Mg       6.98977237       1.50843838      18.79426457
Mg       4.70782262       5.83117598       2.66689877
Mg       4.56336562       5.70731438      18.95301914
Mg      -0.07408599       2.90305221      10.72674991
Mg      -0.21207820       2.88151883      27.11921936
Mg      -2.52057526       7.07695820      10.74291700
Mg      -2.71336407       7.03637622      27.09353935
Mg       4.67721470       2.83935987      10.71417473
Mg       4.57335200       2.86127664      27.08361076
Mg       2.27833799       7.24947834      10.88998936
Mg       2.04734517       7.19548280      27.11408961
Mg       2.23109859       1.49193687       5.63147065
Mg       2.13344091       1.45231921      21.98903750
Mg      -0.06689714       5.72318971       5.78204892
Mg      -0.21922042       5.67570805      22.06380147
Mg       7.01215497       1.48343519       5.56839125
Mg       6.86670898       1.52410341      21.87265919
Mg       4.69016963       5.77531177       5.77651329
Mg       4.50536152       5.70073483      22.05029512
Mg      -0.16335058       2.80293858      13.83619803
Mg      -0.25689531       2.83701167      30.24205176
Ni      -2.54306619       7.13720435      13.91440351
Mg      -2.76428722       7.12008797      30.14116381
Mg       4.53831547       2.89668243      13.79709719
Mg       4.46147589       2.83067826      30.06369805
Mg       2.23890718       7.18939157      13.94388601
Mg       2.04075361       7.14508541      30.27636128
Ni       2.28207516       1.45140247      14.20230223
Ni       2.17483776       1.36205876      30.66962813
Ni      -0.25906975       5.69100570      14.37748114
Ni      -0.34704216       5.75664254      30.68478546
Ni       7.00227686       1.53852341      14.20931954
Ni       6.86974894       1.41496987      30.54176815
Ni       4.55041245       5.72136020      14.43247566
Ni       4.50686981       5.79416262      30.68115827
Ni      -0.03975910       2.78730950       6.17156856
Ni      -0.11912553       2.83431823      22.48732752
Ni      -2.42303435       7.23957793       6.21281622
Ni      -2.57167540       7.14559017      22.56269293
Ni       4.65790010       2.89856950       6.15541003
Ni       4.48592427       2.84108812      22.53576566
Ni       2.22235705       7.22164926       6.25783066
Ni       2.13861342       7.14613686      22.59035300
Ni       2.24116052       1.41396657      10.33344511
Ni       2.10439372       1.44146207      26.53028771
Ni      -0.15444685       5.72864468      10.32415145
Ni      -0.22373873       5.71581948      26.55688679
Ni       7.06688810       1.49672356      10.23978269
Ni       6.87999755       1.50092592      26.58254472
Ni       4.62487576       5.85298824      10.33158037
Ni       4.53903016       5.79371799      26.54727064
Ni      -0.15695369       2.89830701       2.08126653
Ni      -0.12622646       2.84313393      18.38271470
Ni      -2.55308328       7.13447871       2.15483107
Ni      -2.60087212       7.16957600      18.48825916
Ni       4.75790872       2.87284576       1.93107398
Ni       4.54155020       2.87404307      18.43979340
Ni       2.26664926       7.15634199       2.09435437
Ni       2.19798710       7.16935323      18.46316716
Ni       2.25623521       2.85030733      12.30963900
Ni       2.10785924       2.86079637      28.46253574
Ni      -0.19459957       7.08017429      12.33556701
Ni      -0.24610247       7.22550096      28.63973669
Ni       6.98014923       2.97897681      12.30198455
Ni       6.87576237       2.85733363      28.53162164
Ni       4.49966161       7.25839845      12.40790266
Ni       4.43811890       7.27194068      28.72508217
Ni       3.41480310       0.68619960      12.29289566
Ni       3.27947129       0.73760836      28.60976727
Ni       1.02933336       5.02448788      12.32328426
Mg       0.89858228       4.95952723      28.58884409
Ni       8.22031825       0.73685667      12.23186961
Ni       8.18328474       0.82002231      28.55208383
Ni       5.80238989       5.06592960      12.30404754
Ni       5.64738324       5.00782743      28.55518669
Ni       1.06023358       3.59879634       4.16184506
Ni       1.00207858       3.47051159      20.42978100
Ni      -1.30030038       7.86120075       4.21569968
Ni      -1.43665936       7.80056899      20.45598612
Ni       5.84181915       3.64037365       4.09546477
Ni       5.81175287       3.65846110      20.34057554
Ni       3.46621130       7.96408692       4.28694353
Ni       3.25427090       7.92663365      20.49944368
Ni       1.15270982       0.63473621      12.19078814
Ni       0.91050536       0.67282396      28.49591589
Ni      -1.28795471       4.93355277      12.23669322
Ni      -1.46235076       5.01947980      28.63964864
Ni       5.82861004       0.70937217      12.18663012
Mg       5.63736007       0.64912732      28.57962726
Ni       3.48232523       4.91336813      12.20277258
Ni       3.33491584       4.86351033      28.59741795
Ni      -0.03832807       1.52076812       4.11609948
Ni      -0.17737595       1.39187521      20.38661199
Ni      -2.48369240       5.56717769       4.29634002
Ni      -2.51056956       5.65387894      20.44995256
Ni       4.73832676       1.56417566       4.08886703
Ni       4.56477105       1.48485471      20.36952728
Ni       2.25241315       5.76814336       4.16519005
Ni       2.12709384       5.75940329      20.51537130
Ni      -1.23950209       3.58650090       4.16167869
Ni      -1.34312354       3.47118951      20.47917059
Ni      -3.77391191       7.83444521       4.28755107
Ni      -3.73198054       7.81597268      20.47863702
Ni       3.37824364       3.57344092       4.12888213
Ni       3.36692354       3.62227597      20.47959990
Ni       1.09598691       7.89132563       4.12606672
Ni       1.00938430       7.83791865      20.50377007
Ni       2.35733211       0.00066110       0.03807118
Ni       2.24180934       0.07195886      16.43062296
Ni      -0.10428782       4.25921042       0.05752790
Ni      -0.22826948       4.29643258      16.38209021
Ni       7.03475563       0.05119294       0.02840483
Ni       7.04441291       0.02990891      16.21299110
Ni       4.60777366       4.38401267       0.01747602
Ni       4.51841200       4.33913290      16.35744850
Ni       1.12255122       2.10740904       0.03575540
Ni       1.08914233       2.26104614      16.44376689
Ni      -1.24045857       6.40404874       0.09110207
Ni      -1.36729197       6.32650180      16.39278517
Ni       5.95066389       2.17162084      -0.03207103
Ni       5.76603823       2.19743449      16.32561856
Ni       3.43338602       6.48660968       0.11337042
Ni       3.39641823       6.45467310      16.31621752
Ni      -1.24788080       2.12250423       8.14101265
Ni      -1.36555279       2.04126017      24.50562988
Ni      -3.74058894       6.43528247       8.25461172
Ni      -3.82062855       6.36017998      24.53880041
Ni       3.42430260       2.17565225       8.13537903
Ni       3.37003478       2.16203727      24.44996644
Ni       1.06656270       6.45353889       8.34432001
Ni       0.89816336       6.42433489      24.56295703
Ni       2.31463982      -0.02423266       8.17747142
Ni       2.19758655       0.01361072      24.51747412
Ni      -0.16097499       4.34990119       8.23841239
Ni      -0.21210242       4.19726956      24.58465358
Ni       7.03190120       0.07633762       8.16368048
Ni       7.01000841      -0.03079346      24.55038100
Ni       4.65550211       4.37665155       8.29841131
Ni       4.54068487       4.26966193      24.61224208
Ni      -1.28635432       2.19459815       0.00471744
Ni      -1.32460519       2.03685548      16.35307699
Ni      -3.69635375       6.28618371       0.13991342
Ni       3.49061901       2.22759157      -0.00608031
Ni       3.40809497       2.13854904      16.33976269
Ni       1.12461018       6.54775925       0.15791811
Ni       0.91185198       6.43380320      16.44705341
Ni       1.06311657       2.25595191       8.19096356
Ni       0.92758570       2.06112451      24.53595963
Ni      -1.33462608       6.42230043       8.22383673
Ni      -1.45374225       6.37378576      24.52711683
Ni       5.85367534       2.13818967       8.20011731
Ni       3.37382639       6.50668135       8.30069216
Ni       3.31771210       6.51103652      24.60073395
