190
Lattice="9.80765987771509 0.17347973563984292 0.13163654953904944 -4.6596716244849175 8.842651355113025 0.14776649414620052 0.087852954589897 0.40158101695244375 32.23547347804909" Properties=species:S:1:pos:R:3 pbc="T T T"
Mg       0.02134462       0.18970104      14.52450098
Mg       0.02388014       0.36978931      30.74152434
Mg      -2.22293768       4.56236849      14.61559255
Mg      -2.25489215       4.85626438      30.86771144
Mg       4.90751705       0.24163701      14.67157533
Mg       4.96323684       0.40727837      30.88995649
Mg       2.59963818       4.68478241      14.69820927
Mg       2.71820944       4.96348548      30.79871202
Mg      -0.05068540       0.06907398       6.52103504
Mg       0.13959208       0.23132319      22.74501910
Mg      -2.37660086       4.41125480       6.58896341
Mg      -2.26013989       4.81198386      22.64732721
Mg       4.92053451       0.14277515       6.68648667
Mg       4.91862240       0.38667514      22.71450794
Mg       2.54309055       4.54435369       6.71233802
Mg       2.59807339       4.80361855      22.75043999
Mg       0.10847477       0.16782338       9.62053690
Mg       0.07881401       0.34899493      25.72216533
Mg      -2.22687209       4.58604508       9.75043692
Mg      -2.21116707       4.63774262      25.78912597
Mg       4.94725074       0.23587557       9.65023951
Mg       5.05684374       0.42388094      25.73431477
Mg       2.63635202       4.58863389       9.72966779
Mg       2.56018561       4.85012518      25.83802207
Mg       0.01376304       0.00989807       1.53644512
Mg       0.15237174       0.14235860      17.68149385
Mg      -2.35082269       4.50368804       1.56331121
Mg      -2.27801990       4.64214671      17.69412056
Mg       4.83989510       0.08675418       1.42951809
Mg       4.99051799       0.16073501      17.73303905
Mg       2.66362143       4.49703060       1.63765677
Mg       2.71895864       4.75105515      17.79270984
Mg       2.52539964       1.54600541       2.65508106
Mg       2.59428773       1.79495494      18.69138003
Mg       0.11683998       6.06763706       2.71102589
Ni       0.25824514       6.22713131      18.77621038
Mg       7.43565535       1.75080131       2.63391858
Mg       7.42000879       1.82926574      18.75490633
Mg       5.08181825       6.08782367       2.74479596
Mg       5.18521824       6.28261327      18.85424560
Mg       0.16668003       3.17648424      10.75196869
Mg       0.17492642       3.39142598      26.85125492
Mg      -2.12777254       7.55350314      10.75082026
Ni      -2.21938257       7.76380047      26.77308955
Mg       5.04995852       3.20162175      10.64011198
Mg       5.05690422       3.35957890      26.82768763
Mg       2.70292070       7.60729875      10.76459848
Mg       2.76430422       7.80795258      26.90065432
Mg       2.53093212       1.63221214       5.62459369
Mg       2.51227038       1.78009645      21.71157854
Mg       0.12609131       5.97646986       5.66036652
Mg       0.35819137       6.17807137      21.82399024
Mg       7.42329863       1.71027802       5.65751806
Mg       7.44865499       1.83854660      21.80724263
Mg       4.96947227       6.12483462       5.58374924
Mg       5.05827021       6.34097447      21.93653305
Mg       0.16427070       3.06141034      13.70415413
Mg       0.16494546       3.35640219      29.81045827
Mg      -2.24643407       7.54672861      13.72037586
Mg      -2.18551414       7.78378939      29.87803341
Mg       4.89043042       3.33641536      13.62079409
Mg       5.00431824       3.39926589      29.87571989
Mg       2.74091703       7.61166386      13.80718468
Mg       2.72960969       8.02519378      29.90037696
Ni       2.54963636       1.71422763      14.11954820
Ni       2.53710969       1.89906357      30.35234741
Ni       0.19472216       6.09768793      14.19243892
Ni       0.20877533       6.29080746      30.31664112
Ni       7.49912867       1.78964770      14.23300136
Ni       7.43172097       1.96975384      30.32483396
Ni       5.12502449       6.21764096      14.27254526
Ni       5.17774140       6.37774766      30.41703155
Ni       0.10759507       3.05278047       6.09951796
Ni       0.21820041       3.32361829      22.25826850
Ni      -2.15116089       7.61495669      22.27449665
Ni       4.95409750       3.15777792       6.18156292
Ni       5.11984800       3.37094822      22.38562488
Ni       2.68626173       7.54070005       6.25903238
Mg       2.65602792       7.77560150      22.29365785
Ni       2.50395811       1.68167434      10.18214969
Ni       2.50026053       1.79265268      26.22496580
Ni       0.20186483       6.04649738      10.21288293
Ni       0.21773199       6.23266037      26.27605414
Ni       7.52493787       1.73010334      10.23138193
Ni       7.56592464       1.82506283      26.29726424
Ni       5.16458138       6.21038121      10.36748033
Ni       5.11716643       6.30939658      26.36645087
Ni       0.06671193       2.88289661       2.14266241
Ni       0.06502000       3.20202673      18.22301722
Ni      -2.26771160       7.42146317       2.19589079
Ni      -2.12461119       7.61923581      18.39077818
Ni       4.95622047       3.04405573       2.17992114
Ni       5.11028355       3.39531251      18.25674664
Ni       2.67280154       7.45046190       2.26879039
Ni       2.79083792       7.76050011      18.35279656
Ni       2.63647542       3.19407074      12.19198432
Ni       2.64229512       3.28524073      28.30511301
Ni       0.28776256       7.60239306      12.21542656
Ni       0.29509969       7.87336318      28.40001822
Ni       7.49276809       3.30385060      12.31661900
Ni       7.51926644       3.52972965      28.43000484
Ni       5.11962058       7.65834336      12.32824782
Ni       5.18518505       7.90078074      28.40090110
Ni       3.75349356       0.98117511      12.11561310
Ni       3.78099898       1.22776216      28.24526736
Ni       1.36987285       5.33289266      12.17955987
Ni       1.46235874       5.60641733      28.31534722
Ni       8.62433791       1.05864126      12.23769832
Ni       8.63619775       1.19322250      28.35085470
Ni       6.34956476       5.52255232      12.30719506
Ni       6.36875802       5.63923697      28.43463626
Ni       1.34857495       3.74860480       4.13314745
Ni       1.38220150       4.00878373      20.20185481
Ni      -1.08705023       8.25448184       4.16246009
Ni      -0.90809712       8.40113905      20.21774332
Ni       6.25381884       3.87362862       4.25700239
Ni       6.27477441       4.06108255      20.27711229
Ni       3.89806972       8.38732995       4.17781743
Ni       3.96495940       8.51740257      20.37842760
Ni       1.25510236       0.96417541      12.06202890
Ni       1.31153919       1.13661804      28.24654811
Ni      -0.96223549       5.38043586      12.24258282
Ni      -1.01110078       5.54726651      28.35799001
Ni       6.24828938       0.96763006      12.19474607
Ni       6.24130358       1.22702854      28.29154420
Ni       3.78731904       5.39543046      12.15668765
Ni       3.82952228       5.64995931      28.35164677
Ni       0.04474043       1.59696692       4.14428617
Ni       0.06174625       1.74551386      20.29194116
Ni      -2.21241851       6.01617763       4.19225821
Ni      -2.27141908       6.07026585      20.21183774
Ni       5.00319389       1.55377172       4.08708246
Ni       4.93194371       1.88030958      20.26275018
Ni       2.70809888       6.07551825       4.20775743
Ni       2.70023735       6.22707830      20.33922742
Ni      -1.07785888       3.67006087       4.13830389
Ni      -1.11263208       3.92096799      20.35462542
Ni      -3.49282306       8.25818336       4.27066157
Ni      -3.33233082       8.32426919      20.27377435
Ni       3.82551831       3.83689753       4.11900173
Ni       3.83125408       4.07659663      20.33766224
Ni       1.49664525       8.21374585       4.19794886
Ni       1.46421213       8.49022577      20.27735418
Ni       2.44125630       0.02634564       0.08943558
Ni       2.49210149       0.28512904      16.14714337
Ni       0.13866221       4.51123118       0.08569551
Ni       0.16823126       4.65390560      16.18152237
Ni       7.33173488       0.13129130       0.01191767
Ni       7.37771047       0.37793789      16.13432020
Mg       5.00959329       4.60651751       0.24205664
Ni       5.08125343       4.82453238      16.37084331
Ni       1.27046464       2.33500762       0.11592993
Ni       1.33789137       2.29766621      16.15714466
Ni      -1.08815976       6.66699860       0.06295734
Ni      -0.94638413       6.85334129      16.33664761
Ni       6.26820740       2.43061783       0.22942538
Ni       6.19750471       2.52136077      16.34123935
Ni       3.90812744       6.78933044       0.22253953
Ni       3.86472643       6.96175974      16.35122425
Ni      -1.12674762       2.37263053       8.10333468
Ni      -1.03323169       2.61202469      24.29971701
Ni      -3.45682828       6.75248323       8.13912799
Ni      -3.43136180       6.92438590      24.23628199
Ni       3.77407000       2.37796703       8.27260258
Ni       3.79444157       2.59849791      24.33933596
Ni       1.37398178       6.83830147       8.24306891
Ni       1.40770407       7.02117437      24.32630399
Ni       2.52887664       0.13114554       8.17370531
Ni       2.59109628       0.33223695      24.22798688
Ni       0.18817609       4.62933121       8.15290272
Ni       0.19271247       4.83628583      24.19005483
Ni       7.39189426       0.20188988       8.25499788
Ni       7.43200479       0.35382780      24.31385677
Ni       5.01119446       4.64444258       8.23802402
Ni       5.17418098       4.87024426      24.41949355
Ni      -1.14946496       2.36102103      16.14413450
Ni      -3.47815625       6.63365987       0.10724494
Ni      -3.39006525       6.74666765      16.26648721
Ni       3.82806309       2.29714416       0.09715086
Ni       3.72915005       2.50093365      16.21422103
Ni       1.33436425       6.66835295       0.24314330
Ni       1.39467566       6.88458135      16.28814969
Ni       1.30201594       2.31491125       8.11110971
Ni       1.30174710       2.64156943      24.22890286
Ni      -1.04603879       6.80670980       8.25283196
Ni      -0.96794299       7.00322786      24.33202151
Ni       6.29824374       2.38278554       8.22269222
Ni       6.14537902       2.59517354      24.29476831
Ni       3.98350231       6.85287742       8.32238546
Ni       3.97641478       6.99613868      24.29687291
