191
Lattice="9.720165316075557 -0.14147210826458242 -0.1001675894287768 -4.984502641748207 8.633689426392278 0.01753434587650328 -1.1481874373483951 -0.3575649601671285 31.77472803333523" Properties=species:S:1:pos:R:3 pbc="T T T"
Mg      -0.55693070      -0.25046278      14.36195469
Mg      -1.13569620      -0.30063345      30.29127118
Ni      -2.99042329       4.10952923      14.37864062
Mg      -3.50451688       3.91816388      30.33283112
Mg       4.28011861      -0.28455542      14.33403097
Mg       3.76614066      -0.46989252      30.22528851
Mg       1.94369013       4.10964097      14.28146174
Ni       1.26625179       3.83704635      30.26698900
Mg      -0.17304107      -0.09963845       6.45337870
Mg      -0.82894708      -0.17551375      22.36051446
Mg      -2.75367010       4.30989901       6.36490550
Ni      -3.30926138       4.10924715      22.31766243
Mg       4.64238700      -0.09536613       6.40794635
Mg       4.03807640      -0.32133980      22.29626259
Mg       2.06400065       4.21317126       6.43153108
Mg       1.44944063       3.97325733      22.25979568
Mg      -0.31311259      -0.08884174       9.40232723
Ni      -0.89235567      -0.18555024      25.40790440
Mg      -2.86665155       4.21907476       9.41028105
Mg      -3.38044633       3.98668141      25.25804040
Mg       4.50097467      -0.23055051       9.41427961
Mg       3.91768077      -0.40537651      25.19194149
Mg       2.09026565       4.10920769       9.31025561
Mg       1.43781769       3.93853673      25.27134725
Mg      -0.09745318       0.03957774       1.49071373
Mg      -0.67163717      -0.23714748      17.40243340
Mg      -2.55845046       4.26869579       1.55802802
Mg      -3.17543579       4.15149371      17.42948153
Mg       4.81593712      -0.06997752       1.46653977
Mg       4.21173924      -0.21817774      17.35281000
Mg       2.30574142       4.19572337       1.42942997
Mg       1.73576924       3.95373847      17.34182539
Mg       2.26609156       1.48308847       2.41160744
Mg       1.70761800       1.15885758      18.42229632
Mg      -0.08922712       5.65373390       2.45401793
Mg      -0.85221075       5.49937958      18.31273705
Mg       7.19702833       1.28945078       2.41265493
Mg       6.57745020       1.11807412      18.29633209
Ni       4.80067760       5.55845143       2.29471652
Mg       4.13812586       5.43596099      18.22776706
Mg      -0.44884522       2.70868806      10.38903525
Mg      -0.91132463       2.59827306      26.32707890
Mg      -2.89645848       7.09895869      10.39834831
Mg      -3.48141508       6.99393820      26.36907855
Mg       4.47791081       2.75381911      10.39472526
Mg       3.83443642       2.56586780      26.33824393
Mg       2.02662015       6.94155788      10.34497073
Mg       1.36854238       6.77009997      26.22451167
Mg       2.17689654       1.31518657       5.52907741
Mg       1.63994772       1.14888555      21.34282908
Mg      -0.24314079       5.61747141       5.51042875
Mg      -0.81503721       5.54814467      21.34323029
Mg       7.13649277       1.26422939       5.34926465
Mg       6.52400890       1.10589129      21.34858120
Mg       4.56338829       5.57535774       5.35789307
Mg       3.97592530       5.38720078      21.40579163
Mg      -0.51890293       2.78547998      13.39348563
Mg      -1.10316651       2.57529248      29.35428575
Mg      -3.00691419       7.08905720      13.37911953
Ni      -3.54333097       6.85311569      29.27645103
Mg       4.38529008       2.57482992      13.38124943
Mg       3.75140232       2.42958408      29.23694103
Mg       1.80323508       6.92811949      13.28410311
Mg       1.29967859       6.76069587      29.22542633
Ni       1.90521652       1.12782318      13.87066629
Ni       1.42926268       1.02578872      29.71572569
Ni      -0.63663602       5.55023349      13.85469729
Ni      -1.23830591       5.30898240      29.81965370
Ni       6.81569489       1.11107378      13.84032792
Ni       6.22157013       0.95956376      29.72526814
Ni       4.29858395       5.54834467      13.76687300
Ni      -0.25757426       2.75264888       5.96246398
Ni      -0.88113739       2.69873267      21.88978958
Ni      -2.72880841       7.03814553       6.03406054
Ni      -3.31368337       6.99005573      21.72719038
Ni       4.65019005       2.69404895       5.96344390
Ni       4.06509525       2.54639629      21.69031630
Ni       2.06462329       6.98002074       5.89227890
Ni       1.42389687       6.85879760      21.87298029
Ni       2.02569947       1.24524233       9.95256919
Ni       1.46864725       1.11708660      25.74332302
Ni      -0.50953533       5.59711831       9.91333829
Ni      -0.93152508       5.46618609      25.76991641
Ni       6.91616800       1.25816999       9.88414941
Ni       6.23900097       1.01426839      25.75335420
Ni       4.36897542       5.49291693       9.88706233
Ni       3.83880828       5.25711758      25.77439283
Ni      -0.15659301       2.82216681       2.06794728
Ni      -0.77149446       2.61779074      17.86904275
Ni      -2.59591372       7.11061304       2.07783005
Ni      -3.23336054       6.94016185      17.89906229
Ni       4.80532186       2.80800001       1.89108836
Ni       4.16360162       2.65027901      17.83374387
Ni       2.24229243       7.10379269       1.92369068
Ni       1.73472754       6.86914885      17.86908637
Ni       1.96451412       2.71961876      11.91745736
Ni       1.31995618       2.51969440      27.80158442
Ni      -0.53500436       6.94748139      11.91953252
Ni      -1.15293877       6.88130273      27.75917087
Ni       6.80623410       2.62025794      11.78775686
Ni       6.24017395       2.56735223      27.75060141
Ni       4.34850012       6.92261297      11.88087170
Ni       3.84840701       6.75135504      27.67590727
Ni       3.20246549       0.54840842      11.81602302
Mg       2.60634501       0.32381933      27.76042363
Ni       0.70396760       4.82655784      11.86878306
Ni       0.04747794       4.75752149      27.73469622
Ni       8.09699968       0.35128130      11.77832556
Ni       7.48943025       0.25444196      27.76799366
Ni       5.60483703       4.76628350      11.79724470
Mg       4.96926724       4.58330037      27.83782513
Ni       1.07951961       3.45396308       4.02085433
Ni       0.45646218       3.16764428      19.85671278
Ni      -1.49926240       7.74954945       3.95491274
Ni      -2.09100382       7.65107579      19.83880694
Ni       5.80149769       3.37935918       3.98414627
Ni       5.24724375       3.24001756      19.78978302
Ni       3.27354518       7.76245802       3.85211171
Ni       2.86124488       7.59531804      19.91361722
Ni       0.73287520       0.65367450      11.84752888
Ni       0.26007014       0.39706512      27.70631507
Ni      -1.69715610       4.93076894      11.90646105
Ni      -2.26714934       4.70494356      27.74260838
Ni       5.56024648       0.60201717      11.86911227
Ni       5.16141026       0.28108848      27.69848241
Ni       3.04986478       4.85802065      11.82130218
Ni       2.52222051       4.65751164      27.64144925
Ni      -0.16874818       1.29463991       3.95085317
Ni      -0.71920600       1.17771027      19.84687059
Ni      -2.65912554       5.65657697       3.98201620
Ni      -3.17912400       5.57331001      19.76949046
Ni       4.69422905       1.27210603       3.93175814
Ni       4.15872903       1.12054534      19.80904185
Ni       2.14774358       5.62202433       3.93007406
Ni       1.70403610       5.40693103      19.75346912
Mg      -1.42578488       3.49075140       4.04704302
Ni      -2.05595365       3.29049098      19.90026667
Ni      -3.84289492       7.88036642       3.93823207
Ni      -4.41208669       7.62511732      19.93957927
Ni       3.42024009       3.38466351       3.96569739
Ni       2.86024183       3.36187882      19.70346414
Ni       0.95547676       7.77131452       3.95696589
Ni       0.46505826       7.56235522      19.89459390
Ni       2.48100321      -0.06530527      -0.05244654
Ni       1.85749686      -0.19414370      15.86116042
Ni      -0.10250892       4.35501139      -0.02318442
Ni      -0.58652045       4.11282741      15.84527938
Ni       7.24013834      -0.13300227      -0.01674472
Ni       6.65163595      -0.28829347      15.82142940
Ni       4.79342925       4.28948814      -0.13187521
Ni       4.26414593       4.03227133      15.83914260
Ni       1.15658511       2.11799374      -0.05731328
Ni       0.55983063       1.94150872      15.92431826
Ni      -1.21744092       6.50726774      -0.01010023
Ni      -1.85571525       6.20241449      15.84494132
Ni       5.99129672       2.18161801      -0.09683315
Ni       5.42175888       1.89600192      15.78897959
Ni       3.64173436       6.39609453      -0.05640119
Ni       2.99409202       6.13715824      15.78336962
Ni      -1.60769390       2.12732230       7.95317501
Ni      -2.10181498       1.89328639      23.82604161
Ni      -4.05333909       6.42694893       8.01630952
Ni      -4.61092425       6.22561298      23.82941784
Ni       3.39860983       1.98469131       7.91842785
Mg       2.80145975       1.70937882      23.81341578
Ni       0.88382893       6.31495175       7.93304735
Mg       0.36030921       6.10066809      23.77776908
Ni       2.10332928      -0.10246304       7.89789404
Ni       1.55218187      -0.30642644      23.85274164
Ni      -0.35816934       4.17738827       7.88350142
Ni      -0.94348616       4.04856525      23.74854817
Ni       6.99957567      -0.10759583       7.82771959
Ni       6.31335859      -0.34725975      23.78115017
Ni       4.55471968       4.15227073       7.84623646
Ni       3.99759160       4.01083661      23.75503147
Ni      -1.26208828       2.23532220      -0.01476846
Ni      -1.90440671       2.03529726      16.00420289
Ni      -3.76771552       6.46880234      -0.04611692
Ni      -4.36626987       6.31026366      15.91759838
Ni       3.53664419       2.07719778      -0.08990412
Ni       3.11971149       1.90529736      15.89843531
Ni       1.11155818       6.42987813      -0.03641261
Ni       0.48755350       6.17300111      15.83587864
Ni       0.89284367       2.07993571       7.91857825
Ni       0.28979918       1.77399695      23.82644847
Ni      -1.56160117       6.32097032       7.97992804
Ni      -2.21465251       6.07568529      23.87498298
Mg       5.72849506       1.94112028       7.78004704
Ni       5.18752360       1.69634469      23.75829650
Ni       3.29186723       6.25582140       7.89270935
Ni       2.64838153       6.12006704      23.82056661
