191
Lattice="10.018359866507913 0.1947372920351373 0.051639580701347686 -5.212307834473851 8.118523807371313 0.2475551579955932 0.7725157038794694 0.49095252723791305 31.869457936137174" Properties=species:S:1:pos:R:3 pbc="T T T"
Mg       0.36277426       0.19245454      14.48885883
Mg       0.70055788       0.39838130      30.33324968
Mg      -2.29702126       4.27630088      14.62406263
Mg      -1.79839483       4.54971756      30.56532470
Mg       5.30065381       0.28514877      14.49541814
Mg       5.77474917       0.58836942      30.40307334
Mg       2.82741634       4.39960582      14.60057624
Mg       3.16089815       4.59001375      30.53113670
Mg       0.14547842       0.07231816       6.48643954
Mg       0.55851900       0.34536633      22.47201735
Mg      -2.40576817       4.20079935       6.61732736
Mg      -2.07624860       4.34298085      22.49881228
Mg       5.18035074       0.20223587       6.53488712
Mg       5.59582270       0.45956309      22.43646070
Mg       2.51743481       4.26568842       6.63437164
Mg       2.94504699       4.49322213      22.60027812
Mg       0.20168170       0.18384653       9.45823643
Mg       0.62775046       0.42027429      25.46376258
Ni      -2.47943667       4.26863147       9.59352114
Mg      -1.96134366       4.50300788      25.55241644
Mg       5.18965388       0.19545204       9.58323577
Mg       5.65379598       0.44075497      25.47754979
Mg       2.57988463       4.29280491       9.55951500
Mg       3.06931428       4.54971534      25.56822100
Mg       0.01799124      -0.05758017       1.47143478
Mg       0.49058210       0.31471898      17.43634076
Mg      -2.55325412       4.10343964       1.68677272
Mg      -2.11042795       4.27672931      17.59353722
Mg       5.08117741       0.20815224       1.66086230
Mg       5.36626149       0.36758273      17.44351979
Mg       2.59841274       4.22042292       1.65604601
Mg       2.93093234       4.36284619      17.58102487
Mg       2.50002078       1.42919919       2.51843626
Mg       2.85525099       1.69676840      18.39378535
Mg      -0.11854032       5.53652473       2.56706592
Mg       0.24623455       5.74526632      18.66963459
Mg       7.52732039       1.55823735       2.62304692
Ni       7.98542045       1.74046233      18.47785084
Mg       4.95504449       5.59303935       2.62742496
Mg       5.35653621       5.75115041      18.65029583
Mg       0.15268930       3.00572400      10.58114634
Mg       0.63804557       3.07265218      26.42210666
Mg      -2.35267951       6.91821772      10.72782724
Mg      -2.04460435       7.19842632      26.57471020
Mg       5.23346381       3.02966416      10.61160680
Mg       5.62660344       3.19477306      26.43448333
Mg       2.63648073       7.05114111      10.63136696
Mg       2.98695166       7.27570970      26.65192220
Mg       2.63003111       1.55475603       5.54734294
Mg       2.92733202       1.70254385      21.44518423
Mg      -0.05869473       5.51119549       5.65903886
Mg       0.40099779       5.71668812      21.57381759
Mg       7.60097249       1.64511372       5.61415553
Mg       8.05146006       1.84099175      21.48252559
Mg       5.04280272       5.73021821       5.65205048
Mg       5.32956830       5.89043990      21.58376988
Mg       0.32916858       2.99058235      13.55000378
Mg       0.63884418       3.13569351      29.38211679
Mg      -2.31472958       6.94926769      13.75619345
Mg      -2.01516603       7.23582367      29.57372498
Mg       5.24590969       3.05350170      13.60416752
Mg       5.65518894       3.30129484      29.55058491
Mg       2.63055698       7.15804773      13.75579035
Mg       3.04594405       7.40605370      29.74014159
Ni       2.77960235       1.66399986      14.00578618
Ni       3.25692633       1.85233521      29.89294581
Ni       0.29272013       5.66202229      14.21831997
Ni       0.71247379       5.88516569      30.14713119
Ni       7.74778736       1.74265161      14.03082077
Ni       8.11068544       1.92354447      29.92484425
Mg       5.19769746       5.68945088      14.15451660
Ni       5.60984602       6.03390913      30.12083511
Ni       0.05113281       2.79535573       6.11070275
Ni       0.38660542       3.08497203      22.01131888
Ni      -2.54588123       6.88620553       6.17489027
Ni      -2.18882571       7.12592364      22.10866957
Ni       5.07725802       2.92131706       6.14381061
Ni       5.44440890       3.19245900      21.95417888
Ni       2.46791677       6.93737006       6.22761232
Ni       2.82069624       7.21925411      22.18233195
Ni       2.72231105       1.51931954      10.03521034
Ni       3.13148358       1.80964632      25.90168379
Ni       0.17518343       5.59914931      10.08305191
Ni       0.56033064       5.86243736      26.04030469
Ni       7.72146341       1.56044563      10.07910284
Ni       8.09525435       1.90201621      25.99023116
Ni       5.09723091       5.64470215      10.10557130
Ni       5.52568288       6.01084955      26.12042766
Ni       0.08543834       2.84512154       2.02636281
Ni       0.33398876       3.08952577      18.03078052
Ni      -2.60056709       6.82685511       2.26506982
Ni      -2.17566081       7.12360865      18.15750463
Ni       4.96172862       2.84952780       2.05473716
Ni       5.41428416       3.10751602      17.95772655
Ni       2.31421112       6.92663589       2.21632319
Ni       2.72877110       7.18525373      18.11328738
Ni       2.70102219       2.97681076      12.06075502
Ni       3.15458326       3.22509962      27.98212050
Ni       0.15376427       7.06072990      12.15915614
Ni       0.42547775       7.29207151      28.13041856
Ni       7.65232134       3.06807196      12.18085707
Ni       8.00330544       3.35750467      27.99873761
Ni       5.10268767       7.15277392      12.22767034
Ni       5.58310368       7.27142697      28.10975015
Ni       4.15720514       0.95524259      12.02884226
Ni       4.34968525       1.13707889      27.99595000
Ni       1.50053313       5.06694095      12.07118791
Ni       1.82888198       5.21772171      28.04324843
Ni       9.11656748       1.00396623      11.98444471
Ni       9.36135053       1.19276108      27.91675812
Ni       6.41221768       5.19113983      12.13848073
Ni       6.80015840       5.27263699      28.07459395
Ni       1.27635428       3.52253373       4.03582775
Ni       1.61572273       3.73138943      19.98720936
Ni      -1.31353075       7.57739501       4.27674579
Ni      -1.01881378       7.79809797      20.21538742
Ni       6.33983371       3.51603285       4.17215718
Ni       6.67219237       3.75797672      20.07934648
Ni       3.71607421       7.63430691       4.27415662
Ni       4.09634507       7.88711391      20.18065106
Ni       1.56697317       0.96712178      12.08242850
Ni       1.87310152       1.13595479      27.94962307
Ni      -1.07321351       4.92836727      12.14944632
Ni      -0.58061731       5.11702511      28.08488403
Ni       6.45760089       1.02395440      11.96235439
Ni       6.88417001       1.27962908      27.90049225
Ni       3.90924891       5.07512449      12.19047390
Ni       4.27567793       5.31857129      28.04959766
Ni       0.04256230       1.40751986       4.09984959
Ni       0.34715809       1.67472870      19.94473397
Ni      -2.16821046       5.73687642      20.07499803
Ni       5.08859649       1.53129110       4.02663056
Ni       5.49500548       1.77372958      20.02702348
Ni       2.52059099       5.61108342       4.18969956
Ni       2.82850476       5.79436491      20.06975624
Ni      -1.24471848       3.40390836       4.04449794
Ni      -0.95110594       3.66489634      19.99726465
Ni      -3.77942128       7.42885607       4.28740128
Ni      -3.45688060       7.82933986      20.13788526
Ni       3.81694937       3.51231144       4.06407001
Ni       4.07347159       3.80566564      20.09344271
Ni       1.14615505       7.64426646       4.30651509
Ni       1.55533620       7.94801200      20.15995038
Ni       2.54702141       0.03768776       0.02777281
Ni       2.91731891       0.29989506      15.86677888
Ni      -0.15532842       4.15067492       0.15093664
Ni       0.21681967       4.34673485      16.05260308
Ni       7.53267264       0.12374308       0.00109348
Ni       7.90058197       0.40545127      16.02276810
Ni       4.93401585       4.24383261       0.21592227
Ni       5.29765629       4.52014684      16.09401300
Ni       1.12587488       2.06318075       0.06258836
Ni       1.57311951       2.31623223      16.03913348
Ni      -1.40772838       6.09544968       0.23068237
Ni      -0.99705515       6.38675511      16.13500482
Ni       6.29827331       2.19454290       0.23030018
Ni       6.55743626       2.45584111      16.11935980
Ni       3.65289055       6.26324041       0.17041070
Ni       3.99085286       6.46974793      16.26667314
Ni      -1.05642174       2.13698887       7.96578360
Ni      -0.69540690       2.39387381      23.97287247
Ni      -3.67306538       6.21968811       8.16173303
Ni      -3.31818506       6.43770676      24.15705983
Ni       3.92897385       2.32002185       8.08265809
Ni       4.27898354       2.54207269      23.98054930
Ni       1.32292251       6.30341713       8.16857852
Mg       1.68680331       6.60778379      24.14949224
Ni       2.69126982       0.19792068       7.97715945
Ni       3.00300831       0.42817349      23.92303064
Ni       0.18273302       4.27579272       8.13068791
Ni       0.50352931       4.38747427      24.10417703
Ni       7.61066862       0.25033109       8.03579491
Ni       8.14121630       0.52923524      23.87294864
Ni       5.19487029       4.32725195       8.15868655
Ni       5.49021953       4.56573967      24.11055602
Ni      -1.26851481       2.09932165       0.07293908
Ni      -0.91546648       2.23616721      16.00194316
Ni      -3.84124302       6.06061394       0.19554546
Ni      -3.52948950       6.37886463      16.10622636
Ni       3.74420655       2.06014251       0.11112303
Ni       4.05238638       2.35173531      16.11604560
Ni       1.07182178       6.09819236       0.21892075
Ni       1.52616688       6.43437233      16.11658320
Ni       1.37606613       2.20289793       8.08587945
Ni       1.64715512       2.43957593      23.89972034
Ni      -1.21578390       6.20210230       8.18609753
Ni      -0.83734791       6.56027950      24.11613170
Ni       6.42600810       2.31206552       8.03968879
Ni       6.80321968       2.56091115      24.02206041
Ni       3.83832070       6.35282797       8.24385259
Ni       4.17644387       6.63079662      24.06412810
