191
Lattice="9.69754193462877 0.06411794349071896 0.41263160968724144 -4.5752884824807465 8.681437164739213 0.03683228086879714 0.00483384158180597 -0.11780838129360731 31.473996469999125" Properties=species:S:1:pos:R:3 pbc="T T T"
Mg      -0.01880361      -0.10236928      14.31030829
Mg       0.01600161      -0.13146512      30.06255007
Mg      -2.32364797       4.31065733      14.31906417
Mg      -2.20248014       4.26228707      30.07993026
Mg       4.80698426       0.05837648      14.48889780
Mg       4.83013913      -0.16612864      30.22111226
Mg       2.52754577       4.30798708      14.52980881
Mg       2.53565501       4.24110652      30.23110839
Mg      -0.03224134       0.02436240       6.36504199
Mg       0.01276128      -0.09785230      22.12725474
Mg      -2.27861614       4.29949879       6.42749722
Mg      -2.12648515       4.26490209      22.13295077
Mg       4.86389863      -0.03943697       6.60405581
Mg       4.79234629      -0.06815971      22.35340294
Mg       2.56455933       4.34980704       6.62509102
Mg       2.55961064       4.20805857      22.40489137
Mg       0.03158182       0.00556883       9.37284434
Mg       0.00914714      -0.07835050      25.16060360
Mg      -2.25074210       4.26808276       9.27143751
Mg      -2.20588017       4.30505110      25.09707492
Mg       4.93747819      -0.04472533       9.59827240
Mg       4.89621768      -0.06961052      25.22289294
Mg       2.66491615       4.40331404       9.56491149
Mg       2.55163565       4.32326722      25.29256310
Mg      -0.02030855      -0.03597396       1.45118899
Mg      -0.07565533      -0.01591667      17.22735418
Mg      -2.19184479       4.35885680       1.48168138
Mg      -2.22346851       4.27006305      17.27476361
Mg       4.83661627       0.00461557       1.77640873
Mg       4.91391099       0.01226594      17.39074778
Mg       2.57714146       4.31781391       1.67265045
Mg       2.59208575       4.33682013      17.39097446
Mg       2.43763164       1.49255862       2.59923112
Mg       2.44169405       1.36313853      18.36891725
Mg       0.24568055       5.77095125       2.60969290
Mg       0.12688205       5.62464422      18.39058886
Mg       7.26993756       1.44582643       2.77838353
Mg       5.04786072       5.84636573       2.85674528
Mg       5.06089263       5.87319420      18.61948319
Mg       0.08449284       2.83612108      10.36925575
Mg       0.05926557       2.85291653      26.10898192
Ni      -2.20433042       7.18874780      10.41762188
Mg      -2.21616543       7.24636249      26.16295053
Mg       4.91891720       2.94423736      10.64244048
Mg       4.96836881       2.84844528      26.37967416
Mg       2.57167850       7.19904322      10.64137559
Mg       2.60318492       7.17894645      26.30643130
Mg       2.46775992       1.49971561       5.63855011
Mg       2.46783736       1.38549387      21.28800720
Mg       0.10505765       5.74150026       5.47216885
Ni       0.22171458       5.82159705      21.30738598
Mg       7.24755717       1.50999989       5.76741659
Mg       7.35481528       1.47382366      21.61375060
Mg       4.98764453       5.78868348       5.82038153
Mg       5.00766784       5.69053327      21.51718730
Ni       0.06437036       2.77919205      13.32927476
Mg       0.15180491       2.81965593      29.05476975
Mg      -2.15364774       7.17583122      13.46219957
Mg      -2.19814837       7.09863050      29.14265204
Mg       4.83574705       2.85974793      13.62398659
Mg       4.87422450       2.84881907      29.27172896
Mg       2.69210829       7.21613067      13.58067871
Mg       2.63352799       7.16089142      29.30252444
Ni       2.51928130       1.40085451      13.80407490
Ni       2.44020875       1.41797983      29.69878593
Ni       0.14783927       5.66955454      13.91759556
Ni       0.21661592       5.76894579      29.64895877
Ni       7.25410868       1.43596491      14.06368067
Mg       7.34852551       1.29622195      29.96732738
Ni       5.13444673       5.73711792      14.13278015
Ni       5.05887095       5.67655160      29.82181004
Ni       0.15810469       2.83469166       5.96606103
Ni       0.06432046       2.84917388      21.67349996
Ni      -2.17543419       7.29487968       6.02024355
Ni      -2.21299336       7.11778426      21.63724765
Ni       4.94884056       2.93771057       6.17410186
Ni       4.91477494       2.88144876      21.94251837
Ni       2.74365605       7.23550687       6.26115621
Ni       2.57621742       7.29177879      22.01958577
Ni       2.50661291       1.37073210       9.94147963
Ni       2.53599646       1.35559315      25.81326328
Ni       0.09948173       5.73047637       9.95984600
Ni       0.16655525       5.71468072      25.77648206
Ni       7.36618142       1.43665748      10.10253198
Ni       7.26672944       1.45302858      25.98934575
Ni       5.06994372       5.72585291      10.24737534
Ni       4.98392058       5.73920920      26.00339266
Ni       0.11759370       2.89775283       2.01388287
Ni       0.10005335       2.92714859      17.81083238
Ni      -2.13195634       7.27274721       2.03527104
Ni      -2.08231712       7.15304324      17.79989281
Ni       4.95006127       2.94053248       2.19621280
Ni       4.87633570       2.88341569      17.91228297
Ni       2.73950162       7.32755236       2.31438694
Ni       2.67951592       7.20676315      17.95082431
Ni       2.51871137       2.75125226      11.93348699
Ni       2.58102601       2.78775021      27.77537188
Ni       0.30540566       7.21957639      11.99677057
Ni       0.27392903       7.21916175      27.73740061
Ni       7.34238713       2.95131120      12.26589758
Ni       7.39131447       2.90390599      27.94517778
Ni       5.17769614       7.22513387      12.26360490
Ni       4.99376153       7.15038268      27.92335647
Ni       3.63713394       0.69838332      12.02586033
Ni       3.65963166       0.62137605      27.65901984
Ni       1.42832204       5.04398728      11.96791151
Ni       1.34018944       4.98342583      27.78466861
Ni       8.59431906       0.82948159      12.18003144
Ni       8.44159765       0.70377425      27.94348637
Ni       6.25247405       5.13777659      12.18299137
Ni       6.24610116       5.00142904      27.86538678
Ni       1.29994810       3.66574943       4.13158670
Ni       1.32417267       3.55527514      19.89454070
Ni      -0.97203158       7.88160557       4.16517045
Ni      -0.93728850       7.96033934      19.88788184
Ni       6.22034859       3.67041984       4.32334035
Ni       6.16817789       3.50170328      20.05096423
Ni       3.88001442       7.99405096       4.29240686
Ni       3.84464221       7.90521601      20.06841398
Ni       1.21686947       0.70931125      11.85074619
Ni       1.27505920       0.65214224      27.55821450
Ni      -1.07807022       4.92363298      11.90110660
Ni      -1.11710275       4.89718495      27.72791862
Ni       6.11764209       0.72116327      12.09361703
Ni       6.11805835       0.75093646      27.73318334
Ni       3.78563385       5.10715395      12.07598621
Ni       3.88800228       5.01103520      27.82595330
Ni       0.09479222       1.43537359       4.00977181
Ni       0.10057022       1.36195477      19.64151317
Ni      -2.33791484       5.79374263       4.07154620
Ni      -2.28819090       5.71613736      19.67257161
Ni       4.86895912       1.43148857       4.12470300
Ni       4.89731877       1.40728260      19.85721839
Ni       2.60274765       5.82121211       4.16402573
Ni       2.60336132       5.73037401      19.90752887
Ni      -1.02594994       3.56707716       4.04949058
Mg      -1.11409130       3.60954116      19.70392528
Ni      -3.36068496       7.87637906       3.92492617
Ni      -3.34759205       7.83291546      19.76300030
Ni       3.77335240       3.57648562       4.23798769
Ni       3.68532936       3.59335569      19.93757106
Ni       1.48699503       7.97864486       4.20202487
Ni       1.47819303       7.98003344      19.76729281
Ni       2.40510848       0.03827208       0.06850738
Ni       2.46440317       0.03495301      15.83023274
Mg       0.15217536       4.33834779       0.13828931
Ni       0.17785876       4.32749596      15.91977188
Ni       7.36634604       0.05557622       0.27946946
Ni       7.26750772      -0.01395394      16.04743571
Ni       5.05138498       4.33090058       0.32830839
Ni       5.02463247       4.30091576      16.05177500
Ni       1.22660798       2.17367144       0.20523145
Ni       1.22161080       2.02578502      15.82032032
Ni      -1.06354275       6.55398915       0.09838087
Ni      -0.96623784       6.49047988      15.91892060
Ni       6.11612592       2.20218562       0.35453821
Ni       6.15491974       2.14357772      16.08479663
Ni       3.91793881       6.46550724       0.34876211
Ni       3.88874701       6.44090032      16.12238051
Ni      -1.17837434       2.10019520       7.92516848
Ni      -1.12892190       2.02021973      23.54266425
Ni      -3.38375792       6.37482478       7.91057039
Ni      -3.44428118       6.43333869      23.63920113
Ni       3.66116552       2.16651074       8.17344787
Ni       3.63176209       2.03620066      23.78086364
Ni       1.37395098       6.55174015       8.09760170
Ni       1.40640065       6.48371135      23.88068151
Ni       2.41492329      -0.00203959       7.95692268
Ni       2.44363781       0.02956221      23.65694452
Ni       0.03410443       4.29552910       8.00327200
Ni       0.04730789       4.18659569      23.71818753
Ni       7.22727824       0.07951197       8.17080995
Ni       7.35628956      -0.06651640      23.90483635
Ni       5.04746364       4.35624658       8.18899410
Ni       4.97025722       4.29996839      23.93635662
Ni      -1.27270500       2.15902872      -0.01173111
Ni      -1.19201472       2.08734969      15.77033580
Ni      -3.48629726       6.51500009       0.01493706
Ni      -3.39907440       6.48022459      15.81622059
Ni       3.67600419       2.10916818       0.27443412
Ni       3.67767975       2.26332664      15.91408170
Ni       1.40960136       6.51102333       0.17914608
Ni       1.42662856       6.41970976      15.99378154
Ni       1.28135644       2.18765357       7.94315605
Ni       1.27601866       2.05927643      23.77378868
Ni      -0.98425341       6.49052113       8.07657049
Ni      -1.01148124       6.45570704      23.83598838
Ni       6.11167694       2.13882135       8.19669671
Ni       6.21189914       2.17928571      23.90297257
Ni       3.89900662       6.55889403       8.13830686
Ni       3.81506346       6.43916609      23.98455520
