189
Lattice="10.311541250288714 -0.01207967561593636 0.2957500672731164 -5.243671168058439 8.69805889523378 -0.18936655291001747 0.6800979522007571 -0.8008733491950972 32.20174032546499" Properties=species:S:1:pos:R:3 pbc="T T T"
Mg       0.32753101      -0.46067932      14.51919244
Mg       0.67772051      -0.79134114      30.73692587
Mg      -2.30436178       3.90697815      14.48758931
Mg      -1.96714934       3.57571268      30.68209461
Mg       5.46935324      -0.31793729      14.71131837
Mg       5.84089808      -0.74409136      30.83232031
Mg       2.79525208       3.93684140      14.58553674
Mg       3.12325666       3.57949093      30.75242151
Mg       0.13543597      -0.20655679       6.53211754
Mg       0.42531092      -0.53298980      22.63912668
Mg      -2.53440963       4.09508780       6.45985576
Mg      -2.09082589       3.81042272      22.50123430
Mg       5.22166767      -0.15491074       6.67910282
Mg       5.63821181      -0.63929253      22.81411538
Ni       2.84315437       4.12166395       6.64114306
Mg       2.98204364       3.63133022      22.75753521
Mg       0.24361485      -0.33823947       9.63920351
Mg       0.58771017      -0.70946282      25.65726120
Mg      -2.46949090       4.15317824       9.45079141
Mg      -2.13493571       3.78059802      25.55930728
Mg       5.35411539      -0.23152211       9.73684093
Mg       5.64296527      -0.62204909      25.83010024
Mg       2.74246340       4.09827915       9.69903111
Mg       3.08646014       3.63499291      25.77475216
Mg       0.00204091      -0.01565775       1.54348290
Mg       0.36503851      -0.49198927      17.68983978
Mg      -2.60922540       4.38351229       1.38632177
Mg      -2.19451861       3.96123695      17.51193432
Ni       5.15838972      -0.08474597       1.58704112
Mg       5.57766747      -0.45018530      17.75926384
Ni       2.97611614       3.96009877      17.67662270
Mg       2.63932233       1.40655572       2.54014682
Mg       2.91706311       0.98142773      18.62051513
Mg      -0.09674437       5.65410036       2.52367106
Mg       0.38469845       5.31509295      18.57873840
Mg       7.75907722       1.36172645       2.67566732
Mg       8.16032904       0.93202583      18.80978981
Mg       5.13603422       5.79725933       2.59951673
Mg       5.43432113       5.26855034      18.73203111
Mg       0.15202151       2.59512590      10.49826181
Mg       0.49911986       2.27500515      26.74207850
Mg      -2.44240158       6.95370992      10.54146343
Mg      -2.14830372       6.51672253      26.48635020
Mg       5.34521867       2.62849139      10.64454590
Mg       5.66076364       2.23843652      26.77808110
Mg       2.75646281       6.96905804      10.63279699
Mg       3.07164242       6.56813778      26.70936087
Mg       2.76155007       1.36521951       5.49849318
Mg       3.01980750       0.95006887      21.77759464
Mg       0.07462275       5.70085928       5.52089953
Mg       0.44838987       5.25772433      21.70452901
Mg       7.88154063       1.21888621       5.67749843
Mg       8.25559096       0.88863112      21.88153124
Mg       5.16434256       5.60404208       5.66973356
Mg       0.32150024       2.61317539      13.62235560
Mg       0.57904407       2.09212299      29.60834200
Mg      -2.34971025       6.92005270      13.39564778
Mg      -1.95480342       6.55127407      29.54756204
Mg       5.34284829       2.48038329      13.74873453
Mg       5.84569044       2.13812628      29.81856248
Mg       2.82056116       6.84827926      13.71983319
Mg       3.15318827       6.45866258      29.70890923
Ni       2.81152128       1.09766485      14.05575769
Ni       3.20678409       0.71312692      30.25526599
Ni       0.34796735       5.34027028      14.08762070
Ni       0.51961614       5.06208758      30.21090778
Ni       8.08408663       1.16897268      14.36188159
Ni       8.33621970       0.72104424      30.43826783
Ni       5.40879620       5.45158168      14.18060481
Ni       5.77557521       5.01399553      30.27743308
Ni       0.05161507       2.76771003       6.03283253
Ni       0.49168645       2.24900716      22.09949914
Ni      -2.55327644       7.09195039       5.99670250
Ni      -2.20291574       6.66269890      22.00010168
Ni       5.25413206       2.76541079       6.07168783
Ni       5.65979507       2.36938304      22.27798849
Ni       2.61784388       7.09891672       6.05262828
Ni       2.94528121       6.70603462      22.10559352
Ni       2.77332083       1.17482652      10.11297599
Ni       3.10409447       0.73252178      26.18680254
Ni       0.19560919       5.62375963      10.03832537
Ni       0.40271203       5.18255541      26.16425487
Ni       7.82551855       1.20928468      10.17015386
Ni       8.24161079       0.78315776      26.33029495
Ni       5.35737597       5.53099732      10.13884516
Ni       5.67695996       5.16447049      26.31095945
Ni       0.02947752       2.94927341       1.97541853
Ni       0.41699062       2.36625216      18.05355522
Ni      -2.62470082       7.23358086       1.91775338
Ni       5.16348863       2.80248937       2.15266935
Ni       5.54729711       2.51772293      18.30229351
Ni       2.55785105       7.16447001       2.08413976
Ni       2.87728748       6.78778104      18.13382429
Ni       2.79441537       2.59830669      12.16904493
Ni       3.14727518       2.05651984      28.21430422
Ni       0.27686374       6.97017006      12.03505561
Ni       0.51133271       6.52429070      28.18287671
Ni       7.79831128       2.56073573      12.26953916
Ni       8.29111321       2.16730871      28.39997814
Ni       5.38580909       7.02676963      12.13519487
Ni       5.56879622       6.47975666      28.16693557
Ni       4.08886430       0.38982741      12.22012818
Ni       4.37558228       0.07942532      28.29432465
Ni       1.54142480       4.74319002      12.14599646
Mg       1.83446907       4.33170566      28.17715659
Ni       9.20933786       0.40520892      12.29843214
Ni       9.63072394      -0.05824467      28.48151405
Ni       6.72248752       4.73202505      12.19301712
Ni       6.93041747       4.33710851      28.27104756
Ni       1.36451644       3.55725714       4.05870349
Ni       1.66055780       3.11596409      20.02633047
Ni      -1.28151211       7.81993660       3.93881378
Ni      -0.87097817       7.42600689      20.02556009
Ni       6.65793392       3.59544032       4.21319941
Ni       6.80979037       3.06138484      20.35463459
Ni       3.84864499       7.95287802       4.11247753
Ni       4.32417743       7.42268165      20.20095036
Ni       1.55126563       0.49321810      12.12873587
Ni       1.88901445       0.08582549      28.17692917
Ni      -1.08270908       4.92970595      12.01315197
Ni      -0.79799158       4.41182970      28.18406776
Ni       6.63738495       0.41514603      12.32624894
Ni       7.05311913      -0.07778238      28.26250901
Ni       4.08720254       4.66142921      12.06251497
Ni       4.46763941       4.35389275      28.31279907
Ni       0.06529290       1.27858777       4.06887532
Ni       0.34115063       0.92445760      20.05478835
Ni      -2.53385268       5.77745302       3.92504716
Ni      -2.13950785       5.26958171      20.03203024
Ni       5.23132620       1.31485626       4.24146387
Ni       5.53940787       0.94674951      20.21395464
Ni       2.58449460       5.57858206       4.03446199
Mg       2.99367979       5.26159547      20.17438923
Ni      -1.23833949       3.54913208       3.98231712
Ni      -0.85147897       3.14681217      20.02049118
Ni      -3.84532592       7.90171395       3.82870999
Ni      -3.47862784       7.40001840      20.03646676
Ni       4.04801645       3.46337284       4.11011494
Ni       4.29302815       3.03240698      20.16485385
Ni       1.35178705       7.84124168       4.00055455
Ni       1.56714060       7.45918894      20.08563474
Ni       2.62285547      -0.00645780       0.09526925
Ni       2.89673092      -0.37915694      16.17339853
Ni      -0.00194897       4.29660453      -0.04947394
Ni       0.30415443       4.05842508      16.03577640
Ni       7.73333760      -0.02086764       0.20286707
Ni       8.06589242      -0.38667379      16.36688651
Ni       5.06423690       4.25877720       0.11344682
Ni       5.38433032       3.99686548      16.22792433
Ni       1.33931620       2.19394111       0.03283811
Ni       1.59454391       1.77585294      16.10667499
Ni      -1.33817839       6.56582487      -0.16320890
Ni      -1.03848835       6.08919962      16.03887888
Ni       6.40031015       2.19998186       0.19264227
Mg       6.72950689       1.73280030      16.30291996
Ni       3.82698054       6.50436807       0.12293872
Ni       4.14260832       6.09742541      16.15480927
Ni      -1.07130715       1.99770727       8.03864325
Ni      -0.83432374       1.53452924      24.10133020
Ni      -3.70711838       6.33736721       7.91109304
Ni      -3.48543000       5.90940885      24.06223206
Ni       3.98117901       2.01698015       8.12135081
Ni       4.35101856       1.71790497      24.31376803
Ni       1.38434712       6.30230721       8.14153523
Ni       1.68883457       5.91819892      24.12269652
Ni       2.71696343      -0.16200851       8.09323631
Ni       3.12526837      -0.62224711      24.17356035
Ni       0.11965338       4.21064594       8.01296305
Ni       0.44587047       3.70256639      24.09489031
Ni       7.77646437      -0.19564453       8.31648015
Ni       8.14868301      -0.71053622      24.32349457
Ni       5.18677608       4.09417925       8.16759596
Ni       5.63338440       3.70249338      24.29507720
Ni      -1.25749040       2.20812387      -0.10329076
Ni      -0.95815669       1.79441699      16.06290984
Ni      -3.93746697       6.64527348      -0.16691108
Ni      -3.57627254       6.18703102      16.01450656
Mg       3.84017684       2.14383877       0.11532435
Ni       4.21682378       1.75052431      16.09284768
Ni       1.21162972       6.38867590       0.05172499
Ni       1.56885174       6.09509215      16.11103151
Ni       1.34351280       1.98323692       8.15036360
Ni       1.74970748       1.59229422      24.27825662
Ni      -1.17958702       6.39990482       8.03614872
Ni      -0.80293157       5.93081368      24.05933092
Ni       6.66782483       2.01182400       8.22782019
Ni       6.89269405       1.57782706      24.34490413
Ni       4.01046813       6.29981142       8.17858155
Ni       4.28397660       5.94661764      24.18598992
