190
Lattice="9.680176253007463 0.14509560094407525 0.01797640968213605 -4.832907751902783 8.341295827115893 -0.16806328745720692 -0.4862217201782271 -0.08365725724264308 32.585000475825105" Properties=species:S:1:pos:R:3 pbc="T T T"
Mg      -0.19411752      -0.07123861      14.76329387
Mg      -0.52086011      -0.03928680      31.00576138
Mg      -2.52229306       4.11461411      14.57266456
Mg      -2.85067493       4.07737477      30.91305714
Mg       4.61507837       0.01197107      14.79007531
Mg       4.35342211       0.03555867      31.06921902
Mg       2.24445659       4.20729821      14.63265970
Mg       1.91732513       4.11350478      30.95047457
Ni      -0.13630277       0.00476460       6.74487596
Mg      -0.34496702      -0.12865759      22.92461663
Mg      -2.46687299       4.20386850       6.56937499
Mg      -2.76177159       4.21132950      22.81186943
Mg       4.76398576       0.10257286       6.69248863
Mg       4.49785943       0.01249987      22.98343170
Mg       2.25310239       4.31269418       6.51500234
Mg       2.12250914       4.21242714      22.88884730
Mg      -0.12870841       0.00860550       9.67288934
Mg      -0.45599953       0.00814034      25.98483119
Mg      -2.55763355       4.13412322       9.55799744
Mg      -2.86814773       4.06349393      25.90252240
Mg       4.73488454       0.04192421       9.71424659
Mg       4.41990944       0.01910820      25.84792195
Mg       2.17695210       4.22665291       9.60200011
Mg       2.09294543       4.21469884      25.81027057
Mg       0.00352252      -0.08696565       1.58120619
Ni      -0.21330567      -0.09151455      17.84226381
Mg      -2.45289116       4.16568185       1.45550407
Mg      -2.76751983       4.23471734      17.77571319
Mg       4.82742592       0.06726221       1.54766382
Mg       4.54884324       0.07552334      17.87319484
Mg       2.36281060       4.15527877       1.53167083
Mg       2.19302029       4.25837847      17.62230088
Mg       2.44647243       1.45158649       2.55215175
Mg       2.20931677       1.37415458      18.84267638
Mg       0.03800553       5.65731145       2.43041842
Mg      -0.17364755       5.56948806      18.67525571
Mg       7.27063004       1.52278970       2.56660371
Mg       7.04780500       1.41793286      18.81577712
Mg       4.68911579       5.70599730       2.35543263
Mg       4.56186437       5.65780561      18.70011648
Mg      -0.17092294       2.82257393      10.53411586
Ni      -0.44177986       2.67158429      26.82543136
Mg      -2.53274948       6.98793873      10.40172509
Ni      -2.88453888       6.94640783      26.89381839
Mg       4.66771756       2.89306452      10.68679496
Mg       2.39243783       6.94947807      10.58253578
Mg       2.03081418       6.98415648      26.84237624
Mg       2.29199142       1.40601263       5.62767253
Mg       2.11192075       1.39225270      21.87132525
Mg      -0.06211578       5.57639737       5.46486731
Mg      -0.24618155       5.52019673      21.86359653
Mg       7.21789505       1.44123868       5.66516485
Mg       6.89907322       1.43144203      21.86675755
Mg       4.71793574       5.73452318       5.50587498
Mg       4.45188406       5.59567895      21.78967612
Mg      -0.26669054       2.74445611      13.64281428
Ni      -0.47370874       2.71258746      29.95230567
Mg      -2.59336362       6.88467100      13.68619841
Mg      -2.83484208       6.86158719      29.92256338
Ni       4.68601699       2.80766290      13.70807643
Mg       4.33934896       2.75955082      29.92590285
Mg       2.22516755       7.00223742      13.66364410
Mg       1.97026609       7.03297784      29.87150011
Ni       2.20860384       1.41100243      14.22617908
Mg       1.97675322       1.37026277      30.45724425
Ni      -0.18909696       5.52797703      14.19259711
Ni      -0.45856086       5.53021568      30.48004934
Ni       7.06917793       1.49876726      14.17655463
Ni       6.73985201       1.50382920      30.60462720
Ni       4.68786796       5.57078805      14.16249617
Ni       4.35533194       5.53062571      30.43085230
Ni      -0.03533347       2.69877948       6.06975455
Ni      -0.36049406       2.74746442      22.32061865
Ni      -2.50539261       6.86211987       6.00657329
Ni      -2.83981033       6.92237368      22.25881575
Ni       4.78331436       2.91247257       6.09570767
Ni       4.52583098       2.81555061      22.31674036
Ni       2.41698991       7.06525647       5.89901890
Ni       2.04466463       6.97053217      22.25081599
Ni       2.25945678       1.42423625      10.29960878
Ni       2.03361929       1.32793349      26.48426851
Ni      -0.19438433       5.62195800      10.07294017
Ni      -0.35208542       5.62037933      26.38343857
Ni       7.03980518       1.45215693      10.11424521
Ni       6.88491028       1.51936225      26.45979203
Ni       4.72325123       5.64187650       9.99565574
Ni       4.49986421       5.58913868      26.41731052
Ni      -0.01464709       2.80238170       1.97664736
Ni      -0.15658962       2.76102102      18.29888145
Ni      -2.48080280       6.99445746       1.97271110
Ni      -2.59993738       7.00664857      18.24262958
Ni       4.85232458       2.83860775       2.00097202
Ni       4.56522552       2.88670636      18.36434225
Ni       2.44082957       7.03714672       1.96318076
Ni       2.13326800       6.93906267      18.14536487
Ni       2.14700765       2.80621446      12.15964133
Mg       2.01438980       2.75290907      28.45186054
Ni      -0.17319290       7.08122393      12.12782955
Ni      -0.37530702       6.99365772      28.36075912
Ni       7.05739348       2.77392912      12.08085884
Ni       6.81776408       2.84184699      28.39231021
Ni       4.60423511       7.08274498      12.07237449
Ni       4.42055552       7.04689626      28.35093132
Ni       3.42646006       0.72936478      12.14774185
Ni       1.06874666       4.83327845      12.12323749
Ni       0.81498428       4.75895344      28.39866467
Ni       8.35516266       0.82651936      12.20612816
Ni       7.98234121       0.68555356      28.55830620
Ni       5.82269866       4.98906551      12.16615491
Ni       5.59927235       4.94274148      28.47924734
Ni       1.17759785       3.51933805       3.96773977
Ni       0.91523389       3.38126048      20.32396503
Ni      -1.25147104       7.68281869       3.97116036
Ni      -1.43238814       7.74566671      20.24027414
Ni       5.88575877       3.58590170       3.92318793
Ni       5.77048763       3.56383499      20.23246038
Ni       3.53984345       7.76624501       3.91213303
Ni       3.31193714       7.68441885      20.22095210
Ni       1.05622528       0.59049928      12.24226132
Ni       0.77626166       0.57960748      28.38704889
Ni      -1.39535298       4.83553809      12.10374297
Ni      -1.72317522       4.91016908      28.36560326
Mg       5.81252154       0.76496794      12.14537573
Ni       5.57478949       0.54882298      28.52989971
Ni       3.35363544       4.88719126      12.13522548
Ni       3.21093574       4.84710034      28.41079198
Ni      -0.05027012       1.34920604       4.01887807
Ni      -0.35216790       1.35206443      20.37077493
Ni      -2.43994366       5.69984528       4.03490544
Ni      -2.74338319       5.54144365      20.14267974
Ni       4.78133815       1.49978546       4.07070976
Ni       4.52509712       1.41575150      20.27379789
Ni       2.39554202       5.65138824       4.00769217
Ni       2.08846563       5.54400501      20.34012247
Ni      -1.27178648       3.48011388       4.01438837
Mg      -1.45914998       3.45313866      20.27005525
Ni      -3.63908356       7.71244306       3.86157862
Ni      -3.96617722       7.56415554      20.13440085
Ni       3.60672155       3.63190817       4.00892143
Ni       3.33572165       3.49031494      20.34606035
Ni       1.17012230       7.69569081       3.99109394
Ni       0.88566192       7.71692915      20.19894854
Ni       2.41418461       0.02869690      -0.12183264
Ni       2.14111520      -0.00812704      16.29342357
Ni      -0.02042922       4.25906862      -0.00023187
Ni      -0.22474989       4.11078708      16.17431493
Ni       7.24617667       0.07923335       0.04176862
Ni       7.05940032       0.03399564      16.32413442
Ni       4.87260135       4.32299360      -0.15709715
Ni       4.67913369       4.23753858      16.30451569
Ni       1.26869009       2.10497366       0.05466353
Ni       0.98392546       2.03440819      16.35078546
Ni      -1.19465352       6.22483926      -0.12748749
Ni      -1.48599455       6.22311507      16.22524755
Ni       6.02882041       2.24324769      -0.08699564
Ni       5.91938430       2.13321316      16.25038589
Ni       3.55053381       6.40944611      -0.11600179
Ni       3.35258679       6.37197679      16.15752512
Ni      -1.24502767       2.06029303       8.12706820
Ni      -1.56332806       2.11163554      24.36267236
Ni      -3.69571314       6.23840536       7.99791173
Ni      -4.00497269       6.18172509      24.31965861
Ni       3.57824578       2.14957641       8.04486314
Ni       3.27247709       2.11436419      24.32537960
Ni       1.13143543       6.30727971       7.93191302
Ni       0.79872438       6.31592965      24.31988965
Ni       2.26068421       0.01073963       8.03033652
Ni       2.09828733      -0.01199250      24.45696409
Ni      -0.19905599       4.20738327       8.05607284
Ni      -0.38121754       4.20658246      24.46461459
Ni       7.14520716       0.14457947       8.16364396
Ni       6.81872217      -0.03810788      24.59604004
Ni       4.77108093       4.26401108       8.06805368
Ni       4.44953028       4.17896178      24.41242636
Mg      -1.19430938       2.04723223       0.03412800
Ni      -1.43732989       2.08013772      16.24589081
Ni      -3.71926264       6.25759921      -0.11511255
Ni      -3.85522975       6.26171771      16.23079789
Ni       3.56569850       2.11751789       0.02105390
Ni       3.44135681       2.07464906      16.27838042
Ni       1.12899741       6.30264826      -0.08052741
Ni       1.01422186       6.35086776      16.11725222
Ni       1.09835159       2.13052938       8.17752759
Ni       0.82624359       2.01081188      24.41106921
Ni      -1.29250062       6.31466406       7.90426459
Ni      -1.65809447       6.12088974      24.26791993
Ni       5.96852727       2.18448379       8.14714444
Mg       5.70731606       2.15263551      24.43440344
Ni       3.46676805       6.34058114       8.01749355
Ni       3.23082537       6.36339864      24.33738603
