192
Lattice="9.63394327103869 -0.06032873891228768 0.2388419176449901 -4.763918405791509 8.713947993233388 -0.08679345550544271 0.03211278424746604 -0.3849194279157751 32.34913868156214" Properties=species:S:1:pos:R:3 pbc="T T T"
Mg       0.06714210      -0.27515357      14.64591145
Mg      -0.02664650      -0.36187742      30.75698216
Mg      -2.39670691       4.23964302      14.62181731
Mg      -2.28989238       3.99806443      30.77315119
Mg       4.92414127      -0.11358229      14.81014748
Mg       4.86131558      -0.52623034      30.86952222
Mg       2.44350380       4.16551941      14.70659904
Mg       2.47474867       3.88395915      30.94079558
Mg       0.02731978      -0.01331888       6.52900532
Mg      -0.10419210      -0.23817084      22.66002890
Mg      -2.45865431       4.32946784       6.51116709
Mg      -2.40560784       4.19244013      22.70399790
Mg       4.82902576      -0.13463112       6.67405082
Mg       4.79502085      -0.33102973      22.83447396
Mg       2.39370079       4.23735562       6.70271611
Mg       2.49814142       4.06992637      22.84454627
Mg      -0.01312679      -0.06175345       9.60971967
Mg      -0.01606414      -0.27762467      25.74953335
Mg      -2.38093006       4.18247604       9.64503000
Mg      -2.41097959       3.95554521      25.73130711
Mg       4.79171457      -0.16266702       9.71202978
Mg       4.82565389      -0.33558248      25.91431167
Mg       2.39338689       4.34375302       9.55985517
Mg       2.45190902       4.01866161      25.80193419
Mg       0.01068755       0.06684770       1.43802777
Mg       0.02571255      -0.21394174      17.66790727
Mg      -2.32532865       4.28356888       1.53263057
Mg      -2.41451919       4.17837672      17.71326206
Mg       4.86436238      -0.03660881       1.65679501
Mg       4.88071296      -0.17511264      17.74810327
Mg       2.42022539       4.31305321       1.59928654
Mg       2.35832255       4.10638702      17.63417600
Mg       2.40719174       1.37006695       2.51468963
Mg       2.42677382       1.22285651      18.77366502
Ni       0.14484488       5.77404495       2.53932974
Mg       0.11567266       5.56504107      18.65140592
Mg       7.24290332       1.33186439       2.66021667
Mg       7.28029728       1.16873475      18.95387996
Mg       4.90450438       5.73752840       2.69672376
Mg       4.83275394       5.55612356      18.95592849
Mg      -0.04477809       2.63893787      10.67266361
Mg       0.03858376       2.58533349      26.87630607
Mg      -2.40223822       7.06426245      10.66818639
Mg      -2.40504124       6.91566736      26.76946732
Mg       4.80132348       2.66623039      10.82837978
Mg       4.84287111       2.56039268      26.93711037
Mg       2.41407988       7.03206652      10.68554601
Mg       2.43050227       6.86419138      26.81172807
Mg       2.38615833       1.37033143       5.61407957
Mg       2.45818791       1.13753138      21.83012956
Mg      -0.01845272       5.72460263       5.54020009
Mg       0.04509051       5.53309015      21.76098326
Mg       7.20695639       1.35113519       5.76832318
Mg       7.24087662       1.14253025      22.00661133
Mg       4.90181738       5.68532937       5.71097146
Mg       4.84217569       5.50392339      21.79371853
Mg      -0.00980963       2.75636572      13.66955438
Mg       0.14755738       2.51471677      29.97440829
Mg      -2.43377865       7.07570915      13.66195419
Mg      -2.33449398       6.94052353      29.75920737
Mg       4.81296192       2.65447392      13.80097337
Mg       4.96512306       2.54442071      30.00961735
Mg       2.45242205       7.12764837      13.71826419
Mg       2.42925749       6.89938808      29.87904088
Ni       2.33041317       1.20416526      14.23908372
Ni       2.50560780       1.08349781      30.31692509
Ni       0.05283120       5.62977385      14.10103052
Ni       0.02622281       5.43586006      30.38260179
Ni       7.25668327       1.27131207      14.30267758
Ni       7.20085208       1.01713200      30.38562625
Ni       4.91680297       5.62379141      14.38593911
Ni       4.94350762       5.41711510      30.48578164
Ni      -0.04735380       2.79687695       6.04619403
Ni       0.03939759       2.60137535      22.29727138
Ni      -2.45918630       7.24162115       6.05086974
Ni      -2.36300093       6.92821742      22.20134863
Ni       4.83249048       2.87043211       6.17433212
Ni       4.92067258       2.66576221      22.34325288
Ni       2.39988952       7.12510312       6.15964440
Ni       2.45092382       7.02590739      22.33855231
Ni       2.49943494       1.26623521      10.19630619
Ni       2.48680532       1.08273110      26.34042032
Ni       0.04379683       5.61833283      10.15852227
Ni       0.09583986       5.50766517      26.31399449
Ni       7.24290716       1.27887830      10.32477808
Ni       7.21287421       1.10073952      26.49394589
Ni       4.86924959       5.63455936      10.27149972
Ni       4.86992647       5.49938007      26.47063879
Ni       0.04310339       2.92918835       2.00233635
Ni       0.07549485       2.66413533      18.19417494
Ni      -2.30510936       7.21538070       2.00078539
Ni      -2.35102816       7.11987398      18.09099869
Ni       4.84040973       2.78483716       2.19584777
Ni       4.85489140       2.61269494      18.24373523
Ni       2.43434786       7.22081135       2.16119871
Ni       2.48140207       7.04405631      18.24689416
Ni       2.54266006       2.74140009      12.24220431
Ni       2.57742405       2.53574002      28.37813322
Ni       0.03028900       7.02628452      12.12182083
Ni      -0.00227950       6.88450167      28.29256384
Ni       7.25513061       2.73428403      12.38741027
Ni       7.21580676       2.53790817      28.54421640
Ni       4.89736623       7.08948766      12.29201388
Ni       4.82841275       6.85847601      28.52264615
Ni       3.74114693       0.58893508      12.27207711
Ni       3.64865221       0.29006431      28.45688129
Ni       1.29419673       4.98482058      12.14812462
Ni       1.31101654       4.75610487      28.33455868
Ni       8.41345907       0.46124563      12.34422717
Ni       8.52019087       0.24778308      28.54465904
Ni       6.13939132       4.79336053      12.32300624
Ni       6.05570265       4.64764387      28.45910993
Ni       1.39467832       3.48750225       4.13312548
Ni       1.29190865       3.31013832      20.22080209
Ni      -1.11554889       7.98242495       4.09977833
Ni      -1.13530977       7.77295857      20.28877595
Ni       6.10838006       3.58410807       4.28167047
Ni       5.99540360       3.20195800      20.44661028
Ni       3.56900483       7.97876190       4.17942842
Ni       3.66751447       7.64044076      20.27227478
Ni       1.27441314       0.59392959      12.13374543
Ni       1.27576047       0.34502826      28.28310428
Ni      -1.16179654       5.03250369      12.07250617
Ni      -1.14317023       4.71357861      28.30337280
Ni       6.07166500       0.55973538      12.29485222
Ni       6.01993934       0.38010160      28.48144879
Ni       3.65284270       4.85323674      12.27841733
Ni       3.60946638       4.71166540      28.35139160
Mg      -0.05885006       1.36724681       4.09345648
Ni       0.08869616       1.22120112      20.20965308
Ni      -2.29486749       5.76957745       4.07863310
Ni      -2.35082739       5.56087537      20.21779446
Ni       4.82495958       1.41312280       4.20537290
Ni       4.84110550       1.16313240      20.31428117
Ni       2.48616767       5.73190016       4.07988819
Ni       2.51676484       5.47369834      20.32684696
Ni      -1.21680446       3.47576340       4.02137409
Ni      -1.12016542       3.40520430      20.21451080
Ni      -3.52405850       7.89001112       3.92649687
Ni      -3.53451683       7.72819507      20.09667001
Ni       3.61963052       3.55695025       4.12271831
Ni       3.75918527       3.36981090      20.23086759
Ni       1.33794054       7.93439827       4.10332702
Ni       1.28807735       7.57431755      20.30358116
Ni       2.43736035      -0.00640597       0.06741637
Ni       2.51413580      -0.26235888      16.21425966
Ni      -0.11483897       4.36612343      -0.03577399
Ni       0.04624693       4.12676372      16.13999559
Ni       7.26601938       0.01211901       0.14141186
Ni       7.27354567      -0.23115010      16.38542905
Ni       4.81976816       4.25184278       0.18421414
Ni       4.81202510       4.14834642      16.35789713
Ni       1.23264862       2.09630182       0.01851205
Ni       1.17153555       2.02318336      16.27789709
Ni      -1.16479542       6.58450375      -0.01290887
Ni      -1.12901260       6.27002035      16.16660943
Ni       6.04180581       2.11653945       0.15099811
Ni       6.10994506       1.94548559      16.39627902
Ni       3.61399952       6.47047338       0.19963407
Ni       3.61207906       6.31618959      16.30476753
Ni      -1.18903619       2.09807069       8.09137123
Ni      -1.09709352       1.88388465      24.15767617
Ni      -3.63232730       6.44805258       7.94173482
Ni      -3.56760095       6.17227907      24.23362874
Ni       3.63086863       2.05129719       8.10894667
Ni       3.64843785       1.87556087      24.38608012
Ni       1.23644635       6.38128413       8.18125237
Ni       1.29934793       6.20592969      24.34033482
Ni       2.46569589      -0.04823884       8.16763616
Ni       2.47956872      -0.28624629      24.28404374
Ni      -0.03629024       4.19223193       8.12345169
Ni       0.12790118       4.02965462      24.33470517
Ni       7.29748390      -0.08874027       8.23505499
Ni       7.23919052      -0.32072861      24.42732338
Ni       4.83355599       4.26605263       8.16368010
Ni       4.83155152       4.00352037      24.43857649
Ni      -1.18297836       2.14070624      -0.05740767
Ni      -1.20704874       2.03373577      16.13970888
Ni      -3.55395964       6.50398522      -0.13447915
Ni      -3.53438884       6.41192022      16.08613873
Ni       3.61845198       2.17258473       0.16628988
Ni       3.60213547       2.04472003      16.27281287
Ni       1.27690774       6.50277669       0.11257568
Ni       1.19742988       6.23127480      16.19857881
Ni       1.27759867       2.06321424       8.07388542
Ni       1.24942281       1.92196475      24.26637064
Ni      -1.18294753       6.46954890       8.06049458
Ni      -1.06589004       6.22409946      24.23149055
Ni       5.96881517       2.00912546       8.24944257
Ni       6.04887102       1.84351672      24.40343443
Ni       3.65117777       6.40902395       8.24913490
Ni       3.73538726       6.17958231      24.35895830
