191
Lattice="9.64782483381299 0.27152997418354435 0.050752542696728874 -4.948804023546975 8.40455729183387 0.028017009319281687 -0.09297100294986851 -0.6629482930820124 31.10641500145718" Properties=species:S:1:pos:R:3 pbc="T T T"
Mg      -0.08536072      -0.29363724      14.07533935
Mg      -0.07951596      -0.65683493      29.69792277
Mg      -2.51101406       3.89192911      14.08829908
Mg      -2.51522103       3.67176459      29.68386942
Mg       4.78257899      -0.20951413      14.23776254
Mg       4.59113541      -0.46333213      29.64775678
Mg       2.33440826       4.03422879      14.09813719
Mg       2.26820749       3.63127730      29.74162594
Ni       0.01166483      -0.16372136       6.25455994
Mg      -0.04568974      -0.49634170      21.90106293
Mg      -2.51927116       4.11367929       6.36720388
Mg      -2.55536250       3.71111761      21.89044801
Mg       4.81534449       0.04389111       6.31422990
Mg       4.75218648      -0.27857033      21.94960357
Mg       2.31920449       4.14033209       6.35498154
Mg       2.24654050       3.88268589      21.95614952
Mg      -0.00568069      -0.17447879       9.21610014
Mg      -0.01518335      -0.56485713      24.76857323
Mg      -2.49227692       3.96740792       9.25655396
Mg      -2.60044686       3.68491620      24.80735971
Mg       4.76585993      -0.12517931       9.28393816
Mg       4.73013114      -0.30057998      24.76199483
Mg       2.37996086       4.18294176       9.20757358
Mg       2.27925599       3.83577552      24.80357665
Mg      -0.05921498      -0.33286875      16.94967796
Mg      -2.51336783       4.20207843       1.51213369
Mg      -2.47887367       3.82805489      17.04359800
Mg       4.88234562       0.12880327       1.54781232
Mg       4.75314762      -0.24147960      16.94848550
Mg       2.33589567       4.40266084       1.43449625
Mg       2.24598251       4.05145511      17.09412871
Mg       2.38550755       1.41431265       2.43335916
Mg       2.28104258       1.06370343      18.07742447
Ni      -0.14572227       5.56834573       2.44109098
Mg      -0.07545816       5.26673934      17.95659780
Mg       7.35667983       1.56251678       2.44642235
Mg       7.15651738       1.30234434      17.98234080
Mg       4.74422914       5.80924190       2.41823231
Mg       4.74428364       5.51747912      18.03410678
Mg      -0.09551325       2.60765863      10.20456714
Mg       0.01162312       2.29646992      25.73273367
Mg      -2.57862556       6.81368330      10.24093807
Mg      -2.55120062       6.51238615      25.77265342
Mg       4.65836273       2.78161256      10.29200868
Mg       4.62868799       2.41668351      25.81673605
Mg       2.25135551       7.01282765      10.31710547
Mg       2.30533259       6.70623005      25.85803765
Mg       2.32841406       1.38878670       5.34373308
Mg       2.34884238       1.09142663      20.86978666
Mg      -0.19285704       5.62707659       5.44937317
Mg      -0.18076757       5.21672639      21.02528357
Mg       7.16361581       1.51490492       5.36823478
Mg       7.10406693       1.17092238      21.00488536
Mg       4.68903010       5.72423561       5.38434248
Ni       4.60005666       5.40711214      20.96119391
Mg      -0.11043537       2.54963489      13.10702799
Mg      -0.09193891       2.29115847      28.61633051
Mg      -2.50491219       6.70906459      13.27858761
Mg      -2.55440437       6.48776158      28.69074590
Mg       4.78176086       2.71044747      13.18585744
Mg       4.67910883       2.32883998      28.74160306
Mg       2.34682690       6.84945392      13.25041199
Mg       2.19181224       6.62412904      28.76516504
Ni       2.36415151       1.14291270      13.58533497
Ni       2.34567244       0.89160379      29.16837648
Ni      -0.08186024       5.42262178      13.60280197
Ni      -0.05606859       5.04780287      29.18386222
Ni       7.21592885       1.26247438      13.58843601
Ni       7.19420620       0.98405232      29.17983686
Ni       4.78678854       5.56659938      13.64768209
Ni       4.73714073       5.19024890      29.23883220
Ni       0.00426101       2.70421325       5.86462170
Ni      -0.17359086       2.43230401      21.38224173
Ni      -2.59493065       6.89919256       5.93122228
Ni      -2.45400347       6.57372976      21.42151981
Ni       4.71329576       2.79235904       5.82495460
Ni       4.71584552       2.52253087      21.39435812
Ni       2.25923119       7.09555324       5.84033396
Ni       2.32124840       6.72443222      21.56392758
Ni       2.48517430       1.22595809       9.70356429
Ni       2.30583941       0.99567667      25.31299717
Ni      -0.17485009       5.46827577       9.81278219
Ni      -0.15951900       5.16327411      25.29965123
Ni       7.19224736       1.33679343       9.79858547
Ni       7.14855782       1.12712577      25.25752266
Ni       4.72467457       5.72277771       9.76639422
Ni       4.66754722       5.31167367      25.32934844
Ni      -0.05175892       2.78593607       1.95551158
Ni      -0.13286155       2.50705523      17.39562105
Ni      -2.48144771       7.04850257       1.88639381
Ni      -2.66197296       6.60343765      17.53318091
Ni       4.77679069       2.99448467       1.99489202
Ni       4.71439529       2.58985940      17.48185319
Ni       2.20206591       7.07047649       2.12016999
Ni       2.26501763       6.80590810      17.56980093
Ni       2.31854132       2.62484322      11.68187386
Ni       2.25210181       2.37884737      27.26929371
Ni      -0.12029151       6.79013848      11.70083251
Ni      -0.19673650       6.57921567      27.25647307
Ni       7.16673698       2.74471843      11.79417340
Ni       7.02419487       2.52365303      27.24337007
Ni       4.71621764       7.03334964      11.77880693
Ni       4.62135182       6.68200867      27.26273431
Ni       3.48699595       0.61944850      11.65429724
Ni       3.52798689       0.22247894      27.28709529
Ni       1.09232296       4.76913566      11.71597987
Ni       1.01400134       4.41776294      27.32289207
Ni       8.42352980       0.68691130      11.74313842
Ni       8.39493755       0.43680746      27.21466412
Ni       5.96095139       4.83765342      11.71360738
Ni       5.85652915       4.61476286      27.27235767
Ni       1.17113107       3.60713015       3.92910135
Ni       1.12647045       3.16172213      19.54505363
Ni      -1.35481611       7.69802948       3.94820630
Ni      -1.28757795       7.35932384      19.54062116
Ni       5.94043558       3.63853491       3.89691350
Ni       5.97218997       3.41406802      19.48873988
Ni       3.47596791       7.91018610       3.98393421
Ni       3.38275073       7.50399495      19.59257777
Ni       1.22614853       0.48274989      11.70033365
Ni       1.06926980       0.11147753      27.06417303
Ni      -1.33527673       4.66755151      11.68500703
Ni      -1.33934257       4.35575326      27.16831019
Ni       6.03213868       0.64069298      11.62764960
Ni       5.97169537       0.34008054      27.29012339
Ni       3.57085703       4.73285796      11.75951765
Ni       3.57587730       4.48769627      27.25458198
Ni       0.00775454       1.40658757       3.93208964
Ni      -0.12445900       1.02657320      19.41761875
Ni      -2.51582551       5.49292607       3.91421741
Ni      -2.56423267       5.14211302      19.40254253
Ni       4.79626637       1.40339511       3.98752912
Ni       4.66509136       1.14500115      19.42855011
Ni       2.33127335       5.67882181       3.97501555
Ni       2.22615836       5.27408191      19.53885195
Ni      -1.27345905       3.39540612       3.85567369
Ni      -1.33744541       3.08195164      19.42476846
Ni      -3.77374911       7.66406660       3.92806157
Ni      -3.81731555       7.35251336      19.49552228
Ni       3.52539186       3.61552531       3.92798225
Ni       3.46526358       3.23510506      19.32561240
Ni       1.03653653       7.77436953       3.87188244
Ni       1.08071335       7.46105650      19.57136472
Ni       2.40032226       0.10736097       0.02948860
Ni       2.34672013      -0.26194639      15.53964183
Ni      -0.06470966       4.23748363      -0.00995606
Ni      -0.14084573       3.95214964      15.57466089
Ni       7.32585998       0.22140209       0.05968618
Ni       7.23911430      -0.23928844      15.59734171
Ni       4.74583845       4.39005259       0.09486253
Ni       4.71052757       4.04865981      15.63277713
Ni       1.08989619       2.15420161      -0.03165738
Mg       1.17568702       1.80467327      15.62225844
Ni      -1.27073205       6.46771351       0.01226312
Ni      -1.38512142       6.07060023      15.56585589
Ni       5.96123733       2.29041764      -0.01612944
Ni       5.96130107       1.91593808      15.66633718
Ni       3.50717659       6.49642706       0.06236017
Mg       3.51906832       6.16129988      15.61867990
Ni      -1.26512089       1.89277303       7.80436469
Ni      -1.30614717       1.55069091      23.33589040
Ni      -3.77173041       6.16884883       7.83043340
Ni      -3.82326833       5.81411605      23.38218181
Mg       3.54149543       2.07306642       7.81273933
Ni       3.48239736       1.75849186      23.38598727
Ni       1.03126635       6.26147313       7.81442284
Ni       1.01515395       5.97316841      23.36121219
Ni       2.33285813      -0.11396891       7.86140864
Ni       2.37456633      -0.48676245      23.37024001
Ni      -0.11657429       4.21858604       7.83366293
Ni      -0.15950113       3.84257220      23.25757848
Ni       7.20572433       0.09654722       7.79550274
Ni       7.12018753      -0.24499376      23.38631458
Ni       4.66869661       4.27447487       7.81072504
Ni       4.70018401       3.93252782      23.36800296
Ni      -1.23675149       2.10264703       0.01744379
Ni      -1.24230543       1.67018508      15.50844725
Ni      -3.73247836       6.27580561      -0.01136134
Ni      -3.77531835       6.02814791      15.60540837
Ni       3.70527130       2.26375955       0.04427235
Ni       3.49200708       1.88832547      15.62175195
Ni       1.23781870       6.50894179       0.06111620
Ni       1.06468583       5.99490101      15.58511384
Ni       1.10060783       1.99440984       7.72202774
Ni       1.17333311       1.67305283      23.42122061
Ni      -1.33859590       6.29519630       7.83641857
Ni      -1.34746368       5.90375632      23.38370929
Ni       5.90718511       2.13588190       7.75925130
Ni       5.89393349       1.81096639      23.41513591
Ni       3.50145861       6.33203505       7.83448481
Ni       3.38110633       6.00703785      23.29432578
