192
Lattice="10.203668403136652 0.10031532698349191 0.24521325669619362 -4.669630896942467 8.263104563501303 -0.11232350268135045 1.2152583513456294 -0.22116197489541597 32.50220086340466" Properties=species:S:1:pos:R:3 pbc="T T T"
Mg       0.60982243      -0.18979285      14.69480637
Mg       1.15202716      -0.20004447      30.88232895
Mg      -1.76853325       3.99958061      14.57286568
Mg      -1.17121185       3.92446414      30.92433371
Mg       5.59603345       0.02205895      14.69767000
Mg       6.21397809      -0.06824531      31.04971083
Mg       3.29256578       4.09822004      14.90574351
Mg       3.97446880       3.94854392      30.99535113
Mg       0.22001026      -0.04146742       6.60536598
Mg       0.84096266      -0.11159229      22.83596030
Mg      -2.11908004       4.09687773       6.52660844
Mg      -1.47837632       4.04579860      22.83546587
Mg       5.32978995      -0.02167687       6.72690562
Ni       6.00037918       0.00174462      22.95930903
Mg       2.91719490       4.07525307       6.63514890
Mg       3.67378560       3.95364058      22.90424002
Mg       0.34784290      -0.14468390       9.65574183
Mg       0.94237811      -0.12137223      25.90819933
Mg      -1.91798321       4.09290245       9.57255821
Mg      -1.33794078       3.93843622      25.90895034
Mg       5.44937337       0.07078379       9.76524393
Mg       6.24376594      -0.07004303      26.07853390
Mg       3.10529687       4.21908008       9.64972566
Mg       3.71037209       4.03414422      25.91933294
Mg       0.15622606      -0.06202758       1.54266588
Mg       0.58957144      -0.10553003      17.80729478
Mg      -2.25551227       4.08904599       1.52823186
Mg      -1.62770701       4.06420964      17.73830033
Mg       5.07614390       0.00017619       1.68646485
Mg       5.80755829      -0.02482264      17.90635210
Mg       2.85572064       4.25687812       1.60738294
Mg       3.43471942       3.95381939      17.91021200
Mg       2.72598655       1.43644246       2.62598611
Mg       3.28374324       1.16536056      18.82222426
Mg       0.32066123       5.59596020       2.53074626
Mg       0.98519382       5.39409586      18.78795763
Mg       7.73091370       1.47002783       2.75604444
Mg       8.47398943       1.40507932      18.98636287
Mg       5.43421927       5.58048184       2.67802822
Mg       6.04472756       5.53430280      18.84066979
Mg       0.50190030       2.71986896      10.63906730
Mg       1.15386554       2.65627356      26.99847703
Mg      -1.73247171       6.95084356      10.58687000
Mg      -1.16443542       6.72187387      26.84546317
Mg       5.60216598       2.79831410      10.82729355
Mg       6.30017351       2.62105180      27.05255583
Mg       3.23326582       6.91970814      10.71732889
Mg       3.96015340       6.81315693      27.02198834
Mg       2.81188948       1.36856955       5.53774992
Mg       3.50021302       1.29557470      21.84535166
Mg       0.62875594       5.48864172       5.54726798
Mg       1.12566826       5.33550124      21.85981453
Mg       7.98993109       1.40747950       5.76610014
Mg       8.51760932       1.29946332      22.03072862
Mg       5.56592425       5.47206323       5.75378740
Mg       6.19882189       5.38383064      22.02430623
Mg       0.62920980       2.61443761      13.82439561
Mg       1.34215826       2.54133736      29.91802473
Mg      -1.66741257       6.76358363      13.69269551
Mg      -1.11142412       6.71551852      29.96796632
Mg       5.76932067       2.78179441      13.87061815
Mg       6.34746895       2.56102871      30.13483509
Mg       3.36623331       6.83286743      13.70013244
Mg       4.06467008       6.81314620      30.02123363
Ni       3.16729229       1.23821865      14.28243024
Ni       3.71972318       1.21945408      30.46998564
Ni       0.78449644       5.43914274      14.38119615
Ni       1.45926621       5.26485366      30.47232511
Ni       8.17296226       1.40017130      14.37662228
Ni       8.83986208       1.23278711      30.62666933
Ni       5.92099478       5.53481265      14.37652984
Ni       6.46375187       5.42858290      30.59101663
Ni       0.35624332       2.74012939       6.17715047
Ni       1.09228711       2.54573076      22.26583302
Ni      -1.96648782       6.94729767       6.02863381
Ni      -1.41008478       6.75074537      22.35539579
Ni       5.53531185       2.80551063       6.19064592
Ni       6.06730028       2.63040110      22.37200858
Ni       3.11978046       6.93066271       6.20629630
Ni       3.81629974       6.77877716      22.33612379
Ni       3.01730749       1.32937771      10.25309609
Ni       3.51272131       1.25530616      26.45918346
Ni       0.60056446       5.57416807      10.07803800
Ni       1.19434696       5.32672758      26.48411841
Ni       8.00874005       1.36954304      10.29865813
Ni       8.69101312       1.26002723      26.60920681
Ni       5.79202353       5.49981390      10.31876562
Ni       6.37548392       5.41166494      26.56443155
Ni       0.24918619       2.77721656       2.05462162
Ni       0.88161413       2.69018351      18.25016851
Ni      -2.09915696       6.93398814       1.87342391
Ni      -1.57428477       6.87739537      18.22453090
Ni       5.24052379       2.74136660       2.22199364
Ni       5.78965909       2.66836246      18.41751888
Ni       2.94414456       6.91444507       2.12888091
Ni       3.54753490       6.88958668      18.33959613
Ni       3.08777807       2.69882519      12.32785511
Ni       3.73166546       2.57528189      28.59229240
Ni       0.83048149       6.80475848      12.19445911
Ni       1.46046813       6.73822220      28.46780589
Ni       8.25305481       2.72499679      12.40436209
Ni       8.84366178       2.59032609      28.64656037
Ni       5.87030918       6.87279251      12.22488254
Ni       6.54101141       6.82995979      28.62910702
Ni       4.37377312       0.55298336      12.38572608
Ni       4.84504235       0.51813171      28.52572589
Ni       1.95796343       4.82873139      12.14642129
Ni       2.67199274       4.65819375      28.42079353
Ni       9.35586894       0.68862548      12.44338594
Ni       9.99238658       0.58190509      28.70063488
Ni       6.99311502       4.82037125      12.27463143
Ni       7.74811324       4.74180405      28.63628651
Ni       1.62220853       3.37289833       4.14289401
Ni       2.20905433       3.32591548      20.30629472
Ni      -0.71233998       7.53158618       4.15000477
Ni      -0.11458958       7.37579754      20.33222142
Ni       6.73012411       3.53918692       4.25488708
Ni       7.35111062       3.39453968      20.41340794
Ni       4.40171606       7.61912925       4.13025077
Mg       4.94717202       7.51661725      20.44826991
Ni       1.86893779       0.65372095      12.22699334
Ni       2.33562106       0.47548685      28.45716531
Ni      -0.60069541       4.78262316      12.12400838
Ni       0.12237370       4.70422307      28.34294440
Ni       6.82080834       0.76935283      12.39718078
Ni       7.52902973       0.57596596      28.58260983
Ni       4.50860542       4.82968702      12.29842483
Ni       5.05667423       4.74584257      28.49977146
Ni       0.15204415       1.28154883       4.07143231
Ni       0.82884935       1.23545488      20.26663729
Ni      -2.07120965       5.56968468       4.04379369
Ni      -1.53093017       5.44788156      20.26046073
Ni       5.29437817       1.44469688       4.21931812
Ni       5.93105925       1.27581541      20.37333959
Ni       2.95429313       5.51088941       4.08244207
Ni       3.64602343       5.41095266      20.42519014
Ni      -0.92961965       3.41795648       4.08668024
Ni      -0.29058125       3.32909419      20.35188382
Ni      -3.18181134       7.50664064       4.08952073
Ni      -2.66814920       7.43457905      20.22410637
Ni       4.15515563       3.46305567       4.16126389
Ni       4.74299274       3.36339646      20.39827942
Ni       1.84500124       7.62475689       4.14220760
Ni       2.33901228       7.47546061      20.43728522
Ni       2.57441303       0.03233735       0.12118508
Ni       3.23585807      -0.06956183      16.35697362
Ni       0.15678172       4.17788030       0.03640258
Ni       0.83224159       4.11194963      16.30764689
Ni       7.74261725       0.05390604       0.09375470
Ni       8.27445623      -0.02943728      16.43815716
Ni       5.30640819       4.21586458       0.10283943
Ni       6.01885780       4.08258624      16.34008440
Ni       1.36560777       2.12203356       0.03117583
Ni       2.09216840       1.93759998      16.28276782
Ni      -0.91691364       6.14915667       0.08595876
Ni      -0.32105045       6.12462984      16.20789042
Ni       6.44051090       2.21202741       0.22156065
Ni       7.14897904       2.03696864      16.45934239
Ni       4.19297666       6.28213021       0.14610449
Ni       4.76272638       6.06131851      16.41478201
Ni      -0.88812262       1.98929331       8.01169743
Ni      -0.28768694       1.87991871      24.41292769
Ni      -3.21403159       6.23403763       8.10114095
Ni      -2.61711135       6.01942057      24.24849204
Ni       4.22966147       2.08261734       8.24601655
Ni       4.93316301       1.93161790      24.36754938
Ni       1.87549255       6.24642953       8.17324935
Ni       2.45539695       6.01089814      24.36510090
Ni       2.85429253      -0.10227826       8.25016892
Ni       3.45621254      -0.22125171      24.47080726
Ni       0.46251646       4.11128622       8.14602137
Ni       1.16991683       3.97694643      24.35676193
Ni       7.95197599       0.05723003       8.26068042
Ni       8.58669395      -0.09528878      24.60278886
Ni       5.66297803       4.15957312       8.27191618
Ni       6.22259964       3.99357030      24.56617215
Ni      -1.09054679       2.00882365      -0.00199672
Ni      -0.56475219       1.90577033      16.19262335
Ni      -3.58443116       6.14778790      -0.12248841
Ni      -3.06943718       6.07656982      16.20264923
Ni       3.90260422       2.09874751       0.13848274
Ni       4.54751069       1.94899061      16.37235239
Ni       1.57166986       6.32351795       0.06930167
Ni       2.17666894       6.06171207      16.26205765
Ni       1.66225863       2.01354863       8.11252730
Ni       2.35953042       1.94854979      24.37508099
Ni      -0.68133505       6.06718282       8.08176373
Ni      -0.04861252       6.06634322      24.45291826
Ni       6.77199993       2.11296036       8.31131193
Ni       7.39225235       2.02062927      24.52359752
Ni       4.52576115       6.24327944       8.17376821
Ni       5.11371920       6.06671474      24.45010051
