188
Lattice="9.673971565913126 0.011093684546707488 -0.09943349963419996 -4.7477982516060395 8.476626917075984 0.05961807331657746 0.043696578007078504 -0.027983992099190277 32.150076731030445" Properties=species:S:1:pos:R:3 pbc="T T T"
Ni       0.05050691       0.01566080      14.49131804
Mg      -2.38832270       4.19420117      14.60730001
Mg      -2.34384374       4.29648658      30.63250541
Mg       4.77038076       0.03768962      14.52741754
Mg       4.88331137      -0.01098271      30.68481814
Mg       2.49956455       4.15467187      14.66541425
Mg       2.52379275       4.22847096      30.57939970
Mg       0.06666095      -0.00199644       6.61026020
Ni       0.06346946       0.00230265      22.53747286
Mg      -2.34257826       4.31618523       6.59033572
Mg      -2.35203542       4.21409577      22.61137758
Mg       4.83243282       0.00205099       6.49019455
Mg       4.96985490      -0.09707722      22.58405245
Ni       2.53764355       4.19667622       6.49339680
Mg       2.49766121       4.20698684      22.53454621
Mg       0.03096814      -0.06036174       9.59450539
Mg       0.01329949      -0.07070714      25.65972954
Mg      -2.38703924       4.34690179       9.59470118
Mg      -2.38159928       4.21777545      25.56691951
Mg       4.82634302       0.07331047       9.57485788
Mg       4.90226160      -0.05634541      25.66890660
Ni       2.45906680       4.18234155       9.61908803
Mg       2.51024088       4.32587647      25.60221439
Mg      -0.00952163       0.02505144       1.47704287
Mg       0.02225952       0.07113539      17.60293322
Mg      -2.37376859       4.23629960       1.54733216
Ni      -2.31367659       4.18235383      17.69909312
Ni       4.93897076      -0.06294409       1.46960878
Mg       4.87581427      -0.10242434      17.53290982
Mg       2.41927747       4.32860306       1.46058719
Mg       2.45402093       4.31386050      17.59238445
Mg       2.46862363       1.37988528       2.47536693
Mg       2.45416913       1.38010169      18.56244571
Mg       0.11265029       5.59658781      18.62916662
Mg       7.33511521       1.39023686       2.36215021
Mg       7.34227408       1.41704221      18.52154022
Mg       4.98189724       5.65799368       2.44946966
Mg       4.96192838       5.64054579      18.55608218
Mg       0.15356533       2.74787428      10.62214558
Mg      -0.04360991       2.84939790      26.62253394
Mg      -2.33525577       7.17791194      10.64877067
Mg      -2.27134406       6.95047234      26.73327671
Mg       4.88415122       2.81500118      10.48031561
Mg       4.91574291       2.77593216      26.46256206
Mg       2.55228992       7.03495805      10.56223833
Mg       2.55276268       7.07038735      26.59332906
Mg       2.41205285       1.48419924       5.46448921
Mg       2.43141074       1.38871866      21.50914750
Mg       0.05857272       5.72913613       5.48506335
Mg       0.05587324       5.54281771      21.59314552
Mg       7.24104748       1.42969626       5.49727251
Ni       7.45348271       1.42058352      21.49634928
Mg       4.88835238       5.66475162       5.59994177
Mg       4.94640849       5.65582850      21.52075627
Mg       0.13324909       2.85516732      13.49933068
Mg       0.06282288       2.69182991      29.68248366
Mg      -2.34610425       7.04915335      13.62217201
Mg      -2.21814025       7.01061279      29.62504428
Mg       4.81172542       2.86228617      13.52938916
Mg       4.86160671       2.76865079      29.48959060
Mg       2.63528755       7.07428778      13.42214795
Mg       2.47857655       6.95012959      29.60313856
Ni       2.50585384       1.32968287      14.06606191
Ni       2.51806441       1.31140562      30.09134633
Ni       0.06542449       5.63780944      14.04359797
Ni       0.08612359       5.64674608      30.25714234
Ni       7.28987368       1.43891170      13.98748392
Ni       7.35687380       1.42969661      29.97344031
Ni       4.97982892       5.62757146      14.02691557
Ni       4.96164444       5.64674851      30.14067413
Ni       0.08425085       2.84442537      22.14851476
Ni      -2.34326976       7.04294548       6.06416673
Ni      -2.42072266       7.09078063      22.19465304
Ni       4.86422900       2.84575828       5.99523115
Ni       4.86893965       2.79922515      22.00877513
Ni       2.45658784       7.05223415       6.03136787
Ni       2.56166343       7.10670352      22.10837579
Ni       2.43602910       1.44226824      10.10381197
Ni       2.41982212       1.37816238      25.98239274
Ni       0.12178765       5.64060215      10.05864906
Ni       0.09920488       5.70706052      26.11581434
Ni       7.29870321       1.52530220       9.99623007
Ni       7.26308050       1.38198635      26.07922949
Ni       5.04267834       5.70443372      10.11283857
Ni       4.84914958       5.69550477      26.12415817
Ni      -0.03559562       2.87677996       2.05383653
Ni       0.16894367       2.76928170      18.15122583
Ni      -2.34779034       6.99552864      18.11513488
Ni       4.94775666       2.79020879       1.97273179
Ni       4.95939004       2.78625961      18.02897245
Ni       2.43352294       7.03056338       2.04548246
Ni       2.54225878       7.04024629      18.01168776
Ni       2.43498272       2.81918716      11.93152946
Ni       2.48238307       2.77312907      28.02572670
Mg       0.06425834       7.03394866      12.06825486
Ni       0.11102347       7.09521671      28.15168653
Ni       7.33744749       2.81255918      11.96068107
Ni       7.30921671       2.80303524      28.09614211
Ni       4.96685230       7.09273711      12.00088928
Ni       4.91040587       7.11029724      28.09821671
Ni       3.62519893       0.73674501      12.01878931
Ni       3.66042555       0.63781013      28.10522354
Ni       1.33844898       4.94986208      12.09540451
Ni       1.24775372       4.97743070      28.17320799
Ni       8.56832966       0.69322585      12.02573896
Mg       8.51126388       0.71806402      28.08860099
Ni       6.14264041       4.91362864      12.03498870
Ni       6.07652779       4.91881066      28.07951699
Ni       1.28445463       3.52331581       3.94876403
Ni       1.30452590       3.49862021      20.03283106
Ni      -1.21865105       7.73004687       4.00587540
Ni      -1.07027747       7.72631611      20.10869663
Ni       6.09220030       3.61959312       3.96739454
Ni       6.03060164       3.59243309      20.08525890
Ni       3.75006159       7.81595936       3.99104499
Ni       3.78886891       7.76262238      20.07520056
Ni       1.25299439       0.67412679      12.00902901
Ni       1.20137161       0.68767641      28.26310750
Ni      -1.20583405       4.83712439      12.06083793
Ni      -1.13621078       4.84550157      28.18400674
Ni       6.17357587       0.67991258      11.89124668
Ni       6.00542542       0.69445615      28.02192784
Mg       3.70751236       4.96348174      12.04726504
Ni       3.67987901       4.98960271      28.09354422
Ni       0.04623094       1.41973643       4.02690602
Ni       0.04781572       1.35510397      20.05509253
Ni      -2.35060230       5.70202933       4.06436848
Ni      -2.35100550       5.61323277      20.22994930
Ni       4.94196653       1.43571553       4.03661301
Mg       4.89902919       1.38255989      20.03606521
Ni       2.47640154       5.69412701       4.08849324
Mg       2.41750231       5.61777108      20.04254642
Ni      -1.17590925       3.57700552       4.09677704
Ni      -1.23489299       3.55575703      20.04406091
Ni      -3.43105244       7.78576161       4.09613902
Ni      -3.58205872       7.67256481      20.15231573
Ni       3.59055219       3.50657024       3.95807479
Ni       3.72481207       3.51175278      20.01171399
Ni       1.26450404       7.79549181       3.88248163
Ni       1.30314877       7.69878955      20.01627329
Ni       2.41961235      -0.01843861       0.01062705
Ni       2.45791184      -0.04770258      16.07117386
Ni       0.00842574       4.25127788      -0.01033790
Ni       0.18904067       4.27537461      16.13552526
Ni       7.23707204      -0.04704463      -0.05854239
Ni       7.26336833       0.06341446      15.92308596
Ni       4.84751054       4.21887457      -0.00664543
Ni       4.90354421       4.33680995      15.99808041
Ni       1.17239828       2.10447618      -0.04397370
Ni       1.19126701       2.05955767      16.02715607
Mg      -1.12970583       6.40203517       0.05838896
Ni      -1.03661230       6.27417983      16.12811813
Ni       6.01758964       2.14987407      -0.06771225
Ni       6.05299015       2.09970559      16.02254991
Ni       3.80334804       6.41425646       0.01183831
Ni       3.78425688       6.33277078      16.05571295
Ni      -1.19433615       2.14122421       8.05553733
Ni      -1.17587927       2.10385431      24.07359159
Ni      -3.58577588       6.39501466       8.05643637
Ni      -3.42271698       6.28104203      24.22598629
Ni       3.66408885       2.12093242       8.02309381
Ni       3.72642529       2.05712915      24.00846157
Ni       1.36998129       6.31000024       8.06328626
Ni       1.25070196       6.28653651      24.09291261
Ni       2.41862203      -0.04342164       8.01686282
Ni       2.49321756      -0.02913818      24.07682970
Ni       0.10332548       4.17057075       8.08875937
Ni       0.01577406       4.21280295      24.12434605
Ni       7.24999766       0.01565955       7.99913194
Ni       7.35046434      -0.02095960      24.04116212
Ni       4.85534246       4.16019497       8.04521751
Ni       4.97514850       4.27666772      24.03583588
Ni      -1.12796719       2.09434367      -0.01675780
Ni      -1.09871027       2.05837885      16.09468007
Ni      -3.58638819       6.46142735      -0.03054974
Ni      -3.56685743       6.41383104      16.13712843
Ni       3.60876256       2.20756989      -0.05185208
Ni       3.70413769       2.05153892      16.13507446
Ni       1.36824169       6.33224179      -0.06043847
Ni       1.28361833       6.37915903      16.02290947
Ni       1.28123504       2.15342151       7.95399631
Ni       1.19142107       2.11606091      24.19642318
Ni      -1.09638950       6.37031647       8.10868996
Ni      -1.04349077       6.33554037      24.14761745
Ni       6.06864758       2.27829421       7.93477928
Ni       6.18386023       2.10137054      24.02382194
Ni       3.67540502       6.32126779       7.94199215
Mg       3.73517097       6.35477389      24.12724690
