191
Lattice="9.739187122104425 -0.02732767195195676 0.030957481675538565 -4.988186994336027 8.396448295097155 -0.0374981916226147 -0.10166383266619428 -0.7825056773773745 31.22520886564718" Properties=species:S:1:pos:R:3 pbc="T T T"
Ni      -0.09679014      -0.40881675      14.12588700
Mg      -0.11618118      -0.71473175      29.74060971
Mg      -2.50691287       3.82817190      14.19374012
Mg      -2.52918970       3.43494316      29.76192478
Mg       4.72228963      -0.35471135      14.12243939
Mg       4.74779248      -0.75398351      29.76844935
Mg       2.32592869       3.89683731      14.10824416
Mg       2.28295513       3.48385471      29.74128161
Mg      -0.03711738      -0.10840514       6.44170107
Mg      -0.05975518      -0.55355879      21.92983069
Mg      -2.53669376       3.94173297       6.33284571
Mg      -2.59503196       3.64109490      21.81994757
Mg       4.75246168      -0.09979257       6.37164196
Mg       4.84690107      -0.62071687      21.92713914
Mg       2.33226846       4.03405943       6.37765988
Mg       2.21334485       3.67149628      21.91737115
Mg      -0.08679674      -0.27618110       9.33883035
Mg      -0.16028671      -0.65859665      24.84619066
Mg      -2.39956218       4.02111752       9.19949426
Mg      -2.61625646       3.63665583      24.80986245
Mg       4.92131349      -0.32512059       9.32103873
Mg       4.82202196      -0.64458092      24.94978667
Mg       2.24716489       3.94974048       9.19864541
Mg       2.28535490       3.60850391      24.84308519
Mg      -0.11403361      -0.02596396       1.51193473
Mg       0.03604898      -0.30130739      17.13054028
Mg      -2.45053278       4.07434006       1.38393136
Mg      -2.53198623       3.79703555      17.06654168
Mg       4.78092963      -0.07299135       1.55760845
Mg       4.86247600      -0.47200217      17.06379638
Mg       2.30264825       4.11279621       1.41291755
Mg       2.31300458       3.77153604      17.07574628
Mg       2.40081830       1.32758125       2.48917792
Mg       2.39944742       0.89653551      18.03215619
Mg      -0.09319928       5.61284794       2.51206357
Mg      -0.14476181       5.10244222      18.05052948
Mg       7.29649737       1.36485370       2.45449591
Mg       7.20874369       0.98324775      18.00128999
Mg       4.83984939       5.45133035       2.41325041
Mg       4.72974768       5.10918589      18.07182632
Mg      -0.06059165       2.51034429      10.32117921
Mg      -0.12464503       2.18005476      25.86771281
Mg      -2.56227259       6.71800865      10.20871886
Mg      -2.58081420       6.30178463      25.83192709
Ni       4.83023250       2.51880952      10.25403828
Mg       4.67228287       2.17498146      25.94810962
Mg       2.32415268       6.68265845      10.20960956
Mg       2.22836679       6.31303148      25.79593255
Mg       2.47667542       1.32159524       5.33914694
Mg       2.31934829       0.80949496      20.92603567
Mg      -0.09377372       5.49045934       5.35236865
Mg      -0.18246218       5.16741036      20.94864794
Mg       7.31853561       1.16932390       5.39944293
Mg       7.23259251       0.77760068      20.94273921
Mg       4.88350244       5.42095959       5.34630677
Mg       4.67780301       5.06737462      21.00809204
Mg      -0.10479594       2.45113969      13.12134496
Mg      -0.12535870       2.05521514      28.70581440
Mg      -2.54749815       6.61432079      13.14296759
Mg      -2.58546460       6.22003148      28.76453175
Mg       4.69250069       2.44060426      13.14426182
Mg       4.71645467       2.14166246      28.82707823
Mg       2.32141757       6.61273429      13.13837903
Mg       2.22438107       6.26488082      28.76497588
Ni       2.33478152       1.02054332      13.63755025
Ni       2.26760101       0.57981850      29.21395948
Ni      -0.11990485       5.29739190      13.68643400
Ni      -0.18119472       4.83915170      29.17766992
Ni       7.27392674       0.98548192      13.70167397
Ni       7.21595678       0.58917703      29.34667903
Ni       4.79348525       5.14150174      13.68551282
Ni       4.72386275       4.85080623      29.25926857
Ni      -0.06103729       2.58246397       5.82559727
Ni      -0.06710303       2.29902554      21.51251579
Ni      -2.53656097       6.74301839       5.83893706
Ni      -2.64880237       6.41991299      21.46205299
Ni       4.75928088       2.52674403       5.87731187
Ni       4.79312683       2.17946717      21.47832622
Ni       2.34058029       6.84561619       5.87725836
Ni       2.44338427       1.04599677       9.66649416
Ni       2.33226622       0.74947902      25.30701021
Ni      -0.06518335       5.36598210       9.85227455
Ni      -0.17972664       4.89104156      25.38714969
Ni       7.21971535       1.14108551       9.87705550
Ni       7.18245653       0.76548708      25.38208660
Ni       4.84935975       5.34108263       9.74686537
Ni       4.61847843       4.97057400      25.36776000
Ni      -0.15507007       2.76243393       1.98272783
Ni      -0.07919348       2.33680151      17.51506028
Ni      -2.54570967       6.97308548       1.94960168
Ni      -2.58695068       6.58856101      17.58149744
Ni       4.81533990       2.72126949       1.95019770
Ni       4.71881457       2.28077027      17.60186948
Ni       2.34427314       6.92975514       1.97632440
Ni       2.34827858       6.46593448      17.60120686
Ni       2.28440325       2.55390379      11.57200991
Ni       2.37864910       2.17138628      27.37597884
Ni      -0.11841560       6.68065717      11.75088204
Ni      -0.16951682       6.31138201      27.28774136
Ni       7.24595292       2.50397860      11.73247825
Ni       7.13059475       2.14476835      27.28868225
Ni       4.72848526       6.69193199      11.77281388
Ni       4.66009795       6.24925098      27.38014155
Ni       3.65556422       0.54031796      11.61809885
Ni       3.56783763       0.00519804      27.36433321
Ni       1.15366750       4.64625876      11.71761389
Ni       1.03418305       4.15672605      27.29010822
Ni       8.46954990       0.36579945      11.70278132
Ni       8.38015816      -0.05026743      27.35728154
Ni       5.95851229       4.62883638      11.65093759
Ni       5.90542314       4.17981676      27.33320673
Ni       1.12441690       3.41890080       3.87503515
Ni       1.07162033       3.00743320      19.45380825
Ni      -1.29828457       7.56747081       3.82782071
Ni      -1.37648775       7.24590409      19.50312405
Ni       5.99002355       3.33146712       3.96216973
Ni       5.97510097       2.98102988      19.59983378
Ni       3.49805510       7.48265386       3.90111409
Ni       3.42135955       7.17437917      19.41044274
Ni       1.16456078       0.44726710      11.75968007
Ni       1.14599953      -0.08104446      27.47446559
Ni      -1.34673625       4.64323995      11.71552802
Ni      -1.35259584       4.26549173      27.33655121
Ni       5.98939959       0.37130190      11.72234035
Ni       5.97909939      -0.06065998      27.36278405
Ni       3.43524895       4.52253087      11.73077656
Ni       3.48233279       4.23355767      27.29219399
Ni      -0.01134199       1.20841549       3.86683264
Ni      -0.03781808       0.91627878      19.44386782
Ni      -2.48482770       5.42337244       3.82401092
Ni      -2.58491306       5.08203148      19.52935312
Ni       4.82415669       1.23424305       3.87813034
Ni       4.77257977       0.90646726      19.53812082
Ni       2.38681063       5.46943619       3.88266940
Ni       2.22452118       5.04558914      19.47868375
Ni      -1.33736066       3.42896341       3.90616137
Ni      -1.38733440       2.96544388      19.55515474
Ni      -3.73625485       7.57802710       3.91091921
Ni      -3.86310106       7.27001909      19.49764730
Ni       3.57627000       3.37673386       3.92090202
Ni       3.48126658       2.97079469      19.49378704
Ni       1.18480971       7.58609142       3.93846911
Ni       1.10779766       7.13969007      19.39207089
Ni       2.35563767       0.03571697      -0.02790125
Ni       2.41527243      -0.38879391      15.58018046
Ni       0.00232880       4.14022406       0.04850843
Ni      -0.10955451       3.75491183      15.52557183
Ni       7.38787283      -0.08238120       0.03892084
Ni       7.32300572      -0.34239215      15.65134688
Ni       4.80193007       4.13515357       0.00003422
Ni       4.87443214       3.77029725      15.69724226
Ni       1.14611873       2.06941458      -0.04642492
Ni       1.23245958       1.68626947      15.60342054
Ni      -1.25643100       6.32239163      -0.00991561
Ni      -1.32580518       5.89791967      15.47577977
Ni       6.04577413       2.17075934      -0.04212832
Ni       5.97208986       1.70862931      15.72081280
Ni       3.54798807       6.32963079       0.05217634
Ni       3.51022849       5.83136058      15.60422168
Ni      -1.27201155       1.96120848       7.74749781
Ni      -1.28869537       1.51560075      23.38814421
Ni      -3.75724904       6.06366646       7.82088621
Ni      -3.81324102       5.74957913      23.37582996
Ni       3.61726677       1.88360885       7.76900090
Ni       3.60547163       1.53332920      23.41258188
Ni       1.16855574       6.02219311       7.84787518
Ni       1.05940225       5.63061196      23.40480038
Ni       2.40501733      -0.16788927       7.79598631
Ni       2.46760453      -0.66330443      23.49325548
Ni       0.04054715       4.05099771       7.87018235
Ni      -0.20903900       3.62804832      23.41507341
Ni       7.26504774      -0.20073765       7.66536290
Ni       7.23297025      -0.55038873      23.44280086
Ni       4.79794992       4.01065315       7.78549142
Ni       4.75947723       3.59229142      23.39600248
Ni      -1.25880468       2.05024868      -0.02968383
Ni      -1.33160674       1.70253021      15.59760812
Ni      -3.64491760       6.41497808       0.05108825
Ni      -3.74747485       5.84200962      15.57976281
Ni       3.61842640       2.12002201       0.08089407
Mg       3.45847769       1.71967085      15.59990336
Ni       1.13698898       6.24436444      -0.02509324
Ni       1.07204712       5.86346436      15.54700489
Ni       1.13946941       1.78373996       7.82517837
Ni       1.10439816       1.46350641      23.42162563
Mg      -1.32814298       6.04648960       7.61668015
Ni      -1.37622003       5.67529295      23.45307346
Ni       6.00924947       1.82856629       7.79966248
Ni       6.03569691       1.37477257      23.43472060
Ni       3.45961676       6.01172752       7.86259592
Ni       3.49891599       5.64144920      23.41779136
