95
Lattice="9.61369053787323 0.017163811712988065 0.23663954682669613 -4.7152951879944 8.28763145742733 0.0314572303582874 0.19721878607167212 -0.30240702781309764 15.238421931658925" Properties=species:S:1:pos:R:3 pbc="T T T"
Zn       2.51992108       1.27966230       7.14945533
Mg       2.65764618       1.11876304      14.90526843
Mg       0.15874715       5.36369263       7.22821343
Mg       0.26237500       5.17048349      14.90977102
Zn       7.39599122       1.29764751       7.38080164
Mg       7.30264768       1.06513652      14.91479142
Mg       4.90802509       5.34633848       7.39111333
Mg       4.99145029       5.21216229      14.96427675
Mg      -0.00673196       2.59228778       3.39973895
Mg       0.22135243       2.51380895      11.00686130
Mg      -2.33915374       6.84491375       3.40840263
Mg      -2.20221244       6.74994503      10.96964174
Mg       4.89926909       2.73424105       3.43836886
Mg       5.07637011       2.56747305      11.15994521
Mg       2.44389674       6.85524394       3.45297609
Mg       2.67742305       6.64498831      11.12249775
Mg       2.47697982       1.30835822       4.44936699
Mg       2.53188752       1.13867795      11.99087252
Mg       0.18631916       5.38812150       4.37940403
Mg       0.30422234       5.30819524      11.97258668
Mg       7.28130685       1.32398477       4.50042675
Mg       7.37215411       1.11329262      12.04500253
Mg       4.92632086       5.40959648       4.49294175
Mg       5.00480783       5.32729237      12.20096563
Mg       0.02122543       2.72355586       0.49413185
Mg       0.14239781       2.62113338       8.19622374
Mg      -2.35763963       6.81367498       0.48454067
Mg      -2.27298641       6.73926531       8.14482405
Mg       4.84182959       2.80474862       0.65940069
Mg       4.96610626       2.58017274       8.30926670
Mg       2.48589102       6.88004668       0.59950356
Mg       2.53728513       6.73689086       8.28140494
Zn       0.02098188       0.01330911       0.02537133
Zn       0.05110825      -0.11330708       7.61916366
Zn      -2.36567071       4.11963977       0.07524863
Zn      -2.31884007       3.94165422       7.62151095
Zn       4.76967365       0.02263091       0.03333466
Zn       4.94378371      -0.15983176       7.73521820
Zn       2.49655996       4.16032980       0.08505552
Zn       2.63965615       3.99991396       7.83075441
Zn       0.09697658      -0.02481421       3.79868584
Zn       0.13676824      -0.24550397      11.47044678
Zn      -2.30854653       3.96963077       3.88948159
Zn      -2.20379747       3.94967146      11.40848844
Zn       4.83286237      -0.07768323       3.96976209
Mg       4.93429949      -0.22885300      11.61704454
Zn       2.54613865       3.99731161       4.03656973
Zn       2.62481725       3.97782828      11.59143344
Zn       0.16168829       1.28192760       5.81621051
Zn       0.19191628       1.13813037      13.42438180
Zn      -2.31621846       5.47961906       5.80107594
Zn      -2.19136155       5.30584829      13.33573473
Zn       4.94741064       1.29033033       5.95080818
Zn       5.01140768       1.13097736      13.39771001
Zn       2.63537554       5.40406772       5.94614520
Zn       2.63023850       5.28301304      13.46366424
Zn      -1.11978754       3.40322022       5.76391991
Zn      -1.03443969       3.16156251      13.35518207
Zn      -3.42404328       7.57244453       5.75039587
Zn      -3.37713373       7.25388273      13.29198582
Zn       3.77601769       3.30964715       5.96798738
Zn       3.77777965       3.26975021      13.38975663
Zn       1.36729638       7.40791816       5.81810970
Zn       1.55516340       7.36617661      13.58092195
Zn       1.26803068       0.75876155       1.97463589
Zn       1.33564444       0.48560849       9.60042289
Zn      -1.15751318       4.82617172       1.97022680
Zn      -1.01493953       4.66500861       9.58121392
Zn       6.03910665       0.61217833       2.10779338
Zn       6.14611839       0.39419315       9.63453414
Zn       3.60967497       4.82733974       2.11799196
Zn       3.75705839       4.75001851       9.69672084
Zn       1.34838824       3.34588584       5.82237716
Zn       1.40979069       3.23369543      13.42228037
Zn      -0.97949415       7.53998942       5.90599435
Zn      -0.88679766       7.30498726      13.52665143
Zn       6.09307123       3.27417289       5.87094467
Zn       6.14611375       3.15644703      13.50751431
Zn       3.78301585       7.49635822       5.85310771
Zn       3.76123707       7.36068070      13.55088203
Zn       2.48068678       2.73676269       2.06330900
Zn       2.47541850       2.69340604       9.63694270
Zn       0.09337267       6.86792874       2.01631034
Zn       0.21691101       6.68375616       9.69589792
Zn       7.29008641       2.72985226       2.12990806
Mg       7.36366385       2.59422926       9.73786539
Zn       4.92560439       6.84545823       2.17499291
Zn       5.04217559       6.72643412       9.70314892
Zn       3.64092966       0.72368761       2.00119968
Zn       3.74940245       0.50463147       9.67572933
Zn       1.38422214       4.64657139       9.67452877
Zn       8.50768581       0.71863635       2.08602823
Zn       8.61510859       0.50930170       9.74937327
Zn       6.06132975       4.81906887       2.13254600
Zn       6.16467206       4.66016823       9.75015609
