95
Lattice="9.660004379232067 -0.3336511931990571 0.24297080908973598 -4.606292380474998 8.673798765653565 -0.26383092810320263 -0.48421136542041365 -0.013838166052803932 15.767048767085964" Properties=species:S:1:pos:R:3 pbc="T T T"
Mg       2.17542378       1.38310967       7.36506862
Mg       2.06140874       1.35941451      15.21933656
Mg      -0.02735867       5.61896076       7.35072692
Mg      -0.33076411       5.65118807      15.07081314
Mg       7.07735632       1.12026564       7.52093881
Mg       6.74881103       1.15898462      15.42453401
Mg       4.75768022       5.46999394       7.36217958
Mg       4.47025109       5.41574592      15.30688581
Mg      -0.02580232       2.78645671       3.33172330
Mg      -0.20780277       2.85071063      11.23169521
Mg      -2.56353524       7.10261660      11.16748962
Zn       4.74671220       2.72502379       3.49137757
Mg       4.58646436       2.69295811      11.45616299
Mg       2.50466502       6.97169843       3.40432059
Mg       2.31066450       7.06309540      11.31275868
Mg       2.25118759       1.35957812       4.43663214
Mg       2.13272121       1.42170942      12.33908506
Mg      -0.00722489       5.60230417       4.40588849
Mg      -0.18954183       5.57741805      12.16451671
Mg       7.17570778       1.11750702       4.57020511
Mg       6.84491764       1.06083671      12.42262631
Mg       4.80434893       5.49607434       4.43720024
Zn       4.65492530       5.51920343      12.34508853
Mg       0.10043588       2.85112085       0.37423349
Mg      -0.17752176       2.86698321       8.36659187
Mg      -2.21936294       7.18031442       0.30100368
Mg      -2.46083883       7.03014737       8.12611450
Mg       4.81515552       2.74919067       0.55433511
Mg       4.68049121       2.67376670       8.42384641
Zn       2.56142443       7.06854315       0.37146333
Mg       2.29908304       6.95265425       8.33076540
Zn      -0.00565111       0.00618015       0.02651920
Zn      -0.27119454       0.01032481       7.95209420
Zn      -2.33426120       4.39092739      -0.06387219
Zn      -2.61538004       4.32619303       7.77505989
Zn       4.80671719      -0.24678607       0.17511159
Zn       4.58448835      -0.23770745       7.91334337
Zn       2.50865522       4.10747355      -0.06062071
Zn       2.27125733       4.15594186       7.89888520
Zn      -0.14303930      -0.04910346       3.95692462
Mg      -0.38091085      -0.00898797      11.79799883
Zn      -2.44194882       4.34713187       3.74130945
Zn      -2.62913679       4.39614329      11.57529432
Zn       4.81012087      -0.15167902       4.05889344
Zn       4.49147494      -0.20295044      12.03577431
Zn       2.41901002       4.15756735       3.90977173
Zn       2.20566635       4.15453027      11.81094498
Zn      -0.21433915       1.42171611       5.88200989
Zn      -0.29331373       1.41560360      13.77114558
Zn      -2.42843405       5.73594875       5.74141665
Zn      -2.69512850       5.56588085      13.68564939
Zn       4.69234587       1.24692209       6.02801598
Zn       4.40927859       1.19074574      13.82586774
Zn       2.33887196       5.67087109       5.94731686
Zn       2.13474091       5.50033431      13.71377110
Zn      -1.29335151       3.66876816       5.85704622
Zn      -1.59411815       3.61078655      13.63292400
Zn      -3.63224923       7.94129492       5.79187151
Zn      -3.76020195       7.86766075      13.59106216
Zn       3.53550081       3.38386486       5.93475564
Mg       3.27593759       3.37495686      13.78259198
Zn       1.18792795       7.76517523       5.78307795
Zn       0.97002949       7.74007271      13.70854682
Zn       1.12674001       0.73045415       1.96683224
Mg       0.93410268       0.62831688       9.86386542
Zn      -1.15733620       4.95757205       1.86726226
Zn      -1.38096586       4.97752396       9.70949612
Zn       5.99128013       0.47819318       2.08670657
Zn       5.70605593       0.46112942       9.95607803
Zn       3.76599861       4.88320584       1.99506449
Zn       3.52457868       4.82728128       9.93471440
Zn       1.06430212       3.46173393       5.86006096
Zn       0.96572990       3.40018985      13.74315241
Zn      -1.17853600       7.84456208       5.78307113
Zn      -1.38402564       7.81363617      13.71727067
Zn       5.88859063       3.29012028       5.98038351
Zn       5.72091518       3.30780224      13.85340279
Zn       3.59116717       7.74028698       5.89506282
Zn       3.44591454       7.64770530      13.69484495
Zn       2.37763555       2.91073205       1.92329862
Zn       2.23959646       2.70238295       9.79687200
Zn       0.16117001       7.05140170       1.77101989
Zn      -0.15696976       7.11332857       9.77314596
Zn       7.17703685       2.55295874       2.09935538
Zn       7.05416208       2.68156497       9.94008115
Zn       4.87073154       6.97755080       2.04251279
Zn       4.73359575       6.84007537       9.81792488
Zn       3.60716595       0.44491631       2.00494166
Zn       3.45218908       0.53549190       9.90539790
Zn       1.29841147       4.91064941       1.89743459
Zn       1.04579175       4.93409603       9.86515203
Zn       8.36299940       0.42832783       2.19612325
Zn       8.19020862       0.46127380      10.12406516
Zn       6.07430529       4.82078216       2.04687074
Zn       5.82076531       4.71415372       9.89387873
