95
Lattice="9.722522052861923 0.10105054971057519 -0.09832762839701818 -4.517287155108124 8.436744897341953 0.04279785843087889 0.0734087735256893 -0.034039462735290786 15.852994131975548" Properties=species:S:1:pos:R:3 pbc="T T T"
Mg       0.12278193       2.81555236       3.48728883
Mg       0.24466176       2.84090074      11.42062089
Mg      -2.12569854       7.00560123       3.53913571
Mg      -2.10017846       6.99062636      11.40553349
Mg       4.97907288       2.94848139       3.38918900
Mg       5.07263936       2.81580103      11.29816899
Mg       2.75940400       7.12328382       3.45099179
Mg       2.76528494       7.07529331      11.35243253
Mg       2.45567429       1.43307599       7.36955855
Mg       2.58374709       1.50648584      15.30641201
Mg       0.30682917       5.65600445       7.37193595
Mg       0.24582851       5.60309650      15.34641891
Mg       7.40827702       1.42576715       7.32915893
Mg       7.47360441       1.43554191      15.26201193
Mg       5.14554198       5.65469501       7.39165865
Mg       5.23875763       5.76394732      15.33071416
Mg       2.50373626       1.46045436       4.41332493
Mg       2.43467185       1.42021867      12.39172331
Mg       0.21924002       5.80818811       4.45710630
Mg       0.27085484       5.51741667      12.29819953
Mg       7.33458782       1.42756341       4.39665652
Mg       5.10096606       5.64613998       4.42753208
Mg       5.05025318       5.68578058      12.35999672
Mg       0.08475242       2.79389955       0.46519363
Mg       0.12653538       2.77851572       8.30573277
Mg      -2.09430674       7.02920326       0.51829817
Mg      -2.07056501       7.02909226       8.41865510
Zn       5.00517799       2.87252059       0.50695223
Mg       5.01496429       2.87605497       8.38934582
Mg       2.71289802       7.11292511       0.46677604
Mg       2.67604918       7.15481970       8.46803387
Zn       0.01106108       0.03571798       3.99391369
Zn      -0.02741698      -0.00827064      11.89534037
Zn      -2.27738791       4.25200057       3.89831261
Zn      -2.28396181       4.27122893      11.99621273
Zn       4.95931037       0.01757005       3.88960911
Zn       4.97225676       0.05947068      11.82252858
Zn       2.65085675       4.20924675       3.92955928
Zn       2.59832101       4.27669356      11.80337871
Zn      -0.03816159       0.02110896       0.02928385
Zn      -0.01566202      -0.05039224       7.89577787
Zn      -2.19164766       4.29754793      -0.00763344
Zn      -2.26632007       4.19808698       7.97546381
Zn       4.97945586       0.04172708       0.01906218
Zn       4.87396793       0.03680005       7.90391689
Zn       2.68762632       4.19749579       0.00982815
Zn       2.63657957       4.32537191       7.89932947
Zn       2.57084527       2.84760248       1.89045018
Zn       2.64885044       2.82144340       9.88327436
Zn       0.35782442       7.04171249       2.00788218
Zn       0.36986542       6.99824556       9.95242217
Zn       7.35044792       2.95967613       1.91622597
Zn       7.45803908       2.79322499       9.80794731
Zn       5.18624031       7.01297795       1.85040608
Zn       5.19994839       6.97753696       9.79376920
Zn      -1.03008247       3.53985188       6.03907924
Zn      -1.00471329       3.56830950      13.91335353
Zn      -3.41285424       7.76892533       5.92016758
Zn      -3.37550160       7.65399559      13.88436655
Zn       3.73275682       3.56954660       5.79151953
Zn       3.84827565       3.58212740      13.80193083
Zn       1.61562283       7.69541485       5.80988690
Zn       1.65169412       7.76007997      13.83714547
Zn       0.11405106       1.42806079       5.88161565
Zn       0.07299361       1.38080832      13.88083420
Zn      -2.18406133       5.69987010       5.90789809
Zn      -2.10714542       5.61097561      13.84933311
Zn       4.90728176       1.43697029       5.98473815
Zn       4.98159811       1.50330790      13.82141100
Zn       2.66545685       5.60437979       5.92925035
Zn       2.66930749       5.60841192      13.85590812
Zn       3.62475177       0.75991972       1.92046639
Zn       3.81002270       0.77873291       9.86882280
Zn       1.48511368       4.97274209       1.88481012
Mg       1.49407899       4.99819651       9.87362030
Zn       8.59079834       0.77027095       1.87614985
Zn       8.63569481       0.79912593       9.93629769
Zn       6.20280793       4.99779525       1.90588840
Zn       6.34854988       5.06072616       9.87194315
Zn       1.26421852       0.69832695       1.95093767
Zn       1.30177906       0.72735448       9.93165867
Zn      -0.97497441       4.87562882       2.07208659
Zn      -0.90036874       4.86395469      10.00198329
Zn       6.21208448       0.67592346       1.95489128
Zn       6.21083038       0.79075042       9.81741303
Zn       3.92747161       5.03916865       1.82037219
Zn       3.98846993       4.98126226       9.87097032
Zn       1.34815770       3.57203435       5.92872153
Zn       1.49126902       3.50877395      13.83664587
Zn      -0.98892922       7.72945573       5.97181960
Zn      -0.81148350       7.74080550      13.83303795
Zn       6.21506011       3.55373757       5.78233339
Zn       6.28253730       3.62124822      13.69378838
Zn       4.02007097       7.86783455       5.93033834
Zn       3.97639160       7.73608803      13.79765423
