94
Lattice="9.624636517941903 0.32662666640931526 0.10645967202785471 -4.688284350401928 8.202759442021078 -0.2090340501545471 0.16666185185515858 -0.029527441162481224 15.832024259350648" Properties=species:S:1:pos:R:3 pbc="T T T"
Mg       0.10133109       2.80800599       3.39525356
Mg       0.16087359       2.80353715      11.32386902
Mg      -2.33397414       6.86602267       3.29936720
Mg      -2.19024049       6.88793293      11.27637942
Mg       4.92211056       3.05125410       3.34114490
Mg       4.98773910       2.88669927      11.40710423
Mg       2.56842054       7.11609597       3.39575396
Mg       2.57631935       6.94886554      11.18924499
Mg       2.49120811       1.47550933       7.43204247
Mg       2.62932888       1.43380961      15.35138904
Mg       0.11015100       5.59116238       7.26379086
Mg       0.23550449       5.52469884      15.22985100
Mg       7.22491569       1.57116825       7.45968046
Mg       7.37328219       1.58488697      15.42699764
Mg       4.99839955       5.76294682       7.40217825
Mg       5.01110038       5.67340779      15.33414387
Mg       2.48694332       1.47321605       4.51603023
Mg       2.54960676       1.38459207      12.39473538
Mg       0.11450229       5.55638459       4.33218506
Mg       0.23609996       5.55421677      12.28019826
Mg       7.29231474       1.66606712       4.52115872
Mg       7.41276384       1.60642700      12.39224876
Mg       4.99607910       5.74575911       4.45245738
Mg       5.02989092       5.61809114      12.33505429
Mg       0.12626493       2.83045924       8.39763509
Mg      -2.25668013       6.93315058       0.27316916
Mg      -2.25878762       6.87634700       8.30583491
Mg       4.80185570       2.88948018       0.57701222
Zn       4.98753211       3.03583012       8.39962827
Mg       2.56676546       7.09254638       0.35862761
Mg       2.66504349       7.08061799       8.26730731
Zn      -0.02865107       0.05366771       3.92044382
Zn       0.10656430      -0.03728457      11.90476962
Zn      -2.29075972       4.10618504       3.94618996
Zn      -2.23581270       4.00682388      11.78198232
Zn       4.80915393       0.18465307       4.01469679
Zn       4.98155837       0.13830874      11.95546997
Zn       2.48668401       4.31246561       4.03068549
Zn       2.60521330       4.29832242      11.81435207
Zn       0.00700937      -0.04685445       0.01166141
Zn       0.17648915      -0.02524196       7.89008433
Zn      -2.36990373       4.08149154      -0.00797338
Zn      -2.20758522       4.04843297       7.74401015
Zn       4.92074334       0.12113696       0.05698220
Zn       4.90897346       0.25692104       7.97162202
Zn       2.49281569       4.22920388      -0.02312825
Zn       2.54414336       4.23091398       7.91294369
Zn       2.53503709       2.98634513       1.92250013
Zn       2.56363074       2.85574525       9.85375252
Zn       0.13873578       7.00245236       1.82616242
Zn       0.17664351       6.86463941       9.71397274
Zn       7.28505853       3.06306309       2.08046462
Zn       7.39030960       3.03655629       9.95810616
Zn       4.88267409       7.16653829       1.88183733
Zn       4.97189849       7.12715792       9.90350876
Zn      -1.09546748       3.41779441       5.85470579
Zn      -1.00501593       3.37524904      13.79880659
Zn      -3.43461137       7.59796753       5.73886275
Zn      -3.36920873       7.51396773      13.67984047
Zn       3.71186281       3.59581238       5.84054463
Zn       3.75126511       3.50702161      13.83853787
Zn       1.36378843       7.74878959       5.83015504
Zn       1.50090577       7.66642972      13.64719750
Mg       0.08321460       1.35472470       5.94695648
Zn       0.28064061       1.41620159      13.82011887
Zn      -2.33597031       5.49366650       5.86820188
Zn      -2.20601445       5.41663790      13.78081528
Zn       4.86423514       1.54939783       5.99261080
Zn       4.97191598       1.54042812      13.88909921
Zn       2.55123784       5.63232512       5.86000648
Zn       2.62728507       5.66488398      13.69943879
Zn       3.67800478       0.78208933       2.08473577
Zn       3.74198565       0.79438956       9.94952766
Zn       1.39077134       4.96681220       1.87187211
Zn       1.38567139       4.84329622       9.74445974
Zn       8.43359954       0.93362362       2.03134822
Zn       8.58952141       0.91666657      10.05578011
Zn       6.10337490       5.10390150       1.89864064
Zn       6.24512798       4.97046210       9.90594194
Zn       1.20754020       0.74492652       1.96021021
Zn       1.29604212       0.78478508       9.99665327
Zn      -1.10160052       4.82242831       1.90875528
Zn      -0.99213930       4.78971276       9.84019988
Zn       6.00440585       0.89581757       2.06784680
Zn       6.05345275       0.86289426      10.00352813
Zn       3.60873820       5.08294225       1.98641280
Zn       1.26497995       3.48325207       5.88834121
Zn       1.35795998       3.42813936      13.74780425
Zn      -1.02157802       7.60675079       5.68780907
Zn      -0.91819406       7.54114718      13.70707669
Zn       6.10755556       3.72889212       5.88215829
Zn       6.22851710       3.65233420      13.85462817
Zn       3.85998918       7.81796208       5.87447482
Zn       3.92667878       7.76130746      13.76621035
