95
Lattice="10.070766717291196 0.20954669914724422 -0.04225217568303947 -5.08723295058322 8.24647983352314 0.36145277821997157 -0.01871890701603697 -0.0828123675921232 15.326001878208187" Properties=species:S:1:pos:R:3 pbc="T T T"
Mg       2.47236794       1.38075921       7.25450607
Mg       2.50830257       1.33326293      14.84333398
Mg      -0.01501616       5.42996228       7.48613749
Mg      -0.07028887       5.53075168      14.97822732
Mg       7.61277683       1.51112395       7.21688482
Mg       7.50744529       1.43447725      14.86456950
Mg       4.96683548       5.65987100       7.31738525
Mg       5.00050351       5.66328839      15.05998152
Mg      -0.00377822       2.75112941       3.32725628
Mg       0.00094873       2.66342283      11.12948253
Mg      -2.53368918       6.81490149       3.62922913
Mg      -2.52024256       6.78424501      11.28727315
Zn       5.01724336       2.86733836       3.43246087
Mg       5.06647033       2.84510571      11.11898297
Mg       2.43925639       6.95122137      11.33102824
Mg       2.57869514       1.46269570       4.39764202
Zn       2.43567231       1.44563938      12.08323665
Mg      -0.03083665       5.48140040       4.55614232
Mg       0.00345433       5.52167048      12.20199131
Mg       7.60354187       1.59597414       4.32482001
Zn       7.56781400       1.56952171      11.95067173
Mg       4.95038221       5.65290774       4.51674222
Mg       4.98319028       5.59684424      12.15338028
Mg      -0.05071081       2.74846171       0.58134023
Mg      -0.11441929       2.73710503       8.30550094
Mg      -2.55055682       6.92467273       0.77908729
Mg      -2.50637419       6.87867669       8.38960611
Zn       5.07122120       2.89305346       0.60097021
Mg       5.03178266       2.84542702       8.17509341
Mg       2.44160736       7.02057712       0.72431348
Mg       2.36496398       6.99817257       8.30951916
Zn       0.03395831       0.10076833      -0.01513954
Zn       0.08194801      -0.05500913       7.64377771
Mg      -2.47789849       4.15252145       0.17364041
Zn      -2.55126841       4.15101164       7.82351638
Zn       4.95608850       0.17409287       0.01737480
Zn       5.07742208       0.07277270       7.71734530
Zn       2.48472335       4.30377928       0.14442856
Zn       2.51504964       4.20680792       7.90985278
Zn      -0.06610590      -0.00217459       3.85367706
Zn       0.00318171      -0.00229012      11.46398726
Zn      -2.50593535       4.11674072       3.96099868
Zn      -2.53881200       4.01469237      11.64770460
Zn       4.99054839       0.02135202       3.80092717
Zn       5.04466998       0.04489798      11.54143363
Zn       2.48668270       4.20390254       3.98070834
Zn       2.41793695       4.12257027      11.58731048
Zn      -0.06773405       1.44122429       5.73229930
Zn       0.04467386       1.33858797      13.44777021
Zn      -2.60186810       5.44065462       5.94477366
Zn      -2.54447973       5.47313637      13.64262722
Zn       5.10482782       1.43801863       5.71935235
Zn       5.12751446       1.45606140      13.54318558
Zn       2.58270371       5.57775840       5.98063733
Zn       2.45253962       5.55372205      13.59236310
Zn      -1.25110266       3.45130420       5.75385224
Zn      -1.35696337       3.42419798      13.58798283
Zn      -3.84237199       7.57361486       6.08228500
Zn      -3.87484816       7.50749857      13.66099529
Zn       3.66204063       3.56974863       5.89369837
Zn       3.72780232       3.54288013      13.57685184
Zn       1.26669695       7.63232321       6.06975541
Zn       1.19967918       7.73817743      13.72457489
Zn       1.33253994       0.70056246       1.85489740
Mg       1.28572402       0.67253975       9.64128259
Zn      -1.27668385       4.84902723       2.06581660
Zn      -1.26115615       4.82863270       9.72185381
Mg       6.27324651       0.76835209       1.85841636
Mg       6.24167091       0.85920144       9.50801305
Zn       3.77691068       4.89367179       2.04002982
Zn       3.80585607       4.89012933       9.77970616
Zn       1.10830529       3.38774105       5.89475522
Zn       1.22962396       3.39655687      13.53127164
Zn      -1.36916432       7.62253502       6.04694188
Zn      -1.35526023       7.51176120      13.78265259
Zn       6.21695184       3.55946694       5.93219012
Zn       6.23741829       3.61234096      13.57580640
Zn       3.80699864       7.73569913       6.01628887
Zn       3.68554991       7.70030029      13.69204439
Zn       2.48397684       2.86670837       2.00150257
Zn       2.41174813       2.79219221       9.72601924
Zn      -0.14363301       6.93854442       2.28381005
Zn      -0.14549075       6.85793842       9.84944184
Zn       7.58997849       2.95711796       2.00673648
Zn       7.56358101       2.98517342       9.71624257
Zn       5.00352117       7.00753114       2.26115841
Zn       4.93938934       6.98621269       9.75806261
Zn       3.72095520       0.78394611       1.90119022
Zn       3.77756120       0.71558164       9.66410939
Zn       1.18981648       4.87094721       2.07137586
Zn       1.17746749       4.89711188       9.75986962
Zn       8.83295161       0.88975918       1.87785524
Zn       8.78587839       0.83914626       9.52508147
Zn       6.15043434       4.98522480       2.12978158
Zn       6.24157349       4.92567818       9.67933762
