96
Lattice="9.642587857617702 -0.18722127167143554 -0.053410998948281406 -4.850510463667489 8.279611565510976 0.21783181417102207 0.29727074075240933 0.26774810343420613 15.60424426362778" Properties=species:S:1:pos:R:3 pbc="T T T"
Mg       0.05938274       2.84594745       3.39435715
Mg       0.10358637       2.85065496      11.33635666
Mg      -2.37437072       6.87301650       3.60482788
Mg      -2.23451661       7.00768158      11.34533316
Mg       4.89228077       2.76672134       3.39562980
Mg       5.12617266       2.82498043      11.27816029
Mg       2.51588981       6.82550638       3.65592090
Mg       2.61266773       6.95732766      11.33101078
Mg       2.58031447       1.42068206       7.33593867
Mg       2.77520991       1.54087522      15.07607189
Zn       0.10207763       5.60918558       7.47191581
Mg       0.25767396       5.71151712      15.24259024
Mg       7.25054275       1.29721894       7.26872059
Mg       7.49665680       1.33083704      15.08325693
Mg       4.90909242       5.42123502       7.36912461
Mg       5.06192477       5.64949883      15.19707521
Mg       2.53631905       1.45154372       4.39606516
Mg       2.67611293       1.46891356      12.24794645
Mg       0.10749885       5.54610955       4.50355043
Zn       0.21546474       5.69467719      12.37552882
Mg       7.34806772       1.26514802       4.44208544
Mg       7.42813853       1.42229196      12.14835501
Mg       4.91932330       5.44240171       4.44068762
Mg       4.99789363       5.53256816      12.27516124
Mg       0.06512595       2.71799940       0.54385647
Mg       0.10271175       2.97979257       8.40733895
Mg      -2.49745311       6.96634588       0.65955563
Mg      -2.32889175       6.99337709       8.47385602
Mg       4.84290864       2.57226780       0.54032726
Mg       4.93768279       2.78602924       8.31700291
Mg       2.39254272       6.85743561       0.57322510
Mg       2.66143891       6.87257877       8.40145788
Zn       0.02957315       0.09012081       3.82467585
Zn       0.21551644       0.02004809      11.70721785
Zn      -2.36961759       4.19780994       4.10373142
Zn      -2.18151717       4.37886918      11.84618978
Zn       4.95795585      -0.05026690       3.87012246
Zn       4.99751600       0.03747861      11.62173861
Zn       2.44124535       4.13624868       4.10232606
Zn       2.60005890       4.16061448      11.74452306
Zn      -0.06616123       0.01703479       0.01497723
Zn       0.11831448       0.16175609       7.69943794
Zn      -2.49246752       4.11722064       0.07630649
Zn      -2.28193608       4.22508840       7.89921008
Zn       4.74665796      -0.16810801       0.02735231
Zn       4.97862503       0.06444380       7.73711129
Zn       2.38564258       3.96741041       0.08325212
Zn       2.53897476       4.09159420       7.89947367
Zn       2.41859722       2.73760025       2.09385367
Zn       2.55353570       2.85498230       9.83922136
Zn       0.05742604       6.95390695       2.12650609
Zn       0.09967125       6.94508937       9.88583922
Zn       7.30614728       2.72809147       1.95509272
Zn       7.40876295       2.75546649       9.82853988
Zn       4.91848830       6.74635235       2.10421211
Zn       5.04774539       6.91652840       9.93873358
Zn      -1.12598018       3.57610326       5.91553399
Zn      -0.97147357       3.66038281      13.79824209
Zn      -3.47113347       7.64636346       6.11704421
Zn      -3.31977135       7.72649014      13.80781869
Zn       3.66822744       3.45207167       5.96895243
Zn       3.88725653       3.65489089      13.74187823
Zn       1.34953564       7.55878116       6.03945415
Zn       1.40454774       7.68048667      13.82751401
Zn       0.18766119       1.47921292       5.88669988
Zn       0.28480633       1.58586782      13.65910204
Zn      -2.37072794       5.64314000       5.95218041
Zn      -2.12954973       5.77782493      13.81877698
Mg       4.92876858       1.37609753       5.85828271
Zn       5.08789415       1.53887671      13.73100476
Zn       2.56078495       5.53103173       5.90372806
Zn       2.60013613       5.65690999      13.79378762
Zn       3.60100043       0.71840742       1.90645936
Zn       3.80248804       0.81505158       9.71969464
Zn       1.29188689       4.84620453       2.03787986
Zn       1.22279350       4.88909268       9.81231912
Zn       8.43097942       0.52513531       1.90069605
Zn       8.57176707       0.71833585       9.70927116
Zn       6.01935438       4.70693297       2.05802056
Zn       6.22038860       4.88332206       9.87066854
Zn       1.25337029       0.73504105       2.00844977
Zn       1.37396160       0.84196085       9.73997631
Mg      -1.13924753       4.84562221       2.09686637
Zn      -1.03019063       4.99723445       9.90716146
Zn       6.10395147       0.52321188       1.88963700
Zn       6.25045629       0.70427200       9.75137593
Zn       3.58413972       4.68164829       2.10667930
Zn       3.77478579       4.96738924       9.81707771
Zn       1.25108568       3.54171712       5.94247104
Zn       1.46744354       3.57916291      13.71070642
Zn      -1.11227889       7.67064508       6.04502083
Zn      -0.95936633       7.72238195      13.88086359
Zn       6.11107610       3.39071020       5.85601196
Zn       6.26988167       3.48132337      13.69917020
Zn       3.66872552       7.56366121       5.92351510
Zn       3.87567110       7.71738322      13.86738420
