95
Lattice="9.915351318501886 -0.052786733573007734 0.04432886178256551 -4.7228271110235145 8.504153448540611 0.08653691298989596 -0.3102312710535561 -0.003827170979968737 15.623034504262327" Properties=species:S:1:pos:R:3 pbc="T T T"
Mg      -0.06193094       2.81926240       3.45027937
Mg      -0.11615808       2.92197801      11.32712095
Zn      -2.27701153       7.14518949       3.51984799
Mg      -2.50078294       7.11507129      11.29025525
Mg       4.90914199       2.82664785       3.48473208
Mg       4.72847424       2.78112206      11.31087406
Mg       2.59883184       7.05835323       3.48241002
Zn       2.46815597       7.06299389      11.31015941
Mg       2.36760437       1.43214878       7.37586892
Mg       2.19628590       1.41226921      15.12673733
Mg      -0.00076953       5.64131171       7.32424319
Mg      -0.15370962       5.67786992      15.18428800
Mg       7.43424348       1.21083693       7.39505176
Mg       7.13548916       1.31511105      15.22725747
Mg       4.98792916       5.62964465       7.39440371
Mg       4.78905758       5.61701714      15.17945598
Mg       2.32268135       1.37802487       4.50928852
Zn       2.38099602       1.40873025      12.21736905
Mg       0.07364945       5.60502685       4.40268132
Mg      -0.08206764       5.64796975      12.10899967
Mg       7.19244545       1.32667775      12.32687927
Mg       4.96483097       5.62588243       4.54237443
Mg       4.87165649       5.71342160      12.36352811
Mg       0.03950038       2.86175450       0.65227168
Mg      -0.08933684       2.81782779       8.33319210
Mg      -2.33757612       7.08145952       0.55371095
Mg      -2.48512318       7.08526351       8.34208952
Mg       4.99149065       2.80272046       0.52256588
Mg       4.80255771       2.83666513       8.43948361
Mg       2.65704946       7.04444293       0.57674342
Mg       2.43084317       7.03025327       8.41651624
Zn       0.00108741      -0.02693396       3.96792610
Zn      -0.27002489       0.00116089      11.74417571
Zn      -2.44171486       4.30800245       4.00784914
Zn      -2.63066702       4.24357920      11.77511748
Zn       4.80854782       0.02757901       3.98421989
Zn       4.68025406      -0.08115792      11.73232997
Mg       2.44506456       4.30118186       3.94077449
Zn       2.40968329       4.16304354      11.74412731
Zn       0.02733261      -0.01558700      -0.10316699
Zn      -0.19859235       0.00316497       7.92639439
Zn      -2.46160283       4.27771722       0.11952279
Zn      -2.49670351       4.22972547       7.86491329
Zn       5.00140901      -0.05242535       0.15285945
Zn       4.74984482       0.09440063       7.85330541
Zn       2.66151930       4.34936165       0.07135227
Zn       2.48811792       4.22906933       7.88793613
Zn       2.59459968       2.82153966       2.02240063
Zn       2.36194607       2.84572461       9.72805555
Mg       0.15282487       7.01315719       2.00962696
Zn       0.00378411       7.05404959       9.86030540
Mg       7.54245075       2.75316028       1.98860302
Zn       7.31608660       2.85400067       9.85865315
Zn       5.15845210       7.14029011       2.07542681
Zn       4.94177966       7.05462552       9.83601053
Zn      -1.20641182       3.55801834       5.90335932
Zn      -1.36728489       3.54737306      13.59236313
Zn      -3.62892084       7.70873136       5.84882714
Zn      -3.82258351       7.87291258      13.65833740
Zn       3.78063968       3.48240049       5.88248496
Zn       3.55031352       3.49411292      13.77780220
Zn       1.27000959       7.77294128       5.99323012
Zn       1.25342174       7.66386246      13.83269193
Zn      -0.03273492       1.40184023       5.87308427
Zn      -0.20661931       1.35632996      13.70839298
Zn      -2.42499235       5.63819666       5.97818242
Zn      -2.54875164       5.66380005      13.71473826
Zn       4.89863187       1.37679567       5.88751312
Zn       4.67481448       1.42534113      13.66784530
Zn       2.51084507       5.66463192       5.90003675
Zn       2.34153019       5.64570719      13.73776582
Zn       3.68802131       0.70579998       1.94026571
Zn       3.58078063       0.74443200       9.73495374
Zn       1.30511148       4.89116591       2.08585097
Zn       1.21949815       4.94282045       9.78270455
Zn       8.62593574       0.62968578       1.98963955
Zn       8.48668191       0.70721247       9.81418845
Zn       6.35258996       4.93133756       2.03686437
Zn       6.14292949       4.87233082       9.77737371
Zn       1.19016427       0.67579302       1.96865572
Zn       1.10080407       0.78171177       9.78982349
Zn      -1.14022988       4.94133752       1.97479811
Zn      -1.32159407       5.03780944       9.79133628
Zn       6.21199004       0.65471617       1.94933040
Zn       5.94900906       0.66485629       9.85548362
Zn       3.74600562       4.86797746       2.15086673
Zn       3.66718107       4.86296535       9.80153137
Zn       1.23543745       3.51123607       5.93628241
Zn       1.02036718       3.51734018      13.70222960
Zn      -1.12182054       7.79135910       5.94431584
Zn      -1.26559253       7.81365791      13.74222780
Zn       6.16024590       3.49179180       6.03310153
Zn       6.01320034       3.45002157      13.76758514
Zn       3.93314331       7.70020265       5.92528274
Zn       3.69312174       7.77628567      13.77514957
