95
Lattice="9.60477756366641 -0.1275144188471677 0.20191525265969282 -4.844108437637831 8.388653898344932 0.15148255629916607 0.15518590945827074 -0.6817923142816262 15.657502711556566" Properties=species:S:1:pos:R:3 pbc="T T T"
Zn       2.52832901       1.13879215       7.44184891
Zn       2.49832621       0.63659719      15.20815376
Mg       0.00371809       5.23965110       7.39423755
Mg       0.08494091       4.83075590      15.34953285
Mg       7.27407357       0.94446685       7.50339818
Mg       7.30004521       0.72544981      15.29922156
Mg       4.90797416       5.11805216       7.60803314
Mg       4.87446658       4.79711013      15.42102857
Zn       0.07167801       2.65302859       3.60509628
Mg       0.07424513       2.24956923      11.32279388
Mg      -2.37599613       6.86164096       3.63068448
Mg      -2.35314108       6.45276681      11.41612443
Zn       4.83508941       2.52742041       3.57060270
Zn       4.87010376       2.21289033      11.45284965
Mg       2.37675866       6.69838822       3.76791700
Mg       2.51558237       6.36137692      11.53262828
Mg       2.45136488       1.14406999       4.51591074
Mg       2.53441239       0.81085399      12.27257393
Mg       0.05116587       5.40617703       4.62195464
Mg       0.09347308       5.05149423      12.40666493
Mg       7.22322520       1.10246251       4.61897005
Mg       7.32726839       0.74804631      12.39376337
Mg       4.82207364       5.41195723       4.71177906
Mg       4.93969043       5.02882155      12.51474348
Zn      -0.03389409       2.71701066       0.63356063
Zn       0.21195866       2.27507866       8.33274999
Mg      -2.43404290       6.92031661       0.65763249
Mg      -2.32915895       6.58801089       8.45842488
Mg       4.77550294       2.71626374       0.53987117
Mg       4.78154202       2.29310808       8.48175949
Mg       2.36399909       6.88735358       0.68082877
Mg       2.54349921       6.45238790       8.60881338
Zn       0.05364346       0.00519009      -0.03726555
Zn      -0.01825324      -0.33552327       7.87460260
Zn      -2.42103331       4.09937396       0.05335451
Zn      -2.31213300       3.89913710       7.90394316
Zn       4.82005433      -0.05667930       0.05784907
Zn       4.87297521      -0.35287932       7.93001262
Mg       2.27142562       4.19422873       0.18240871
Zn       2.42578141       3.75025136       8.00222924
Zn       0.07054731      -0.17330858       3.84580694
Zn       0.10037728      -0.59438853      11.81711785
Zn      -2.41293587       4.02632894       3.99777071
Zn      -2.24070015       3.70387657      11.76909101
Zn       4.88460290      -0.20668308       4.03890639
Zn       4.92249905      -0.57254010      11.87124890
Zn       2.37718893       3.95920691       4.10328915
Zn       2.59356587       3.63014820      11.97443672
Zn       0.07890495       1.08826530       5.85985415
Mg       0.18563416       0.70143981      13.77880588
Zn      -2.33931963       5.40179469       5.93929396
Mg      -2.29765593       4.98164214      13.85456930
Zn       4.74964075       0.98945059       6.06176563
Zn       4.93200097       0.71244313      13.87977011
Zn       2.43668193       5.28889454       6.07533237
Zn       2.45447288       4.94909628      13.93201655
Zn      -1.11117623       3.16857784       5.94977965
Zn      -1.08619894       2.81620753      13.74472469
Zn      -3.57833523       7.46409694       5.99288100
Zn       3.71632897       3.06601570       6.10747708
Zn       3.72191772       2.76676499      13.84430291
Mg       1.16001187       7.40312486       6.20838262
Zn       1.23171649       6.97432317      13.98075733
Zn       1.15810532       0.62724486       2.01187531
Zn       1.33329106       0.28320007       9.84125000
Mg      -1.20856628       4.75242046       2.14144879
Zn      -1.08987454       4.46255176       9.94230359
Zn       6.11505146       0.58000523       2.19550140
Mg       6.11889821       0.16032853       9.87003510
Zn       3.54500534       4.74912861       2.25320469
Zn       3.68432961       4.33042522       9.99050426
Zn       1.14479871       3.27391813       6.03212565
Zn       1.31945835       2.81777043      13.83841823
Zn      -1.15550019       7.32738295       6.02089532
Zn      -1.06505801       7.14451029      13.92655263
Zn       6.00019299       3.14462806       6.11310404
Zn       6.04520205       2.79551751      13.92612531
Zn       3.63202595       7.31041189       6.20442382
Zn       3.68387321       7.03649999      14.01604150
Mg       2.36773513       2.79546072       2.10997953
Zn       2.44376022       2.33909245       9.92882741
Zn      -0.10495571       6.85518756       2.16636094
Zn       0.03807143       6.55034741       9.95585037
Zn       7.15291762       2.68121455       2.20043983
Zn       7.30570391       2.28997426      10.02005888
Zn       4.78566306       6.73235216       2.21355637
Zn       4.87908812       6.44857610      10.12068562
Zn       3.65122260       0.54660430       1.98330851
Zn       3.76822732       0.23900096       9.87394020
Zn       1.20507133       4.75990045       2.16143031
Zn       1.19018064       4.51832241       9.95481497
Zn       8.42268589       0.57746677       2.17209117
Zn       8.53959180       0.19443786       9.88742988
Zn       6.05094969       4.67862087       2.29046864
Zn       6.08620391       4.40865622      10.07940286
