95
Lattice="9.736625708179059 -0.050734179545045416 0.07239788521998755 -4.908186097583253 8.101469004059773 0.11126524885503132 -0.4794833976668094 0.20923749912912076 15.732759185397423" Properties=species:S:1:pos:R:3 pbc="T T T"
Mg       2.22021711       1.37637640       7.40157320
Mg       2.02391826       1.50133805      15.36634331
Mg      -0.31991977       5.48472535       7.48187904
Mg      -0.55138468       5.61593892      15.33303686
Mg       7.07674362       1.39403723       7.45244300
Mg       6.76238917       1.50128318      15.30594405
Mg       4.64353562       5.52085795       7.52356574
Mg       4.36864986       5.54212061      15.31122846
Zn      -0.06046779       2.79130764       3.48566667
Mg      -0.35258380       2.89577319      11.33728982
Mg      -2.60973928       6.78661406       3.56571007
Mg      -2.80882915       6.83246782      11.53098482
Mg       4.61936267       2.70002266       3.57256280
Mg       4.47002037       2.85717415      11.33941695
Mg       2.37436024       6.77530506       3.58908306
Mg       2.02479749       6.84945693      11.54338676
Mg       2.23144766       1.40061597       4.53039245
Mg       2.00346378       1.57963097      12.24800599
Mg      -0.18222277       5.43574225       4.48608738
Mg      -0.35563668       5.57872457      12.35305083
Mg       7.17889951       1.37764460       4.52466774
Mg       6.95843407       1.38492423      12.33168931
Mg       4.68355192       5.43227403       4.54323200
Mg       4.49104193       5.46435974      12.40175476
Mg       0.02223441       2.77353049       0.56812239
Mg      -0.20009869       2.84525375       8.42074216
Mg      -2.42147691       6.80171570       0.62012493
Mg      -2.69920297       6.86620477       8.41813564
Mg       4.89567023       2.69124423       0.65209254
Zn       4.54456549       2.84962672       8.39995289
Mg       2.41609915       6.76037151       0.57144528
Mg       2.13328644       6.80481477       8.52811484
Zn       0.03617787       0.04639847      -0.05861361
Zn      -0.22450063       0.10156281       7.93263383
Zn      -2.49918771       4.05184423       0.03729571
Zn      -2.65395525       4.23197709       7.89772866
Zn       4.89836021       0.06231163       0.08938068
Mg       4.63896107       0.12891965       7.86334217
Zn       2.39129529       3.95656743       0.06917573
Zn       2.26991785       4.12049736       7.96989324
Zn      -0.13992724       0.01515349       3.95772469
Zn      -0.32701880       0.14673835      11.81879982
Zn      -2.57620308       4.08083831       3.95653093
Zn      -2.87531220       4.16931141      11.80797570
Zn       4.80078926      -0.00864822       3.87271070
Zn       4.55569771       0.14748822      11.81218711
Zn       2.21464410       3.97904407       3.93054012
Zn       2.03224444       4.20328807      11.85614143
Zn      -0.20568901       1.47988360       5.94349224
Zn      -0.46548887       1.50117009      13.81663169
Zn      -2.63147663       5.48225516       5.94086545
Zn      -2.81554075       5.58444031      13.82015730
Zn       4.39930556       1.42786217      13.89741211
Zn       2.21313917       5.42736120       6.03301519
Zn       2.00475756       5.54436623      13.88317809
Zn      -1.47220477       3.42862812       5.99172372
Zn      -1.68186788       3.52614079      13.81622002
Zn      -3.86846472       7.48274822       5.95498150
Zn      -4.10653304       7.59788963      13.81429163
Zn       3.44180892       3.45717657       5.99755032
Zn       3.27966963       3.57944403      13.75474463
Zn       1.10541208       7.50112432       5.99275604
Zn       0.81859724       7.56178171      13.93349091
Zn       1.20161227       0.67683832       2.00618089
Zn       0.93477248       0.76007289       9.92821011
Zn      -1.31966125       4.75243808       2.07746900
Zn      -1.46212008       4.80047200       9.84754230
Zn       6.12974384       0.70662031       2.03529955
Zn       5.77858648       0.75853606       9.89610421
Mg       3.58965607       4.75342876       2.03899192
Zn       3.30918929       4.90668938      10.01329728
Zn       0.98612469       3.41044552       5.98538458
Zn       0.77038187       3.49281054      13.78984590
Zn      -1.44893275       7.44639434       5.98358762
Zn      -1.63611745       7.63587907      13.92931710
Zn       5.85398182       3.38738261       6.11689673
Zn       5.64848525       3.53616564      13.73754882
Zn       3.45952189       7.39615883       6.01978474
Zn       3.31181038       7.55043095      13.92399687
Zn       2.37662985       2.65341422       2.03473393
Zn       2.14564151       2.89756668       9.94152930
Zn      -0.08673340       6.75015184       2.08372557
Zn      -0.27832678       6.67815173       9.89524544
Zn       7.27946522       2.66765080       2.04204230
Zn       6.90497957       2.80214476       9.94855234
Zn       4.76974668       6.70738200       2.04517402
Zn       4.50961478       6.81121770      10.04248355
Zn       3.59929835       0.63757286       2.07018602
Zn       3.28286385       0.73137152       9.82746506
Zn       1.28148983       4.66894214       2.04286944
Zn       0.99070874       4.85397495       9.82835108
Zn       8.52456603       0.62738325       2.07334842
Zn       8.15868679       0.76622143       9.94650371
Zn       5.94148525       4.69493778       2.10377776
Zn       5.70845939       4.84973299      10.01801955
