95
Lattice="9.70710672589578 0.0656215926761149 -0.06246526759231448 -4.694669044067228 8.432695516020082 0.077942597202503 -0.49931610882767563 0.20738693153455492 16.16754395784576" Properties=species:S:1:pos:R:3 pbc="T T T"
Mg      -0.07083427       2.81118007       3.57876502
Mg      -0.29210335       2.97047245      11.59595385
Mg      -2.32978883       7.11137567       3.45560331
Mg      -2.69204520       7.24525205      11.70283079
Mg       4.77736689       2.95249156       3.48279329
Zn       4.51527383       2.89926135      11.66185628
Mg       2.48620910       7.13201260       3.66863218
Mg       2.18017365       7.28978093      11.69459538
Mg       2.28011457       1.55328322       7.54296664
Mg       1.93803994       1.59520361      15.63287978
Mg      -0.10374579       5.74528930       7.63083511
Mg      -0.30464998       5.88356019      15.77068879
Zn       7.12438944       1.59343586       7.57100447
Mg       6.80516289       1.64724821      15.57195909
Mg       4.68605090       5.73092216       7.62908009
Mg       4.48405479       5.86842184      15.63851830
Mg       2.23643645       1.54582782       4.51145775
Mg       2.04541434       1.62224989      12.64764915
Mg      -0.08107307       5.77718626       4.60705961
Mg      -0.19391128       5.81753147      12.70948911
Mg       7.14271598       1.43192395       4.58816123
Mg       6.89770939       1.48397247      12.61406651
Mg       4.74257633       5.72529262       4.63582351
Mg       4.53974815       5.77085376      12.62543874
Mg       0.01082039       2.79866040       0.55969341
Mg      -0.13293892       3.09987665       8.60749282
Mg      -2.30280273       7.03518388       0.46923720
Mg      -2.57685690       7.28466072       8.75234369
Mg       4.84389379       2.90934577       0.49996928
Mg       4.61810166       3.01914978       8.64214892
Mg       2.54855281       7.14071931       0.50385731
Mg       2.25689063       7.13442679       8.54204034
Zn      -0.23312424       0.07794394       4.00318610
Zn      -0.42050212       0.16263794      12.17911037
Zn      -2.53365793       4.26499232       4.07493149
Zn      -2.71579561       4.39618880      12.09741901
Zn       4.66901172       0.04267577       4.02184668
Zn       4.42052945       0.15489377      12.03803879
Zn       2.45102930       4.28603284       3.98584070
Zn       2.19587288       4.41702012      12.16588413
Zn      -0.10746838       0.01202882      -0.03181507
Zn      -0.25428739       0.13203901       8.06340216
Zn      -2.37228075       4.26964208       0.01008979
Zn      -2.64399457       4.41210627       8.09555142
Zn       4.85622778       0.08613866      -0.06434739
Zn       4.67063337       0.11784299       8.08957806
Zn       2.54035708       4.25916553      -0.00468899
Zn       2.23824858       4.32659591       7.97715928
Zn       2.44683788       2.78524463       2.12929204
Zn       2.23585257       2.95217500      10.14405753
Zn       0.06601842       7.17891469       2.16917992
Zn      -0.16199626       7.17939540      10.09838626
Zn       7.26113438       2.94720731       1.97639020
Zn       7.00816151       3.00347745      10.03753562
Zn       4.86825589       7.16887688       1.98839548
Zn       4.60287220       7.30026573      10.12345211
Zn      -1.32743202       3.64029934       6.04704658
Zn      -1.61911661       3.69945502      14.27881500
Zn      -3.64800628       7.72505883       6.15029093
Zn      -3.90869039       7.89267384      14.21257604
Zn       3.44701796       3.71255397       6.03365493
Zn       3.29350404       3.79544012      14.21081173
Zn       1.14433490       7.91053247       6.21535755
Zn       0.86270014       7.94532053      14.18234020
Zn      -0.45916453       1.62077337      14.12349652
Zn      -2.57272980       5.62235358       6.10211177
Zn      -2.75522002       5.85226139      14.24763031
Zn       4.70236204       1.57039858       6.10585079
Zn       4.41461367       1.54352711      14.08834896
Zn       2.34467073       5.69865234       6.10790530
Zn       2.19101926       5.91693039      14.09615191
Zn       3.54107179       0.72616467       1.91368230
Zn       3.36341176       0.82307278      10.07136754
Zn       1.29228905       5.01350906       2.00458118
Zn       0.98264181       5.03417390      10.00765751
Zn       8.44382626       0.76047796       1.97310182
Zn       8.10693973       0.97468785      10.06077053
Zn       6.04488010       5.03961514       2.01513541
Zn       5.82783864       5.11493526      10.05084097
Zn       1.16672514       0.72047101       2.09066948
Zn       0.81540750       0.85128913      10.18598541
Zn      -1.13635229       4.97427710       2.12856786
Zn      -1.40730600       4.96243058      10.24612454
Zn       6.03355774       0.72759399       2.01679851
Zn       5.75283095       0.89931924      10.04730108
Mg       3.60585435       5.02071399       2.08432883
Zn       3.36181650       5.12804564      10.01937987
Zn       1.12514277       3.65416616       6.06483447
Zn       0.86295518       3.72481072      14.19850579
Zn      -1.24143278       7.84226834       6.10527189
Mg      -1.49461344       7.86861189      14.12480952
Zn       5.93458879       3.73882459       6.09019455
Zn       5.71735729       3.74177595      14.05669850
Zn       3.58893854       7.87845432       6.07470353
Zn       3.34570715       7.92879661      14.14115316
