96
Lattice="9.247460579682098 0.43244944356840137 0.29013230751731445 -4.614118716886361 8.345181916816335 -0.13466339445660847 -0.19170633003577886 -0.2442527946245708 15.726322091398256" Properties=species:S:1:pos:R:3 pbc="T T T"
Mg       0.00479093       2.79350634       3.42586698
Mg      -0.10507958       2.68093550      11.30679919
Mg      -2.38765028       6.97876984       3.35688679
Mg      -2.54473677       6.80906703      11.23356201
Mg       4.51936141       3.04420689       3.54478722
Mg       4.48667306       2.90012427      11.48390058
Mg       2.36354186       7.21060032       3.49618710
Mg       2.26560498       7.10104848      11.37897210
Mg       2.11832094       1.33022113       7.44184597
Mg       2.23405772       1.32472774      15.30945482
Mg       0.00326668       5.56461986       7.40735395
Mg      -0.21280910       5.48822226      15.30833270
Mg       6.84932150       1.73219513       7.60435439
Mg       6.79354747       1.56304440      15.40960875
Mg       4.58764389       5.82079644       7.41389871
Mg       4.40775317       5.73061070      15.41746077
Mg       2.31660003       1.51950714       4.44153310
Zn       2.22006296       1.31429094      12.35077961
Mg       0.01553565       5.64572765       4.39697238
Mg      -0.10387655       5.58840317      12.30057313
Mg       7.00706092       1.68314283       4.64145137
Mg       6.85237578       1.57272793      12.50168163
Mg       4.51625169       5.91131424       4.46656077
Mg       4.41816344       5.75041087      12.42994605
Mg       0.01780863       2.86673896       0.64391346
Mg      -0.06752727       2.82524464       8.38547016
Mg      -2.30989810       7.02319125       0.42086396
Mg      -2.45509466       6.87477910       8.34929249
Mg       4.71015698       3.21277455       0.62364108
Mg       4.53575593       2.97961531       8.50757625
Mg       2.26225860       7.16938641       0.53302649
Mg       2.21928141       7.05577844       8.43660186
Zn       0.02885672      -0.11450979       4.02125432
Zn      -0.12522669      -0.23277121      11.76616346
Zn      -2.28024598       4.06999061       3.85229082
Zn      -2.43669737       4.00826500      11.69888843
Zn       4.56609504       0.23083637       4.09187906
Zn       4.43269836      -0.03589161      11.89317607
Zn       2.37961191       4.42713543       4.00439577
Zn       2.17566657       4.14447965      11.86509819
Zn      -0.01887110       0.03373074      -0.04164146
Zn      -0.10979444      -0.03964558       7.86230651
Zn      -2.40725416       4.11110452      -0.06432186
Zn      -2.40679283       4.06247084       7.66810967
Zn       4.57678001       0.07999553       0.09316205
Zn       4.47952268       0.07567886       8.05899577
Zn       2.22959092       4.35767192       0.12226364
Zn       2.13462798       4.27515895       8.09332113
Zn       2.39083941       2.94461132       1.94785047
Zn       2.14864680       2.74868765       9.85887403
Zn      -0.01626039       7.05991165       1.96463059
Zn      -0.13278465       7.03630659       9.91173855
Zn       6.90308376       3.08469811       2.18618257
Zn       6.87420510       3.09612849      10.09052319
Zn       4.63352798       7.27309361       2.09481132
Zn       4.50312725       7.26351057      10.04787727
Zn      -1.20219299       3.39905391       5.78105761
Zn      -1.32460656       3.27452163      13.81154132
Zn      -3.53324559       7.67067188       5.78886709
Zn      -3.57615802       7.37190687      13.61645339
Zn       3.38115072       3.68116568       6.00583737
Zn       3.31338857       3.49492916      13.86200925
Zn       1.11237543       7.83680900       5.90442514
Zn       1.00872169       7.66606998      13.87372522
Zn      -0.16561027       1.33406427       6.01510343
Zn      -0.14200824       1.19426171      13.85024354
Zn      -2.39071026       5.43349070       5.79204015
Zn      -2.48043262       5.35633263      13.71038855
Zn       4.50820220       1.52409775       6.05652827
Zn       4.40746647       1.37417062      13.89141942
Zn       2.21949485       5.67490089       5.95644484
Zn       2.20518762       5.65080654      13.81301334
Zn       3.51317346       0.92344681       2.10262780
Zn       3.37094796       0.70522271       9.98101559
Zn       1.22387693       5.08083556       2.04368655
Zn       1.08351117       4.86594478       9.81222310
Zn       8.05042499       1.08290724       2.13892913
Zn       7.95601425       0.97734775      10.08041144
Zn       5.74403574       5.17351483       2.16972629
Mg       5.68788669       5.22324832      10.03637180
Zn       1.14255244       0.67251339       2.04139285
Zn       1.07297039       0.50080536       9.88525568
Zn      -1.14250608       4.91357445       2.06824640
Zn      -1.18681092       4.69872486       9.84853434
Zn       5.78056031       0.84903866       2.07244479
Zn       5.65396455       0.74821927      10.00644985
Zn       3.50461918       5.13706206       2.07441515
Zn       3.32371061       4.96437634       9.93603333
Zn       1.11174209       3.49237049       6.01832107
Zn       0.93111405       3.39664956      13.77053040
Zn      -1.25875595       7.72112731       5.93395437
Zn      -1.28376077       7.57305766      13.73979272
Zn       5.71129068       3.71325230       6.15375294
Zn       5.65797037       3.64132757      13.97894556
Zn       3.39537469       7.87825229       6.03510834
Zn       3.22404721       7.72992520      13.85957350
