95
Lattice="9.428929427838249 0.07882258443897731 -0.034829208227830935 -4.845606188560487 8.292782996311926 -0.16222848634849896 -0.24621109346609232 0.03068638587442513 15.674839976419955" Properties=species:S:1:pos:R:3 pbc="T T T"
Mg      -0.12091616       2.76556301       3.38042946
Mg      -0.22680216       2.73080241      11.19444945
Mg      -2.56597229       6.97312551       3.26334409
Mg      -2.68321499       6.95829491      11.12481908
Zn       4.68221076       2.86167949       3.29951260
Mg       4.52208367       2.91959963      11.18235944
Zn       2.20915488       6.93314911       3.21444409
Mg       2.09329464       7.07010792      11.15135580
Mg       2.16884618       1.49058447       7.28064011
Mg      -0.16350475       5.56493987       7.18480554
Mg      -0.36305588       5.62086885      15.01195425
Mg       6.83958305       1.48991933       7.29830918
Mg       6.75585810       1.39398345      15.07743292
Mg       4.62630079       5.55819695       7.26079170
Mg       4.38204920       5.62827164      15.05080693
Mg       2.20617472       1.48199849       4.45024034
Mg       2.06554419       1.39089914      12.17150389
Mg      -0.18521090       5.63626842       4.22866146
Mg      -0.26960884       5.57364274      12.09453631
Mg       6.98746902       1.48021622       4.25229562
Mg       6.92165241       1.48022330      12.16213773
Mg       4.53309096       5.69812987       4.29983311
Mg       4.33080980       5.60011551      12.07406197
Mg      -0.10816889       2.77575777       0.42004774
Mg      -0.24222942       2.80600562       8.30806671
Mg      -2.39871100       6.90142984       0.28112775
Mg      -2.58966946       6.90391091       8.13917924
Mg       4.68262122       2.77870500       0.41736447
Mg       4.64874430       2.87587368       8.29495303
Mg       2.19770372       6.88042933       0.26016897
Mg       2.05048756       6.94790281       8.19048356
Zn      -0.04519586       0.02406925       3.98486772
Zn      -0.17444444      -0.05739707      11.73261063
Zn      -2.53298891       4.08815884       3.82718706
Zn      -2.63804025       4.09234184      11.74051732
Zn       4.76427768       0.03104167       3.80177722
Zn       4.60716614       0.02597357      11.79856172
Zn       2.18353344       4.16066271       3.91231468
Zn       2.12810343       4.11215477      11.68572372
Zn       0.03412739      -0.03296563       0.09650969
Zn      -0.07109872       0.03722715       7.79289898
Zn      -2.34380422       4.18259453       0.03195353
Zn      -2.54735789       4.17671517       7.78447713
Zn       4.79410801       0.01601615      -0.06177936
Zn       4.59253439       0.12557299       7.88631080
Zn       2.30344575       4.29059637      -0.06483340
Zn       2.14699909       4.22539474       7.71311864
Zn       2.25853413       2.74936865       1.98512954
Zn       2.09114643       2.79926311       9.69440311
Zn      -0.15359860       6.89279698       1.82678231
Zn      -0.30268095       6.93504431       9.66003509
Zn       6.98780978       2.74606675       1.92620113
Zn       6.82540396       2.86163891       9.76006164
Mg       4.57885393       7.00591477       1.85252616
Zn       4.50029877       7.02158032       9.70159619
Zn      -1.32160958       3.43464290       5.82522849
Zn      -1.48479585       3.49505642      13.63562493
Zn      -3.67868921       7.64225185       5.71308999
Zn      -3.87695099       7.70948197      13.53463168
Zn       3.47494327       3.43638834       5.82540754
Zn       3.32796107       3.51933084      13.66510937
Zn       0.95108922       7.64681557       5.68977204
Zn       0.74438099       7.72215043      13.50835441
Zn      -0.12297079       1.36230773       5.97624195
Zn      -0.33497924       1.50493686      13.75477669
Zn      -2.42907581       5.53847170       5.79801389
Zn      -2.61010079       5.57856600      13.59598480
Zn       4.51985597       1.49626907       5.79596023
Zn       4.45220414       1.52187706      13.64672555
Zn       2.17175224       5.55845668       5.82108394
Zn       2.09865377       5.62762920      13.64431331
Zn       3.53795747       0.70696727       1.97109744
Zn       3.37593715       0.73157976       9.84878595
Zn       1.05550609       4.88749480       1.79273862
Mg       0.96487549       4.94915727       9.70421181
Zn       8.18335160       0.73462748       1.96699458
Zn       8.03912069       0.80241789       9.77285350
Zn       5.80927113       4.89880498       1.92587855
Zn       5.68441176       4.88224827       9.67244085
Zn       1.19079234       0.72208707       1.95452935
Zn       1.05542331       0.73177063       9.77795558
Zn      -1.30997384       4.91024646       1.92517530
Zn      -1.48042974       4.88189017       9.76375032
Zn       5.90339655       0.77923683       1.96929862
Zn       5.67850711       0.83995493       9.76597676
Zn       3.42007011       4.80843555       1.82950933
Zn       3.33881810       4.90257427       9.67803698
Zn       1.06118007       3.46335642       5.81644673
Zn       0.82472218       3.50786357      13.64991592
Zn      -1.38751558       7.63828252       5.67465908
Zn      -1.47782570       7.59624270      13.50180609
Zn       5.69951404       3.56954856       5.85117659
Zn       5.65577288       3.54871097      13.59457583
Zn       3.37614555       7.72491901       5.66739405
Zn       3.22925036       7.72119646      13.53790756
