96
Lattice="9.908054739838434 0.3555121971092504 -0.3449649339772488 -5.01452498964855 8.282221954792458 0.16173359032696252 0.2817689853327223 0.07195950457922598 15.424999794722991" Properties=species:S:1:pos:R:3 pbc="T T T"
Mg       2.58587136       1.43280292       7.16937621
Mg       2.72639104       1.60134691      14.88364138
Mg       0.04240811       5.71471667       7.30695200
Mg       0.19372916       5.74033183      15.00757242
Mg       7.46240815       1.73286300       6.96427675
Zn       7.62239253       1.79509269      14.75182669
Mg       5.11241009       5.90228098       7.13743183
Mg       5.22858182       5.87530890      14.68229436
Mg       0.04878679       2.78620106       3.43662411
Mg       0.18913943       2.84790404      11.13946209
Mg      -2.47204555       7.00378282       3.48690933
Mg      -2.28282605       6.98484850      11.07528659
Mg       4.97903388       2.97165537       3.22602742
Mg       5.12815474       3.09846311      10.94713417
Mg       2.44142095       7.19749965       3.28057936
Mg       2.61931063       7.17245486      11.03676722
Mg       2.54661621       1.45813339       4.23153225
Mg       2.65496424       1.52394070      11.92727270
Mg       0.03123273       5.62986739       4.28260414
Mg       0.13866554       5.71499689      12.01036446
Mg       7.53348943       1.67440436       4.00036079
Mg       7.60279344       1.63162027      11.76127830
Mg       4.97093198       5.79372723       4.11017661
Mg       5.12169723       6.01860427      11.82038707
Mg      -0.00135882       2.83774026       0.44129630
Mg       0.12446315       2.80201440       8.15235407
Mg      -2.44307411       6.94992273       0.50769953
Mg      -2.39394945       7.01656971       8.33152850
Mg       4.90852971       2.99529262       0.30405365
Mg       5.11433357       3.10727201       7.99471168
Mg       2.50180511       7.07357242       0.43577997
Mg       2.52736907       7.25589964       8.08917403
Zn       0.06683641       0.04478538      -0.04050234
Zn       0.12093908       0.10739962       7.74891278
Zn      -2.47781538       4.11849504       0.15859905
Zn      -2.34731672       4.09926813       7.84061759
Zn       4.93181887       0.16103912      -0.11738813
Zn       5.09864323       0.17960139       7.50859737
Zn       2.40481142       4.27856333      -0.12851602
Zn       2.53231623       4.25744932       7.64162852
Zn       0.11341802      -0.02415124       3.91951846
Zn       0.18087476       0.03235706      11.52425928
Zn      -2.34068499       4.16808947       3.98322739
Zn      -2.33865224       4.24750772      11.60951948
Zn       5.04027091       0.20260596       3.69209247
Zn       5.15824953       0.18880492      11.36330442
Zn       2.52478110       4.27127269       3.71770075
Zn       2.63605783       4.33591506      11.43554867
Zn       0.08792581       1.43483624       5.82371547
Zn       0.13879282       1.45265369      13.45552975
Zn      -2.42579537       5.49671414       5.86756048
Zn      -2.27815061       5.73116389      13.64130311
Zn       5.00508901       1.61842977       5.57574661
Zn       5.09054995       1.58012021      13.27130146
Zn       2.63607542       5.70668097       5.69645268
Zn       2.64538689       5.81151492      13.38797082
Zn      -1.10198375       3.43599032       5.77240871
Zn      -1.08373957       3.57988893      13.50537511
Zn      -3.59819816       7.66430383       5.81895166
Zn      -3.44282533       7.69839408      13.68225318
Zn       3.79461441       3.58492432       5.69028638
Zn       3.90767540       3.76529372      13.44977712
Zn       1.32602283       7.84842176       5.71979639
Zn       1.43079640       7.82100151      13.46162761
Zn       1.25901371       0.80233125       1.86069627
Zn       1.43867934       0.82494314       9.64724396
Zn      -1.18321423       4.91470824       1.92764133
Zn      -1.17193127       4.86568103       9.75457338
Zn       6.30979377       0.83241243       1.78803081
Zn       6.26509488       0.96148056       9.42513078
Zn       3.71979414       5.08507951       1.82384887
Zn       3.92770115       5.11738039       9.49257090
Zn       1.22437128       3.61246029       5.77880487
Zn       1.38293969       3.65732791      13.47066831
Zn      -1.29006481       7.65227812       5.79557373
Zn      -0.98526581       7.76634422      13.58513851
Zn       6.29318420       3.71481718       5.54643704
Zn       6.41252120       3.71787977      13.27551803
Mg       3.67383268       7.87789847       5.62744507
Zn       3.83656392       7.93227826      13.43298529
Zn       2.48183753       2.97099011       1.89270329
Zn       2.65726905       2.92827587       9.51427118
Zn       0.02530921       7.02211290       1.88935774
Zn       0.12113222       7.11508988       9.58885840
Zn       7.41891262       3.03840671       1.67356458
Zn       7.57811935       3.23015666       9.31453008
Zn       4.92102158       7.21710470       1.73560467
Zn       5.12691751       7.28666936       9.48703176
Zn       3.77015534       0.77506514       1.81892920
Zn       3.88026829       0.96517404       9.57687709
Zn       1.31494588       4.97966239       1.89563067
Zn       1.38232584       5.02787737       9.60511721
Zn       8.69685195       0.99417811       1.56628185
Zn       8.91832651       1.00647062       9.38353796
Zn       6.16479055       5.13307348       1.67526702
Zn       6.26928526       5.15296064       9.49561580
