96
Lattice="9.905873501724251 0.14352745292322888 -0.3150272361924351 -4.832718966917688 8.182967773697174 0.12280054044495936 -0.40225496403507977 0.003862026075254831 15.279399806995748" Properties=species:S:1:pos:R:3 pbc="T T T"
Mg      -0.07792215       2.79565349       3.23420013
Zn      -0.18775335       2.73643293      10.92125611
Zn      -2.43444495       6.95114099       3.32030548
Mg      -2.67263638       6.88101349      11.11627773
Mg       4.95599342       2.85703670       3.13853262
Mg       4.80931861       2.82284729      10.84320154
Mg       2.46643181       6.98398732       3.24585396
Mg       2.27104345       6.85658826      10.94844930
Mg       2.36327817       1.33038889       7.02593510
Mg       2.03988379       1.43274810      14.71395938
Mg      -0.01733458       5.48207117       7.10440320
Zn      -0.23790190       5.54819790      14.83430404
Mg       7.24482089       1.48218189       7.01874741
Mg       7.05397427       1.49901992      14.62679867
Mg       4.82365515       5.60862486       6.93941926
Mg       4.56003738       5.53747658      14.58655263
Mg       2.32111339       1.42985150       4.27395539
Mg       2.16199307       1.37528095      11.85756438
Mg      -0.02897094       5.49032794       4.33428297
Mg      -0.23151461       5.61329499      11.93771616
Mg       7.43699981       1.48184302       4.02403075
Mg       7.16198916       1.50386939      11.70116927
Mg       4.94152455       5.54900192       4.12420348
Mg       4.84948642       5.65709177      11.73144009
Mg      -0.02797451       2.77768252       0.48147173
Mg      -0.21210121       2.77726798       8.08484418
Mg      -2.40774558       6.79572720       0.50250062
Mg      -2.51920310       6.81470340       8.14850238
Mg       4.93748557       2.87080990       0.26449256
Mg       4.73016456       2.84594625       7.94969725
Mg       2.57907857       6.91746081       0.43473568
Mg       2.37301932       6.92426738       7.97200779
Zn      -0.10928317      -0.01688761       3.74706544
Zn      -0.22046647      -0.02030939      11.43339936
Zn      -2.42781785       4.14687307       3.85153875
Zn      -2.70120259       4.16980069      11.57069894
Zn       4.94023257       0.03681023       3.68957426
Zn       4.70856827       0.04591655      11.39759636
Zn       2.53527915       4.16382568       3.73372323
Zn       2.24861651       4.23180231      11.33821793
Zn      -0.00830343       0.04657219       0.01309561
Mg      -0.17875580       0.04272039       7.59601173
Zn      -2.47795814       4.08562886       0.01649216
Zn      -2.66704700       4.12409150       7.67888818
Zn       5.02255609       0.14948922      -0.11838837
Zn       4.88104056       0.08984696       7.46549296
Zn       2.48039922       4.16838239      -0.09822183
Zn       2.38783103       4.15041567       7.45360412
Zn       2.35083130       2.74994648       1.87930619
Zn       2.23072423       2.92772942       9.47703560
Zn       0.05718456       6.91515140       1.88625066
Zn      -0.09324900       6.87043548       9.45909659
Zn       7.42386943       2.91559843       1.63285449
Mg       7.22022783       2.84270663       9.23881697
Zn       4.95337485       6.91134455       1.70510738
Zn       4.77531989       6.94103895       9.36262777
Zn      -1.30518367       3.44998997       5.79002365
Zn      -1.48306570       3.44906422      13.40316439
Zn      -3.78836681       7.55788058       5.88580015
Zn      -4.00248083       7.49917343      13.51205575
Zn       3.60397264       3.56353375       5.55868182
Zn       3.42342962       3.36983372      13.20947882
Zn       1.17213489       7.59966772       5.61622401
Zn       1.02796014       7.56325957      13.33244493
Zn      -0.08049752       1.40497016       5.74032015
Zn      -0.30477949       1.39846374      13.31875974
Zn      -2.52077097       5.45245928       5.72036707
Zn      -2.78379239       5.50182054      13.43997636
Zn       4.83226828       1.48260293       5.45389575
Zn       4.58699510       1.48443248      13.24140860
Zn       2.39006117       5.49246060       5.59388032
Zn       2.22109899       5.52595865      13.30570570
Zn       3.76625579       0.75969330       1.71637773
Zn       3.46821144       0.73323229       9.40728758
Zn       1.23140235       4.71741910       1.84500261
Zn       1.11442005       4.86942885       9.53449980
Zn       8.60704004       0.82729656       1.62338826
Zn       8.41554381       0.84470713       9.32263558
Zn       6.15689676       4.89172020       1.68036523
Zn       6.07898172       4.92495936       9.35444561
Mg       1.21003269       0.67019681       1.85619277
Zn       0.93931453       0.82184178       9.55997109
Zn      -1.14697502       4.75251157       1.89463213
Zn      -1.44347185       4.79988724       9.57979146
Zn       6.11467972       0.69646846       1.73928474
Zn       6.01970038       0.82653757       9.35069698
Zn       3.75684380       4.86845825       1.82648345
Zn       3.53656064       4.83199303       9.41886711
Zn       1.09332977       3.57028949       5.67567050
Zn       0.93712846       3.38057400      13.35277159
Zn      -1.27488376       7.54556140       5.65712454
Zn      -1.42118697       7.58060865      13.38371101
Zn       6.06118733       3.53699814       5.47108225
Zn       5.86228231       3.49000951      13.24329329
Zn       3.61042023       7.64228263       5.60592960
Zn       3.46317011       7.65609024      13.11997161
