95
Lattice="9.492726981348156 0.2091311551522677 0.19074067266155031 -4.771039707089762 8.284724719626874 0.07026809812964513 -0.32203324039241804 -0.6444507892014111 15.807878292344475" Properties=species:S:1:pos:R:3 pbc="T T T"
Mg       2.16003048       1.08637495       7.53827900
Mg       2.09081596       0.84990577      15.37435647
Mg      -0.22448763       5.27735391       7.55074651
Mg      -0.34015482       4.89323426      15.41180129
Mg       6.98821659       1.34235793       7.55054233
Mg       6.74258489       0.97938785      15.59383210
Mg       4.60924912       5.36143069       7.58753300
Mg       4.42071056       5.08054672      15.50491405
Mg      -0.01559209       2.75023265       3.49150486
Mg      -0.22046023       2.22306487      11.49046324
Mg      -2.43515371       6.83129074       3.56013211
Mg      -2.60387134       6.44022743      11.45849009
Mg       4.71228366       2.75180319       3.55715122
Mg       4.52453893       2.34497114      11.43997444
Mg       2.32693518       6.87541427       3.59348016
Mg       2.20149564       6.66348971      11.52836327
Mg       2.31132812       1.31534161       4.51593711
Mg       2.07899428       0.95531677      12.50273189
Mg      -0.06030957       5.39768186       4.53784748
Mg      -0.35967724       5.06640989      12.41365766
Mg       7.03923179       1.35868884       4.62361833
Mg       6.79854182       1.09179914      12.51745861
Mg       4.70031620       5.54683202       4.66975674
Mg       4.51722562       5.14176639      12.59057810
Mg       0.04034365       2.76201668       0.51034717
Mg      -0.24037559       2.44356557       8.54580979
Mg      -2.45877125       6.81172411       0.65917096
Mg      -2.56916524       6.71626571       8.49564410
Mg       4.70584464       2.90342371       0.73008675
Mg       4.58773921       2.54626280       8.59395557
Mg       2.36859949       7.00535443       0.59779860
Mg       2.22304125       6.72638371       8.52978120
Zn       0.03485229      -0.01721307      -0.05302217
Zn      -0.23238041      -0.34788515       7.94622497
Zn      -2.31238996       4.24662156       0.02724380
Zn      -2.63604822       3.85008747       7.93426203
Zn       4.77094201       0.11714893       0.09481345
Zn       4.59926233      -0.22193390       7.92705230
Zn       2.35816430       4.20810806       0.02489905
Zn       2.16973139       3.83117746       8.01976049
Zn      -0.02743816      -0.15299545       3.94718826
Zn      -0.29228258      -0.43436811      11.84217018
Zn      -2.46295205       3.93444899       4.00139187
Zn      -2.70178249       3.62783242      11.92199693
Zn       4.68071735      -0.01174107       4.00315780
Zn       4.56490668      -0.40304181      11.95532357
Zn       2.28602147       4.07226556       4.09819977
Zn       2.11121057       3.74627454      11.95892037
Zn      -0.12204483       1.12349678       5.88830538
Zn      -0.29608051       0.89957201      13.96621401
Zn      -2.49537786       5.36459386       5.99625737
Zn      -2.74655864       5.00860889      13.91851899
Zn       4.66494596       1.25754637       6.05294406
Zn       4.46515021       0.89477861      13.85655334
Zn       2.23952908       5.36224499       6.15198425
Zn       2.10246421       5.05730790      14.05623822
Zn      -1.31728574       3.20954837       5.87818953
Zn      -1.40756446       2.92197401      13.93269556
Zn      -3.68197713       7.31567717       6.07085057
Zn      -3.77079150       7.07348702      13.99192417
Zn       3.22676902       3.05779030      13.95280359
Zn       1.10082166       7.40634850       6.09867341
Zn       0.88087633       7.22460018      14.05500468
Zn       1.03747549       0.68380135       2.00766608
Zn       0.95405227       0.30371428       9.90651442
Zn      -1.19216942       4.80638402       2.13811835
Zn      -1.43118500       4.46404503       9.91408375
Zn       5.84245763       0.70019608       2.08390045
Zn       5.75725687       0.49403119       9.97100421
Zn       3.49729575       4.86530913       2.13532668
Zn       3.41681987       4.52350630      10.04180922
Zn       1.01188784       3.40076309       6.04166078
Zn       0.96879264       2.98454852      13.89610737
Zn      -1.27197250       7.40947350       6.05621519
Zn      -1.49675116       7.05201661      13.94028276
Zn       5.77041621       3.38539233       6.11929098
Zn       5.78168004       2.96290379      13.98811537
Zn       3.45132406       7.61260803       6.13701862
Zn       3.29186753       7.19111318      14.02358951
Zn       2.30787285       2.79062137       2.10848341
Zn       2.12955899       2.40299872      10.01764225
Zn      -0.05975512       6.93789683       2.13011494
Zn      -0.20345611       6.56623635      10.01504061
Zn       7.10586135       2.86221210       2.17818602
Zn       6.86078455       2.52865808      10.07673952
Zn       4.63056783       7.11221675       2.29503045
Zn       4.50553655       6.65664828      10.00331354
Zn       3.49683627       0.74987137       2.05698352
Zn       3.40569554       0.33662168       9.92837083
Zn       1.02949195       4.84452968       2.06058270
Zn       0.96044114       4.49234600       9.92403198
Zn       8.14644603       0.84899957       2.13033309
Zn       8.04240496       0.55953540      10.12312764
Zn       5.85907196       4.89697309       2.18530484
Zn       5.82007721       4.54598276      10.07989492
