93
Lattice="9.809350679621037 -0.08813727995697784 -0.17187445626395031 -5.0957264197620376 8.550101350400496 0.17736190947165148 -0.16448453775327632 -0.000980773174258549 15.69122058960899" Properties=species:S:1:pos:R:3 pbc="T T T"
Mg      -0.12785227       2.81841692       3.45317614
Mg      -0.24883852       2.86543173      11.34453014
Mg      -2.64225057       7.10340924       3.54514749
Mg      -2.76892872       7.12565420      11.43494431
Mg       4.80881870       2.81328095       3.37175857
Mg       4.71807884       2.75741798      11.29074432
Zn       2.20806469       7.00906986       3.51366000
Mg       2.19321423       7.09515660      11.27233456
Mg       2.31360756       1.38598463       7.41011864
Mg       2.23351194       1.40929410      15.10026239
Mg      -0.12364894       5.61367747       7.46277071
Mg      -0.31218372       5.72641635      15.20212407
Mg       7.23626589       1.38062985       7.20393166
Mg       7.16467306       1.31418535      15.16591338
Mg       4.77494715       5.61972458       7.33531905
Mg       4.68197803       5.60734885      15.08014564
Mg       2.41312916       1.43736460       4.40319270
Mg       2.32883943       1.48894518      12.22259075
Mg      -0.22457709       5.64612696       4.50775645
Mg      -0.15222842       5.60706428      12.28431822
Mg       7.26661286       1.38609663       4.26223905
Mg       7.21458514       1.43522606      12.09518610
Mg       4.72539531       5.67064353       4.36763203
Mg       4.56385960       5.60807049      12.25283179
Mg      -0.15283626       2.76171161       0.59432427
Mg      -0.11885157       2.86962664       8.29681439
Mg      -2.64559442       7.09263612       0.52854438
Mg      -2.66545553       7.17302861       8.50084668
Mg       4.89491689       2.79997952       0.32282746
Mg       4.86756068       2.78516637       8.21799836
Mg       2.33970481       7.11565848       0.49241883
Mg       2.20085010       7.07414014       8.36290704
Zn      -0.01813824       0.00379647       3.95826917
Zn      -0.15278518       0.01813062      11.82699341
Zn      -2.61212200       4.32620152       4.01406372
Zn      -2.58223025       4.28477202      11.90642264
Zn       4.91261840      -0.05724002       3.83971199
Zn       4.73865348      -0.07445781      11.62990229
Zn       2.29209450       4.21568651       3.93523545
Zn       2.22224144       4.25495482      11.72768281
Zn      -0.01719581       0.01322489       0.04298979
Zn      -0.09778568      -0.08369324       7.90812872
Zn      -2.67033401       4.17546655       7.95273950
Zn       4.85236852      -0.00392919      -0.16313264
Zn       4.91312128      -0.03562269       7.69809328
Zn       2.23658478       4.19178280      -0.02282128
Zn       2.29544370       4.25494571       7.81508115
Zn       2.41751542       2.85373729       1.90758602
Zn       2.32728722       2.82160837       9.80667602
Zn      -0.11779260       7.08199513       1.99537981
Zn      -0.27912086       7.12452377       9.91510397
Zn       7.25626843       2.76282783       1.87095310
Zn       7.21309590       2.74767828       9.69840561
Zn       4.75351791       6.98074025       1.92421660
Zn      -1.41375884       3.58208619       5.99647232
Zn      -1.47109019       3.59363834      13.73977241
Zn      -3.91978474       7.81334085       6.01796897
Zn      -3.96618481       7.85814237      13.84722615
Zn       3.56447929       3.47967330       5.90782987
Zn       3.43634964       3.50747476      13.69694920
Zn       0.91068475       7.73040808       5.95681378
Zn       0.89542264       7.86059335      13.78342996
Zn      -0.08702432       1.36834300       5.88888565
Zn      -0.15402235       1.47957175      13.71682840
Zn      -2.58117721       5.69532013       5.94812304
Zn      -2.77562915       5.69736692      13.86118335
Zn       4.78576369       1.50246317       5.79122601
Zn       4.76751458       1.38222111      13.64259790
Zn       2.20599713       5.67304968       5.90721087
Zn       2.14280113       5.69609283      13.72194397
Zn       3.59857641       0.72564641       1.83148217
Zn       3.54876587       0.65074778       9.75451105
Zn       1.06391983       4.95788112       2.03710617
Zn       1.06336663       4.93327628       9.81792642
Zn       8.61240898       0.68129231       1.79338467
Zn       8.51924865       0.58486566       9.65754530
Zn       5.97297478       4.95167940       1.89646524
Zn       5.87353371       4.84995404       9.77859560
Zn       1.19806311       0.66534595       2.02003258
Zn      -1.39263236       5.03394820       2.02711602
Zn      -1.47518516       4.98350176       9.89807835
Zn       6.08708896       0.62248652       1.86192233
Zn       6.02523143       0.69236879       9.71418724
Zn       3.60476944       4.85629528       1.99619449
Mg       3.45762358       4.94870097       9.78562046
Zn       1.02636748       3.56676254       5.89075845
Zn       1.07305650       3.52267391      13.74846223
Zn      -1.51019147       7.80351033       6.00515138
Zn      -1.50595971       7.82696322      13.80483310
Zn       5.95764533       3.40113027       5.91578540
Zn       5.92133224       3.42840994      13.67006803
Zn       3.40116365       7.78795379       5.75759487
Zn       3.33137346       7.69862710      13.73987631
