94
Lattice="9.536638506740594 0.09333245006346413 0.1348177100919701 -4.840942331145368 8.197456138795358 -0.2600474249306538 -0.29606644442756413 0.3519653709327713 14.925852123512463" Properties=species:S:1:pos:R:3 pbc="T T T"
Mg       2.20690980       1.45069445       6.97148723
Mg       2.07044411       1.76711175      14.49151384
Mg      -0.09147867       5.66947202       6.81564833
Mg      -0.30653487       5.86290156      14.34778905
Mg       7.04175526       1.70219905       7.02989491
Mg       6.78730660       1.81479515      14.50754907
Zn       4.51244634       5.76963257       6.90848553
Mg       4.45596487       5.82121219      14.49450245
Zn      -0.09342362       2.78760302       3.18781209
Mg      -0.19783886       3.05413894      10.65818426
Mg      -2.48693682       6.94446364       3.08845973
Mg      -2.68909454       7.12899644      10.50330236
Mg       4.67202290       2.85998154       3.37709810
Mg       4.57344775       3.11308899      10.77328470
Mg       2.24473874       7.03904809       3.09894676
Zn       2.05810539       7.15391100      10.63545070
Mg       2.33074175       1.51683277       4.17918547
Mg       2.04806022       1.65501222      11.62572081
Mg      -0.31378752       5.71576659      11.55512106
Mg       7.02182963       1.52224812       4.35688121
Mg       6.91317944       1.78622096      11.68039324
Mg       4.66222399       5.66302170       4.11891732
Mg       4.49750579       5.78211201      11.58014674
Mg      -0.10446351       2.71283250       0.42012930
Mg      -0.20527084       2.92449795       7.80098000
Mg      -2.40819781       6.90833890       0.37158614
Zn      -2.66405603       7.06895865       7.74129750
Mg       4.80086027       2.82133975       0.47759778
Mg       4.58095263       3.01392213       7.91949320
Mg       2.31195850       6.86914124       0.35961800
Mg       2.21852125       7.00946428       7.79884027
Zn       0.09363530      -0.09933802       0.04160937
Zn      -0.11659065       0.24390657       7.46749751
Zn      -2.44313983       4.12178019      -0.21659663
Zn      -2.58568318       4.30969462       7.34600184
Zn       4.75614106       0.08253792       0.08525611
Zn       4.59225040       0.18941531       7.55836277
Mg       2.36987761       4.11646067      -0.14142184
Zn       2.25316713       4.22082892       7.41241094
Zn      -0.12711469       0.17165298       3.80396216
Zn      -0.15622134       0.17565779      11.15015876
Zn      -2.48441189       4.15366938       3.64073102
Zn      -2.58255867       4.39533941      11.06542519
Zn       4.73459409       0.20475032       3.86457902
Zn       4.52103091       0.24104215      11.24955533
Zn       2.31028589       4.18653707       3.58713049
Zn       2.22274836       4.38459212      11.11798360
Zn      -0.08099130       1.47330248       5.59720794
Zn      -0.16912666       1.56402054      13.03340557
Mg      -2.57166900       5.65074502       5.40134528
Zn      -2.50411837       5.76608793      12.96231635
Zn       4.63660664       1.61702198       5.68376244
Zn       4.46033142       1.73384053      13.07858883
Zn       2.17586924       5.68223937       5.49278052
Zn       2.05056849       5.79520018      12.95275211
Zn      -1.34716528       3.58056129       5.53722614
Zn      -1.44132825       3.67749824      12.96625085
Zn      -3.80279010       7.67730040       5.37801999
Zn      -3.89113762       7.83258541      12.86929584
Zn       3.46188271       3.60963860       5.69113707
Zn       3.29840607       3.72857805      12.96651397
Zn       0.98792788       7.70892796       5.37399397
Zn       0.89999781       7.87383450      12.93214130
Zn       1.09051881       0.77297804       1.83293039
Zn       1.00396613       0.96921674       9.31071458
Zn      -1.26560196       4.79143152       1.72302548
Zn      -1.46691998       4.95457334       9.25081825
Zn       5.94805063       0.81061454       1.86842944
Zn       5.75091315       1.05046956       9.36409560
Zn       3.60185683       4.86614190       1.81302460
Zn       3.38125154       5.08526142       9.29982216
Zn       1.04521354       3.53129600       5.52281799
Zn       0.98255800       3.76440589      13.06673258
Zn      -1.43964543       7.68749750       5.39131747
Zn      -1.42566855       7.79638932      12.89241341
Zn       5.82508963       3.61400693       5.67238875
Zn       3.37666641       7.78466823       5.43104226
Zn       3.30139358       7.90169311      12.90947882
Zn       2.29779250       2.78282867       1.74212580
Zn       2.13670332       2.91150247       9.28747863
Mg      -0.05816488       6.97698589       1.66361444
Zn      -0.17975343       7.10536107       9.17063271
Zn       7.16171245       2.82687947       1.83077382
Zn       6.99058442       3.06381314       9.37336615
Mg       4.73621581       6.80373357       1.84561531
Zn       4.52301781       7.17746075       9.15980706
Zn       3.55618043       0.87065000       1.90673848
Zn       3.43883742       0.91123117       9.31850715
Zn       1.13648827       4.78839117       1.73956992
Zn       0.92513674       5.10953612       9.24808715
Zn       8.33577494       0.75330256       2.07282729
Zn       8.17685339       0.97235957       9.45554165
Zn       5.92021056       4.94360654       1.88929465
Zn       5.77650769       5.02478502       9.32664303
