96
Lattice="9.556962198328982 -0.2311593519126109 0.17421544468738517 -4.675506824771086 8.371662560476045 -0.15936199332938578 -0.37147160596884055 -0.3183917642884817 15.124538888855835" Properties=species:S:1:pos:R:3 pbc="T T T"
Mg      -0.02104234       2.79048023       3.34005799
Mg      -0.24254357       2.57816142      10.83049760
Mg      -2.35718445       6.85885350       3.15432671
Mg      -2.68923491       6.71159082      10.75508561
Mg       4.71666308       2.52170798       3.33962107
Mg       4.57081267       2.44775948      10.97096105
Mg       2.36520639       6.60697140       3.39145466
Mg       2.16241650       6.56696194      10.89538934
Mg       2.29607945       1.11871331       7.18094723
Mg       2.00394075       0.98707809      14.67812252
Mg      -0.08985070       5.28618720       7.08414750
Mg      -0.30191656       5.27493561      14.62233296
Mg       6.99770492       1.06130336       7.06453644
Mg       6.72921556       0.84010759      14.74106682
Mg       4.66316093       5.29189122       7.24327399
Mg       4.44341474       5.08259889      14.66979972
Mg       2.31283998       1.23020368       4.31412658
Mg       2.17071262       1.06300996      11.92567760
Mg      -0.12443330       5.41300517       4.13924502
Mg      -0.29731534       5.27941189      11.82128757
Mg       7.10635891       1.07629251       4.42013029
Mg       6.83728559       0.91086249      11.95488481
Mg       4.76866963       5.36713399       4.18899342
Mg       4.53973858       5.14288208      11.78764119
Mg       0.01578342       2.76760879       0.31962433
Mg      -0.17948096       2.64554375       8.04081143
Zn      -2.22414076       6.92795038       0.36244059
Mg      -2.49676985       6.69618490       7.81524328
Mg       4.72275885       2.56611697       0.50823442
Mg       4.63192376       2.43165908       8.02548200
Mg       2.46892460       6.82703195       0.50679583
Mg       2.23613803       6.63664692       8.09790047
Zn      -0.03034385      -0.12013362       3.77796517
Zn      -0.33148802      -0.21894791      11.29608514
Zn      -2.49070221       4.15149247       3.68727169
Zn      -2.70769294       4.01163898      11.25075780
Zn       4.65376257      -0.18677555       3.89524821
Zn       4.44217541      -0.34092287      11.45263362
Zn       2.28201028       3.97253255       3.80607214
Zn       2.19228261       3.85560950      11.24890562
Mg       0.02613866      -0.06510858      -0.04935901
Zn      -0.32389495      -0.11888724       7.58140904
Zn      -2.39107774       4.18702432      -0.11038820
Zn      -2.52378316       4.00468325       7.45211409
Zn       4.76259879      -0.13312963       0.07990301
Zn       4.54417170      -0.26991280       7.56622572
Zn       2.45310861       4.13568972      -0.00987135
Zn       2.21794152       3.95018955       7.58502562
Zn       2.38557078       2.67604123       1.90482340
Zn       2.14781578       2.53515279       9.52644886
Zn       0.10623955       6.81849271       1.86772208
Zn      -0.21539500       6.76664731       9.40521412
Zn       7.21364313       2.60877936       2.05179648
Zn       6.95770684       2.39618032       9.54147291
Zn       4.92595185       6.75230866       1.95807393
Zn       4.59501279       6.58402245       9.42789273
Zn      -1.30446596       3.31623777       5.60403335
Zn      -1.46491387       3.19483727      13.13578973
Zn      -3.62272464       7.54610744       5.54665483
Zn      -3.84580220       7.39440112      13.09406745
Zn       3.54462464       3.21922953       5.69301612
Zn       3.32858058       3.07764699      13.23604489
Zn       1.12219972       7.44014011       5.70305065
Zn       0.95426707       7.28734613      13.16771490
Zn      -0.08981361       1.17183286       5.66328035
Zn      -0.34335000       1.13958292      13.27789735
Zn      -2.42707611       5.48178162       5.54670697
Zn      -2.65843441       5.32855708      13.11901400
Zn       4.57889110       1.18478876       5.72784166
Zn       4.44184193       0.99621697      13.34007573
Zn       2.32505829       5.40442045       5.67365251
Zn       2.12773955       5.15340605      13.20522444
Zn       3.53432993       0.44477681       1.94911488
Zn       3.37705208       0.39427214       9.50924295
Zn       1.19946244       4.76151534       1.94590021
Zn       1.06427973       4.59731102       9.40274553
Zn       8.36312696       0.47800804       2.09692640
Zn       8.14623542       0.34924261       9.57155700
Zn       6.00893204       4.69721355       1.98432051
Zn       5.68346491       4.46343870       9.59065808
Zn       1.11101833       0.63345913       1.99838393
Zn       0.96006681       0.50923887       9.46665370
Zn      -1.18196085       4.82081346       1.88222721
Zn      -1.37333173       4.72651573       9.44430007
Zn       5.89826771       0.51465493       2.06162841
Zn       5.72865098       0.39540698       9.55794231
Zn       3.60163539       4.72351767       1.91750372
Zn       3.44846997       4.51002591       9.43911261
Zn       1.12032309       3.37624286       5.71239113
Zn       0.91904574       3.03473074      13.27237750
Zn      -1.32214103       7.49628274       5.68297243
Zn      -1.38814297       7.35951692      13.15932774
Zn       5.90473619       3.28453258       5.79575847
Zn       5.56171864       3.01492784      13.33796384
Zn       3.50545885       7.31711820       5.74945792
Zn       3.33234982       7.25003534      13.31664069
