95
Lattice="9.969146089344049 -0.29168992025563606 0.16380279203464765 -4.9955055371945045 8.19440625305966 -0.2757467394199478 0.2824354730896828 -0.09629022297632817 15.56183079481715" Properties=species:S:1:pos:R:3 pbc="T T T"
Mg       0.08730383       2.70101279       3.37130961
Mg       0.14837196       2.59055251      11.10490700
Mg      -2.47322338       6.68942628       3.09066142
Mg      -2.35113323       6.67574608      10.90301499
Mg       5.03803129       2.50410420       3.44336632
Mg       5.23600944       2.45295297      11.24151387
Zn       2.57228486       6.60805942       3.32771826
Mg       2.69647040       6.53796774      11.08447079
Mg       2.65190152       1.23123976       7.26108309
Mg       2.70130590       1.12894816      15.10511210
Mg       0.13930630       5.25134568       7.21556900
Mg       0.21707912       5.29767636      14.89855218
Mg       7.62590347       1.14337785       7.43286699
Mg       7.82996923       0.92030908      15.12279968
Mg       5.11995817       5.20568477       7.23899441
Mg       5.29818801       5.20741116      14.96499349
Mg       2.60689382       1.19744828       4.43606162
Mg       2.70853692       1.19922813      12.19929944
Mg       0.09465288       5.33172204       4.22743464
Mg       0.28219064       5.32586524      11.91579382
Mg       7.51861507       1.12174338       4.44460633
Mg       7.65542406       1.09563508      12.23174671
Mg       5.04489012       5.21593063       4.29134864
Zn       5.21259513       5.12241617      11.99864542
Zn      -0.01836657       2.62403330       0.47215394
Mg       0.17412400       2.65964640       8.28061870
Mg      -2.46758685       6.80123960       0.24542217
Mg      -2.36575700       6.70153161       8.10586479
Mg       5.09006445       2.60519678       0.48353598
Mg       5.14228180       2.40025985       8.22229717
Zn       2.49113145       6.59128531       0.23928103
Mg       2.68298755       6.47983761       8.14865633
Mg       0.11590992      -0.03542274       3.96516215
Mg       0.22698912      -0.09210234      11.61981057
Zn      -2.44083662       4.12534367       3.73561995
Zn      -2.26030061       4.01165031      11.59219948
Zn       4.96489583      -0.15343823       3.95782205
Zn       5.13452817      -0.26798004      11.73104876
Zn       2.60548544       3.97786527       3.79540215
Zn       2.74668996       3.88516006      11.57179800
Zn       0.03672512       0.04436345      -0.04843632
Zn       0.09287480      -0.05013197       7.72086044
Zn      -2.50363601       4.15137973      -0.15333890
Zn      -2.35875361       4.04321792       7.71702025
Zn       5.02424663      -0.12422159       0.16865910
Zn       5.09029944      -0.13066236       7.94252701
Zn       2.47695681       3.90344046      -0.00369486
Zn       2.64879905       3.87227165       7.74394055
Zn       2.49521908       2.57144593       2.00358740
Zn       2.69425415       2.53951562       9.66927618
Zn       0.02102900       6.75257921       1.75746684
Zn       0.13400465       6.65343885       9.44445889
Zn       7.60263987       2.38187344       1.99952325
Zn       7.66817103       2.34432694       9.87915172
Zn       4.94896215       6.54815353       1.90804771
Zn       5.12529916       6.41958527       9.67271616
Zn      -1.14182591       3.35531736       5.73785998
Zn      -1.05999361       3.29290871      13.51599882
Mg      -3.65600962       7.39239171       5.50146749
Zn      -3.51858178       7.44183594      13.28402836
Zn       3.87177067       3.18706069       5.87136453
Zn       4.18929536       3.20034580      13.64970358
Zn       1.33857895       7.25845351       5.62424607
Zn       1.42976435       7.33747669      13.48894660
Zn       0.10846547       1.28217930       5.77249235
Zn       0.22703318       1.24646243      13.61966650
Zn      -2.41760255       5.44370299       5.61018624
Zn      -2.19197905       5.32558601      13.40594085
Zn       5.03349939       1.13866038       5.85537848
Zn       5.23976785       1.15790628      13.76430687
Zn       2.52237231       5.28530834       5.74127860
Zn       2.71985915       5.19046804      13.55236444
Zn       3.78007762       0.59101185       1.99064525
Zn       3.93724359       0.52466902       9.74397724
Zn       1.16803062       4.77469717       1.84183071
Zn       1.35441081       4.64108763       9.68411600
Zn       8.81669023       0.47925186       2.11238827
Zn       8.95807518       0.36341134       9.86803237
Zn       6.25771393       4.52072220       1.97090476
Zn       6.38709129       4.41964002       9.69562691
Zn       1.26429813       0.64204515       1.98620754
Zn       1.44971454       0.58974542       9.76097237
Zn      -1.12243528       4.74284599       1.80578712
Zn      -1.06760398       4.63911706       9.65722499
Zn       6.44918117       0.40495633       9.88044840
Zn       3.71679798       4.54288148       1.86227917
Zn       4.01051429       4.52126703       9.75720840
Zn       1.35161095       3.29869312       5.76947226
Zn       1.52105810       3.22208279      13.59797733
Zn      -1.16792040       7.33269834       5.63789646
Zn      -1.00311042       7.37112584      13.48436569
Zn       6.35639748       3.01838461       5.96026501
Zn       6.48149874       3.07726385      13.63290394
Zn       3.81676343       7.28335819       5.77812418
Mg       3.96668256       7.25877976      13.46807967
