95
Lattice="9.938194772572338 0.10618806193903615 0.30281947752158994 -5.1466091941849355 8.48241816581943 -0.2946670403594177 -0.052853202514600975 0.019978566786149694 16.046908160087995" Properties=species:S:1:pos:R:3 pbc="T T T"
Mg      -0.10049448       2.84883161       3.40366996
Mg      -0.10749179       2.94020971      11.48194607
Mg      -2.70026391       7.05729503       3.27024652
Mg      -2.67431032       7.19666706      11.32591100
Mg       4.91633164       3.02402170       3.61963427
Mg       4.88272528       2.85225036      11.69823330
Mg       2.28371423       7.17698560       3.43082302
Mg       2.36231914       7.12094307      11.39028288
Mg       2.48183336       1.50801300       7.63095794
Mg       2.41069828       1.48010358      15.58247829
Zn      -0.14968596       5.67177903       7.48608611
Mg      -0.16401133       5.66861137      15.48961579
Mg       7.43924962       1.54931302       7.66290598
Mg       7.39673158       1.46023852      15.82562712
Mg       4.84161036       5.76284872       7.56397909
Mg       4.75164739       5.71571751      15.55226707
Zn       2.48702855       1.37898799       4.51233244
Mg       2.50823261       1.42946852      12.71066864
Mg      -0.16139048       5.72601762       4.35890101
Mg      -0.17750876       5.62973898      12.44909168
Mg       7.47055386       1.48803991       4.69585909
Mg       7.36826744       1.55327747      12.72602509
Mg       4.70966161       5.78384014       4.60248021
Mg       4.76037954       5.70793222      12.51143355
Mg      -0.12970750       2.84056002       0.50299441
Mg      -0.08030130       2.80951563       8.41730657
Mg      -2.61904668       7.12744535       0.36071837
Mg      -2.68285759       7.11771631       8.26680792
Mg       4.94718474       2.88118076       0.55176282
Mg       4.89038725       2.91448334       8.61659866
Mg       2.26822923       7.21696146       0.50796517
Mg       2.34337818       7.17278070       8.48707766
Zn       0.00232115       0.04501606      11.96696256
Zn      -2.54885153       4.26411578       3.82299114
Zn      -2.65960936       4.35906175      11.91506463
Zn       4.97672354       0.07655937       4.10249923
Zn       4.96977138       0.06860919      12.22676937
Zn       2.42985169       4.25177976       4.12920225
Zn       2.30456774       4.34803400      11.99947489
Zn      -0.00658349      -0.03441661      -0.04253427
Zn       0.02745992       0.03545829       8.00781952
Zn      -2.48999691       4.25012514      -0.14998591
Zn      -2.61464934       4.27832777       7.83694865
Zn       4.92924978       0.09871874       0.11278484
Zn       4.96413438       0.02954157       8.16721385
Mg       2.43107826       4.38796215       0.02561421
Zn       2.24574892       4.27058070       7.96560348
Zn       2.36629283       2.81699475       2.02009809
Zn       2.36460506       2.86636591      10.08090567
Zn      -0.19102517       7.15911222       1.88556137
Zn      -0.23740634       7.12211899       9.90072683
Zn       7.36541288       2.93300169       2.13331837
Mg       7.27792709       2.92959801      10.25388065
Zn       4.77775160       7.18050327       2.08670346
Zn       4.75735618       7.22438286      10.08939509
Zn      -1.33438481       3.49585317       5.95262991
Zn      -1.29858745       3.56510911      13.91135356
Zn      -3.93216303       7.75546335       5.76298887
Zn      -3.92698735       7.81100761      13.91329064
Zn       3.59103924       3.67589190       6.11966024
Zn       3.53093028       3.60261052      14.17309605
Zn       1.03010370       7.76448649       5.88278004
Zn       1.01357819       7.78305641      13.96060864
Zn      -0.11757749       1.51173710       5.91131502
Zn      -0.02296944       1.41916686      14.06945305
Zn      -2.55095900       5.67965630       5.82918550
Zn      -2.72251256       5.69696042      13.88142970
Zn       4.97363561       1.50846767       6.15044806
Zn       4.80672631       1.52128297      14.20134043
Zn       2.29950371       5.81631270       5.98822989
Zn       2.30802380       5.71783858      14.07483052
Zn       3.68235005       0.70653576       2.14979864
Zn       3.68602680       0.79842537      10.18554788
Zn       1.19425590       5.00263165       1.95848270
Zn       1.04927968       5.00204760       9.97595857
Zn       8.65831677       0.74028748       2.30761395
Zn       8.63955271       0.88820967      10.30581930
Zn       6.09513987       5.12152609       2.17812125
Zn       6.01711308       4.98125658      10.17529344
Zn       1.24024841       0.71607655       1.87765223
Zn       1.31844476       0.73918570      10.01918439
Zn      -1.32107674       4.95243519       1.90052372
Zn      -1.39557792       4.96071483       9.83771668
Zn       6.27061233       0.70940410       2.21791534
Zn       6.09082698       0.67549021      10.25076643
Zn       3.64842158       4.97090015       1.97283498
Zn       3.61423669       4.94839956      10.11920769
Zn       1.22122653       3.52332543       5.96662305
Zn       1.06211085       3.67517313      13.98150864
Zn      -1.33609246       7.86588174       5.84596923
Zn      -1.41857013       7.88856443      13.78310075
Zn       6.19099154       3.51484396       6.13424548
Zn       6.03236471       3.55862301      14.09364248
Zn       3.56990902       7.76771766       6.06412613
Zn       3.53400119       7.86735877      14.01165833
