96
Lattice="9.933809715718466 -0.03587285854729877 -0.0466041427751538 -4.801176731491331 8.457999756323215 -0.17881836663952919 0.013435359015914741 0.7214208234819223 15.771757283590805" Properties=species:S:1:pos:R:3 pbc="T T T"
Mg       0.06670433       2.96829545       3.30186658
Mg       0.07656231       3.44379647      11.17181529
Mg      -2.40650435       7.09539414       3.30498167
Mg      -2.33577999       7.57608340      11.17728958
Mg       4.98534565       2.96683078       3.33524200
Mg       4.98405858       3.42417871      11.18572284
Zn       2.59590934       7.18762866       3.23344312
Mg       2.71382441       7.49998720      11.23329456
Mg       2.49853731       1.73733496       7.35942104
Mg       2.55007026       2.15563720      15.20370402
Zn       0.13054955       6.04574203       7.16926036
Mg       0.17550057       6.31853732      15.16246612
Zn       7.39418625       1.67037851       7.29233007
Mg       7.57437278       2.09944035      15.22468786
Mg       5.09575609       5.93401045       7.22958932
Mg       5.01238814       6.19279319      15.11283519
Mg       2.46199464       1.71736340       4.42929814
Mg       2.49362639       2.00093791      12.22867493
Mg       0.17722504       5.83991402       4.36641150
Mg       0.08059065       6.17526596      12.10556928
Mg       7.47798347       1.57766725       4.31219474
Mg       7.47414867       1.95676742      12.30573207
Mg       5.01260735       5.89112101       4.29349749
Mg       5.05513352       6.17198376      12.12037049
Mg      -0.01611808       2.89039433       0.44952598
Mg       0.12063837       3.14744005       8.22056629
Zn      -2.37078737       7.09753626       0.48509715
Mg      -2.36758675       7.41686401       8.26290721
Mg       5.04489516       2.86793232       0.32629383
Mg       5.01698827       3.16415113       8.30370820
Mg       2.56562584       7.03826248       0.35217196
Mg       2.64727244       7.43678677       8.20147332
Zn       0.06730800       0.25006418       3.96355625
Zn       0.05116831       0.43238881      11.82164764
Zn      -2.44028518       4.44714150       3.85193890
Zn      -2.34429463       4.75769044      11.71771603
Zn       4.97417114       0.20907849       3.89017284
Zn       4.97736707       0.54280146      11.76750376
Zn       2.57370545       4.38101600       3.81074377
Mg       2.57127239       4.79290602      11.71372787
Zn      -0.11288564      -0.03707557       0.05028277
Zn       0.00952944       0.35728606       7.93835033
Zn      -2.32597711       4.21694526      -0.05873865
Zn      -2.47061669       4.54341502       7.71896282
Zn       4.96107839      -0.03364305       0.00212776
Zn       4.92226092       0.38680116       7.93483724
Zn       2.51743131       4.21955179      -0.18937554
Zn       2.57875753       4.66026475       7.79190163
Zn       2.51907126       2.85530465       1.87894587
Zn       2.53262264       3.21268662       9.78677760
Zn       0.17385941       7.11957938       1.79700175
Zn       0.11135993       7.49898577       9.71965827
Zn       7.48376389       2.93576356       1.87682359
Zn       7.45083701       3.11572643       9.74378345
Zn       5.11848968       7.08970194       1.73350157
Zn       5.24080449       7.35683777       9.59995297
Zn      -1.15111253       3.81354966       5.86335494
Mg      -1.22747647       4.16283278      13.79786112
Zn      -3.57990717       7.98783616       5.71023166
Zn      -3.58069961       8.31249045      13.63292391
Mg       3.84772793       3.79537258       5.74000574
Zn       3.87483480       4.00937375      13.64754320
Zn       1.36383875       7.99522092       5.70896811
Zn       1.40395963       8.34108161      13.61638610
Zn       0.01873894       1.56528724       5.86287848
Zn      -0.04753089       2.08903008      13.74170193
Zn      -2.30158173       5.93146036       5.78479118
Zn      -2.31780481       6.28162640      13.71431075
Zn       5.02551128       1.69871205       5.86997714
Zn       5.05240545       2.02736676      13.71573119
Zn       2.61378455       5.89147681       5.86320602
Zn       2.63235025       6.22640555      13.71385059
Zn       3.66477568       0.73717683       1.95777431
Zn       3.62225211       1.14861290       9.80438041
Zn       1.32938060       5.06634289       1.91804052
Zn       1.30502092       5.27710810       9.69782311
Zn       8.79198133       0.74200432       1.87928201
Zn       8.71319317       1.07948858       9.76133774
Zn       6.33086253       4.96643640       1.81157108
Zn       6.22155766       5.32157230       9.70350831
Zn       1.22041406       0.75162772       1.84195963
Zn       1.19939516       1.12759153       9.82362691
Zn      -1.12913790       4.94502593       1.89064662
Zn      -1.08589625       5.34293107       9.81733459
Zn       6.29895588       0.73399117       1.96310987
Zn       6.12163345       1.20855397       9.84004424
Zn       3.77550143       5.04177165       1.84214275
Zn       3.77176649       5.34066653       9.74079769
Zn       1.27088617       3.77357851       5.82099868
Mg       1.30713357       4.18551146      13.68686204
Zn      -0.99816319       8.02171452       5.70966645
Zn      -1.11793696       8.41172550      13.65972832
Zn       6.24945415       3.77978113       5.72665750
Zn       6.28577257       4.03991438      13.66812026
Zn       3.86215337       8.01335125       5.74141904
Zn       3.78732921       8.34154146      13.53782523
