96
Lattice="9.991640105350202 -0.052739265330935564 -0.31611592501477015 -5.127295058482393 8.351175064368679 0.21160380041299157 0.024928905953975032 -0.3191014736793073 15.637413990465165" Properties=species:S:1:pos:R:3 pbc="T T T"
Mg       2.49043319       1.15898808       7.26668798
Mg       2.55808911       1.14781018      14.97402111
Mg       0.00994983       5.37403852       7.41463262
Mg      -0.09878756       5.18231671      15.13372552
Mg       7.43467662       1.20004394       7.09359776
Mg       7.51244342       1.02807289      14.93410689
Zn       4.92490708       5.46633150       7.20807086
Mg       5.01449403       5.27766722      14.96709279
Zn       0.01953201       2.62015600       3.52376981
Mg      -0.04495778       2.52281596      11.19273356
Mg      -2.61641883       6.92811342       3.58250644
Mg      -2.59543150       6.79523696      11.40131259
Mg       4.86551681       2.70574327       3.30183666
Mg       5.00560052       2.49523563      11.12973734
Mg       2.46887792       6.82947090       3.37702628
Mg       2.33769224       6.70305658      11.20580549
Mg       2.48482660       1.32739437       4.40550593
Mg       2.52329995       1.17375976      12.16608653
Mg      -0.08396356       5.49972061       4.45816788
Mg      -0.12640821       5.37511528      12.27152785
Mg       7.45738351       1.26075085       4.15459500
Mg       7.49238039       1.14343837      11.98417292
Mg       4.93572372       5.47238613       4.17628585
Mg       4.86363479       5.22803651      12.04425437
Mg       0.01573225       2.78732240       0.52318040
Mg      -0.09838447       2.58366777       8.33761383
Mg      -2.53800397       6.90530185       0.54019779
Mg      -2.64960170       6.78616578       8.42061706
Mg       4.93351121       2.79592708       0.40367114
Mg       4.93861349       2.57923330       8.01002610
Mg       2.36876322       6.86322083       0.46262707
Zn       2.38274871       6.69972847       8.28701632
Mg      -0.11820291       0.03190190       0.00569441
Zn      -0.04050946      -0.17381988       7.72500237
Zn      -2.49939242       4.15296028       0.05874158
Zn      -2.54649862       4.00645531       8.00591349
Zn       4.96346557       0.03230510      -0.18030863
Zn       4.99100377      -0.18424789       7.70225368
Zn       2.48311681       4.17814979      -0.00112185
Zn       2.51694135       3.96414056       7.81670362
Mg      -0.05746568      -0.07335112       3.92280880
Zn       0.05374181      -0.23060969      11.72660879
Zn      -2.56844524       4.02967804       3.94539602
Zn      -2.60812328       3.93301131      11.80264127
Zn       4.98893388      -0.10565223       3.72473751
Zn       4.97291803      -0.32306659      11.57364892
Zn       2.35267044       4.05021673       3.88607355
Zn       2.49401478       3.89839538      11.64396176
Zn      -0.04063607       1.22574107       5.82183218
Zn       0.02481780       1.07445525      13.66641014
Zn      -2.57078540       5.51889268       5.97965716
Zn      -2.51676574       5.27185686      13.78834225
Zn       4.90431432       1.23168495       5.75145203
Zn       4.99768201       1.09669748      13.57759326
Zn       2.41733957       5.45551510       5.83040918
Zn       2.46740519       5.18149290      13.62537187
Zn      -1.32297554       3.44177215       5.89105103
Zn      -1.33673968       3.22972410      13.70719886
Zn      -3.89555745       7.52358940       5.95146232
Zn      -3.87589915       7.38549800      13.77074536
Zn       3.78005708       3.37976522       5.70069844
Zn       3.76260582       3.24714726      13.49973300
Zn       1.09613989       7.53356768       5.85578907
Zn       1.14237977       7.24707874      13.62387221
Zn       1.23896497       0.63290669       1.95439177
Zn       1.29918750       0.49281617       9.78179238
Zn      -1.25394212       4.86513250       2.05366285
Zn      -1.29747423       4.70844681       9.89596278
Zn       6.25654688       0.62338251       1.70783326
Zn       6.16377130       0.49425502       9.55466412
Mg       3.77370096       4.73310613       1.72688466
Zn       3.72279826       4.62135193       9.76521447
Zn       1.23609260       3.38531397       5.79416300
Zn       1.22947319       3.16444929      13.64835163
Zn      -1.36346311       7.51970383       5.96820356
Zn      -1.29474358       7.30034393      13.85117595
Zn       6.18358292       3.35110091       5.66704732
Zn       6.19561719       3.12405151      13.50452983
Zn       3.66612474       7.46449118       5.78182736
Zn       3.67848600       7.31655758      13.58579012
Zn       2.53930068       2.69286870       1.94346750
Zn       2.45188171       2.61157604       9.73778706
Zn      -0.11456751       6.84634614       2.03999360
Zn      -0.10965104       6.75733122       9.76250082
Zn       7.42218418       2.66308660       1.73033471
Zn       7.41833879       2.45794884       9.52725664
Zn       4.82194344       6.86884330       1.76565245
Zn       4.92393692       6.71592314       9.64717234
Zn       3.66839136       0.71558028       1.78933605
Zn       3.75606628       0.47811505       9.65334185
Zn       1.19283697       4.70813972       1.92090873
Zn       1.15184960       4.66692060       9.77211131
Zn       8.69093840       0.62386664       1.71555862
Zn       8.77957655       0.50141836       9.50019286
Zn       6.16439735       4.73502755       1.79275618
Zn       6.23308350       4.72826114       9.60596625
