94
Lattice="9.434130293343646 -0.36197306100394316 -0.3502272280115084 -4.4698318011851965 8.91200876477992 0.19425455939925304 0.22595478572627117 -0.12497542821246356 15.695083760310558" Properties=species:S:1:pos:R:3 pbc="T T T"
Mg       2.44323794       1.37849170       7.27546193
Mg       2.59432225       1.12689508      15.09847407
Mg       0.27886154       5.76086660       7.39105522
Mg       0.43486088       5.63613142      15.15531377
Mg       7.28179174       1.06776753       7.04849752
Mg       7.26941996       0.92289555      14.89185266
Mg       4.97557066       5.54857780       7.21959205
Mg       5.08236320       5.46524820      14.96321553
Mg       0.13935259       2.86697373       3.43069157
Mg       0.14034713       2.83738629      11.28932986
Mg      -2.07392767       7.24386029       3.53949113
Mg      -2.02032776       7.27266139      11.41726301
Mg       4.86725028       2.58510658       3.22777431
Mg       4.97967211       2.64522433      11.15172877
Mg       2.67621333       7.03712440       3.41169952
Mg       2.78782203       7.10165814      11.26479894
Mg       2.39983253       1.41462727       4.29951098
Mg       2.53959616       1.30781734      12.21475795
Mg       0.22917899       5.76172415       4.42383830
Mg       0.40776650       5.76013314      12.24412280
Mg       7.16683325       1.24691769       4.29297669
Mg       7.26954667       1.10055441      12.01916580
Mg       4.92252545       5.54167497       4.24086275
Mg       5.01099701       5.57616998      12.10012814
Mg       0.06278038       2.94506083       0.48604912
Zn       0.18339622       2.82181999       8.31073214
Zn      -2.21904044       7.41740020       0.57551875
Mg      -2.00237279       7.21074939       8.49056413
Mg       4.80553120       2.64596942       0.32223462
Mg       4.88753875       2.60377991       8.12603573
Mg       2.54671327       7.14226343       0.45712348
Mg       2.62770246       7.11326848       8.27911817
Zn      -0.02429777      -0.05581986       0.03564569
Zn      -2.20765707       4.44018015       0.08141475
Zn      -2.15197395       4.38814165       7.94336333
Zn       4.69422529      -0.20629283      -0.10965066
Zn       2.51409632       4.29114826      -0.13172391
Zn       2.59109570       4.17932862       7.74275776
Zn      -0.05884082       0.01735480       3.90038383
Zn       0.20978289      -0.05830128      11.67132373
Zn      -2.30489990       4.39109261       4.09195339
Zn      -2.11409670       4.39282778      11.75089575
Zn       4.72817536      -0.22365442       3.76226560
Zn       4.91314693      -0.33401970      11.57760157
Zn       2.55233725       4.25052087       3.87484192
Zn       2.58402627       4.11439939      11.65246830
Zn       0.12585254       1.31030130       5.92347992
Zn       0.21497200       1.43312427      13.67786554
Zn      -2.23803774       5.83227827       5.97014619
Zn      -1.97567816       5.85909381      13.83279507
Zn       4.83304719       1.11658813       5.66946462
Zn       4.86927159       1.12983201      13.65461070
Zn       2.63558420       5.67794978       5.76644275
Zn       2.74787168       5.62714170      13.60547337
Zn      -0.98003810       3.56994940       5.92329491
Zn      -0.92653736       3.47877935      13.69443482
Zn      -3.19447396       8.03408907       6.04582558
Zn      -3.05615828       7.99422798      13.92798609
Zn       3.75831800       3.44280792       5.75707235
Zn       3.94403695       3.42004960      13.53936885
Zn       1.44431558       7.88257996       5.81325284
Zn       1.53524830       7.80270175      13.80343169
Zn       1.24849577       0.69481326       1.89805347
Zn       1.33688191       0.63876347       9.67353676
Zn      -1.06266239       5.08692721       2.07180141
Zn      -0.86996980       5.01610982       9.89895793
Zn       6.05684789       0.50203649       1.71874087
Zn       6.03624722       0.36692602       9.57469815
Zn       3.77633706       4.96440370       1.86237627
Zn       3.77945234       4.93646567       9.76752331
Zn       1.39897484       3.59064102       5.80405609
Zn       1.53345933       3.50355745      13.78804685
Zn      -0.91356677       8.04876634       5.89189791
Zn      -0.83320186       7.92954273      13.77244991
Zn       6.02781202       3.34339231       5.70658525
Zn       6.17335084       3.34194532      13.50857020
Zn       3.89456742       7.75821270       5.67447391
Zn       3.98768111       7.74270576      13.56385111
Zn       2.48989884       2.75394138       1.92162764
Zn       2.62994010       2.74101751       9.78405815
Zn       0.29069011       7.29454298       1.99483228
Zn       0.36669345       7.12575947       9.78371236
Zn       7.23673573       2.62706800       1.77721843
Zn       7.34027420       2.61480298       9.63440195
Zn       5.03053395       6.98328746       1.74633908
Zn       5.03008511       7.01307716       9.68928216
Zn       3.65725480       0.56624760       1.81991272
Zn       3.66171603       0.50998595       9.67911486
Mg       1.37787103       4.94519402       1.89884770
Zn       1.45856909       4.99364382       9.77512543
Mg       8.27670088       0.46473071       1.53810948
Zn       8.43491079       0.38490459       9.47776802
Zn       6.07718139       4.90923934       1.75955410
Zn       6.16423064       4.90321417       9.60954586
