95
Lattice="9.61233260305392 0.15681787129263103 -0.2889450618378586 -4.802356485455376 8.314017557046922 0.013881032898121771 -0.14089939437865898 -0.6259295996397078 16.11968325276145" Properties=species:S:1:pos:R:3 pbc="T T T"
Mg       0.00599607       2.63567788       3.49521665
Mg      -0.09731575       2.38186507      11.53715859
Mg      -2.39803616       6.85601382       3.49196258
Mg      -2.55751459       6.56336671      11.55960905
Zn       4.77389435       2.84045062       3.31627529
Mg       4.66713459       2.39248452      11.47030452
Zn       2.48925561       6.87626983       3.27571804
Mg       2.33293515       6.58128984      11.42749277
Mg       2.25541262       1.14171089       7.46780986
Mg       2.29151606       0.80882509      15.53207317
Mg      -0.05231411       5.28164364       7.51102642
Zn      -0.17708715       4.93004376      15.50520818
Mg       7.13481349       1.15725459       7.44001197
Mg       7.01505579       0.97210034      15.39748509
Mg       4.77123883       5.41647322       7.40249147
Mg       4.74045666       5.18936232      15.35438032
Mg       2.33815103       1.27406563       4.40008003
Mg       2.38467305       0.93408822      12.39907112
Mg      -0.02783143       5.40236084       4.45506148
Mg      -0.09249335       5.02275463      12.49922344
Mg       7.19956777       1.37678133       4.33051956
Mg       7.08803263       1.03432155      12.44210957
Mg       4.79939219       5.46412598       4.29246752
Mg       4.63336995       5.21976893      12.40554271
Mg      -0.04274727       2.73770342       0.49144072
Mg      -0.05170832       2.42860387       8.45945903
Mg      -2.52093577       7.00393307       0.37751046
Mg      -2.48127272       6.73656821       8.57667746
Mg       4.79836674       2.84188619       0.34920893
Mg       4.78266147       2.58939305       8.42566483
Mg       2.45646323       6.98711473       0.32523501
Mg       2.29231569       6.67418465       8.42436230
Zn       0.00162125      -0.12628678       4.04409788
Zn      -0.08764491      -0.53999903      12.15701134
Zn      -2.48239704       4.05268836       3.99275760
Zn      -2.47057008       3.71407928      12.06298516
Zn       4.79822606      -0.03472725       3.91717709
Zn       4.69867557      -0.36787422      11.89756744
Zn       2.32944418       4.07890892       3.95043171
Zn       2.25226064       3.70357407      11.98731040
Zn       0.03749112       0.01088188      -0.02953390
Zn      -0.15661729      -0.24510420       8.05131343
Zn      -2.43445730       4.19789235      -0.02696892
Mg      -2.46321244       3.92555223       7.99348730
Zn       4.74452079       0.08547468      -0.08786159
Zn       4.81108896      -0.26067831       7.81985009
Zn       2.40403772       4.22324778      -0.17006622
Zn       2.36135943       3.90491615       7.90849894
Zn       2.47115351       2.81399928       1.83036379
Zn       2.29032720       2.33986177       9.93784004
Mg       0.04768265       6.92998251       1.95800801
Zn      -0.04464569       6.59389557      10.06618583
Zn       7.19664003       2.83333072       1.79703158
Zn       7.09944691       2.52461115       9.76396140
Zn       4.71783985       6.89142739       1.83907554
Zn       4.68674890       6.60702798       9.84122251
Zn      -1.32204845       3.30167160       6.03530000
Zn      -1.25568607       2.90733590      14.02311265
Zn      -3.59477749       7.36960820       6.09154742
Zn      -3.68230204       7.01285063      13.97395537
Zn       3.50481805       3.39235813       5.84265634
Zn       1.04642378       7.42265933       5.84312866
Zn       1.08912497       7.14218570      13.96092385
Zn       0.00855399       1.17449673       5.97396976
Zn      -0.12478036       0.91439649      14.10392827
Zn      -2.39353343       5.41791663       6.00442200
Zn      -2.50307699       4.90608651      14.08297378
Zn       4.75144308       1.18977299       5.94617992
Zn       4.75086984       1.00279314      13.94534277
Zn       2.33006212       5.45729439       5.87753149
Zn       2.25878793       5.11307033      13.93347339
Zn       3.56108850       0.74116073       1.88536967
Zn       3.44619158       0.33216815      10.00386038
Mg       1.18453905       4.88992111       1.88049468
Zn       1.12330863       4.54838764       9.85208382
Zn       8.32321628       0.84446225       1.73205874
Zn       8.28320758       0.39117325       9.80793256
Zn       5.91389257       4.86216185       1.76613703
Zn       5.94001024       4.60337353       9.79460588
Zn       1.09640505       0.59295548       1.97051376
Zn       1.07647300       0.34716018       9.98149016
Zn      -1.23009605       4.85887892       1.99693964
Zn      -1.25034826       4.49702043       9.99877184
Zn       6.00600052       0.69646554       1.83890083
Zn       6.01391153       0.45322517       9.87083241
Zn       3.56519260       4.99733376       1.74731352
Zn       3.60904996       4.51572187       9.94178225
Zn       1.09088424       3.18399146       5.91435737
Zn       1.05767534       2.88943720      14.06978221
Zn      -1.24239706       7.37186592       6.01706708
Zn      -1.34673772       7.03179941      14.01909628
Zn       6.01666844       3.29913110       5.74094822
Zn       5.82704273       3.07844710      13.91559213
Zn       3.42515483       7.55597026       5.87346236
Zn       3.52084065       7.17712026      13.86618357
