96
Lattice="9.448725127520031 0.053876713945503606 -0.024692031816344082 -4.799531797567447 8.267641862140358 0.08734455154232346 0.18169109149873283 0.21863894579664894 16.159335974152214" Properties=species:S:1:pos:R:3 pbc="T T T"
Mg      -0.02483984       2.81447678       3.66520652
Mg       0.10791361       2.94773779      11.58132808
Mg      -2.36852753       6.91979317       3.60945446
Mg      -2.33150321       7.14595096      11.72893006
Mg       4.78523148       2.83935789       3.49585064
Mg       4.85415012       2.93760091      11.58877429
Mg       2.35362727       6.92280531       3.66523035
Mg       2.44196993       7.12604879      11.69947030
Zn       2.50078029       1.48962254       7.50862193
Mg       2.56609978       1.61758806      15.65424568
Mg       0.04235916       5.59253846       7.55480831
Mg       0.04420708       5.71943007      15.65891287
Mg       7.13306513       1.57716187       7.52071994
Mg       7.25443408       1.64602284      15.56541843
Mg       4.77093615       5.69134820       7.59271918
Mg       4.79829424       5.82178649      15.63583062
Mg       2.40407270       1.52013938       4.57317513
Mg       2.44280881       1.61461065      12.58502471
Zn      -0.06417171       5.51892273       4.54289003
Mg       0.02180255       5.69933291      12.79881623
Mg       7.18167003       1.51498522       4.51052439
Mg       7.22115303       1.65408426      12.64900765
Zn       4.62621213       5.57001966       4.54548408
Mg       4.77590370       5.74978164      12.67160765
Mg      -0.01715082       2.77083665       0.52106256
Mg       0.13627925       2.87141011       8.66960013
Mg      -2.48624174       6.95988094       0.59980481
Mg      -2.29435728       7.07166914       8.67913336
Mg       4.71958315       2.87180709       0.53055131
Mg       4.82698829       2.89404154       8.64353616
Mg       2.34565620       6.88654689       0.46744462
Mg       2.35898656       7.06653992       8.64602425
Zn       0.04605534       0.19346303       4.08318161
Zn       0.17870341       0.17857637      12.05805087
Zn      -2.34977422       4.14362499       4.07640372
Zn      -2.30120912       4.27710829      12.21871431
Zn       4.76560373       0.07534713       4.10515321
Zn       4.77316017       0.12988472      12.16313864
Zn       2.45213605       4.15812642       3.95426923
Zn       2.43393519       4.31184936      12.14311300
Zn      -0.10525439       0.01213999      -0.02164637
Zn       0.14088254       0.11324568       7.99664676
Zn      -2.39321960       4.22613014       0.02442580
Mg      -2.37454263       4.19028153       8.09601590
Zn       4.73702580      -0.01491320       0.06314650
Zn       4.74792948       0.10692065       8.08108877
Zn       2.36256974       4.10113620       0.09048086
Zn       2.35058849       4.31390763       8.08744063
Zn       2.39446342       2.86095073       1.96035252
Zn       2.48053506       2.87305790      10.15522891
Zn      -0.02105538       6.97676259       2.00981665
Zn       0.01539032       7.02815372      10.14306451
Zn       7.09766167       2.84450842       2.01728224
Zn       7.20944311       2.90564080      10.08802227
Zn       4.71507907       6.89372858       2.14241326
Mg       4.73726539       7.04919569      10.18267065
Zn      -1.21772613       3.51659898       6.03999648
Zn      -1.10744389       3.65919651      14.21593877
Zn      -3.48532926       7.73070946       6.14516309
Zn      -3.51450788       7.73054881      14.18275765
Zn       3.48437489       3.56294617       6.06174402
Zn       3.59087825       3.72802072      14.19832753
Zn       1.11942789       7.69648521       6.11371008
Mg       1.33388093       7.80044832      14.24326240
Zn       0.09199959       1.47548838       6.04920982
Zn       0.12644642       1.50480876      14.24493171
Zn      -2.33012027       5.61971351       6.12635480
Zn      -2.19463018       5.73393471      14.18659002
Zn       4.81626942       1.60596840       6.08044332
Zn       4.77759670       1.61044211      14.18306127
Zn       2.34197972       5.59889371       6.10647316
Zn       2.42950231       5.80558947      14.24327144
Zn       3.57783914       0.71042041       2.04887145
Zn       3.69867491       0.77599808       9.98180794
Zn       1.16043363       4.88942295       2.06353028
Zn       1.29254700       4.93973884      10.14992868
Zn       8.26233737       0.71270205       1.96906454
Zn       8.31205018       0.79229418      10.12337684
Zn       5.86363146       4.91550312       2.06173612
Zn       5.95958313       5.09683376      10.13695773
Zn       1.22840514       0.74764108       1.92665393
Zn       1.27646632       0.79721239      10.16918389
Zn      -1.15911204       4.77899655       2.03733077
Zn      -1.11870865       5.03629542      10.14584229
Zn       5.90736074       0.75440851       2.00131722
Zn       6.06407153       0.84299339      10.01216936
Zn       3.49159441       4.83892296       2.13073154
Zn       3.62953652       5.05580440      10.18237774
Zn       1.24282913       3.52071401       6.05528677
Zn       1.33001935       3.60834415      14.17204312
Zn      -1.21796016       7.60880517       6.07614698
Zn      -1.09034063       7.83651375      14.25010688
Zn       6.00173957       3.56740839       6.11528100
Zn       6.08041596       3.76426090      14.07122252
Zn       3.61310752       7.73981972       6.05939454
Zn       3.59893030       7.80425467      14.17490820
