96
Lattice="9.874031604401356 -0.32698373833419314 -0.26856510731181865 -4.994851940591379 8.635495926330012 0.08191870718644552 -0.28235473304749276 0.1352793178788473 15.840945003257312" Properties=species:S:1:pos:R:3 pbc="T T T"
Mg      -0.00819427       2.84040530       3.43119109
Mg      -0.16387270       2.95681964      11.30158557
Mg      -2.63225995       7.20031283       3.37860579
Mg      -2.73754746       7.22320864      11.40978038
Mg       4.96445002       2.73664956       3.33271599
Zn       4.76145264       2.82448184      11.23677519
Mg       2.33446506       7.00339993       3.39886299
Mg       2.20133180       7.03188656      11.30194258
Mg       2.34919364       1.38430651       7.38243764
Mg       2.11325112       1.42891158      15.29608089
Mg      -0.19193233       5.75396918       7.33087900
Mg      -0.34394966       5.73817564      15.34850260
Mg       7.24847156       1.23737570       7.16733596
Mg       7.24211931       1.30338924      15.17072535
Mg       4.81157651       5.52608652       7.28688712
Mg       4.71882267       5.62824402      15.15003051
Mg       2.31867178       1.42000733       4.34128203
Mg       2.22181167       1.53358378      12.28862202
Mg       0.03254581       5.65657190       4.45499340
Mg      -0.22104676       5.83128642      12.31735061
Mg       7.30293172       1.23017514       4.23032857
Mg       7.29778749       1.24342139      12.13504734
Mg       4.85553428       5.57917783       4.21126304
Mg       4.72886874       5.55088529      12.13113753
Mg      -0.04710135       2.81252724       0.47602850
Mg      -0.14341133       2.93295708       8.44239440
Mg      -2.52656441       7.14835136       0.54825928
Mg      -2.74126692       7.09233575       8.41211537
Mg       4.86238039       2.56418927       0.33807242
Mg       4.82003612       2.73645999       8.30380539
Mg       2.43152126       7.00005409       0.31865155
Mg       2.33083413       7.13038048       8.33834414
Zn      -0.11716678      -0.00429867       3.89156473
Zn      -0.20677253       0.11086550      11.90034740
Zn      -2.66962918       4.35753266       3.99639584
Zn      -2.73477319       4.37209985      11.91470141
Zn       4.86004761      -0.12557598       3.84145012
Zn       4.82534612      -0.14154615      11.71122153
Zn       2.34225495       4.16514011       3.85307879
Zn       2.23330770       4.23276240      11.70368688
Zn       0.00503979      -0.01410503       0.03200751
Zn      -0.16283871       0.15176718       7.96326569
Zn      -2.51718236       4.42472209       0.13910882
Zn      -2.53104682       4.44808901       7.96416400
Zn       4.91700421      -0.13584938      -0.09491611
Zn       4.76318316      -0.09007243       7.82448001
Zn       2.48247515       4.12496747      -0.11033402
Zn       2.29296230       4.24016075       7.80465690
Zn       2.43309494       2.74164319       1.90067900
Zn       2.26308655       2.87379911       9.86942556
Zn      -0.05541997       7.17900839       1.93198559
Zn      -0.24882287       7.12702859       9.81429215
Zn       7.41466793       2.52167441       1.76381691
Zn       7.21152811       2.61569569       9.69218048
Zn       4.86978430       6.84246628       1.90811970
Zn       4.74651507       6.99959968       9.68625120
Zn      -1.42602090       3.58998745       5.95706945
Zn      -1.54440511       3.72850079      13.87886819
Zn      -3.85746970       7.93383616       5.94936510
Mg      -4.01026143       8.00687298      13.88039313
Zn       3.61481584       3.42187767       5.81605278
Zn       3.45689087       3.58162283      13.71969560
Zn       1.08726825       7.68358875       5.85963362
Zn       0.99403905       7.96958604      13.78882575
Zn      -0.13011592       1.46169158       5.90143218
Zn      -0.24920063       1.36821717      13.86400422
Zn      -2.64455928       5.77354029       5.95543278
Zn      -2.76898755       5.85839990      13.83154275
Zn       4.82306002       1.31286839       5.81136793
Zn       4.72606522       1.38809821      13.67230968
Zn       2.32778724       5.56427793       5.74924379
Zn       2.17237401       5.60141196      13.75604164
Zn       3.57030582       0.60857397       1.88608311
Zn       3.56261927       0.59236231       9.83422234
Zn       1.08769188       4.94736604       1.95731559
Zn       1.09806330       4.92746175       9.89848774
Zn       8.62346514       0.42454922       1.67028153
Zn       8.45885612       0.51750121       9.68171777
Zn       6.12733418       4.74778291       1.76411624
Zn       6.02198438       4.82594605       9.75488173
Zn       1.17775543       0.64983340       1.93052842
Zn       0.91973247       0.79479193       9.83401832
Zn      -1.35418808       5.06212443       1.95546891
Zn      -1.43969450       5.14993100       9.84783666
Zn       6.14922868       0.47308373       1.76924238
Zn       5.92329010       0.57007510       9.69316910
Zn       3.64143187       4.81813492       1.94449244
Zn       3.43439569       4.84763738       9.74856574
Zn       1.13829150       3.48998630       5.89729661
Zn       0.99249274       3.61207087      13.71912906
Zn      -1.46964258       7.85542489       5.90982061
Zn      -1.56873652       7.90148116      13.89288211
Zn       6.04187674       3.38747061       5.77681027
Zn       5.91373896       3.39971951      13.70800908
Zn       3.49289492       7.69756710       5.82320205
Zn       3.49857569       7.70853017      13.61553612
