95
Lattice="9.407587555236926 0.08942660776797086 0.042581651550767284 -4.8719749331613045 8.364231479458976 -0.1663624815321939 0.1399219542631487 -0.03281244442472524 15.527077709823203" Properties=species:S:1:pos:R:3 pbc="T T T"
Mg      -0.01614430       2.81098162       3.35599771
Mg       0.02554219       2.78440563      11.08452683
Mg      -2.45104411       7.02317504       3.37057384
Mg      -2.28309023       7.01047033      11.04075365
Mg       4.63194316       2.88061717       3.33633386
Mg       4.77764297       2.74146897      11.18211457
Mg       2.17275937       6.91013607       3.30542865
Mg       2.25253329       7.02253676      11.08192134
Mg       2.43480194       1.39319447       7.26041263
Mg       2.40769277       1.39692420      15.01801376
Mg      -0.04830525       5.54687283       7.15622312
Mg      -0.02819192       5.56760295      14.94039778
Mg       7.00301643       1.45798713       7.32873189
Mg       7.18017754       1.43783423      15.10752483
Mg       4.57186081       5.62101184       7.16414343
Mg       4.74188149       5.62730492      14.93937356
Mg       2.39276349       1.39044331       4.41750609
Mg       2.40652630       1.36403997      12.07809014
Mg      -0.10074650       5.59355182       4.30761863
Mg      -0.03191119       5.51091774      11.98766893
Mg       7.08879371       1.57169925       4.42540517
Mg       7.13429376       1.46826875      12.11949075
Mg       4.58290790       5.68367577       4.27964386
Mg       4.68858767       5.60533923      12.03930540
Mg      -0.06041803       2.78277421       0.41334838
Mg       0.00013954       2.80965395       8.29026614
Mg      -2.49902598       6.90530411       0.45529409
Mg      -2.41381141       6.89574538       8.15009899
Mg       4.63641911       2.88831364       0.43463292
Mg       4.66029197       2.84392074       8.21438503
Mg       2.19481714       6.99411423       0.44564732
Mg       2.24986259       7.03184372       8.10580806
Zn      -0.00920217       0.00640765       3.89118713
Zn       0.11694798      -0.06000416      11.61512241
Zn      -2.37265549       4.12771539       3.69710478
Zn      -2.33017875       4.25031227      11.55578842
Zn       4.76640702       0.02172261       3.94466816
Zn       4.84477866       0.02345785      11.70103702
Zn       2.29192141       4.19964001       3.82934421
Zn       2.42102325       4.18959763      11.69542188
Zn      -0.01838779       0.01374240       0.02040243
Zn       0.07180653       0.03107734       7.73343254
Zn      -2.40864619       4.10704845      -0.06355340
Zn      -2.34590224       4.18961055       7.64782237
Zn       4.74968321       0.09396494       0.03196558
Zn       4.73755644       0.06356472       7.81429551
Zn       2.26353435       4.27585755      -0.04611280
Zn       2.37011758       4.22035541       7.73241304
Zn       2.31018564       2.91272414       1.85006149
Zn       2.35915034       2.80961844       9.76850860
Zn      -0.13157620       6.95122099       1.82334188
Zn      -0.06781363       7.01342136       9.54793045
Zn       6.95514182       2.95904963       1.86857523
Zn       7.08561734       2.89618405       9.77555115
Zn       4.63619530       7.03405866       1.93753576
Zn       4.68623558       7.01336271       9.56035225
Zn      -1.25540542       3.41018174       5.75146741
Zn      -1.10003133       3.40278398      13.55163645
Zn      -3.62328999       7.64513163       5.61701424
Zn      -3.59483211       7.54639909      13.38336456
Zn       3.43887722       3.51291815       5.84906941
Zn       1.06211089       7.73447305       5.72277796
Zn       1.13613622       7.63059885      13.43095144
Zn       0.06247957       1.39635982       5.78593105
Zn       0.10137442       1.35389346      13.57297590
Zn      -2.35145577       5.54892531       5.78082830
Zn      -2.31550135       5.54129404      13.46678899
Zn       4.69809139       1.42611800       5.77574991
Zn       4.79798372       1.33140036      13.56642466
Zn       2.24904807       5.58038820       5.79635015
Zn       2.45351158       5.62293241      13.41643810
Zn       3.50354092       0.80790067       1.87500110
Zn       3.62583011       0.78603221       9.70561161
Zn       1.11891049       4.93983288       1.91098369
Zn       1.11486861       4.93215598       9.61977585
Zn       8.20077235       0.77883039       1.97061092
Zn       8.25241801       0.69971345       9.75147143
Zn       5.86741615       4.97668320       1.91735442
Zn       5.76327018       4.93035091       9.55053676
Zn       1.13004748       0.66358317       1.89030257
Zn       1.20489025       0.73145858       9.72382104
Zn      -1.15994031       4.81697588       1.86730267
Zn      -1.19458744       4.93216001       9.54033508
Zn       5.86279129       0.74565049       1.94791449
Zn       5.99539741       0.71234134       9.74289991
Zn       3.39182221       4.92262378       1.89219095
Zn       3.54485044       4.88245389       9.60735397
Zn       1.12423599       3.54375637       5.78620350
Zn       1.24430497       3.42239322      13.51122677
Zn      -1.27620986       7.64785086       5.57329887
Zn      -1.14899055       7.75453689      13.46588549
Zn       5.89968013       3.51849979       5.82974695
Zn       5.93556696       3.48434643      13.56222347
Zn       3.39503281       7.72312582       5.68961164
Zn       3.48338050       7.69491319      13.49484300
