95
Lattice="9.955575641924947 0.29275708343964496 -0.39905373352246926 -4.978012650603036 8.000095375622054 0.13917253659856577 0.14806521316356516 -0.02760622142971727 15.338900691295365" Properties=species:S:1:pos:R:3 pbc="T T T"
Mg       0.04083549       2.73788276       3.33621067
Mg       0.15675636       2.68924580      10.98341163
Mg      -2.46649971       6.68286975       3.33125082
Mg      -2.29259210       6.70363179      11.15145824
Mg       5.06790112       2.87622806       3.14172278
Mg       5.03073847       2.81978254      10.82046234
Mg       2.48754480       6.82113689       3.22378148
Mg       2.67311696       6.88327266      10.88741614
Mg       2.63492261       1.43912940       7.07454784
Mg       2.59593878       1.44510689      14.73437808
Mg      -0.03880802       5.41225720       7.14387082
Mg       0.18261658       5.43982745      14.85492963
Mg       7.56160014       1.47967076       6.92658967
Mg       7.52656756       1.51684206      14.50507307
Mg       4.99784618       5.47841687       6.97368506
Mg       5.12564194       5.48671213      14.59394173
Mg       2.49313048       1.35640295       4.12433055
Mg       2.67463517       1.37673743      11.90978493
Mg       0.04051241       5.46328781       4.26743555
Mg       0.12769972       5.43618174      11.91501012
Mg       7.51007972       1.52248271       4.01880868
Mg       7.59419245       1.59299112      11.72095847
Mg       5.10151324       5.62859617       4.05325228
Mg       5.13890886       5.59277130      11.71410137
Mg      -0.00355726       2.84373580       0.40959994
Zn       0.11496288       2.64189794       8.04541281
Mg      -2.55939592       6.68714102       0.56581247
Mg      -2.44529121       6.72061860       8.21133267
Mg       5.03716410       2.88806346       0.31417872
Mg       5.10192159       2.94843976       7.91198727
Zn       2.46225688       6.81287253       0.35699089
Mg       2.53757736       6.82050727       7.97749108
Zn       0.04845434       0.03680917       3.81625698
Zn       0.07690881       0.03888656      11.47662752
Zn      -2.50914860       4.00939444       3.82488419
Zn      -2.37581237       3.99421763      11.55482917
Zn       4.94959179       0.20903269       3.67720970
Zn       5.02366431       0.16104298      11.29679044
Zn       2.58686542       4.14970891       3.69099148
Zn       2.62637612       4.15475892      11.36563429
Zn       0.00283175      -0.03742966      -0.09256209
Zn      -0.02532459      -0.05342834       7.71236611
Zn      -2.42216841       3.96406789       0.03191084
Zn      -2.37813549       3.96122768       7.71830494
Zn       4.99251771       0.20537116      -0.16739932
Zn       5.08913517       0.05814434       7.35965397
Zn       2.52054374       4.17715468      -0.14324432
Zn       2.58569088       4.11524502       7.60165334
Zn       2.57190549       2.77156314       1.86409037
Zn       2.57800001       2.76687689       9.45495410
Zn       0.00330773       6.79422620       1.87412395
Zn       0.08844673       6.85660082       9.54004055
Zn       7.48586925       2.93672202       1.55766137
Zn       7.58618516       2.89922102       9.31467563
Zn       5.03940151       6.94536981       1.56741330
Zn       5.07086671       6.92196443       9.33348191
Zn      -1.15512935       3.37593938       5.85018222
Zn      -1.13103167       3.38183722      13.46904232
Zn      -3.72776076       7.43896086       5.96999471
Zn       3.74056427       3.53629993       5.62685868
Zn       3.80433300       3.52605668      13.19485390
Zn       1.25513272       7.50923163       5.65601000
Mg       1.38752221       7.42748068      13.27461815
Zn       0.06382524       1.35124108       5.77506230
Zn       0.07009332       1.31157460      13.44130296
Zn      -2.49880295       5.25126951       5.85319887
Zn      -2.34565442       5.44294563      13.45734710
Zn       4.99433753       1.55855430       5.60024520
Zn       5.16061707       1.52100582      13.31651784
Zn       2.45772031       5.57532498       5.69639483
Zn       2.68224056       5.52246845      13.35084922
Zn       3.81777743       0.82510614       1.78549891
Zn       3.77461602       0.82681885       9.33428717
Zn       1.31219074       4.84228601       1.87277417
Zn       1.36428467       4.80146498       9.52080340
Zn       8.70342639       0.96911484       1.60371869
Zn       8.89853064       0.97204157       9.30505679
Zn       6.19603300       4.96056637       1.72065750
Zn       6.25241798       4.93930050       9.31815776
Zn       1.23323155       0.68369335       1.95499285
Zn       1.34049296       0.65339126       9.51866102
Zn      -1.19244740       4.73578135       1.91522500
Zn      -1.20793422       4.74237457       9.63883450
Zn       6.21383057       0.89177822       1.65452468
Zn       6.21626147       0.80700648       9.34214858
Zn       3.71625972       4.86501115       1.61617581
Zn       3.79092471       4.85003381       9.38289992
Zn       1.23409292       3.36017517       5.69092749
Zn       1.33409985       3.34802667      13.25583147
Zn      -1.11317779       7.48329115       5.75263580
Zn      -1.07680321       7.47257161      13.39620083
Zn       6.31287172       3.68484581       5.45429937
Mg       6.43844229       3.58741007      13.13472079
Zn       3.82322854       7.57473958       5.53782295
Zn       3.82293880       7.49353395      13.20787872
