94
Lattice="9.408590553946855 -0.361285353569051 0.024096267628431815 -5.002786291183177 8.614184591119054 -0.36940315289740583 -0.28522887778251277 0.37530458323598714 15.852477598571685" Properties=species:S:1:pos:R:3 pbc="T T T"
Mg      -0.17172559       2.90051532       3.29068780
Mg      -0.27718302       3.09479415      11.27990932
Mg      -2.73221878       7.24138654       3.16551639
Mg      -2.81308642       7.39196230      11.09468438
Mg       4.56317216       2.73936615       3.45352402
Zn       4.37264885       2.92983288      11.31833376
Mg       1.99705973       6.96865699       3.23562934
Mg       1.91988943       7.23116192      11.08578721
Mg       2.20363156       1.37489237       7.34297062
Mg      -0.36701617       5.77331771       7.11856665
Mg      -0.50665828       5.95171939      15.06004328
Mg       6.76798498       1.20119944       7.42052090
Mg       6.70536278       1.44386531      15.29667061
Mg       4.39042781       5.59110449       7.19693226
Mg       4.29439176       5.81339475      15.09270477
Mg       2.17780040       1.47236162       4.43501135
Mg       2.13065007       1.63318815      12.31558562
Mg      -0.26382809       5.85270881       4.24513095
Mg      -0.41285411       5.89336761      12.07867596
Mg       6.95533349       1.19903107       4.37845681
Mg       6.71934564       1.35670327      12.37200410
Mg       4.38077511       5.49215163       4.19873402
Mg       4.19676422       5.73618720      12.13920641
Mg      -0.03783096       2.83470999       0.42552315
Mg      -0.20921541       3.02810152       8.32470181
Mg      -2.57971686       7.19808452       0.17742389
Mg      -2.73362002       7.22611411       8.20482067
Mg       4.55178146       2.69585533       0.47767958
Zn       4.44024313       2.82041359       8.24211296
Mg       2.04240232       6.92131043       0.16020084
Mg       1.93337863       7.14783209       8.15832627
Zn      -0.13978281       0.11087005       3.93705933
Zn      -0.34455387       0.25189754      11.85432752
Zn      -2.53607876       4.42572780       3.79259964
Zn      -2.68025185       4.60775012      11.75856576
Zn       4.68523949      -0.12111321       3.97496239
Mg       4.53451972       0.11080801      11.91909585
Zn       2.16846226       4.24870861       3.76284025
Zn       1.92523444       4.43141933      11.84857932
Zn      -0.03147030       0.05068850       0.00721479
Zn      -0.15697227       0.13745836       7.94858159
Zn      -2.53490645       4.33914910      -0.19239327
Zn      -2.75596335       4.47953769       7.79562882
Zn       4.78515852      -0.13161255      -0.06309264
Zn       4.59422887       0.00386825       7.90998825
Zn       2.19562702       4.16657690      -0.19777109
Zn       2.12208461       4.23531095       7.62769350
Zn       2.26016606       2.67297286       1.88576308
Zn       2.09500497       2.91719915       9.78692123
Zn      -0.26994507       7.07973388       1.62532848
Zn      -0.48694730       7.24292221       9.54593464
Zn       6.87523511       2.59789696       1.81169871
Zn       6.77423670       2.77135617       9.80053255
Zn       4.39154186       6.77976293       1.72765288
Zn       4.32375883       7.14546643       9.66053505
Zn      -1.41830157       3.66488863       5.84856878
Zn      -1.54586474       3.80455934      13.75088165
Zn      -3.99822470       8.01043678       5.59943272
Zn      -4.01224730       8.19653012      13.60318623
Zn       3.27827880       3.44809422       5.72168528
Zn       3.14300938       3.69390103      13.67169258
Zn       0.85953097       7.71880249       5.58508451
Zn      -0.15233929       1.46456660       5.90875326
Zn      -0.32959416       1.66572184      13.82290474
Zn      -2.59696017       5.80982770       5.57753201
Zn      -2.76774177       6.05155527      13.63952018
Zn       4.54832971       1.36453434       5.96240379
Zn       4.42231289       1.63461525      13.84007025
Zn       1.99934394       5.72400534       5.57926102
Zn       1.93257880       5.84331964      13.64146639
Zn       3.49699323       0.64149083       1.93261611
Mg       3.38640774       0.81947131       9.84604496
Zn       0.97324814       4.98725999       1.83642316
Zn       0.85005656       5.16348048       9.72608854
Zn       8.12863480       0.42192767       1.98226515
Zn       8.04877224       0.71045865       9.82317153
Zn       5.60791090       4.71685381       1.80293028
Zn       5.52352821       5.01462799       9.60793615
Zn       1.09471259       0.70224356       1.99473579
Zn       1.03167075       0.94654776       9.93658515
Zn      -1.41730262       5.08619415       1.81621239
Zn      -1.51488301       5.13813512       9.74066651
Zn       5.78130581       0.47347640       1.97779941
Zn       5.67667455       0.84649748       9.87864334
Zn       3.37392802       4.83863056       1.77683362
Zn       3.20096144       4.94376929       9.76759489
Zn       0.78646190       3.63699628       5.81267783
Zn       0.72817526       3.81817788      13.74887755
Zn      -1.57593969       7.93917521       5.59331019
Zn      -1.70225515       8.04090489      13.55161637
Zn       5.70668993       3.37984147       5.86323246
Zn       5.49914768       3.62798039      13.70774081
Zn       3.10387050       7.70099527       5.66115196
Zn       3.01392748       7.92728403      13.63972695
