96
Lattice="9.724791334713277 -0.0775128695264692 -0.10867826088186033 -4.832812073468914 8.680406515992715 -0.18744254470885927 -0.026044108082432727 -0.6793913041779832 16.40819939659906" Properties=species:S:1:pos:R:3 pbc="T T T"
Mg       2.36806876       1.13973765       7.52385448
Mg       2.38196202       0.87348604      15.84962579
Mg       0.04669734       5.46483251       7.56583573
Zn      -0.05599834       5.12755296      15.77791398
Mg       7.23701143       1.02096583       7.54422699
Mg       7.35693674       0.81305893      15.80781172
Mg       4.83440877       5.33350391       7.50079012
Mg       4.91233630       5.03495779      15.77566369
Mg       0.04078584       2.75191754       3.47502654
Mg       0.00907897       2.39322422      11.89462948
Mg      -2.39766008       7.09029718       3.36409047
Mg      -2.51567787       6.77562906      11.55019983
Mg       4.83710979       2.65275140       3.39554444
Mg       4.89329177       2.31339269      11.57773519
Mg       2.38133779       7.10927636       3.35205466
Mg       2.51856712       6.73400838      11.50341847
Mg       2.33938656       1.14945743       4.52608699
Mg       2.43821950       0.85802819      12.80111415
Mg       0.01123503       5.57093823       4.41285635
Mg       0.06099349       5.20813013      12.69265176
Mg       7.22208622       1.26698984       4.53140415
Mg       7.23038599       0.80615878      12.73861749
Mg       4.83377996       5.49225908       4.46097548
Mg       4.85418800       5.24584724      12.59534496
Mg       0.05371004       2.91297054       0.41923462
Mg       0.01300926       2.53273204       8.54413238
Mg      -2.34222984       7.09225683       0.39717227
Mg      -2.45791922       6.96539018       8.52909735
Mg       4.89996874       2.83011239       0.34387967
Mg       4.88785210       2.51722940       8.56266504
Mg       2.48284023       7.19733116       0.32270049
Mg       2.39652860       6.88350662       8.50458450
Zn      -0.05080751      -0.18541701       0.08201107
Zn       0.05198837      -0.23744148       8.20944761
Zn      -2.36158238       4.37768449      -0.11927738
Zn      -2.44758921       4.14530449       8.19453981
Zn       4.90580371      -0.05967496      -0.08820584
Zn       4.81663686      -0.26709185       8.16119907
Zn       2.38158867       4.33516076      -0.22818553
Zn       2.46142046       3.98526115       8.07375594
Zn       0.05038528      -0.11712477       4.17187721
Zn      -0.03852732      -0.51186311      12.28916478
Zn      -2.39275854       4.20789145       3.96129804
Zn      -2.47428433       3.82586463      12.20811115
Zn       4.83771571      -0.27468397       4.07544932
Zn       4.80376721      -0.57579245      12.26775786
Zn       2.43862871       4.08358295       3.89442714
Zn       2.52899042       3.83304161      12.14808476
Zn      -0.03195701       1.22816207       6.12804128
Zn       0.03724849       0.84183544      14.34551266
Zn      -2.41161487       5.54851173       5.97663547
Zn      -2.41823446       5.22072802      14.23311241
Zn       4.85941197       1.10928102       6.23178924
Zn       4.87853784       0.85790603      14.22066617
Zn       2.44762157       5.44703207       5.91598081
Zn       2.37860755       5.19823204      14.14826189
Zn      -1.28225574       3.27171748       6.02377951
Zn      -1.21945120       2.94213126      14.23906784
Zn      -3.65036563       7.60530124       6.02102098
Zn      -3.58703253       7.34206070      14.13414798
Zn       3.60438701       3.34190853       6.02343515
Mg       3.58061273       2.94281394      14.20268661
Zn       1.11515753       7.63638523       5.78513963
Zn       1.22048514       7.29284716      14.03721430
Zn       1.18298091       0.72301471       1.99027052
Zn       1.24212577       0.33903815      10.19506116
Zn      -1.26632192       4.93437434       1.98245552
Zn      -1.12907130       4.59814569      10.03057619
Zn       6.01773217       0.51288659       2.01457112
Zn       5.97467634       0.25694727      10.16488521
Zn       3.69472734       4.99210983       1.85673703
Zn       3.63257511       4.58015795      10.07218111
Zn       1.21215680       3.37037263       6.13201745
Zn       1.24626483       2.97097050      14.17841155
Zn      -1.15257454       7.65449579       5.93471532
Zn      -1.18514034       7.25435275      14.16003791
Zn       5.97931247       3.24188542       5.98146984
Zn       6.09822397       3.07521996      14.18641654
Zn       3.58898650       7.60132425       5.86657573
Zn       3.71417633       7.37052162      14.05684925
Zn       2.40833942       2.73831849       1.98214454
Zn       2.27043140       2.46968907      10.12779948
Zn      -0.02149431       7.08464744       1.77388347
Zn      -0.00942916       6.80442929       9.95679104
Zn       7.27227051       2.72295568       1.96553593
Zn       7.26976250       2.32362776      10.10996274
Zn       4.79229805       7.10795887       1.82625230
Zn       4.94250853       6.70672367       9.99550208
Zn       3.64990018       0.56618712       1.99305333
Zn       3.59364620       0.20809653      10.15762444
Zn       1.24061379       4.92958650       1.81189629
Zn       1.23042008       4.70406943      10.11812921
Zn       8.49731825       0.58049005       1.85124640
Zn       8.45636975       0.13385296      10.14054003
Zn       5.97736444       4.89494331       1.76678768
Zn       6.09883961       4.69263668      10.05830669
