95
Lattice="9.672928523597339 -0.2985229475044105 0.07706720000352282 -4.735801032136647 8.493500799933953 0.06944712044522137 0.08183361846281142 -0.10827856571558259 16.118336389150667" Properties=species:S:1:pos:R:3 pbc="T T T"
Mg       0.05284717       2.72713005       3.54852085
Mg       0.17263687       2.65661129      11.62764447
Mg      -2.26801364       6.94019638       3.66380497
Mg      -2.23646316       6.86136113      11.63124826
Mg       4.84110021       2.63067428       3.62887573
Mg       4.93937457       2.49575351      11.55055997
Mg       2.41766749       6.85539200       3.71042689
Mg       2.56846269       6.78709652      11.69320613
Mg       2.54782852       1.28972709       7.58526033
Mg       2.50392758       1.24014593      15.61392582
Mg       0.02980312       5.50729105       7.63567444
Mg       0.10765034       5.40941525      15.71098643
Mg       7.34063828       1.12738400       7.59389111
Mg       7.35499060       1.05055339      15.73176779
Mg       4.95863351       5.34364001       7.61177259
Mg       4.92152619       5.25588870      15.75406218
Mg       2.44219001       1.36772639       4.51540468
Mg       2.48362741       1.27584137      12.64162488
Mg       0.07407351       5.42257380       4.68915623
Mg       0.09194839       5.53193643      12.65033674
Mg       7.28768639       1.12295799       4.59320709
Mg       7.43734570       1.16704241      12.57748766
Mg       4.97565322       5.31646222       4.62097130
Mg       4.90620259       5.43772062      12.68518645
Mg       0.01658698       2.82335914       0.54839639
Mg       0.13972558       2.70616699       8.67557365
Mg      -2.32542851       7.02453540       0.56313824
Zn      -2.18686361       6.95173692       8.59341655
Mg       4.92187997       2.63394654       0.63610978
Mg       2.47294414       6.94596376       0.56048941
Mg       2.51617930       6.86128732       8.66831956
Zn       0.00649321      -0.04663171       4.04549243
Zn       0.02352661      -0.07404097      12.12401249
Zn      -2.31818210       4.17768315       4.10335562
Zn      -2.29951985       4.11463973      12.06635043
Zn       4.82985291      -0.08573431       4.12963059
Zn       4.91473019      -0.25198233      12.10376157
Zn       2.47113943       4.02045374       4.09645707
Zn       2.52048236       4.00623927      12.16201380
Zn       0.00806338      -0.03364482       0.04690225
Zn       0.03429725      -0.08398902       8.05402638
Zn      -2.35753148       4.29874489       0.03001656
Zn      -2.24956114       4.16794246       8.07221036
Zn       4.86681485      -0.14076613      -0.01192088
Zn       4.94893620      -0.23364359       8.15546856
Zn       2.42235362       4.07721022       0.13632287
Zn       2.51490385       4.09508442       8.07518083
Zn       2.43729155       2.67578743       2.03442118
Zn       2.59661243       2.63158902      10.17600056
Zn       0.12813709       6.88727071       2.12948744
Zn       0.14228972       6.88366227      10.20555618
Zn       7.27708149       2.43172150       2.12891773
Zn       7.37484288       2.52538948      10.16847790
Zn       4.88174660       6.79600185       2.14346666
Mg       4.91657928       6.75450609      10.21477273
Zn      -1.10399800       3.43142539       6.09698575
Zn      -1.05003515       3.40962624      14.17298649
Zn      -3.44349665       7.77724141       6.12699274
Zn      -3.53523400       7.67902943      14.16171382
Zn       3.67193291       3.42354622       6.08695314
Zn       3.62495927       3.32166812      14.18084028
Zn       1.34420961       7.63502547       6.15561790
Zn       1.36483088       7.49198642      14.16803167
Zn       0.03589985       1.34149310       6.07257233
Zn       0.11320692       1.32763466      14.09295987
Zn      -2.28340207       5.63491324       6.10253231
Zn      -2.26610071       5.61533796      14.19033241
Zn       4.84146244       1.21298368       6.20526177
Zn       4.92824520       1.12452985      14.13608408
Zn       2.48428805       5.48563650       6.16850914
Zn       2.51677284       5.36618821      14.13912173
Zn       3.78343903       0.61515804       2.05148449
Zn       3.61583710       0.53141467      10.12012686
Zn       1.32306954       4.78152839       2.02537975
Zn       1.31192125       4.83325507      10.20343973
Zn       8.50759509       0.36146085       2.09597217
Zn       8.59801370       0.39198541      10.14517440
Zn       6.07200231       4.67777722       2.24016181
Zn       6.17690395       4.63007853      10.16395836
Zn       1.24641915       0.59354839       2.00930753
Zn       1.33701789       0.54165165      10.09017381
Zn      -1.15532818       4.78795480       2.03190859
Zn      -1.17096051       4.78949495      10.14499692
Zn       6.05703797       0.49893046       2.07915736
Zn       6.08250817       0.49317630      10.09986143
Zn       3.77612501       4.76941136       2.00857156
Zn       3.60742470       4.67810467      10.14306086
Zn       1.24021109       3.40145593       6.13084488
Zn       1.31190950       3.32095878      14.11434524
Zn      -1.14738192       7.62440256       6.17883612
Zn      -1.01978412       7.63805722      14.20549403
Zn       6.13525762       3.31947116       6.17553600
Zn       6.10181689       3.26096178      14.17764086
Zn       3.74315197       7.47695383       6.14982594
Zn       3.72431996       7.48297335      14.17374075
