95
Lattice="9.449662068515869 0.0035021828954899027 -0.02606148721274337 -4.625427480892649 8.471645571803439 0.13843652817787377 -0.10049005022988425 -0.23390465531308846 15.45147905667774" Properties=species:S:1:pos:R:3 pbc="T T T"
Zn      -0.05456882       2.75728857       3.40552903
Mg      -0.11062735       2.64781960      11.12831651
Mg      -2.35445826       7.02792698       3.40903173
Mg      -2.44403696       6.86873491      11.17664765
Mg       4.74884525       2.78142447       3.47725126
Mg       4.69083794       2.68138819      11.13996445
Mg       2.38342955       7.00898451       3.48233118
Mg       2.36641847       6.90226692      11.25015069
Zn       2.36971380       1.32448256       7.28520952
Mg       2.18354776       1.21330017      15.03348566
Mg      -0.00340968       5.50761222       7.35301321
Mg      -0.00745998       5.39733871      15.11932163
Mg       7.05973607       1.29402881       7.23294204
Zn       7.03181802       1.22666660      15.01540851
Mg       4.63530757       5.57438154       7.35891546
Mg       4.71529328       5.50123349      15.07379474
Mg       2.40245615       1.34022834       4.37244024
Mg       2.26942039       1.14336364      12.10358268
Mg      -0.04173772       5.62076767       4.46566610
Mg       0.00019494       5.45353710      12.16094296
Mg       7.00014012       1.28372487       4.34438434
Zn       7.00959560       1.19482634      12.05682834
Mg       4.78114663       5.54427178       4.38239786
Mg       4.68843466       5.49641684      12.07184065
Mg      -0.02181198       2.73256988       0.50608872
Mg      -0.03067434       2.68064516       8.28357765
Mg      -2.30874063       7.13013220       0.59363280
Mg      -2.27540325       6.96776979       8.33785830
Mg       4.77044541       2.81857584       0.49782336
Mg       4.71893186       2.74983152       8.23022174
Mg       2.50661559       7.01047927       0.50939590
Mg       2.38114789       6.91808237       8.30811891
Zn       0.04852540      -0.00794716       3.91815357
Zn      -0.09016300      -0.09484185      11.67731451
Zn      -2.33304329       4.15172938       3.98569293
Zn      -2.36190288       4.03752662      11.67224986
Zn       4.77010187      -0.14361594       3.83034159
Zn       4.57842821      -0.13616582      11.56699546
Zn       2.39374947       4.31303372       4.02976995
Zn       2.40509452       4.08337079      11.65203197
Zn      -0.02732228      -0.01016325       0.00328988
Zn      -0.06306955      -0.11609236       7.72304388
Zn      -2.25041212       4.22949798       0.12265180
Mg      -2.32220422       4.05837781       7.88282586
Zn       4.71809401      -0.03055080      -0.00206562
Zn       4.63690229      -0.18041616       7.65681624
Zn       2.43433098       4.25411186       0.10337698
Zn       2.33261679       4.12281611       7.85933205
Mg       2.37586267       2.75514167       1.96090765
Zn       2.26360136       2.72015645       9.63630723
Zn      -0.04395056       6.99282962       1.98071805
Mg      -0.00615156       6.84774266       9.79242605
Zn       7.09694461       2.80381557       1.91087490
Zn       6.98986019       2.61044181       9.76305004
Zn       4.80542223       7.07648235       1.96369836
Zn       4.69469615       6.89607668       9.67983459
Zn      -1.22939656       3.49391561       5.90594666
Zn      -1.26416431       3.30734109      13.55623575
Zn      -3.50189246       7.71682926       5.90938741
Zn      -3.45274097       7.64734314      13.57993871
Zn       3.57435920       3.53833246       5.78109452
Zn       3.51314266       3.37148268      13.59007319
Zn       1.26001558       7.69264687       5.89037456
Zn       1.11444934       7.51002680      13.54716284
Zn      -0.09585984       1.36217913       5.76647247
Mg      -0.11388454       1.20527797      13.48589974
Zn      -2.37062030       5.59696958       5.91654773
Zn      -2.42381360       5.44997437      13.66357351
Zn       4.67507586       1.35896470       5.81164595
Zn       4.65818348       1.13450649      13.57588083
Zn       2.32644426       5.57535922       5.77512906
Zn       2.32209429       5.50644359      13.60173180
Zn       3.55131077       0.76451150       1.99196163
Zn       3.40792496       0.54591305       9.69161912
Zn       1.25602786       4.95796882       1.99989959
Zn       1.24601578       4.79307943       9.73911175
Zn       8.26776227       0.71292805       1.91412957
Zn       8.15434896       0.56003788       9.66608380
Zn       5.94823332       4.92049245       1.98173527
Zn       6.06355616       4.72374164       9.75192736
Zn       1.13908598       0.67642700       1.85040661
Zn       1.14423007       0.56591664       9.61550424
Zn      -1.15818404       4.84824053       2.01941856
Zn       5.85083739       0.66526014       2.00200614
Zn       5.85731784       0.59615736       9.65254400
Zn       3.52153426       4.87395926       1.94972552
Zn       3.49908068       4.77562870       9.78729560
Zn       1.18176320       3.40909954       5.88074029
Zn       1.15016809       3.28757075      13.59551384
Zn      -1.13170050       7.69511441       5.92024402
Zn      -1.16952549       7.57797207      13.60435649
Zn       5.99674456       3.42680577       5.84614996
Zn       5.85217927       3.33460268      13.58318623
Zn       3.56532388       7.66168488       5.84744218
Zn       3.50126606       7.61590779      13.61164251
