96
Lattice="10.01590519346894 -0.33059632783678755 0.3227044692578128 -4.752069349434555 8.38030468687199 -0.06380129479027852 0.3325666580006162 0.030678257458378464 15.168856130150402" Properties=species:S:1:pos:R:3 pbc="T T T"
Mg       2.72154895       1.20987215       7.20613224
Mg       2.83471009       1.36981898      14.79516169
Mg       0.25942947       5.44907765       7.16729760
Mg       0.47730861       5.56676435      14.76608757
Mg       7.73033486       1.11891749       7.39694089
Mg       7.95021831       1.09343367      15.02409513
Mg       5.29318513       5.30572388       7.34760858
Mg       5.49345657       5.32873208      14.99297416
Mg       0.18010032       2.76623655       3.34504235
Mg       0.28920481       2.67321070      10.91370129
Mg      -2.18575954       6.87391803       3.30999099
Mg      -2.03407604       6.92657099      10.92595241
Mg       5.13459292       2.51428865       3.45258799
Mg       5.38067603       2.56349039      11.05548673
Mg       2.81604112       6.76280407       3.47915041
Mg       3.01535036       6.77130725      11.07061767
Mg       2.76353106       1.34500157       4.29442988
Mg       2.82818274       1.35656900      11.96726878
Mg       0.27736563       5.49194063       4.43469916
Zn       0.41594679       5.52335002      11.94171981
Mg       7.66346725       1.08757745       4.48246989
Mg       7.91885851       1.10436477      12.11098695
Zn       5.32465655       5.33901742       4.52094843
Mg       5.35708266       5.38433537      12.14759426
Zn       0.02291445       2.73386973       0.44798150
Mg       0.26873589       2.82496960       8.06270917
Mg      -2.27838757       6.92532679       0.45583498
Mg      -2.18641116       6.94045798       8.01996582
Zn       5.08080162       2.53032676       0.67070903
Mg       5.18383186       2.58572607       8.31162054
Mg       2.77677888       6.85350618       0.63798069
Mg       2.86820644       6.88198683       8.20538673
Zn      -0.03095004       0.05109206      -0.01673593
Zn       0.14074198      -0.00351068       7.61345173
Zn      -2.33912416       4.20549074       0.04968667
Zn      -2.23104815       4.13023296       7.54007371
Zn       4.98067632      -0.18886361       0.14981390
Zn       5.08717322      -0.20736997       7.66632877
Zn       2.73189178       3.94041680       0.13219025
Zn       2.86104012       4.00894100       7.64081692
Zn       0.05644855      -0.06867419       3.67980192
Zn       0.31165085       0.02566790      11.37996128
Zn      -2.23368115       4.21014784       3.77598295
Mg      -2.06544848       4.19262112      11.27038504
Zn       5.13022920      -0.24301096       3.92948436
Zn       5.35647793      -0.07413803      11.54182766
Zn       2.62726698       4.03170671       3.87069598
Zn       2.82301810       4.08142508      11.53385185
Zn       0.20288753       1.44414839       5.67552209
Zn       0.28656337       1.33953119      13.33987312
Zn      -2.28223285       5.58034316       5.65366389
Zn      -1.99405629       5.55466070      13.23214182
Zn       5.20166280       1.17891782       5.85732116
Zn       5.26818190       1.25670623      13.50183005
Zn       2.86514702       5.42899254       5.93060749
Zn       2.93275731       5.49060518      13.42594239
Zn      -1.12802687       3.47261300       5.66356344
Mg      -0.84322695       3.43570199      13.26800174
Zn      -3.35879011       7.63951187       5.66124161
Zn      -3.26324320       7.71777693      13.26264502
Zn       3.91831368       3.24760090       5.87085912
Zn       4.15676602       3.34292208      13.52723960
Mg       1.60050498       7.52987931       5.82989385
Zn       1.91991460       7.53797303      13.36721315
Zn       1.36720542       0.74143142       1.86090310
Zn       1.48199503       0.62582747       9.49332710
Zn      -1.10031235       4.87135063       1.87799506
Zn      -0.95297966       4.90039027       9.51329209
Zn       6.32561320       0.48098519       2.10205645
Zn       6.44334944       0.47146290       9.69436120
Zn       3.82805240       4.73088717       2.05646783
Zn       4.12623110       4.68897917       9.63795621
Zn       1.43419998       3.39387044       5.71435214
Zn       1.63773182       3.32142401      13.28371528
Zn      -0.93285911       7.47316354       5.66548783
Zn      -0.78516043       7.57064054      13.39979372
Zn       6.45073785       3.17621655       5.89406553
Zn       6.62842782       3.29536611      13.53689646
Mg       4.10578981       7.45103260       5.89043839
Zn       4.32990772       7.49365531      13.62400183
Zn       2.61413429       2.66337030       1.95844936
Zn       2.80921227       2.64347803       9.54075163
Zn       0.20992508       6.94240660       1.92576502
Zn       0.38871337       6.81086265       9.52660697
Zn       7.60351920       2.45919281       2.11952203
Zn       7.82449078       2.61400945       9.74615981
Zn       5.21588642       6.77298212       2.13895694
Zn       5.42529819       6.64587267       9.69551441
Zn       3.83445833       0.62648350       2.02184291
Zn       3.96245159       0.52332150       9.64411027
Zn       1.40416557       4.68574070       2.00132836
Zn       1.64296681       4.79588127       9.54500634
Zn       8.87651584       0.40278913       2.21684971
Zn       9.08913768       0.42236274       9.76387350
Zn       6.42710559       4.54114653       2.12757921
Zn       6.61239195       4.63366267       9.68886898
