96
Lattice="9.574844096566718 0.27802029114137955 -0.19258643308586054 -4.715123669496718 8.11976072552012 0.10691928090441645 -0.07517488320045652 -0.05002236538484331 15.659700991363469" Properties=species:S:1:pos:R:3 pbc="T T T"
Mg       0.01732325       2.67740333       3.39610580
Mg       0.02212197       2.81573029      11.24409023
Mg      -2.35841736       6.83522213       3.51464734
Mg      -2.36210439       6.79079750      11.30963881
Mg       4.81772769       2.92427308       3.33691900
Mg       4.80370607       2.86022894      11.17100485
Mg       2.41343371       6.92551287       3.39570130
Zn       2.38197538       6.90185830      11.21181817
Mg       2.35996102       1.43255803       7.21940546
Mg       2.32035279       1.37439261      15.16501336
Mg      -0.04090623       5.56767355       7.34841998
Mg      -0.06766221       5.50133584      15.20040716
Mg       7.13181005       1.50217400       7.23591261
Mg       7.13631690       1.55803154      15.02282050
Mg       4.77308159       5.74060719       7.20795304
Mg       4.78184069       5.61555241      15.01326664
Mg       2.39951230       1.43121147       4.33752706
Mg       2.32343694       1.37310284      12.16583428
Mg      -0.01568088       5.49613585       4.30622256
Mg      -0.05016976       5.46715212      12.21314283
Mg       7.26227578       1.52787726       4.20784587
Mg       7.12451545       1.62168899      12.01628239
Mg       4.85186948       5.56893557       4.34174142
Zn       4.68615347       5.62987555      12.11912153
Mg       0.05044924       2.73314667       0.54885348
Mg       0.04877413       2.69780242       8.34929476
Mg      -2.32223184       6.72051759       0.55153525
Mg      -2.37943730       6.89285579       8.35458440
Mg       4.78669705       2.90900323       0.37417642
Mg       4.81809707       2.83739418       8.11702574
Mg       2.44903262       6.87574659       0.43672402
Mg       2.33207997       6.96534343       8.24099302
Zn       0.09584607      -0.00765107       3.97205044
Zn      -0.03153289      -0.01315828      11.82119573
Zn      -2.47564678       4.03159175       3.98665950
Zn      -2.42296256       4.00087571      11.82345832
Zn       4.83387107       0.13935742       3.81218860
Zn       4.65326348       0.07447775      11.64258924
Zn       2.42378990       4.16692969       3.80372509
Zn       2.35736671       4.11894785      11.75999936
Zn      -0.00244111      -0.03724147      -0.05033557
Zn      -0.04458960      -0.00891759       7.70434442
Zn      -2.35503846       4.03161388       0.08873634
Zn      -2.33215485       4.07735655       7.85284937
Zn       4.79393312       0.09915799      -0.11043225
Zn       4.72232542       0.07889872       7.75147263
Zn       2.42169869       4.22734078      -0.01397990
Zn       2.41019865       4.20225488       7.79141118
Zn       2.40640081       2.83449958       1.90509953
Zn       2.39461030       2.78558009       9.73284225
Zn       0.04541412       7.04845647       1.98872232
Zn       0.05872136       6.87374534       9.74626879
Zn       7.11122169       2.96461704       1.81118444
Zn       7.16975356       2.86337529       9.61542178
Zn       4.92217058       7.01873942       1.93799835
Zn       4.69813262       7.02724536       9.63933172
Zn      -1.18408606       3.41712680       5.82465473
Zn      -1.23347274       3.34497616      13.67870469
Zn      -3.58970430       7.50255661       6.01468799
Zn      -3.64872831       7.41444894      13.86053452
Zn       3.50638552       3.54448975       5.81635886
Zn       3.55106229       3.51641157      13.59269275
Zn       1.25238737       7.51554808       5.92060463
Zn       1.14374346       7.61563068      13.65931840
Zn      -0.03642563       1.44017187       5.98938793
Zn      -0.02651038       1.30757648      13.72544391
Zn      -2.37334877       5.44587809       5.94826777
Zn      -2.51727331       5.42514175      13.78653466
Zn       4.81182612       1.44467753       5.82911299
Mg       4.75236392       1.41139781      13.46979942
Zn       2.45854046       5.63638505       5.76093956
Zn       2.41393792       5.66347547      13.69245004
Zn       3.60776109       0.72948482       1.91628762
Zn       3.51511486       0.69920129       9.68713525
Zn       1.20861064       4.84322008       1.88709159
Zn       1.17324657       4.84491414       9.83473380
Zn       8.32049435       0.95680762       1.80111030
Zn       8.32613669       0.88394594       9.65977523
Zn       6.07392169       4.96536816       1.80495967
Zn       5.99996962       4.90766489       9.77853068
Zn       1.29925587       0.70015605       1.98590699
Zn       1.25772901       0.69226785       9.78228738
Zn      -1.14424421       4.82751174       1.88281376
Zn      -1.19216580       4.73564523       9.84688061
Zn       5.93837134       0.82860770       1.83117083
Zn       5.89437052       0.83223788       9.71328878
Zn       3.66051539       4.89285453       1.79331202
Zn       3.56662154       4.96188831       9.78816480
Zn       1.13870592       3.45811473       5.95839248
Mg       1.29276874       3.45638535      13.63461453
Zn      -1.21704855       7.49986562       5.85118752
Zn      -1.18793174       7.47686654      13.77844486
Zn       6.02841132       3.61778636       5.72291551
Zn       5.93343592       3.68091060      13.58478935
Zn       3.67826028       7.68934854       5.82476674
Zn       3.54955703       7.56140001      13.66948839
