96
Lattice="9.854509509609782 -0.034568403262294184 0.02215889014102269 -5.159361902520298 8.529065464812835 0.05514093492708631 -0.0970848650507146 -0.18825370167268315 15.93167545894844" Properties=species:S:1:pos:R:3 pbc="T T T"
Mg      -0.09996265       2.77107275       3.47310171
Mg      -0.08150419       2.67495545      11.46689376
Mg      -2.74845780       7.06547803       3.48348132
Mg      -2.75195815       6.97379005      11.53670882
Mg       4.80787629       2.68910261       3.58192627
Zn       4.74011507       2.73823902      11.53457578
Mg       2.24032700       7.01770714       3.56104077
Mg       2.17686443       6.91887453      11.43662585
Zn       2.38852954       1.38118650       7.62166369
Mg       2.34189468       1.29360935      15.43119523
Mg      -0.19610902       5.63058828       7.49264249
Mg      -0.33597970       5.49380223      15.53231829
Mg       7.35820207       1.29765234       7.42937352
Mg       7.31658047       1.20494374      15.42324781
Mg       4.72601752       5.44311733       7.63938830
Zn       4.70792577       5.50896536      15.48685912
Mg       2.36446260       1.35610419       4.48017273
Mg       2.29496589       1.22169400      12.47676653
Mg      -0.12634631       5.64197096       4.50555522
Mg      -0.27363652       5.42220840      12.44565404
Mg       7.33449027       1.28079925       4.55895908
Mg       7.19163848       1.26945314      12.43117341
Zn       4.73949785       5.66429844       4.53506317
Mg       4.70673586       5.52312393      12.49508758
Mg      -0.10158136       2.88793951       0.44928313
Mg      -0.16375542       2.80432163       8.52364660
Mg      -2.65443689       7.11227595       0.55315170
Mg      -2.63929772       6.93456461       8.56571493
Mg       4.83178746       2.81681117       0.49882499
Mg       4.82576159       2.74604821       8.46203933
Mg       2.29027527       7.01528118       0.55378265
Mg       2.14715778       7.02202323       8.51055797
Zn       0.08779433      -0.06354259       4.05240461
Zn      -0.12944590      -0.19896524      11.93057832
Zn      -2.52607481       4.22036448       4.00284164
Zn      -2.64492453       4.12139108      12.01025353
Zn       4.91560380      -0.09324305       4.04622607
Zn       4.92477251      -0.22900051      12.06566521
Mg       2.23035924       4.12275725       4.05545518
Zn       2.28734231       4.04665755      11.95310968
Zn      -0.03032667      -0.02806446      -0.04202463
Zn      -0.16295643      -0.11684766       7.96668627
Zn      -2.68112372       4.32026870       0.02399668
Mg      -2.62076502       4.14085342       8.03612785
Zn       4.91658863       0.05971101       0.04363498
Mg       4.85989910      -0.06075116       8.04589820
Zn       2.28698692       4.26117240      -0.00129398
Zn       2.23878103       4.11546727       7.99504126
Zn       2.37943479       2.72295311       2.04090938
Zn       2.24857205       2.75093591      10.03030549
Zn      -0.23270881       7.10553545       2.01113184
Zn      -0.25853198       6.96051897      10.05206662
Zn       7.31858911       2.79832140       2.02264334
Zn       7.22255681       2.74316070      10.00790530
Zn       4.69058565       7.05501993       2.11509114
Zn       4.67219138       6.99333791       9.89503243
Zn      -1.40728284       3.45749753       6.06353240
Zn      -1.37870232       3.38531838      13.99257330
Zn      -3.91678933       7.74972327       5.96351309
Mg      -3.96227386       7.67177263      14.04123432
Zn       3.55538382       3.40508618       6.05480081
Zn       3.54995661       3.37402521      13.87008149
Zn       0.97084502       7.66686207       6.01821959
Zn       1.07227310       7.65524945      14.03421599
Zn      -0.09124931       1.37463845       5.92127209
Zn      -0.10047405       1.38424676      14.08919688
Zn      -2.61860456       5.74442751       6.00126990
Zn      -2.68428486       5.61789620      13.95178322
Zn       4.75978117       1.32974010       6.02108027
Zn       4.78685113       1.15062260      13.91445842
Zn       2.24010849       5.55967423       6.00819315
Zn       2.29936263       5.45051678      13.94189757
Zn       3.58164848       0.75509013       1.93364581
Zn       3.66095561       0.49032866       9.98723360
Zn       1.15912271       4.92405776       2.00585821
Zn       1.07394694       4.86244460       9.92812982
Zn       8.62696019       0.59765691       2.07025779
Zn       8.55184295       0.57731000       9.91381608
Zn       6.00851637       4.86100006       2.04961852
Zn       5.90777172       4.85375795      10.07337338
Zn       1.05676986       0.67437511       2.00072412
Zn       1.19377576       0.52789166       9.93712630
Zn      -1.36708590       4.86112467       1.99941999
Zn      -1.43865051       4.83004933       9.94263532
Zn       6.17760593       0.57264612       2.02915511
Zn       6.04030542       0.55874295       9.87449045
Zn       3.50886464       4.91082145       2.10191718
Zn       3.48354741       4.83016559       9.94631009
Zn       1.09795458       3.46438494       6.09009088
Zn       0.93749786       3.38872118      14.11030673
Zn      -1.53205852       7.76098822       6.08620401
Zn      -1.40103134       7.68923565      14.04737743
Zn       5.97899795       3.44316869       5.99605420
Zn       5.91785347       3.28948276      13.98986641
Zn       3.46142927       7.71384549       5.93034668
Zn       3.45091799       7.64312145      14.04168005
