95
Lattice="9.683320243794434 -0.11744111189839779 0.2719858871660801 -4.490870559475251 8.243299518582852 -0.33011536222423954 0.21161459489881426 -0.22747444829193145 15.896794837027583" Properties=species:S:1:pos:R:3 pbc="T T T"
Mg       2.51614609       1.18933470       7.50252717
Mg       2.56122436       1.06268882      15.44432907
Mg       0.30353923       5.25871020       7.38165163
Zn       0.47024165       5.28777792      15.24490136
Mg       7.41701878       1.14396978       7.68380723
Mg       7.52276089       1.07874195      15.61651144
Mg       5.16406710       5.29989980       7.54075383
Mg       5.29353447       5.12902510      15.45536311
Mg       0.12307461       2.65807024       3.43675263
Mg       0.22330213       2.60009340      11.28711241
Mg      -2.09828659       6.90171633       3.25195646
Mg      -1.98619790       6.70564327      11.15416429
Mg       5.01658702       2.61598394       3.60264540
Mg       5.01040629       2.45631816      11.42642158
Mg       2.79878225       6.71051158       3.35338173
Mg       2.88861791       6.68644933      11.36176932
Mg       2.51430635       1.22548808       4.59147033
Mg       2.58006019       1.13342325      12.42929730
Mg       0.29578461       5.33180523       4.39794435
Mg       0.40833172       5.24878016      12.32529605
Mg       7.32055574       1.20113876       4.66121049
Mg       7.52932840       1.04247472      12.58113056
Mg       5.16383214       5.35069458       4.42393908
Mg       5.28803179       5.22844071      12.35174527
Mg       0.10146063       2.76756498       0.46360628
Mg       0.21283726       2.63810562       8.47507961
Mg      -2.13973336       6.76171640       0.27535698
Mg      -2.07719061       6.66995772       8.18376592
Mg       5.07715826       2.48036136       8.50830923
Mg       2.74191484       6.77700000       0.37385082
Mg       2.81817186       6.59783756       8.46343820
Zn      -0.05183928       0.00958466       0.04044905
Zn       0.07902968      -0.12348960       7.93291834
Zn      -2.16771081       4.14182279      -0.20662710
Zn      -2.13549301       3.99953558       7.70253332
Zn       4.80319709      -0.04228571       0.13766445
Zn       4.96379055      -0.12680040       8.01437637
Zn       2.57801506       4.04179130      -0.08340578
Zn       2.70166949       3.88344450       7.91077233
Zn       0.05282943      -0.07971211       4.01021857
Zn       0.11463514      -0.20629037      11.90558295
Mg      -2.25234411       4.03203411       3.79267711
Zn      -2.08453329       3.98735830      11.76707260
Zn       4.86152714      -0.17237316       4.16231153
Zn       5.03825412      -0.28223766      12.09832905
Zn       2.62913870       4.06789196       3.87107326
Zn       2.65750478       3.88987003      11.89418110
Zn       0.17848766       1.31250064       5.90990817
Zn       0.13728592       1.05542757      13.86278637
Zn      -2.06059827       5.45438407       5.72789155
Zn      -1.96894077       5.26049276      13.78154757
Zn       4.95991436       1.26113945       6.18180753
Zn       4.98774140       1.01506424      14.01399929
Zn       2.85565375       5.31607688       5.89988636
Zn       2.84266519       5.17665414      13.88790145
Zn      -1.01913118       3.38976163       5.81268678
Zn      -0.85036429       3.26243813      13.91777273
Zn      -3.14219395       7.48515221       5.73916989
Zn      -3.11008008       7.26588384      13.67455285
Zn       3.94182702       3.22043630       6.07597299
Zn       4.05065766       3.14975217      13.92143377
Zn       1.58553947       7.38192330       5.85867893
Zn       1.72921261       7.25606261      13.77655081
Zn       1.18750723       0.72211804       1.95812656
Zn       1.41746804       0.51400221       9.99362354
Zn      -0.97913601       4.75183259       1.85737280
Zn      -0.88045905       4.61585675       9.84197183
Zn       6.04724936       0.56674647       2.15026585
Zn       6.16012502       0.35007672      10.11267073
Zn       3.82627924       4.79955898       1.88598758
Zn       3.93553394       4.57875826       9.88709889
Zn       1.55041056       3.40972205       6.00099506
Zn       1.60109072       3.29332574      13.95409580
Zn      -0.83500533       7.48077310       5.74139625
Zn      -0.76173676       7.31533187      13.64720437
Zn       6.21935064       3.25651586       6.03553350
Zn       6.34433298       3.13045612      14.11739930
Zn       4.08710156       7.33773000       5.91399309
Zn       4.20939608       7.22961798      13.84718931
Zn       2.54395171       2.65998844       1.98521439
Zn       2.58971511       2.64173433       9.88215868
Zn       0.37706054       6.77014417       1.80922443
Zn       0.45412758       6.60962073       9.88996183
Zn       7.36721297       2.57741010       2.10101760
Zn       7.46823190       2.45274004      10.17930773
Zn       5.18653866       6.70430350       1.98367312
Zn       5.23362447       6.67058899       9.99516331
Zn       3.64004236       0.63100176       2.09687533
Zn       3.71455900       0.39293117      10.02339770
Zn       1.48224221       4.70429902       2.00482090
Zn       1.62139396       4.66248662       9.89653418
Zn       8.53558831       0.64235803       2.17148064
Zn       8.70866507       0.47292818      10.10167071
Zn       6.32445283       4.69105559       2.03042806
Zn       6.45034939       4.51201355       9.89882970
