96
Lattice="9.969139083892859 -0.05629873905569438 -0.18415696079002936 -4.722840467778213 8.722457400322881 0.01874038785044696 -0.15985039489402184 0.28056503647868214 15.622760917768238" Properties=species:S:1:pos:R:3 pbc="T T T"
Mg       2.42732272       1.56175574       7.27948423
Mg       2.36010793       1.77627026      15.08882067
Zn       0.24354483       5.91894728       7.29944492
Mg      -0.09038792       6.09953577      14.98526868
Mg       7.48084165       1.55806202       7.19554049
Zn       7.39181734       1.70718232      15.02111691
Mg       5.07251042       5.94563770       7.18398141
Mg       4.94879571       6.04784726      14.93272376
Mg       0.01951146       3.02402824       3.40079408
Mg       0.06660963       3.12517485      11.20352208
Mg      -2.34529148       7.39940645       3.38790452
Mg      -2.36989680       7.45983070      11.16432291
Mg       5.08452821       2.93523751       3.32359734
Mg       4.82565361       3.14091256      11.11138730
Mg       2.64080943       7.27758585       3.32402638
Mg       2.59063493       7.43270645      11.06091328
Mg       2.37968370       1.53135678       4.34226518
Mg       2.36730039       1.58629818      12.21755735
Mg       0.17194444       5.93965411       4.38243046
Mg       0.02126330       5.92994674      12.11750960
Mg       7.47024762       1.52052373       4.26631018
Mg       7.38887245       1.62823216      12.05843941
Mg       5.14135664       5.82896700       4.31343470
Mg       4.99859067       6.05610342      12.12621320
Mg       0.13527433       2.89138374       0.41100228
Mg       0.02611014       3.00152069       8.23328213
Mg      -2.27152469       7.17509782       0.49757060
Mg      -2.33868954       7.39682339       8.25077816
Mg       5.06178157       2.84108352       0.27216821
Mg       4.95626858       2.98887421       8.21628213
Mg       2.76416714       7.22667938       0.35647125
Mg       2.59846530       7.38330664       8.10046413
Zn      -0.02759435       0.00448880      -0.03119344
Zn      -0.02862563       0.15350258       7.77307747
Zn      -2.43733277       4.37731509       0.02804671
Zn      -2.39408825       4.43526996       7.83519516
Zn       4.97138312       0.09096152      -0.09086219
Zn       4.90496388       0.22012859       7.72497368
Zn       2.57794251       4.36078705      -0.01585825
Zn       2.58086927       4.55144425       7.68754560
Zn      -0.06743785       0.08797275       3.97026795
Zn      -0.07421136       0.22192661      11.60862440
Zn      -2.38668408       4.46652994       3.85790126
Zn      -2.47012021       4.61481563      11.72799970
Zn       5.03157299       0.14522105       3.82581413
Zn       4.81659061       0.16120228      11.48646008
Zn       2.55422729       4.38942865       3.83152126
Zn       2.57839084       4.48750769      11.74824255
Zn       0.08024845       1.53533651       5.79063375
Zn      -0.17442474       1.76465367      13.64144729
Zn      -2.36286387       5.96207235       5.74036900
Zn      -2.54729244       6.03527401      13.71885987
Zn       4.99484774       1.52097863       5.82042162
Zn       4.98240181       1.65651615      13.59596482
Zn       2.54899657       5.88265951       5.79400652
Zn       2.39866360       6.00562999      13.60445363
Zn      -1.18502402       3.78838694       5.85678763
Zn      -1.33583300       3.79734193      13.73730531
Zn      -3.61232444       8.17589244       5.97477415
Zn      -3.67802935       8.25098839      13.68003189
Zn       3.80342557       3.77674069       5.60998544
Zn       3.67831049       3.69512078      13.47438217
Zn       1.39776740       8.02599003       5.71451831
Zn       1.32895607       8.19724057      13.52966219
Zn       1.25605850       0.85088459       1.95002710
Zn       1.14769846       0.88760278       9.67707145
Zn      -1.25715937       5.03891949       1.88576897
Zn      -1.17479783       5.24396953       9.77365649
Zn       6.19161959       0.74312687       1.83731748
Zn       6.16222670       0.82269391       9.64367082
Zn       3.88244613       5.11231363       1.81331564
Zn       3.84210940       5.26095609       9.69306371
Zn       1.38426927       3.75572684       5.87024190
Zn       1.17105802       3.81463759      13.64405079
Mg      -1.08237051       8.08098337       5.81470244
Zn      -1.21849899       8.23319363      13.59467817
Zn       6.32122321       3.60474195       5.68528033
Zn       6.21316795       3.86475900      13.51332830
Zn       3.83289359       8.09341685       5.77915258
Zn       3.88568943       8.12072365      13.45971828
Zn       2.59198557       2.96307232       1.87199361
Zn       2.52532529       3.06998409       9.71676287
Zn       0.15340883       7.32549411       1.82767902
Zn       0.03213865       7.43490118       9.67121944
Zn       7.66919095       2.90580042       1.84641981
Zn       7.30804497       3.05546669       9.67455985
Zn       5.20447486       7.27162136       1.79830890
Mg       5.02992734       7.37226734       9.67259037
Zn       3.79419103       0.74535132       1.84927534
Zn       3.67683343       0.88269063       9.71287896
Zn       1.49300212       5.15090277       1.91165257
Zn       1.26345293       5.15627839       9.77249799
Zn       8.70077071       0.63817692       1.77398820
Zn       8.73368294       0.84347164       9.57741654
Zn       6.47479035       5.04469943       1.77268908
Zn       6.19112075       5.21787153       9.63930787
