95
Lattice="9.497721779709567 0.06955230778163587 0.22045443992951655 -4.576828508539834 8.414358675441369 0.007481153534616701 -0.4063222487099466 0.5017575047696782 15.94613240374839" Properties=species:S:1:pos:R:3 pbc="T T T"
Mg       2.18636781       1.70539121       7.58065472
Mg       1.97891138       1.88103135      15.55304169
Zn      -0.01768432       5.87763658       7.48826876
Mg      -0.32448291       6.20046857      15.45913793
Mg       6.94917269       1.68847760       7.66023305
Mg       6.73784312       1.90991745      15.62295151
Mg       4.62518990       5.88021212       7.68522666
Mg       4.49520627       6.13831568      15.63642607
Mg      -0.09156368       2.92279976       3.44237378
Zn      -0.29950689       3.14899214      11.45117697
Mg      -2.27934390       7.12525409       3.53899389
Mg      -2.59815980       7.46388326      11.54432303
Mg       4.72858622       3.02057366       3.67672872
Mg       4.49534075       3.18869726      11.72314544
Mg       2.48223559       7.21559303       3.55691255
Mg       2.24734941       7.45511129      11.69145406
Mg       2.31575263       1.59589540       4.52270476
Mg       2.14467571       1.82953915      12.58084842
Mg      -0.00067246       5.70491849       4.50436173
Mg      -0.15281582       6.00934159      12.51300970
Zn       6.97952553       1.53446992       4.60946278
Mg       6.79731902       1.88702833      12.62219540
Mg       4.67696126       5.73138297       4.72384210
Mg       4.54147303       6.08431107      12.64252121
Mg       0.02309466       2.89327197       0.53619587
Mg      -0.18714816       3.10651879       8.55704564
Mg      -2.25948887       7.05005443       0.44885189
Mg      -2.48092230       7.26286021       8.46642384
Mg       4.80050655       2.94419877       0.69759261
Mg       4.62785360       3.21167870       8.54495264
Mg       2.45940207       7.05153882       0.64552962
Mg       2.28461084       7.29898124       8.61706460
Zn       0.03862420      -0.00481687      -0.03385424
Zn      -0.16822846       0.29058787       7.96641378
Zn      -2.28876221       4.20271428       0.06146711
Zn      -2.51388349       4.47951296       7.98080904
Zn       4.76830062       0.06143464       0.20533842
Zn       4.55505656       0.32675563       8.07345104
Zn       2.43381114       4.35551378       0.10614321
Mg       2.25323763       4.49526453       8.09570271
Zn      -0.13613906       0.18551410       4.03344312
Zn      -0.29778894       0.31672116      11.99706124
Zn      -2.36085472       4.21414485       3.99533649
Mg      -2.64999835       4.57072775      12.00510220
Zn       4.61901715       0.10526638       4.05359538
Zn       4.44132276       0.44614988      12.04691806
Zn       2.34540875       4.40099784       4.06055789
Zn       2.12669720       4.65003575      12.05432111
Zn      -0.15119527       1.66454249       5.97409447
Zn      -0.33782973       1.94997462      14.11909452
Zn      -2.40012840       5.87663787       6.09116907
Zn      -2.57598694       6.07548839      13.98429356
Zn       4.68263625       1.62722814       6.15659051
Zn       4.44738458       1.92049496      14.04020763
Zn       2.25995238       5.86422954       6.16501002
Zn       2.17578435       6.07295633      14.11085433
Zn      -1.31248066       3.64189193       5.94081071
Zn      -1.48613919       3.92159084      14.07614121
Mg      -3.56113056       8.01786271       5.99091933
Zn      -3.73420077       8.13893913      14.01397736
Zn       3.42641286       3.83632920       6.15266293
Zn       3.24956423       3.95136912      13.94522682
Zn       1.20605625       7.97392894       6.18500413
Zn       0.93694213       8.28185232      14.14171730
Zn       1.10656746       0.76885438       2.12622702
Zn       0.91765431       0.94517069       9.93981906
Zn      -1.09648740       4.99005617       2.02066678
Zn      -1.43233734       5.23859864       9.97199756
Zn       5.93757322       0.89250720       2.04798629
Zn       5.70332712       1.09157726      10.19330914
Zn       3.54298151       5.01540821       2.09412309
Zn       3.37951009       5.22069278      10.22370885
Zn       1.11532730       3.84454552       6.12536563
Zn       0.87241780       3.97235823      14.03026330
Zn      -1.16498386       7.88758185       6.12954251
Zn      -1.35166873       8.16524381      14.05948903
Zn       5.90905491       3.83298067       6.10932498
Zn       5.65948868       4.04611968      14.09663288
Zn       3.57283495       7.93431804       6.04721319
Zn       3.39569740       8.18049508      14.08802278
Zn       2.33735386       2.95258116       2.01786240
Zn       2.13422837       3.21125000       9.99128228
Zn       0.06062124       7.01944700       2.12765472
Zn      -0.18679330       7.26128052      10.01563865
Zn       7.14808357       2.96223694       2.24313176
Zn       4.87036077       7.23238423       2.29225659
Zn       4.67544693       7.34565249      10.17894121
Zn       3.46416871       0.75169147       2.10572880
Zn       3.29884451       1.03247404      10.08907037
Zn       1.33176444       5.03532805       2.05948496
Zn       1.09244941       5.14448279      10.03523456
Zn       8.28425981       0.71246580       2.19857394
Zn       8.06930226       1.07151312      10.16719868
Zn       5.92683448       5.07982451       2.24492867
Zn       5.67326704       5.30076146      10.22465205
