95
Lattice="9.43625961152471 0.15868315115470652 0.6604762824207567 -4.823132802913943 8.374987188310193 -0.07380132438005192 0.12683677329801538 -0.07040919198136773 15.337220162654843" Properties=species:S:1:pos:R:3 pbc="T T T"
Mg      -0.04228533       2.73880625       3.42331859
Mg       0.08921258       2.74259360      11.07997965
Mg      -2.49465160       7.06113885       3.44057842
Mg      -2.34196347       6.94459773      11.08765546
Mg       4.72774489       2.87200469       3.78053579
Mg       4.78505640       2.83870820      11.45109832
Mg       2.35266986       7.14281142       3.72353964
Mg       2.28011820       7.11211070      11.36875549
Mg       2.36303547       1.43313183       7.36843073
Zn       2.50015118       1.37543511      15.07402011
Mg       0.03562698       5.61875456       7.39468214
Mg       7.07273590       1.51786724       7.70723707
Mg       7.23765498       1.45084689      15.39981130
Mg       4.71791072       5.64213852       7.70433856
Mg       4.76727498       5.58155294      15.38365685
Mg       2.31263920       1.43638584       4.60004697
Mg       2.41200853       1.41852865      12.31310382
Mg      -0.05842897       5.69392483       4.48441247
Mg       0.03654268       5.59770445      12.14923229
Mg       7.03151370       1.52294339       4.91941123
Mg       7.22254378       1.46619641      12.55299738
Mg       4.61315433       5.68508122       4.67761440
Mg       4.64586515       5.73922795      12.41955471
Mg      -0.12111664       2.83215599       0.69107354
Mg       0.01954615       2.73423332       8.17225558
Mg      -2.40786792       6.84876540       0.48051636
Mg      -2.38233707       6.86883986       8.16079891
Mg       4.63912874       2.90391183       0.88257876
Zn       4.78875283       2.81908133       8.59655045
Zn       2.28050336       7.04491292       0.83851403
Mg       2.41868078       6.99258721       8.53567730
Zn       0.09244763      -0.03186654       3.83019041
Zn      -0.00217547      -0.09234631      11.49803170
Mg      -2.28770756       4.17570387       3.81382497
Zn      -2.33915682       4.08254014      11.49683002
Zn       4.76038371       0.13865170       4.10184509
Zn       4.82257826      -0.03985731      11.81679461
Zn       2.35455335       4.32467913       4.07074820
Zn       2.48413881       4.27829503      11.83651994
Zn      -0.01066107       0.01406587       0.01133745
Zn       0.12143391      -0.07020111       7.68976820
Zn      -2.47056431       4.19902792      -0.08753788
Zn      -2.46750389       4.15078039       7.67872520
Zn       4.73382733       0.08270499       0.42673043
Zn       4.89815697       0.09295057       7.92376232
Zn       2.30759977       4.23688338       0.26281716
Zn       2.32916614       4.23514812       7.89724113
Zn       2.38908779       2.87494737       2.11487781
Zn       2.42181916       2.78811475       9.81125088
Zn      -0.04951595       6.99532445       2.08953982
Zn       0.01728173       6.97411263       9.73947009
Zn       7.05042416       2.93148343       2.51073822
Zn       7.12145998       2.92291397      10.15242776
Zn       4.61003843       7.16608871       2.43391380
Zn       4.67026066       7.04157831      10.14467594
Zn      -1.13926859       3.53207678       5.77658450
Zn      -1.11865487       3.53356791      13.50781660
Zn      -3.59962638       7.63075677       5.85607416
Zn      -3.57162147       7.59353397      13.43580728
Zn       3.44796830       3.48142743       6.14423725
Zn       3.58564849       3.48129149      13.75101203
Zn       1.10706161       7.77937819       6.15170292
Zn       1.23141785       7.76244314      13.67897779
Zn      -0.06284024       1.34725426       5.79735639
Zn       0.17675634       1.39070557      13.51789435
Zn      -2.41216803       5.59993130       5.77398552
Zn      -2.28157174       5.47791490      13.30212767
Zn       4.73542976       1.56346567       6.08989022
Zn       4.88130456       1.42217737      13.74294432
Zn       2.30404021       5.65428955       6.07924555
Zn       2.40580173       5.47333911      13.74477893
Zn       3.63157669       0.80781003       2.21764347
Zn       3.67798542       0.70234793       9.79950287
Zn       1.15285114       4.88293727       2.18820533
Zn       1.17987407       4.94387181       9.82481632
Mg       8.24779243       0.85219061       2.52357687
Zn       8.37153845       0.80789878      10.23990886
Zn       5.83847447       5.07982388       2.51136863
Zn       5.95854678       4.90716013      10.15775153
Zn       1.11206355       0.71690966       2.04762944
Zn       1.22630087       0.77172830       9.73447969
Zn      -1.20539165       4.88887260       1.95992730
Zn      -1.23654827       4.83740090       9.67052376
Zn       5.95977043       0.71613831       2.31577444
Zn       5.95359463       0.80954104      10.01346995
Zn       3.47216342       4.98999024       2.28790055
Zn       3.55900009       4.89406390      10.05403110
Zn       1.21869969       3.49935662       5.88126386
Zn       1.26161158       3.44613259      13.59815838
Zn      -1.26236884       7.69229388       5.80329525
Zn      -1.17605009       7.64030960      13.61792078
Zn       5.83616418       3.60435597       6.26072473
Mg       6.00958213       3.60267506      13.88595960
Zn       3.47889443       7.81847763       6.25725384
Zn       3.57415872       7.78228489      13.97859860
