94
Lattice="9.421693292329195 0.13124407497568996 0.23588877754137508 -5.017160992220169 8.222885309607996 0.3029117581805166 0.3031801013492802 -0.2478161731247262 15.701449101900334" Properties=species:S:1:pos:R:3 pbc="T T T"
Mg      -0.12387944       2.71253830       3.62509037
Mg       0.22157819       2.60691766      11.49060364
Mg      -2.56960436       6.78436345       3.67507685
Mg      -2.40712633       6.67917669      11.56394948
Mg       4.67501908       2.71280193       3.63463513
Mg       4.85850898       2.67961518      11.57074238
Mg       2.19115094       6.85217653       3.80272503
Mg       2.26256294       6.73614034      11.76623426
Mg       2.50984151       1.29747322       7.50193821
Zn       2.66732861       1.22188465      15.41059462
Mg      -0.07773803       5.39107642       7.61298970
Mg       0.08736656       5.21187248      15.48073121
Mg       7.17483327       1.36206015       7.57384330
Mg       7.34422035       1.15204498      15.52343188
Mg       4.60300787       5.39576535       7.78498974
Mg       4.73128098       5.36961184      15.64825518
Mg       2.30150170       1.34602662       4.47420829
Mg       2.47630215       1.19422213      12.37613466
Mg      -0.07968071       5.52431760       4.74539167
Mg       0.01328196       5.33984503      12.62939441
Mg       7.23262429       1.43754327       4.67520988
Mg       7.32351241       1.23693818      12.52232211
Mg       4.59771702       5.49753645       4.75024840
Mg       4.80415256       5.36016003      12.69460550
Mg      -0.07119735       2.70563605       0.66449770
Mg       0.01250700       2.62643647       8.35293118
Mg      -2.62127807       6.88603533       0.75662726
Mg      -2.39887881       6.74386449       8.59384569
Zn       4.72217344       2.71987607       8.53163937
Mg       2.15140017       6.99303383       0.90978763
Mg       2.25483487       6.81389538       8.71396427
Zn       0.01459562       0.00195317       3.84000152
Zn       0.30078309      -0.27575326      11.82985670
Zn      -2.43279159       4.12290020       4.04431761
Zn      -2.24252212       3.94950321      11.95829886
Zn       4.76864674       0.06743219       4.10673548
Zn       4.86173404      -0.21606757      11.85901641
Zn       2.30637291       4.11644915       4.30978247
Zn       2.45818622       3.97919190      12.03805944
Zn       0.00498014       0.00754178      -0.04112089
Zn       0.19900576      -0.12994045       7.93223750
Zn      -2.55075529       4.16245614       0.07995884
Zn      -2.38899774       4.02627335       7.99007672
Zn       4.74105449       0.07959494       0.18593424
Zn       4.85249282      -0.05577142       7.90101551
Zn       2.19404272       4.24798201       0.22386964
Zn       2.33243004       4.04501750       8.12475211
Zn       2.29937467       2.82121274       2.12461904
Zn       2.53370651       2.64913180      10.02805416
Zn      -0.25668141       6.84316835       2.37472046
Zn      -0.01085409       6.70745250      10.19513051
Zn       6.96349867       2.81522398       2.30113645
Zn       7.18845635       2.72563759      10.06396210
Zn       4.51084754       7.03009457       2.41249579
Zn       4.55633582       6.85427524      10.25909118
Zn      -1.20820383       3.42761198       6.02763332
Mg      -1.01699411       3.24751846      13.86591063
Zn      -3.67215157       7.51045831       6.15484169
Zn      -3.56190810       7.28292570      14.06782536
Zn       3.58940098       3.42337615       6.12017055
Zn       3.65457001       3.26407428      13.94128193
Zn       1.05225205       7.60410284       6.31713445
Mg       1.09996665       7.38800086      14.18392577
Zn       0.03405621       1.19831952       6.05723490
Zn       0.25133966       1.10219318      13.80149628
Zn      -2.45683036       5.32744325       6.12315370
Zn      -2.32087693       5.26234095      13.87653306
Zn       4.85312417       1.39748373       5.94795802
Zn       4.96154004       1.21005262      13.97981837
Zn       2.25695823       5.43521030       6.32548588
Zn       2.46195551       5.28809287      14.12012476
Zn       3.47362190       0.66750882       2.09346417
Zn       3.68408954       0.65990529       9.87317332
Zn       1.03100929       4.90532483       2.20786398
Zn       1.25699829       4.65695588      10.08305261
Zn       8.32794035       0.72738454       2.14179152
Zn       8.55088687       0.63490614      10.08308350
Zn       5.80784578       4.79053597       2.37733442
Zn       5.88984329       4.75609284      10.21987430
Zn       1.18745724       0.77734288       1.98788422
Zn       1.33632193       0.56036806       9.97376535
Zn      -1.26768019       4.77858119       2.21271271
Zn      -1.16518451       4.63690908       9.99226859
Zn       5.90697616       0.78311556       2.15896580
Zn       6.03885396       0.63582377      10.00166510
Zn       3.42235139       4.83271246       2.27305222
Zn       3.56368721       4.71102429      10.23481254
Zn       1.34458503       3.28535800      13.92996700
Zn      -1.29263589       7.43079056       6.26789702
Zn      -1.19165346       7.41773198      14.08475873
Zn       5.94367087       3.44654252       6.13953768
Zn       6.13603246       3.29695815      14.06410792
Zn       3.40884989       7.60844688       6.43668372
Zn       3.45053286       7.40690442      14.27969658
