95
Lattice="9.780949496755762 -0.3055744769534841 0.07372859665207229 -5.091506492347431 8.622444567658665 0.1253801023817851 0.07656834965413234 0.13104196570849455 15.735497007372055" Properties=species:S:1:pos:R:3 pbc="T T T"
Mg       2.45834073       1.43967750       7.40245422
Mg       2.49244839       1.44420612      15.25027429
Mg      -0.08818819       5.66834018       7.52949318
Mg      -0.02786707       5.70173841      15.39972209
Mg       7.33804010       1.31555281       7.38297579
Mg       7.32225267       1.38321277      15.41508680
Mg       4.84131077       5.63108949       7.59742340
Mg       4.75622453       5.65170528      15.36341557
Mg      -0.06171458       2.84352373       3.45188321
Mg      -0.01377305       2.90108970      11.36631013
Mg      -2.62197897       7.14739363       3.55538456
Mg      -2.51339738       7.20166953      11.37238646
Mg       4.90557916       2.68577888       3.54881178
Mg       4.91858870       2.82237187      11.34167128
Mg       2.18085240       7.13796370       3.60286027
Mg       2.41020949       7.08725475      11.54555988
Mg       2.42870333       1.44165255       4.55036588
Mg       2.52525096       1.40612281      12.27866193
Mg      -0.16959661       5.72206001       4.49637842
Mg      -0.10354837       5.76218025      12.42910964
Mg       7.40184950       1.20125736       4.48142901
Mg       7.33623598       1.33871015      12.36992738
Mg       4.72647368       5.47454588       4.46925161
Mg       4.73613283       5.61337803      12.55068912
Mg      -0.06281318       2.88514124       0.57909905
Mg      -0.10364808       2.91057917       8.38344278
Mg      -2.61581722       7.09280200       0.56657247
Mg      -2.56908144       7.15860712       8.52724670
Mg       4.73227845       2.65675314       0.58256751
Mg       4.84682333       2.72315066       8.41104176
Mg       2.29509006       6.95266541       0.70669673
Zn       2.36241031       6.96476047       8.60935633
Zn      -0.00105119       0.01664229       0.01416491
Zn       0.05565879       0.06728594       7.93243848
Zn      -2.55695379       4.25961496       0.00556899
Zn      -2.56728419       4.38361726       7.87200874
Zn       4.88286680      -0.21348910      -0.00681200
Zn       4.96434856      -0.07627669       7.88435395
Zn       2.23165535       4.14102056      -0.03254281
Zn       2.40641793       4.20003118       7.94040926
Zn      -0.05280397       0.02951626       3.96493601
Zn       0.01560263       0.17845576      11.74263044
Zn      -2.61752264       4.40324936       4.08060228
Zn      -2.57089635       4.38144521      11.81310891
Zn       4.91937307      -0.13228285       3.98382978
Zn       4.90603617      -0.10477428      11.88007962
Zn       2.37432417       4.12406652       4.11260032
Zn       2.37692804       4.23854043      11.87824802
Zn      -0.02194515       1.42733080       5.84435001
Zn       0.11835446       1.58223843      13.79606899
Mg      -2.69068893       5.77784623       5.95233545
Zn      -2.53509731       5.89063379      13.81282787
Zn       4.90070508       1.30072578       5.99982748
Zn       4.87893727       1.39461598      13.84558326
Zn       2.38137427       5.68061472       6.11365960
Zn       2.39381448       5.71689200      13.95732998
Zn      -1.27839819       3.59295368       5.95081074
Zn      -1.21163104       3.69742974      13.87088647
Zn      -3.69706316       7.91002880       6.05930976
Zn      -3.81487524       7.99416305      13.93205589
Zn       3.60030217       3.44504343       5.97307774
Zn       3.58708031       3.55653911      13.91062512
Zn       1.16530732       7.80692175       6.09753592
Zn       1.18361654       7.90355759      13.95143526
Zn       1.17811198       0.64675898       1.98231827
Zn       1.26339886       0.64308561       9.81385472
Zn      -1.40331631       5.02466618       2.12361371
Zn      -1.34626341       5.12589481       9.90176356
Zn       6.02660984       0.53556255       2.09713137
Zn       6.09586129       0.66752317       9.89266048
Zn       3.60923247       4.81529491       2.20435521
Zn       3.56787285       4.90115766      10.00687953
Zn       1.14584566       3.56007156       5.89984309
Zn       1.22951924       3.59920399      13.85393525
Zn      -1.32913550       7.89892830       6.09833713
Zn      -1.33170908       7.90394802      13.95515512
Zn       6.04204755       3.44700658       6.00813423
Zn       6.06037922       3.35421209      13.92577336
Zn       3.50712371       7.73384152      14.00474883
Zn       2.31931197       2.72962035       2.06204714
Zn       2.39765324       2.85760544       9.89360075
Zn      -0.19643825       7.10584185       2.11942621
Zn      -0.08601709       7.14094027       9.95756414
Zn       7.17474092       2.60025612       2.09687608
Zn       7.32173348       2.72717829       9.97546443
Zn       4.71710178       6.93814704       2.11964098
Zn       4.71183630       6.87620621       9.98868982
Zn       3.62128090       0.67011565       1.99240033
Zn       3.75419865       0.60216508       9.86487777
Zn       0.94934260       4.94776356       2.08217359
Zn       1.15027281       4.99664431       9.91730263
Zn       8.60866160       0.52283762       2.04227653
Zn       8.52614123       0.55108440       9.82328233
Zn       6.02403539       4.77947296       2.09842326
Zn       6.07707796       4.71010558       9.95565324
