96
Lattice="9.686349683292619 0.0757910338675636 0.03975905137107883 -4.989316391414507 8.325846152130833 0.13835751235418506 -0.13302451026506454 0.03456571877074436 15.555509991382715" Properties=species:S:1:pos:R:3 pbc="T T T"
Mg      -0.08697697       2.84071660       3.45432805
Mg      -0.19574899       2.80781555      11.25034958
Mg      -2.50868553       6.96331284       3.50067646
Mg      -2.62670564       6.94204045      11.32190869
Mg       4.68258649       2.70779405       3.46889801
Zn       4.71676221       2.87929485      11.17506085
Mg       2.30265775       6.99839093       3.53523753
Mg       2.24347694       7.04133707      11.29542216
Mg       2.32644289       1.51561943       7.27181591
Mg       2.24227397       1.45774519      15.08857200
Mg      -0.24603360       5.57183790       7.44532412
Mg      -0.16065087       5.62234589      15.20527573
Mg       7.10623521       1.40103897       7.41061658
Mg       7.09960458       1.49476889      15.07509846
Zn       4.64737838       5.61558793       7.32170665
Mg       4.63112965       5.68418655      15.34309711
Mg       2.34682605       1.47443101       4.46570530
Mg       2.36640970       1.42257129      12.12287196
Zn      -0.08106982       5.62329146       4.47749340
Mg      -0.15200970       5.59561474      12.30880775
Mg       7.25577423       1.38723453       4.42735212
Mg       7.14096918       1.45087908      12.28199788
Mg       4.63792692       5.64648867       4.51854750
Mg       4.70807933       5.54458025      12.27848743
Mg       0.02248757       2.79713824       0.50321725
Mg      -0.10932798       2.82206094       8.35877107
Zn      -2.49520165       6.93140908       0.57684382
Mg      -2.64054918       6.97384132       8.36927667
Mg       4.70099320       2.78531048       0.50840394
Mg       4.70165779       2.87430496       8.29588545
Mg       2.32129682       7.03669053       0.62853072
Mg       2.18414722       6.99008021       8.46808407
Zn      -0.06118783       0.01756933       3.99398014
Zn      -0.17190651       0.06421594      11.64998176
Zn      -2.50606438       4.27072428       3.92244238
Mg      -2.55632470       4.13084635      11.70498265
Zn       4.84927070       0.10042195       3.85809830
Zn       4.75662488       0.13365469      11.68323295
Zn       2.35975257       4.20005992       3.92813543
Zn       2.23528051       4.30399768      11.76573563
Zn      -0.01800832      -0.00362921       0.04141789
Zn      -0.09717767      -0.02167674       7.73345393
Mg      -2.47013302       4.10572663       0.14062411
Zn      -2.52847844       4.19538940       7.90074433
Zn       4.82117852       0.01260498      -0.06516706
Zn       4.82767550      -0.03334298       7.79834433
Zn       2.37183006       4.13821699       0.13604447
Zn       2.39144964       4.23310500       7.89358568
Zn       2.32683625       2.81809862       1.97952153
Zn       2.35871715       2.88205644       9.68119155
Zn      -0.13919123       6.97188506       2.12555348
Zn      -0.20296749       6.97135635       9.85240773
Zn       7.14164601       2.85956649       1.91695962
Zn       7.16801657       2.77051990       9.83593751
Zn       4.67557377       7.01446684       2.08567852
Zn       4.64759886       7.02198291       9.79883097
Zn      -1.28261360       3.53294649       5.86854847
Zn      -1.32133223       3.58203481      13.70128592
Zn      -3.87249576       7.61449969       5.95587906
Zn      -3.94322760       7.57856221      13.70076283
Zn       3.56475866       3.50570326       5.96228207
Zn       3.42207327       3.60204540      13.77923516
Zn       1.00910927       7.67281492       6.03879310
Zn       0.88706767       7.72105886      13.79195493
Zn      -0.09245241       1.36736666       5.76708217
Zn      -0.20071424       1.44938831      13.64869340
Zn      -2.71739121       5.55605549       5.91460458
Zn      -2.63315476       5.63507846      13.72898128
Zn       4.78254772       1.51094975       5.91560231
Mg       4.72249142       1.45584845      13.66593189
Zn       2.29485207       5.52231441       5.98814683
Zn       2.23582412       5.58982361      13.77312423
Zn       3.55170442       0.61713232       2.04655584
Zn       3.59428371       0.75212315       9.77156636
Zn       1.14008563       4.81693089       2.17209238
Zn       1.01523741       4.88297903       9.89628207
Zn       8.46657653       0.75314243       1.96162654
Zn       8.42255532       0.78921765       9.80308627
Zn       5.92514733       4.85859905       1.99773227
Zn       5.87516145       4.95854899       9.83272833
Mg       1.12130264       0.71276498       1.93965060
Zn       1.08022785       0.71253611       9.77334266
Zn      -1.28465309       4.95823188       1.99494677
Zn      -1.34564571       4.83663494       9.79174519
Zn       6.02112723       0.72760062       1.93672456
Zn       5.97535513       0.79206731       9.70050283
Zn       3.47838660       4.76630659       1.95418940
Zn       3.43022529       4.96545915       9.82730800
Zn       1.11268257       3.44901042       5.94154555
Zn       1.11322367       3.49157028      13.60430763
Zn      -1.46507852       7.65457451       5.97002422
Zn      -1.44521622       7.60325897      13.79760934
Zn       5.96003890       3.49112283       5.89901082
Zn       5.84063977       3.50552151      13.75474860
Zn       3.49519293       7.73214966       6.04192314
Zn       3.35095763       7.68364537      13.83772564
