96
Lattice="9.716613034140142 0.13785579695831982 -0.2103948495850319 -5.1869451839052925 8.196569259453028 0.24966954779813996 0.11493828681987965 0.23527731046641615 15.982034469071987" Properties=species:S:1:pos:R:3 pbc="T T T"
Mg      -0.06340749       2.73746574       3.46699891
Mg      -0.02333902       2.95043377      11.53051412
Mg      -2.75208754       6.94552883       3.65445101
Zn      -2.54909305       7.06384715      11.74846942
Zn       4.68369379       2.94602952       3.47770593
Mg       4.84447669       3.02159920      11.50214520
Mg       2.21712424       7.02361138       3.54578652
Mg       2.13846112       7.18524758      11.58424862
Mg       2.44808334       1.49285210       7.44883040
Mg       2.51370763       1.57834359      15.49761308
Mg      -0.20197890       5.63120804       7.61806138
Mg      -0.11580365       5.68286592      15.60070167
Mg       7.26225170       1.53133728       7.29813757
Mg       7.33303937       1.65301512      15.35982026
Mg       4.61780412       5.74600628       7.48706282
Mg       4.80861221       5.73217697      15.47291378
Mg       2.42979801       1.41479873       4.54741353
Mg       2.45852143       1.67286931      12.52012528
Mg      -0.14404899       5.62836620       4.59909489
Mg      -0.15190478       5.61652354      12.52082342
Mg       7.33101597       1.49358765       4.36867903
Mg       7.37409153       1.66516674      12.41270563
Mg       4.66740731       5.63920083       4.45391159
Mg       4.79806871       5.71428879      12.47516713
Mg      -0.01528309       2.81026027       0.50697917
Mg       0.04684483       2.88566082       8.48251753
Mg      -2.79548164       6.81508633       0.65058434
Mg      -2.68952932       7.05136699       8.69666070
Mg       4.83562349       2.86367000       0.41251101
Mg       4.80317685       3.00922634       8.53309531
Mg       2.23371327       6.87731697       0.54846280
Mg       2.16063785       7.04180831       8.50849796
Zn       0.08156766       0.08324387       3.97613416
Zn       0.08149550       0.23997821      11.96053580
Zn      -2.52831834       4.12205544       4.04839972
Zn      -2.54546898       4.30895104      12.18570983
Zn       4.87279697       0.10256344       3.84018192
Zn       4.88332438       0.19949853      11.75947481
Zn       2.38622360       4.21152389       4.04099888
Zn       2.36737884       4.31644312      11.97916760
Zn      -0.06999110       0.00631374       0.03934122
Mg       0.04652997       0.17357897       7.98375300
Zn      -2.56664188       4.09127325       0.09626296
Zn      -2.59541736       4.13409950       8.11178104
Zn       4.92490797       0.17620942      -0.05674216
Zn       5.04254185       0.18677004       7.87485507
Zn       2.23296608       4.08863895       0.07987903
Zn       2.29711741       4.23308998       7.97792491
Zn       2.27909562       2.80603307       1.97603269
Zn       2.42983898       2.94167986      10.02504513
Zn      -0.23820195       6.82103871       2.08580206
Zn      -0.21903789       7.03470791      10.12043772
Zn       7.20037796       2.92378830       1.94296539
Zn       7.27097742       2.97708130       9.87321803
Zn       4.63268582       7.01335908       1.96514061
Zn       4.65241581       7.06511694      10.00960456
Zn      -1.38304532       3.50057560       6.05015570
Zn      -1.31543010       3.65478733      14.10198841
Zn      -3.92546897       7.59517273       6.16981925
Mg      -3.83497394       7.76752214      14.17401847
Zn       3.47738673       3.68817700       6.00349450
Zn       3.67094097       3.64444836      13.98458141
Zn       1.01147792       7.70434795       6.21305449
Zn       1.05271401       7.78029915      14.10036464
Zn       0.01815627       1.45275693       5.98584620
Zn      -0.06152569       1.65159870      13.98885549
Zn      -2.68328073       5.51579373       6.05107048
Zn      -2.60287322       5.62987598      14.19809727
Zn       4.93251748       1.51371234       5.81358541
Zn       4.93462254       1.64720379      13.94028666
Zn       2.29154432       5.56897513       6.01415699
Zn       2.30442917       5.71486695      13.93709506
Zn       3.62853067       0.75488221       1.86826009
Zn       3.72275184       0.81326976       9.90230385
Zn       1.01475605       4.79115744       2.01780173
Zn       1.05217395       5.01260536       9.92929680
Zn       8.52843345       0.84810986       1.78555037
Zn       8.61433785       0.88541730       9.82475246
Zn       5.86150774       4.94109442       1.95836066
Zn       5.94513488       4.94938290      10.01450237
Zn       1.12626857       0.64864710       1.98741393
Zn       1.21774042       0.82727301       9.92175598
Zn      -1.34443488       4.80324763       2.07406375
Zn      -1.36152412       4.94368428      10.00914114
Zn       6.10350433       0.73454896       1.84962450
Zn       6.07197388       0.98200624       9.93357010
Zn       3.44268596       4.94135107       2.09197476
Zn       3.51038071       4.96568951       9.96696832
Zn       1.13919256       3.54376456       6.02817833
Zn       1.16015871       3.57461206      14.02231542
Zn      -1.49047123       7.62076941       6.13072252
Zn      -1.49263843       7.81146680      14.17359386
Zn       6.04979982       3.64642792       5.94508523
Zn       6.05260392       3.61602585      13.94191981
Zn       3.49287787       7.59916467       6.09592260
Zn       3.41744116       7.82303652      14.10526019
