96
Lattice="9.37890488960108 -0.06914874931981463 0.058673807169351735 -4.47607654817816 8.357669157842869 -0.04316783202903802 -0.06826411084826689 -0.06736537224836485 15.468255541879186" Properties=species:S:1:pos:R:3 pbc="T T T"
Mg       0.01072284       2.72346819       3.41353905
Zn      -0.01137558       2.73384409      11.16900978
Mg      -2.07879964       6.86245185       3.40908470
Mg      -2.24970384       6.87067812      10.99309929
Mg       4.77534978       2.86338895       3.40821841
Mg       4.67548385       2.76251089      11.24590236
Mg       2.42199383       6.85032858       3.33535318
Mg       2.49134800       6.89681202      11.14036568
Mg       2.36717963       1.38623921       7.22986800
Zn       2.27053228       1.31030007      15.02909921
Mg       0.06187460       5.47532952       7.24271972
Zn       0.09214660       5.43802199      15.03962896
Mg       6.96691181       1.29962037       7.26803598
Mg       7.04834806       1.32539451      14.98882306
Mg       4.88729778       5.42331747       7.31311929
Mg       4.79201159       5.39528397      14.95712229
Mg       2.28490161       1.27223214       4.32923850
Mg       2.35180501       1.37391536      12.08833294
Mg       0.21493732       5.62083704       4.33035567
Mg       0.10047363       5.51146532      12.08786915
Mg       7.07904193       1.33020615       4.22774550
Zn       7.03105188       1.23025088      12.19387041
Mg       4.82925681       5.47741540       4.28531879
Mg       4.78856338       5.39894663      12.06425738
Mg      -0.00539765       2.81928821       0.46708888
Mg       0.04493591       2.75037626       8.19002221
Mg      -2.14644371       6.96058638       0.41082737
Mg      -2.23304637       6.94024900       8.19129940
Mg       4.84101014       2.76148045       0.45292061
Mg       4.80045674       2.60816809       8.23881144
Mg       2.59467189       7.00181110       0.50751001
Mg       2.48988153       6.88682848       8.28245194
Zn       0.02216449       0.02685022       3.80829484
Zn      -0.04178598      -0.01070602      11.61140611
Zn      -2.22176664       4.13941863       3.81811701
Mg      -2.31224314       4.10107367      11.56129031
Zn       4.70206847      -0.08203661       3.88983281
Zn       4.60201264      -0.17938021      11.54928206
Zn       2.53893999       4.08080202       3.92934021
Zn       2.40283306       4.09401746      11.68420294
Zn      -0.00735726      -0.03073638      -0.01490735
Zn      -0.01870214      -0.02227213       7.66453227
Zn      -2.22311363       4.19099055       0.07693428
Mg      -2.23919172       4.09814634       7.73460123
Zn       4.70125208      -0.05492672       0.00537066
Zn       4.64794821       0.01278118       7.72239861
Zn       2.56475806       4.05061282       0.08720174
Zn       2.44404316       4.11308457       7.64399027
Zn       2.41013112       2.78083347       1.97329630
Zn       2.34506246       2.68647216       9.72573016
Zn       0.13282992       6.85806052       1.83353252
Zn       0.20119824       6.85447275       9.53690662
Zn       7.11366561       2.77220706       1.95325325
Zn       7.02905957       2.70830790       9.73300305
Zn       4.89129123       6.91956560       1.92780329
Zn       4.78014423       6.89587335       9.64336540
Zn      -1.02381851       3.48690644       5.75254185
Zn      -1.15395284       3.35225986      13.52254150
Zn      -3.31387856       7.58493132       5.77048684
Zn      -3.34017216       7.60368035      13.56436307
Zn       3.59734302       3.34098671       5.82807212
Zn       3.54926139       3.40782362      13.59647008
Zn       1.31864293       7.62666523       5.76077322
Zn       1.29625617       7.54187847      13.51142976
Zn      -0.07171553       1.44669437       5.86463596
Zn       0.03548866       1.32135167      13.57714380
Zn      -2.18629437       5.53271247       5.74486280
Zn      -2.25216191       5.42758056      13.55314909
Zn       4.68669130       1.29751305       5.90459316
Zn       4.67038374       1.31251889      13.64477198
Zn       2.58449022       5.47383452       5.73329967
Zn       2.35547011       5.44635273      13.45362139
Zn       3.49976812       0.69445680       1.99700453
Zn       3.51872021       0.61771227       9.66206065
Zn       1.26186605       4.75001031       1.94802357
Zn       1.33009104       4.83440495       9.69436912
Zn       8.26276872       0.66266201       2.05519626
Zn       8.17622839       0.45531474       9.72753273
Zn       6.02154917       4.75414671       1.91563410
Zn       6.03049957       4.72934506       9.65509064
Mg       1.10755065       0.59798360       1.94719109
Zn       1.10280033       0.56273307       9.60014468
Zn      -1.08178212       4.86722820       1.96965973
Zn      -1.16385608       4.88165786       9.59445484
Zn       5.79106991       0.65095004       1.98722754
Zn       5.84658023       0.61325398       9.63123804
Zn       3.62508102       4.81211198       1.99013936
Zn       3.66174790       4.74285784       9.70804920
Zn       1.14507219       3.44428360       5.79049873
Zn       1.19753492       3.47349723      13.56229985
Zn      -1.01511415       7.60872600       5.73770808
Mg      -1.04548936       7.54473380      13.58223023
Zn       5.90005779       3.35967310       5.84870758
Zn       5.87898054       3.49738948      13.61161641
Zn       3.71836399       7.59739593       5.85629832
Zn       3.72868768       7.57389144      13.50745164
