95
Lattice="9.53927440156295 0.04823007024500276 -0.019072904380889433 -4.914104496850596 8.548872619997862 0.20666315746437502 0.36918197997483415 0.023974325641170482 15.613581195681768" Properties=species:S:1:pos:R:3 pbc="T T T"
Mg       2.56931765       1.40986681       7.42219364
Mg       2.70588529       1.42904187      15.15398076
Mg       0.00702365       5.70404857       7.45322853
Mg       0.32470272       5.74034339      15.20413749
Mg       7.29435112       1.48121549       7.30957604
Mg       7.50413667       1.51852634      15.15046187
Mg       4.86774873       5.73625771       7.41375889
Mg       5.08577677       5.75767538      15.17017612
Mg       0.02625805       2.96062467       3.44232433
Mg       0.17514675       2.86541660      11.27548835
Mg      -2.37860171       7.18090463       3.61794582
Mg      -2.26639044       7.09236923      11.43068888
Mg       4.77884291       2.85628726       3.44111796
Mg       5.00055563       2.80288549      11.30862666
Mg       2.30107769       7.24205106       3.58034907
Mg       2.50272405       7.19304032      11.34206680
Mg       2.50466096       1.34228038       4.56358921
Mg       2.62343528       1.38532557      12.15890583
Mg      -0.01007107       5.80463197       4.51075494
Mg       0.20692903       5.81774420      12.32810490
Mg       7.20528170       1.51954282       4.41355601
Mg       7.45064477       1.43359791      12.28967902
Mg       4.75474558       5.78311780       4.53569886
Mg       4.99005395       5.69086606      12.37811038
Mg      -0.04218613       2.85824199       0.56602194
Mg       0.08246618       2.86956202       8.33570426
Zn      -2.39534325       7.14913972       0.57662176
Mg      -2.33950041       7.13568830       8.46294504
Mg       4.76970046       2.83831040       0.54772550
Mg       4.87740116       2.87365265       8.38870805
Mg       2.16876283       7.20588188       0.65692220
Mg       2.50966096       7.26940400       8.49963062
Zn      -0.00829313       0.03632538      -0.01255027
Mg       0.23016995       0.08513987       7.74187894
Zn      -2.46658771       4.24317906       0.14779629
Zn      -2.28518364       4.24841964       8.00302143
Zn       4.80867278      -0.01109992      -0.08253063
Zn       4.96189717       0.02547642       7.77490165
Zn       2.25620008       4.30446035       0.04785681
Zn       2.47834234       4.29907917       7.85388292
Zn       0.08536815      -0.05006728       3.89181455
Zn       0.25677826      -0.06700547      11.65644126
Zn      -2.27746158       4.35235157       4.01336393
Zn      -2.13750682       4.31442978      11.80529754
Zn       4.80802105       0.11010877       3.88439191
Zn       5.10216076       0.07398337      11.70758745
Zn       2.52691766       4.27894588       4.00084883
Zn       2.54037938       4.41081776      11.69334465
Zn       0.06303786       1.44024532       5.92421342
Zn       0.29275993       1.37360056      13.61048786
Zn      -2.31651330       5.74662437       5.88774745
Zn      -2.32374991       5.76539647      13.73940148
Zn       4.87559028       1.43345225       5.87594515
Zn       5.06937160       1.44128850      13.59392404
Zn       2.29478392       5.72193220       5.97598745
Zn       2.57365124       5.71970927      13.79038043
Zn      -1.05592281       3.53721823       5.89900437
Zn      -1.07629233       3.68043950      13.71378740
Zn      -3.55205970       7.91111716       6.05324104
Zn       3.73172022       3.60281318       5.92180928
Zn       3.80048846       3.71145462      13.78087717
Zn       1.17464775       7.84632443       6.08899461
Zn       1.34147181       7.89634730      13.82817737
Zn       1.20035931       0.79674494       1.84094870
Zn       1.49894715       0.68019272       9.75035844
Zn      -1.22319266       4.99717240       2.00502093
Zn      -1.02983416       4.97743220       9.91514549
Zn       5.92173456       0.74569461       1.95672081
Zn       6.07856212       0.70108613       9.89087833
Zn       3.55512271       4.99774332       2.05477727
Zn       3.62092362       5.04105225       9.93226464
Zn       1.33944335       3.56684064       5.87319907
Zn       1.39729380       3.60247337      13.76384211
Zn      -1.18823578       7.88555741       6.08220455
Zn      -0.99899574       7.85855735      13.87011333
Zn       6.02363043       3.57405024       5.92942940
Zn       6.14342893       3.57358844      13.77383319
Zn       3.55594954       7.99424738       6.02735048
Zn       3.74103351       7.90214131      13.76105756
Zn       2.40489314       2.91973686       1.95235522
Zn       2.63529388       2.89025541       9.74545726
Zn      -0.06041792       7.05571399       2.21736904
Zn       0.10246461       7.20018885       9.85947336
Zn       7.19136557       2.84706197       2.08109563
Zn       7.30344161       2.82352892       9.84023666
Zn       4.72890129       7.11091913       2.06396199
Zn       4.83594379       7.08257057       9.98116571
Zn       3.61645314       0.78232558       1.92560839
Zn       3.82358139       0.77643766       9.80245116
Zn       1.12324486       5.04909935       2.03069636
Zn       1.42713098       4.97974660       9.81259832
Zn       8.40463093       0.79952847       1.89616280
Zn       8.58948274       0.67879708       9.73981899
Zn       5.98735858       5.04378153       2.01480978
Zn       6.13921471       5.01156881       9.84373599
