96
Lattice="9.777894116672545 0.584982682716538 -0.011017682890791637 -4.958682611915873 8.10946644237854 0.20065538475078315 0.1263203746545176 0.0779915551120471 15.973049393167624" Properties=species:S:1:pos:R:3 pbc="T T T"
Mg      -0.06682183       2.80372577       3.53022364
Mg      -0.02985910       2.84891784      11.61256268
Mg      -2.50033160       6.97982889       3.70284088
Mg      -2.44667583       6.88948748      11.67132726
Mg       4.81544500       3.07655161       3.57850529
Mg       4.95785301       3.10400177      11.59774650
Mg       2.40594017       7.17900701       3.70620063
Mg       2.45196993       7.10530037      11.63057770
Mg       2.45281259       1.61622771       7.59034866
Zn       2.51310332       1.73563065      15.50565126
Mg       0.09511724       5.68449495       7.70892798
Mg       0.06074054       5.65910830      15.58192307
Mg       7.31353053       1.84797011       7.46488118
Mg       7.43982147       1.86394551      15.46546994
Mg       4.98114269       5.91814927       7.60476789
Mg       4.83583262       5.88127169      15.61095452
Mg       2.46076539       1.63479057       4.62629404
Mg       2.53989807       1.64372830      12.43848247
Mg       0.04899114       5.65895067       4.71395186
Mg       0.08281153       5.69583984      12.68953793
Mg       7.39779671       1.92257331       4.50793597
Mg       7.46386034       1.91914637      12.63775631
Mg       4.84301582       5.90971233       4.47118389
Mg       4.88759098       5.99258939      12.54686711
Mg       0.01145383       2.78282169       0.55220727
Mg       0.01081319       2.86282137       8.47954036
Mg      -2.43492584       6.82152607       0.70797915
Mg      -2.38894403       6.84497638       8.60471261
Mg       4.86796848       3.09472452       0.53302945
Mg       4.88327808       3.11193493       8.61663133
Mg       2.41800303       7.12142983       0.68974474
Mg       2.45689978       7.16309278       8.66940247
Zn       0.03460231      -0.01101504       3.91784164
Mg       0.08872519       0.11343919      11.99063871
Zn      -2.47229444       4.12976275       4.02480660
Zn      -2.39114606       4.05374303      12.08308331
Zn       4.90837863       0.33622807       3.99132241
Zn       4.96284644       0.42689375      11.99119263
Zn       2.50604189       4.41928698       4.12492909
Zn       2.45156933       4.36125948      12.07819000
Zn       0.01461643       0.02984322      -0.04403886
Zn       0.21226986       0.20421269       8.06790748
Zn      -2.40574415       3.99166856       0.11640061
Zn      -2.40345851       4.01000302       8.04724636
Zn       4.83878604       0.23521562      -0.00304761
Zn       5.04392788       0.37461747       7.96842902
Zn       2.39393119       4.33944973       0.08410123
Zn       2.46338158       4.34756093       8.02579887
Zn       2.33176478       2.98862053       2.02264716
Zn       2.59011336       3.05968746      10.12004342
Zn       0.00533777       6.98068920       2.19924856
Zn      -0.07146150       7.02551925      10.16718670
Zn       7.32969694       3.30577442       2.04402198
Zn       7.42604835       3.37546565      10.06365106
Zn       4.86861608       7.33220654       2.09426688
Zn       4.99377904       7.41513673      10.17916539
Zn      -1.16888204       3.47381835       5.99842620
Zn      -1.18475630       3.44321876      13.97794700
Zn      -3.63434775       7.41061447       6.10413581
Zn      -3.65014845       7.52827280      14.15584196
Zn       3.66757626       3.76741636       6.15361866
Zn       3.76002284       3.86943040      14.08660512
Zn       1.18781438       7.81965251       6.14419438
Zn       1.34827527       7.78856075      14.09490280
Zn      -0.02406687       1.46450535       6.00877146
Zn       0.01394532       1.44719650      14.04428682
Zn      -2.41344260       5.53603864       6.11495439
Zn      -2.34899152       5.51037173      14.10268453
Zn       4.92569315       1.66453429       6.00438276
Zn       4.91780522       1.72109384      14.02199130
Zn       2.45753347       5.73789165       6.13839581
Zn       2.50727361       5.88490453      14.12361318
Zn       3.68250741       0.88234043       1.86892929
Zn       3.83246940       1.05605424       9.96733652
Zn       1.13641410       4.97255014       2.09372134
Zn       1.35208436       5.10883774      10.06304338
Zn       8.40779136       1.13706039       1.97170058
Zn       8.66718349       1.27583566      10.04494486
Zn       6.11600313       5.24295929       2.09185116
Zn       6.12088466       5.28857804      10.16593558
Zn       1.21873340       0.83499702       1.99433838
Zn       1.28814331       0.80639541      10.01666004
Zn      -1.28951548       4.80747218       2.09373459
Zn      -1.14451272       4.95075901      10.12702858
Zn       6.13489520       1.06474470       2.00843902
Zn       6.30008706       1.12688111       9.90787816
Zn       3.61827632       5.15021610       2.03035291
Zn       3.71268870       5.14527766       9.98875660
Zn       1.15468851       3.56166277       5.95467995
Zn       1.30734374       3.69189520      14.00178499
Zn      -1.34096577       7.66679439       6.20749070
Zn      -1.11760038       7.64049885      14.14283796
Zn       6.15104829       3.85321884       6.09636484
Zn       6.22658275       3.92147218      13.99109306
Zn       3.69269987       8.03723179       6.16142074
Zn       3.78765397       8.01026914      14.10960769
