95
Lattice="9.496836568049272 0.13569171772538405 0.09828703381524517 -4.772617708391679 8.185974986934268 0.2752663558015087 0.11630381912661752 -0.4825993985427368 15.943942750746178" Properties=species:S:1:pos:R:3 pbc="T T T"
Mg       0.10391120       2.64083794       3.59575103
Mg       0.01896383       2.48822590      11.58118467
Mg      -2.35329862       6.73210960       3.76417936
Mg      -2.31059662       6.53763415      11.62433667
Mg       4.74865211       2.72760589       3.65413867
Mg       4.76995267       2.45905550      11.64682369
Zn       2.33814313       6.81988277       3.85705333
Mg       2.38660335       6.63913475      11.79085735
Mg       2.38484618       1.22393228       7.59268390
Mg       2.43441348       0.93292830      15.61793583
Mg       0.13226143       5.36101804       7.74982644
Zn       0.06847065       5.04944240      15.70261862
Mg       7.21527656       1.20880690       7.60275607
Mg       7.15284034       1.00938405      15.59463309
Mg       4.79579949       5.40052243       7.69390320
Mg       4.88086194       5.09640164      15.65533084
Mg       2.42437113       1.31323583       4.58054596
Mg       2.46008683       1.07148466      12.50691396
Mg       0.00427402       5.38878110       4.63807789
Mg       0.11653951       5.16048814      12.64313754
Mg       7.14374051       1.35820274       4.57207449
Mg       7.19968203       1.05960471      12.51087379
Mg       4.75554357       5.37776020       4.82793465
Mg       4.73989870       5.18538657      12.71009294
Mg      -0.02573121       2.70533742       0.61393394
Mg       0.15167111       2.49390187       8.54307441
Mg      -2.31882951       6.82358948       0.75818109
Mg      -2.45934498       6.56619436       8.78984180
Mg       4.72286998       2.80269480       0.67953875
Zn       4.75745476       2.61052962       8.75892749
Mg       2.33518466       6.91864598       0.77159646
Zn       2.48314803       6.65414271       8.77907590
Zn       0.07276487      -0.14989769       4.00036516
Mg       0.18366703      -0.35112022      11.93798047
Zn      -2.33296613       3.99177117       4.12895407
Zn      -2.30481219       3.71686972      12.08771647
Zn       4.72898521      -0.15141198       4.05178788
Zn       4.88617885      -0.35670626      11.97550474
Zn       2.39223084       4.02647400       4.12927098
Zn       2.43114590       3.79524947      12.16041613
Mg      -0.07903249      -0.06820471      -0.00522912
Zn       0.09678416      -0.19625747       8.00560275
Zn      -2.31865858       4.01588230       0.17145857
Zn      -2.35009504       3.89395394       8.04165529
Zn       4.70251864      -0.01020326       0.11473377
Zn       4.85480639      -0.15213741       7.99057238
Zn       2.40698336       4.13746568       0.19321474
Zn       2.35405035       3.94705179       8.13954023
Zn       2.38067094       2.79568096       2.09407788
Zn       2.46443128       2.53450275      10.07511110
Zn       0.01411114       6.81970938       2.27333935
Mg       0.05601280       6.48725935      10.30366755
Zn       7.15909271       2.83125613       2.20316934
Zn       7.09597408       2.58721661      10.07989097
Zn       4.73035161       6.96375417       2.34723566
Zn       4.82670319       6.63568565      10.32213188
Zn      -1.15296746       3.19458885       6.11320989
Zn      -1.17339037       2.97567656      14.06151305
Zn      -3.61337827       7.38003914       6.25400978
Mg      -3.55201076       7.05391762      14.17374124
Zn       3.62938800       3.43507075       6.13370680
Zn       3.72024704       2.99117763      14.07418782
Zn       1.16560812       7.33660429       6.32830699
Zn       1.30548128       7.12359841      14.26666972
Zn       0.04650467       1.22247831       6.01741717
Zn       0.06440120       0.97325792      13.94912171
Zn      -2.31065602       5.21131681       6.16796018
Zn      -2.26139453       5.06534636      14.18607282
Zn       4.79453114       1.21960141       5.97708784
Zn       4.93088680       0.95228879      14.03448779
Zn       2.41824505       5.44691386       6.21505048
Zn       2.43184386       5.07826132      14.14066047
Zn       3.57875761       0.72882006       2.08904075
Zn       3.66925217       0.48010966      10.06022985
Zn       1.21211266       4.78667434       2.15780054
Zn       1.21713045       4.52054545      10.07721133
Zn       8.33196911       0.77510206       2.06838877
Zn       8.41935627       0.54432884      10.11687968
Zn       6.00167369       4.83886609       2.19483168
Zn       1.20034070       0.65119751       2.07931251
Zn       1.25956932       0.37626184      10.01186566
Zn      -1.14514569       4.71742193       2.18571592
Zn      -1.12127564       4.47730624      10.13946884
Zn       5.91279726       0.71209948       2.05642263
Zn       5.94584124       0.47878222       9.94141558
Zn       3.57113831       4.81808414       2.28189594
Zn       3.63947206       4.56790616      10.15586075
Zn       1.23325429       3.34094645       6.11916409
Zn       1.20476191       3.12322461      14.08986183
Zn      -1.15376006       7.31135473       6.30256760
Zn      -1.12503078       7.10367282      14.21821398
Zn       5.90914530       3.35106627       6.07583895
Zn       6.08332440       3.00804197      14.20138209
Zn       3.63210455       7.39456492       6.27148866
Zn       3.60474120       7.19670760      14.33447849
