94
Lattice="9.295494025087509 0.06456009019821113 -0.021124198338339163 -4.685593654083394 8.291966542254416 0.377454789802273 -0.006690062637097032 -0.1657445951245924 15.35342780258149" Properties=species:S:1:pos:R:3 pbc="T T T"
Mg       0.09694967       2.77902632       3.45178020
Mg       0.06002528       2.68306512      11.10564489
Mg      -2.35039986       6.85839037       3.61803842
Mg      -2.37842970       6.86301501      11.28916068
Mg       4.56813664       2.86411581       3.43838569
Mg       4.63087429       2.72441145      11.14669019
Mg       2.20914416       6.92704450       3.64587487
Mg       2.31762356       6.90933998      11.32547931
Mg       2.32685490       1.32591332       7.33644448
Mg       2.22491566       1.22266075      14.88972704
Mg      -0.09160519       5.41016269       7.46382096
Mg      -0.08091528       5.31139872      15.09382135
Mg       6.98582323       1.30634542       7.24840435
Mg       7.03309432       1.38834917      14.94850209
Zn       4.66125583       5.59498506       7.41778176
Mg       4.60400082       5.38264098      15.18110623
Mg       2.28258712       1.32667598       4.40223795
Mg       2.33362405       1.29227701      12.08226649
Mg      -0.02965294       5.55393774       4.64190494
Mg      -0.00576891       5.29073033      12.30775351
Mg       7.02605866       1.34542021       4.34935709
Zn       6.95509336       1.28715056      12.05325590
Zn       4.66653158       5.58611527       4.54967177
Mg       4.63032548       5.36530899      12.26337323
Mg      -0.00194972       2.81843942       0.54516956
Mg      -0.01223952       2.73908134       8.23580373
Mg      -2.32401130       6.98029734       0.73483387
Mg      -2.35562404       6.74067430       8.43168191
Mg       4.59203947       2.77758252       0.64792025
Mg       4.69802885       2.70619066       8.20686753
Mg       2.29673904       6.90477533       0.83818205
Mg       2.23460837       6.82948728       8.51298388
Zn      -0.05720985      -0.07642236       3.84126554
Zn       0.03223094      -0.03935915      11.49094508
Zn      -2.39297869       4.08849340       4.09458587
Zn      -2.42321785       4.05928669      11.71254774
Zn       4.62062830       0.07739319       3.73425334
Zn       4.59653088       0.02740643      11.50152190
Zn       2.34685715       4.14038646       4.01772868
Zn       2.27424543       3.97353425      11.65270349
Zn       0.00803103       0.08164427      -0.03135220
Zn      -0.06630089       0.02503898       7.64675744
Zn      -2.32354028       4.19359289       0.12767397
Zn      -2.32740955       4.08330580       7.85810130
Zn       4.62365648       0.06922992      -0.00034107
Zn       4.73693423      -0.05361338       7.61250819
Zn       2.30882557       4.16076181       0.18286225
Zn       2.30875098       4.05546324       7.81328932
Zn       2.29333069       2.70675412       2.04921711
Zn       2.26033642       2.60848265       9.72686506
Zn      -0.00829223       6.85779918       2.25015541
Zn       0.01282698       6.72067071       9.82545661
Zn       7.01770608       2.77329933       2.09778429
Zn       6.96790512       2.68727121       9.70078256
Zn       4.58252510       6.95627614       2.23067699
Zn       4.58576794       6.86030831       9.74579434
Zn      -1.22380689       3.45240919       5.93764835
Zn      -1.12912974       3.29187518      13.66888944
Zn      -3.58023932       7.51870659       6.07839761
Zn      -3.51962078       7.46346067      13.75056028
Zn       3.42394324       3.37909970      13.68011404
Zn       1.23101973       7.59352457       6.14537363
Zn       1.12168958       7.50289915      13.78604098
Zn      -0.01017008       1.37098235       5.85838078
Zn       0.07990781       1.20971019      13.53402627
Zn      -2.30988127       5.50819713       6.00481781
Zn      -2.35369881       5.38013170      13.67516521
Zn       4.62047385       1.33843011       5.71022307
Mg       2.37577711       5.46967352       5.94543516
Mg       2.38395303       5.44256191      13.67298072
Zn       3.47588348       0.57321246       1.96683400
Zn       3.36953497       0.60429830       9.56674913
Zn       1.05971355       4.88165424       2.15044285
Zn       1.04702299       4.68748862       9.82405080
Zn       8.06672244       0.72784632       2.02503299
Zn       8.12778759       0.65491252       9.56393320
Zn       5.73548145       4.83901939       2.14195160
Zn       5.75703162       4.74848238       9.82813692
Zn       1.17953430       0.67295854       1.96111550
Zn       1.15638743       0.48034503       9.57811091
Zn      -1.20647958       4.77602205       2.18193118
Zn      -1.18165994       4.72671284       9.82982977
Zn       5.74721526       0.71692044       1.90838668
Zn       5.74068144       0.66858613       9.59865533
Zn       3.48578112       4.83388631       2.12844664
Zn       3.46145650       4.74043764       9.85532895
Zn       1.17221279       3.46005023       5.92440639
Zn       1.12045998       3.31468579      13.52649416
Zn      -1.19140925       7.61629914       6.12739712
Mg      -1.24321364       7.47466576      13.79479755
Zn       5.74275623       3.46258259       5.91658652
Zn       5.78331182       3.35251365      13.58710319
Zn       3.39492708       7.55761950       6.08730124
Zn       3.48711885       7.47382082      13.77580947
