96
Lattice="9.507702566491558 0.1663539378236486 -0.036140051604852855 -4.948830374869303 8.088761670305482 -0.1738439442471712 -0.09918733819523388 -0.02971777989204069 15.44724234461781" Properties=species:S:1:pos:R:3 pbc="T T T"
Mg      -0.06369739       2.67388949       3.27584760
Mg      -0.15381534       2.76194198      10.99160011
Mg      -2.65912914       6.79636442       3.27634970
Mg      -2.61687142       6.78639192      10.96465608
Mg       4.66360895       2.68351323       3.34350363
Mg       4.52097306       2.76642773      10.98761100
Mg       2.09864887       6.88554536       3.19218460
Mg       2.14893732       6.79574673      10.99757506
Mg       2.29117309       1.41889029       7.22048307
Zn       2.29310984       1.28870164      14.88782750
Mg      -0.08879545       5.45267477       7.13411137
Mg      -0.18110285       5.48115445      14.83583029
Mg       7.03211159       1.40947910       7.14349541
Zn       6.97245162       1.38822895      14.81433670
Mg       4.54519104       5.44979458       7.13581366
Mg       4.52846563       5.51934568      14.75468172
Mg       2.32199899       1.39707461       4.20155021
Mg       2.28513755       1.33010853      12.00424978
Mg      -0.14406507       5.39803858       4.24494019
Mg      -0.10014824       5.43423732      11.93540291
Mg       7.12783497       1.42937831       4.26272947
Mg       7.09442163       1.49901559      11.97180048
Mg       4.58798080       5.44119038       4.20461096
Mg       4.62378846       5.49459368      11.88458589
Mg      -0.09492684       2.67817307       0.41897582
Mg      -0.15170624       2.67735355       8.17324650
Mg      -2.58943126       6.75375438       0.34471383
Mg      -2.49977404       6.73633262       8.02464529
Mg       4.66088524       2.81798704       0.47773456
Mg       4.53688803       2.79294700       8.05163724
Mg       2.26259740       6.88674945       0.30640156
Zn       2.19608972       6.78098952       8.04077195
Zn      -0.09354800       0.04688033       3.87080965
Zn      -0.12032608      -0.03073889      11.53518730
Zn      -2.49190560       4.08058841       3.80727646
Zn      -2.57565773       4.05275023      11.47794771
Zn       4.73750062      -0.01230196       3.85132586
Zn       4.73567026       0.05114969      11.61413804
Zn       2.31620912       4.14165206       3.76710949
Zn       2.17665329       4.06268547      11.49854101
Zn      -0.05052423      -0.02917738      -0.01325070
Zn      -0.11792264       0.00775800       7.73010600
Mg      -2.55786032       4.15241721      -0.09381386
Zn      -2.60417937       3.98586510       7.63824418
Zn       4.76374889       0.07282786       0.11991938
Zn       4.73858467       0.12642038       7.66915770
Zn       2.33722925       4.10311674      -0.03493605
Zn       2.19331101       4.13246740       7.62183592
Zn       2.29451362       2.75998366       1.89555864
Zn       2.30110967       2.69986123       9.52398472
Zn      -0.10277831       6.80087330       1.70760874
Zn      -0.21770537       6.78946736       9.40944463
Zn       7.02283574       2.88007060       1.87066540
Zn       7.09241735       2.90706512       9.47621933
Zn       4.56649510       6.94577045       1.70356894
Zn       4.51557244       6.82470261       9.45704237
Zn      -1.31342808       3.35604711       5.63698018
Zn      -1.37227013       3.34593865      13.44499552
Zn      -3.77459317       7.38746992       5.61655741
Zn      -3.83045772       7.34471938      13.38336796
Zn       3.46080436       3.50798729       5.71168002
Zn       3.35524923       3.46172875      13.34430404
Zn       0.92301059       7.52694420       5.56455028
Zn       0.94901578       7.43636537      13.32626531
Zn      -0.07056877       1.30741326       5.79349956
Zn      -0.06316770       1.29738023      13.46334563
Zn      -2.53669192       5.33688500       5.67014789
Zn      -2.66346353       5.40806986      13.34998711
Zn       4.65868326       1.45566462       5.74315059
Zn       4.58143119       1.32400529      13.37152850
Zn       2.28578880       5.42872948       5.65687786
Zn       2.09271796       5.50150214      13.45603121
Mg       3.54329009       0.74136172       1.85384123
Zn       3.47710767       0.81778134       9.63320442
Zn       1.07995933       4.73947384       1.79188627
Zn       1.09240490       4.83266749       9.54349801
Zn       8.29561498       0.85932845       1.90966379
Zn       8.29127727       0.82844143       9.61126009
Zn       5.85613344       4.89720098       1.75446323
Zn       5.73063907       4.87672043       9.51836326
Zn       1.16594760       0.67111624       1.96088602
Zn       1.08788227       0.74661947       9.68105319
Zn      -1.30447335       4.77275041       1.78856984
Zn      -1.34460466       4.71354526       9.60133325
Zn       5.88884123       0.74780243       1.86106687
Zn       5.83224995       0.75607359       9.70634939
Zn       3.42601314       4.83657754       1.85340176
Zn       3.35656065       4.79614981       9.42559803
Zn       0.98482703       3.41445761       5.62652966
Zn       1.08012235       3.37605630      13.39445582
Zn      -1.45976970       7.43174505       5.68402768
Zn      -1.41405282       7.44104756      13.30540156
Zn       5.75520615       3.48203011       5.79086532
Zn       5.76390694       3.52160658      13.36465070
Mg       3.35478961       7.52656627       5.68795803
Zn       3.27902460       7.58202925      13.32446973
