95
Lattice="9.432298935198867 0.2850164329164249 -0.3271723288650835 -4.561371174677302 8.20792491057563 0.29832075684149406 -0.37529604607861805 0.039587918681544466 15.580354161439042" Properties=species:S:1:pos:R:3 pbc="T T T"
Mg       0.00797779       2.73165462       3.48269779
Mg      -0.28954811       2.84211766      11.23026051
Mg      -2.26020719       6.88267936       3.57771554
Mg      -2.47184129       6.98866694      11.36627851
Mg       4.79804162       2.86186549       3.37073379
Mg       4.44558186       2.95839291      11.05616805
Mg       2.37763936       7.12857545       3.45010928
Zn       2.22775314       7.04361187      11.22027022
Mg       2.23291045       1.45452721       7.35466335
Mg       2.01168040       1.52577041      15.03812934
Mg      -0.03092787       5.68067107       7.35755337
Mg      -0.21842419       5.51501816      15.24268046
Mg       6.93757168       1.56684657       7.02397379
Mg       6.66610651       1.55988987      14.95376687
Mg       4.56322400       5.68534309       7.28055604
Mg       4.35731688       5.75760417      15.05134305
Mg       2.37920060       1.48417939       4.33106462
Mg       2.05866090       1.48567239      12.09123460
Mg       0.02933510       5.63380316       4.43772895
Zn      -0.18281655       5.55737667      12.30041677
Mg       6.86247001       1.62339151       4.19199538
Mg       6.87235433       1.53553431      11.88949688
Mg       4.67630675       5.73950679       4.26116007
Mg       4.56672501       5.65486093      12.05095520
Mg       0.05201801       2.67999618       0.58262964
Mg      -0.29306801       2.81220535       8.37958115
Mg      -2.21305047       6.89814452       0.66450240
Mg      -2.43768521       6.85620471       8.50860584
Mg       4.80181967       2.93184467       0.26569786
Mg       4.67323528       2.91778431       8.21556866
Mg       2.50769166       7.03165188       0.51283770
Mg       2.36857372       7.12666724       8.32046520
Zn      -0.06025651       0.02484429       3.91130870
Zn      -0.30292718       0.07972652      11.65148507
Zn      -2.42187331       4.16048046       4.00635380
Zn      -2.55194821       4.13157435      11.75712526
Zn       4.64616439       0.15139963       3.67286620
Zn       4.51329819       0.18720556      11.46998854
Zn       2.32307350       4.29458113       3.91048453
Zn       2.13481896       4.34588481      11.70062823
Zn       0.04455478       0.06171875      -0.09678918
Zn      -0.08078822       0.07892502       7.76803443
Zn      -2.29281590       4.09870082       0.17156565
Zn      -2.50401663       4.04613178       7.97712936
Zn       4.50586041       0.22233600       7.58725175
Mg       2.33540568       4.22245963      -0.02664416
Zn       2.26552513       4.29401761       7.77560548
Zn       2.38447800       2.84867438       1.86524935
Zn       2.19987420       2.78668962       9.68216939
Zn       0.02180764       7.06142977       2.15637920
Zn      -0.13018020       6.96889378       9.85273874
Zn       7.04979942       3.06649665       1.77717125
Zn       6.86297433       3.03328026       9.58601106
Zn       4.84921920       7.08194158       1.84761557
Zn       4.66643423       7.17174468       9.64058006
Zn      -1.32522419       3.45918833       5.98790046
Zn      -1.45470806       3.53674493      13.75704718
Zn      -3.54535194       7.61993312       6.11243387
Mg      -3.67103722       7.66328273      13.91367801
Zn       3.42134236       3.61163560       5.78860581
Zn       3.24555191       3.60902213      13.43941500
Zn       1.18213648       7.78817098       5.85701926
Zn       1.04828944       7.71724335      13.70494235
Zn      -0.09715025       1.30099195       5.75855183
Zn      -0.31577017       1.39930004      13.68165070
Zn      -2.36965997       5.52943771       5.97661942
Zn      -2.60300832       5.40449007      13.77637429
Zn       4.62578987       1.50930818       5.71524454
Zn       4.28671132       1.55114098      13.57088338
Zn       2.40507614       5.68186734       5.79137749
Zn       2.16919315       5.74789169      13.60878129
Zn       3.53988204       0.71205330       1.84824305
Zn       3.28034078       0.81904773       9.65886727
Zn       1.20774669       4.95690237       2.00404765
Zn       0.95514730       4.94021726       9.82732999
Zn       8.15730422       0.90075960       1.69511097
Zn       8.03857503       1.00048360       9.53391402
Zn       5.97808267       5.09451121       1.82317358
Zn       5.71418692       5.03898216       9.59200968
Zn       1.13047475       0.70700937       1.81340639
Zn       0.96665754       0.65284093       9.73287527
Zn      -1.21087379       4.82692717       2.15270481
Zn      -1.28868896       4.96680534       9.87357715
Zn       5.83702872       0.91572849       1.75444885
Zn       5.56337583       0.87251268       9.51824848
Zn       3.58286139       4.92622637       1.89479638
Zn       3.39888302       4.93098859       9.64883503
Zn       1.22515711       3.48698890       5.79906362
Zn       0.85284963       3.54325476      13.60800417
Zn      -1.22574815       7.62124198       5.96198728
Zn      -1.41796263       7.66648155      13.82761498
Zn       5.83757643       3.72024903       5.77726173
Zn       5.62758382       3.71975412      13.44523531
Zn       3.52907864       7.78006584       5.95101864
Zn       3.31816848       7.76207188      13.57894448
