95
Lattice="9.514066342396353 -0.27167718094994037 -0.035177238953806145 -4.657537031548499 8.809565451125144 -0.2837415344194841 -0.23279745299827506 0.2173506712517275 15.596606365940485" Properties=species:S:1:pos:R:3 pbc="T T T"
Mg       2.28434238       1.52767880       7.27131417
Mg       2.21987973       1.50121152      15.08329771
Mg      -0.12072693       5.81073416       7.17896174
Mg      -0.11887308       6.00070992      14.92141867
Mg       7.09263915       1.39620637       7.20613377
Mg       6.91066939       1.48989913      15.03823981
Mg       4.72449707       5.75874915       7.13141282
Mg       4.62571198       5.85188633      14.86827628
Mg      -0.01338261       3.02218898       3.28700106
Mg      -0.07149366       2.99846564      11.12709422
Mg      -2.32280000       7.36461158       3.08282442
Mg      -2.41629035       7.41776400      10.94534636
Mg       4.68278172       2.82348119       3.26522718
Mg       4.64504094       2.88719860      11.08004951
Mg       2.38437750       7.21052220       3.18269836
Mg       2.23660309       7.34712017      10.93023259
Mg       2.34153416       1.45849639       4.33492666
Mg       2.18619093       1.58155811      12.07063990
Mg      -0.09905437       5.90126629      11.98149291
Mg       7.11632786       1.35721303       4.32273458
Mg       6.98839444       1.34575744      12.09679162
Mg       4.75173626       5.63480808       4.13869038
Mg       4.60802511       5.79908453      11.99900672
Mg       0.04574118       2.91142103       0.36118413
Zn      -0.08723991       3.02307672       8.20256553
Zn      -2.20979616       7.20526982       0.26648091
Mg      -2.47620075       7.43799932       8.06268008
Mg       4.86266857       2.78319838       0.37188060
Mg       4.76505647       2.96773242       8.15775343
Mg       2.50045926       7.07178970       0.23464571
Mg       2.34578886       7.28993881       8.15276307
Zn      -0.00228380       0.02598168      -0.01552844
Zn      -0.08040713       0.08962250       7.79852588
Zn      -2.32314766       4.44608902      -0.18920426
Zn      -2.44377752       4.41319530       7.65737036
Zn       4.69821160      -0.08183228      -0.03274759
Zn       4.63802313      -0.06737407       7.82487005
Zn       2.40205784       4.26288935      -0.12835543
Zn       2.33569884       4.44080559       7.65329397
Zn      -0.04368423      -0.09371496       3.87478864
Zn      -0.18844655       0.10991320      11.75418069
Zn      -2.33468847       4.43629630       3.77343272
Zn      -2.49246752       4.51804715      11.65776257
Zn       4.72290101      -0.00672176       3.94251720
Zn       4.60656372       0.12179083      11.76350614
Zn       2.38962448       4.27998457       3.68670716
Zn       2.22331350       4.36774507      11.47531411
Zn       0.02930259       1.52281385       5.84675441
Zn      -0.12859739       1.59889885      13.56072888
Zn      -2.36983508       5.90495776       5.68597849
Zn      -2.44115073       6.07034634      13.48979433
Zn       4.68526899       1.45835583       5.77294276
Zn       4.60503315       1.42192573      13.48454418
Zn       2.40330642       5.79670492       5.71763770
Zn       2.32583998       5.91365969      13.44274944
Zn      -1.29436879       3.72268707       5.68491511
Zn      -1.37652713       3.90762530      13.55998084
Zn      -3.54565105       8.19728208       5.62180308
Mg      -3.74476261       8.27107718      13.38512735
Zn       3.56915271       3.60335522       5.65583016
Zn       3.33966331       3.66085897      13.52505818
Zn       1.15424095       7.98190148       5.67908603
Zn       1.02569725       8.01538770      13.26796989
Zn       1.22408463       0.74941052       1.90357995
Zn       1.03380163       0.82592867       9.64602373
Zn      -1.19993794       5.15677843       1.78808549
Zn      -1.34544383       5.25576321       9.59512274
Zn       5.90941870       0.59006037       1.89323663
Zn       5.80455632       0.65704251       9.70963144
Zn       3.57384734       5.04186630       1.65026609
Zn       3.41044602       5.09619907       9.65517252
Mg       1.09283967       3.65042796       5.76829117
Zn       1.00275535       3.80595708      13.48676418
Zn      -1.16141557       8.10157814       5.48924757
Zn      -1.30384577       8.13550810      13.38015036
Zn       5.92698468       3.57299333       5.76467841
Zn       5.76876775       3.64839245      13.44480834
Zn       3.51853061       7.90143998       5.55089634
Zn       3.37259230       8.04085134      13.41940972
Zn       2.39035824       2.75726461       1.89964908
Zn       2.25189876       2.93389340       9.69421489
Zn       0.02610337       7.24724854       1.70372752
Zn      -0.04995533       7.38557451       9.62260589
Zn       7.13549451       2.67405550       1.84090982
Zn       7.07917488       2.78880420       9.68141050
Zn       4.81592870       7.20188061       1.68037319
Zn       4.60115402       7.25332552       9.48881838
Zn       3.55313189       0.64067405       1.86565955
Zn       3.34159393       0.73233140       9.67414061
Zn       1.21949387       5.02785630       1.74719112
Zn       1.09993582       5.09103694       9.64875192
Zn       8.31306817       0.48495776       1.84706076
Zn       8.16841414       0.62117169       9.65411525
Zn       5.97397941       4.82896982       1.69343121
Zn       5.84360382       5.01813125       9.56526426
