96
Lattice="9.543560624661938 0.25060417731130286 0.07611263219242212 -4.7431946665430615 8.324318661759692 0.0976240169448543 0.30274863806727065 -0.22054194175898953 16.097981669901195" Properties=species:S:1:pos:R:3 pbc="T T T"
Mg       0.09798332       2.64650649       3.53554917
Mg       0.28047582       2.72352215      11.61468191
Mg      -2.34673737       6.91500625       3.55083502
Mg      -2.08790905       6.80417309      11.75154677
Mg       4.82976002       2.91524387       3.60278915
Mg       5.02907096       2.78695494      11.59930391
Mg       2.52383772       6.96601649       3.67904690
Mg       2.69621544       7.05389878      11.74708587
Mg       2.52600244       1.35940307       7.61335132
Mg       2.60294371       1.28868080      15.66326005
Mg       0.10693275       5.53941517       7.56117226
Mg       0.31082243       5.36562684      15.68902703
Mg       7.30103544       1.49291759       7.65796780
Mg       7.52136078       1.38806910      15.68898956
Mg       4.87181829       5.68692796       7.74300548
Mg       5.10875904       5.60442120      15.73356778
Mg       2.48173650       1.41401071       4.45036173
Mg       2.67049338       1.29247311      12.57485007
Mg       0.07690732       5.61817591       4.69550161
Mg       0.16874079       5.42851802      12.57632509
Mg       7.26746598       1.53480747       4.63486174
Mg       7.44690958       1.40750529      12.68073077
Mg       4.90110863       5.69124832       4.73448640
Mg       5.00159532       5.54770264      12.75394608
Mg       0.06315268       2.82276177       0.61350976
Zn       0.11756451       2.75771704       8.57956899
Mg      -2.33793989       7.04742795       0.67460808
Mg      -2.10372646       6.90955130       8.63731444
Mg       4.88483455       2.99070969       0.55099807
Mg       4.92351164       2.86970816       8.64272358
Mg       2.38804399       7.18747190       0.59086659
Zn       2.57190421       7.04931245       8.61089245
Zn       0.16107451      -0.07447539       4.01223932
Zn       0.19206888      -0.19605964      12.02640288
Zn      -2.35622457       4.05117618       4.04884040
Zn      -2.22225632       4.08933469      12.05863731
Zn       4.83260708       0.11014577       4.03942201
Zn       5.15307892      -0.09441779      12.10523031
Mg       2.50885324       4.26283228       4.12743208
Zn       2.58125352       4.14884860      12.09781333
Zn       0.02209895       0.02148284      -0.03960061
Zn       0.12813544      -0.12584416       8.04699437
Zn      -2.37729412       4.25249430       0.11875722
Zn      -2.17168781       4.02457177       8.01378697
Zn       4.77128177       0.19674809       0.03723155
Zn       4.98059499       0.03572970       8.06312492
Zn       2.41862497       4.34612106       0.07374048
Zn       2.56942880       4.22591271       8.13401640
Zn       2.47290871       2.87342492       2.02172418
Zn       2.49997653       2.76598099      10.18858551
Zn       0.09648749       7.01330569       2.09628764
Zn       0.14294607       6.91592988      10.26349694
Zn       7.23060261       2.85987510       2.07139793
Zn       7.36479567       2.83108631      10.15791221
Zn       4.79839456       7.15383742       2.17186856
Mg       5.05576948       6.98655986      10.24394823
Zn      -1.12861776       3.45292297       6.01063207
Zn      -0.88674759       3.24045603      14.09704230
Zn      -3.43725192       7.53157702       6.07163725
Zn      -3.20567545       7.48499908      14.17950036
Zn       3.71037017       3.58470834       6.09529407
Zn       3.79565007       3.38108593      14.18398514
Zn       1.27907148       7.70357736       6.10495863
Zn       1.47496609       7.58320954      14.12652684
Zn       0.12003936       1.32601900       5.98289657
Zn       0.32552311       1.28145415      14.11527571
Zn      -2.27841353       5.53870902       6.15464667
Zn      -2.16362870       5.35067386      14.08280342
Zn       4.92034071       1.44445418       6.06802641
Zn       5.04630216       1.32081554      14.08867268
Zn       2.52084121       5.56743365       6.23967308
Zn       2.68406457       5.57129906      14.21365518
Zn       3.58862964       0.76914129       2.01931559
Zn       3.78001449       0.62021817      10.09146063
Zn       1.30294426       4.88641373       2.13964756
Zn       1.36885751       4.83762435      10.12597329
Zn       8.43497146       0.89167524       2.05317685
Zn       8.58289145       0.81579483      10.08684900
Zn       5.91625394       4.96815683       2.10424859
Zn       6.17541075       4.93337416      10.28159420
Zn       1.26029517       0.83145471       2.09459480
Zn       1.41658248       0.64112992      10.10458823
Zn      -1.18309848       4.89716137       2.02962240
Zn      -1.01961531       4.79133076      10.16457641
Zn       5.94321749       0.82831564       2.11894683
Zn       6.12842650       0.66533804      10.11365938
Zn       3.63437632       5.06940939       2.06977876
Zn       3.74464244       4.85409503      10.11840731
Zn       1.26888067       3.44287372       6.10875117
Zn       1.49586493       3.37698569      14.21336498
Zn      -0.99426656       7.66571996       6.09816929
Zn      -0.93272585       7.60193869      14.23453955
Zn       6.11944693       3.64051751       6.11194459
Zn       6.20787777       3.48578729      14.18304853
Zn       3.69117756       7.82962325       6.17121982
Zn       3.83766880       7.66672788      14.33969097
