96
Lattice="9.72430282148302 0.07951889012549593 0.17148953564518316 -4.876349718569536 8.654162516768283 -0.21529058325006417 -0.35300886991593283 0.3621054587885502 15.805479849312954" Properties=species:S:1:pos:R:3 pbc="T T T"
Mg       2.20345233       1.65181659       7.42538885
Mg       2.11757761       1.80792341      15.40124710
Mg      -0.14585136       5.98569127       7.24684172
Zn      -0.34147634       6.12542623      15.18970912
Mg       7.09030283       1.82041433       7.57539232
Mg       6.97399959       1.78131456      15.37317222
Mg       4.70311223       5.93871847       7.42233518
Mg       4.45556732       6.13154966      15.23343805
Mg      -0.05324173       3.05152532       3.35855050
Mg      -0.20030911       3.17878871      11.29305820
Mg      -2.56870303       7.40692619       3.37876905
Mg      -2.75397509       7.50652827      11.22623488
Mg       4.79364478       2.98546377       3.48400807
Mg       4.73881983       3.24334810      11.48069210
Mg       2.31647693       7.27073110       3.37783391
Mg       2.12416059       7.46652331      11.33167260
Mg       2.32303503       1.56583186       4.49380900
Mg       2.11359905       1.74304773      12.35702256
Mg      -0.09102224       5.92469572       4.31723598
Mg      -0.21872972       6.06051463      12.17941752
Mg       7.06842253       1.61560079       4.52416283
Mg       6.99192524       1.79105267      12.46435815
Mg       4.71104165       5.95983655       4.42167309
Mg       4.55539683       6.13738518      12.32266990
Mg      -0.00437009       3.00655452       0.46844023
Mg      -0.18824533       3.08624570       8.39478792
Zn      -2.47884976       7.29134600       0.34475831
Mg      -2.63226359       7.45767174       8.29026294
Mg       4.82726878       2.87940491       0.58588450
Mg       4.76127140       3.08032765       8.43085380
Mg       2.39564865       7.22795837       0.45399151
Mg       2.26100112       7.33178387       8.37267329
Zn       0.08921479      -0.04508876      -0.00076602
Zn      -0.17210520       0.21595047       7.95363384
Zn      -2.45158417       4.27137615      -0.12421839
Zn      -2.63296216       4.47537464       7.92224128
Zn       4.80413786       0.09887819       0.10047312
Zn       4.75364496       0.15276740       8.01439801
Zn       2.39308055       4.36602889       0.05351082
Zn       2.25834455       4.50794461       7.86621713
Zn      -0.15135171       0.13250054       3.94310575
Zn      -0.32558646       0.30236086      11.80961553
Zn      -2.61416141       4.51677743       3.83977467
Zn      -2.75315948       4.62411805      11.63390009
Zn       4.75509879       0.07751855       3.95627843
Zn       4.66810567       0.27537263      11.97154487
Mg       2.32367033       4.45924193       3.89782003
Zn       2.13690762       4.63967676      11.81003608
Zn      -0.11967389       1.56345398       5.90117124
Zn      -0.28201315       1.87149682      13.80450844
Zn      -2.53340694       5.90635618       5.73714688
Zn      -2.69502272       6.10730304      13.74222872
Zn       4.74312304       1.59730722       5.93851416
Zn       4.56171743       1.83447580      13.86162905
Zn       2.28560226       5.90782036       5.83755667
Zn       2.09461054       6.20734374      13.78957012
Zn      -1.37505882       3.79680042       5.91957442
Zn      -1.48063163       3.98893412      13.73148530
Zn      -3.80361819       8.17369553       5.80055832
Zn      -4.02736522       8.15898138      13.65859409
Zn       3.46646408       3.87701861       5.95982807
Zn       3.33014869       3.96427896      13.80421079
Zn       1.11919345       8.21890488       5.81659898
Zn       0.87897207       8.33594290      13.80724702
Zn       1.15250448       0.82075345       1.92415390
Zn       1.00843459       0.97949361       9.85824488
Zn      -1.23185130       5.17101159       1.91633222
Zn      -1.50666163       5.17578985       9.68449107
Mg       6.03136583       0.88903915       2.05463313
Zn       5.89679145       1.08507249       9.97935627
Zn       3.46874143       5.20448094       1.94495885
Zn       3.38076756       5.34723105       9.88404525
Zn       1.06235258       3.76334893       5.87454066
Zn       0.88465217       3.90462470      13.75522406
Zn      -1.32695759       8.09565145       5.84116267
Zn      -1.57296219       8.24364789      13.71434845
Zn       5.90230775       3.76955605       5.99268145
Zn       5.72398323       4.01343136      13.87850965
Zn       3.47385059       8.10194534       5.91336746
Zn       3.27595035       8.32314859      13.77322078
Zn       2.31606136       2.95961201       2.06242910
Zn       2.19957882       3.10572673       9.87561509
Zn      -0.04088690       7.27637440       1.91230154
Zn      -0.21861330       7.40514582       9.72176162
Zn       7.37696940       3.08454371       2.01701394
Zn       7.13863321       3.21258658       9.89920606
Zn       4.76948293       7.30091752       1.92220439
Zn       4.61901959       7.55840621       9.83621642
Zn       3.55577218       0.80314285       2.06029982
Zn       3.40184247       0.97020489       9.94582015
Zn       1.14780279       5.09853830       1.92158313
Zn       0.91883223       5.31138970       9.86520717
Zn       8.45054581       0.81611197       2.00586784
Zn       8.29943316       0.98516068       9.99201986
Zn       6.03210531       5.21160887       2.06862009
Zn       5.82577958       5.41301752      10.01773504
