95
Lattice="9.443679823720801 -0.3509379522356762 -0.000737024738773889 -4.64535415196113 8.696211588810186 -0.15804960155400646 0.03388090565419442 -0.0802425914473468 15.628982282022836" Properties=species:S:1:pos:R:3 pbc="T T T"
Mg       2.42571177       1.26537129       7.31989770
Mg       2.41552243       1.24436604      15.02214885
Mg      -0.01805524       5.67374531       7.23244220
Zn       0.12729668       5.57830948      15.10622738
Mg       7.03866374       1.09108770       7.28033553
Mg       7.04716368       1.01777107      15.09259155
Mg       4.78119623       5.42682254       7.15709076
Zn       4.83760329       5.44276244      15.11450425
Mg       0.08775820       2.75960674       3.38757057
Mg       0.09732708       2.79379731      11.18551729
Mg      -2.26650957       7.12755434       3.36932606
Mg      -2.27328473       7.19567267      11.06389762
Mg       4.74193570       2.74988913       3.37797628
Zn       4.73594662       2.62387719      11.21113124
Mg       2.45641639       6.96401392       3.37000247
Mg       2.52402387       6.91680756      11.12147153
Zn       2.27593777       1.33210585       4.39726275
Mg       2.36705973       1.23189242      12.15033235
Mg       0.06456458       5.71606781       4.25699224
Mg       0.05750848       5.61075924      12.02520963
Mg       7.17500186       1.07057419       4.37315489
Mg       7.22723293       1.10535459      12.22360746
Mg       4.84428159       5.43087099       4.30524225
Zn       4.84806329       5.50007756      12.14820615
Mg       0.02069119       2.81982928       0.36802448
Mg       0.04250743       2.78655524       8.29858335
Mg      -2.23805378       7.23333524       0.41891616
Mg      -2.20198520       7.22649803       8.14200177
Mg       4.81526147       2.71364759       0.44882311
Mg       4.77228744       2.62959234       8.25383780
Mg       2.34194319       7.04948997       0.33081629
Mg       2.41432581       6.98661888       8.11197376
Zn      -0.03622622      -0.06221220      -0.03616728
Zn       0.07212729      -0.08949657       7.75157356
Zn      -2.34932561       4.37245189      -0.08843162
Zn      -2.38432205       4.32231240       7.64215785
Zn       4.79494966      -0.11260592       0.01455598
Zn       4.74021832      -0.23377648       7.82819139
Zn       2.45624558       4.12008823      -0.07815995
Zn       2.36211004       4.29061108       7.73196562
Mg      -0.01379125       0.02367488       3.83411187
Mg       0.03479782      -0.09000139      11.75479711
Zn      -2.35467917       4.29287482       3.79082504
Zn      -2.18357893       4.25197482      11.61323139
Zn       4.65041635      -0.28037799       3.90919695
Zn       4.78884773      -0.28145528      11.72755819
Zn       2.39469892       4.15297108       3.82523350
Zn       2.37120002       4.08011050      11.63237397
Zn       0.02328026       1.36239045       5.86520199
Zn       0.04039681       1.29508278      13.67035036
Zn      -2.32140109       5.72236713       5.71280826
Zn      -2.32131065       5.74882083      13.55029353
Zn       4.81550614       1.17205164       5.85518330
Zn       4.90709077       1.20064981      13.61312393
Zn       2.43675683       5.56653295       5.80036974
Zn       2.36513090       5.55738040      13.61022757
Zn      -1.11977449       3.56555673       5.80747380
Zn      -1.00647462       3.51026493      13.61749290
Zn      -3.50535785       7.89008052       5.75177166
Zn      -3.40003950       7.92405107      13.55814138
Zn       3.62392756       3.33446401       5.84534990
Zn       3.48576151       3.41148962      13.49543580
Zn       1.19007521       7.74464283       5.74108154
Zn       1.26974527       7.67575005      13.57231343
Zn       1.30694034       0.61784442       2.01010790
Zn       1.23521064       0.68262544       9.76943152
Zn      -1.19940508       4.99638723       1.85216936
Zn      -1.18495577       5.00586952       9.66308231
Zn       5.92139753       0.45316024       1.94101012
Zn       5.94421802       0.39180040       9.79557162
Zn       3.65540115       4.82895860       1.87476621
Zn       3.64647080       4.82018331       9.59417041
Zn       1.19870513       3.41333420       5.86822569
Zn       1.26502607       3.38751738      13.58747704
Mg      -1.10928500       7.90732314       5.65034044
Zn      -1.08882799       7.74759736      13.51087302
Zn       5.89603410       3.26561119       5.76525213
Zn       6.03497630       3.33620401      13.58146456
Mg       3.62662423       7.70121760       5.70294563
Zn       3.62909908       7.66431437      13.43648075
Zn       2.34185500       2.75373136       1.92691543
Zn       2.41043883       2.78881447       9.69476776
Zn       0.06973594       7.09320406       1.82830389
Zn       0.05262977       7.03876495       9.74690233
Zn       7.10646117       2.56387209       1.78192371
Zn       7.16693411       2.48812539       9.70253376
Zn       4.70970242       6.90504611       1.76741242
Zn       4.75512185       6.77476026       9.63572228
Zn       3.50444112       0.54370791       1.94606936
Zn       3.56871767       0.55055461       9.67007878
Zn       1.24222768       4.94355311       9.69315788
Zn       8.17232814       0.36197451       2.05375454
Zn       8.27136753       0.33204886       9.75372840
Mg       5.93053805       4.73523273       1.89874084
Zn       5.94363718       4.73623262       9.64788914
