96
Lattice="9.697003018415375 0.057769261618883815 0.1624593508974525 -4.938571647432497 8.518372468599203 -0.13652383915085337 -0.1830410489749354 0.07856361823610708 16.30418391973108" Properties=species:S:1:pos:R:3 pbc="T T T"
Mg      -0.02588403       2.89513389       3.48542389
Mg      -0.14904395       2.89240441      11.72034737
Mg      -2.53898151       7.14755618       3.46515110
Mg      -2.65712130       7.19135627      11.64836578
Mg       4.74120030       2.84129318       3.66701593
Mg       4.67830104       2.88315648      11.81112242
Mg       2.26150887       7.11589444       3.45846445
Mg       2.21529205       7.18859748      11.76243070
Mg       2.22616117       1.41726007       7.62973493
Mg       2.24321507       1.54246880      15.87132268
Mg      -0.10883408       5.67807231       7.56287469
Mg      -0.22978334       5.70783936      15.75873698
Mg       7.16184756       1.46815948       7.68550239
Mg       7.05963652       1.53388088      15.86921619
Mg       4.72334338       5.75576154       7.69189702
Mg       4.65242206       5.79604216      15.79916188
Mg       2.42826806       1.44928067       4.59347321
Mg       2.34582564       1.45683176      12.72573045
Mg      -0.14102440       5.61271047       4.45996919
Mg      -0.20903054       5.69557156      12.68718212
Mg       7.17370879       1.50823382       4.72136870
Mg       7.10920254       1.52250779      12.82673387
Mg       4.71965001       5.78202807       4.56380538
Zn       4.70050968       5.78381273      12.84929364
Mg      -0.05909509       2.84050447       0.51346165
Mg      -0.17488037       2.89339031       8.75954594
Mg      -2.49568523       7.14864951       0.43004980
Mg      -2.54309724       7.04463818       8.61524706
Mg       4.85753392       2.83897469       0.65063523
Mg       4.67815275       3.01335492       8.70869036
Mg       2.30495463       7.24846463       0.50357512
Mg       2.23334709       7.15677683       8.62152173
Zn      -0.02685680      -0.03952446       4.00391911
Zn      -0.13065148       0.05230372      12.24838772
Zn      -2.57797790       4.35825251       3.90243152
Zn      -2.60109037       4.30019995      12.20623113
Zn       4.77172478       0.01335888       4.24634322
Zn       4.65017979       0.13579344      12.35647456
Zn       2.35370701       4.32955904       4.10992760
Zn       2.21993073       4.41661402      12.30512854
Zn       0.04640399       0.02173194      -0.08646829
Zn      -0.14458663       0.15395473       8.08489016
Zn      -2.41615812       4.24433462      -0.07107211
Zn      -2.54857845       4.34672346       8.05488865
Zn       4.85849942      -0.05340336       0.11681920
Zn       4.84138176       0.09087598       8.28024707
Zn       2.37954464       4.22042282       0.05913464
Zn       2.29597702       4.38104251       8.24884230
Zn       2.35625673       2.86786789       2.14596312
Zn       2.22454023       2.83504656      10.20994703
Zn      -0.06678061       7.11133909       2.03702078
Zn      -0.20610439       7.07529753      10.15489034
Zn       7.23052344       2.90975150       2.13637594
Zn       7.13614410       2.98347505      10.32624369
Zn       4.79141262       7.06781240       2.09684559
Zn       4.71573583       7.23135514      10.26003038
Zn      -1.34560100       3.56612747       6.07024549
Zn      -1.38207122       3.62835414      14.27872561
Zn      -3.80445910       7.87568234       6.12478111
Zn      -3.88390892       7.85564830      14.21586853
Zn       3.56661300       3.53146012       6.14655547
Zn       3.48554468       3.64505301      14.32492073
Zn       1.07266180       7.80972070       6.07549933
Zn       0.94030822       7.92831672      14.26573356
Mg      -0.10939814       1.36981797       6.00764990
Zn      -0.24026463       1.53432052      14.16561433
Zn      -2.48842286       5.77427559       6.05591916
Zn      -2.61861700       5.72035903      14.15534175
Zn       4.77158634       1.45788884       6.17669509
Zn       4.66904661       1.52350065      14.26274172
Zn       2.32415005       5.67851734       6.08161313
Zn       2.14804779       5.79901886      14.11130885
Zn       3.58584240       0.76354613       2.16597799
Zn       3.46036069       0.79281830      10.21769711
Zn       1.08686189       4.92411881       2.08617545
Zn       1.03129238       4.98861571      10.11297890
Zn       8.36447403       0.82257691       2.19164005
Zn       8.25703741       0.86497674      10.33723518
Zn       5.89312809       5.00284136       2.08926000
Zn       5.90136766       5.06187579      10.18735053
Zn       1.20059841       0.74752587       2.10406883
Zn       1.03319901       0.79256257      10.21283323
Zn      -1.23449315       5.01046038       1.95603402
Zn      -1.38222661       5.11834903      10.14010397
Zn       6.02619925       0.80606100       2.14980524
Zn       5.85647483       0.66045334      10.37834596
Zn       3.54087034       5.07918587       2.17238574
Zn       3.48773457       5.07071439      10.23641457
Zn       1.05765226       3.58301016       6.08202322
Zn       0.99282369       3.65466242      14.32319364
Zn      -1.31564801       7.81370424       6.06885091
Zn      -1.46047230       7.95736796      14.22823321
Zn       6.04192304       3.62782100       6.16967762
Zn       5.82118970       3.64187162      14.38361806
Zn       3.47117887       7.82023433       6.12091957
Zn       3.42103717       7.93748097      14.34438930
