93
Lattice="10.147675514409636 -0.1060893289760324 -0.3517166773421575 -4.765900420600804 8.704538209882285 0.3546048285514046 0.3732972862944752 0.27840460201577694 15.609672799225036" Properties=species:S:1:pos:R:3 pbc="T T T"
Mg       0.22512252       2.98897671       3.50229743
Mg       0.34914812       3.15800046      11.30712819
Mg      -2.24939556       7.35114241       3.68269514
Mg      -2.02966189       7.45197493      11.47098401
Mg       5.25653332       2.82713981       3.37985395
Mg       5.46830889       3.00488390      11.00291565
Mg       2.90555117       7.24464674       3.53970349
Mg       3.02563839       7.50050956      11.29365096
Mg       2.63041746       1.54032702       7.24917242
Mg       2.92092370       1.73223980      15.09053192
Mg       0.37032494       5.99960014       7.60644937
Mg       0.60737411       6.10730693      15.21975395
Zn       7.85081693       1.51685462       7.03614312
Mg       7.91324024       1.71388176      14.90156913
Mg       5.34393643       5.90676940       7.28659801
Mg       2.76329206       1.52949010       4.28369686
Mg       2.85576472       1.66587409      12.14787026
Zn       0.39682912       5.81403367       4.50212310
Mg       0.43231205       6.02006114      12.29293824
Zn       7.82706143       1.47059176       4.10136731
Mg       7.87188714       1.47619470      11.88940864
Mg       5.30505392       5.74906335       4.36836838
Mg       5.58441773       5.98152053      12.29771935
Mg       0.09772939       2.89030480       0.49619984
Mg       0.23173808       2.99110217       8.39069004
Mg      -2.30748033       7.20035075       0.69817366
Mg      -2.08496247       7.32291441       8.60923871
Mg       5.13558504       2.80843397       0.39455642
Mg       5.45924610       3.03952186       8.17712405
Mg       2.79197967       7.15284298       0.58985189
Mg       2.93931081       7.39942547       8.37910114
Zn       0.09441785       0.14199746       3.86119483
Zn       0.39570300       0.29189966      11.76990461
Zn      -2.25482181       4.38190068       4.11469848
Zn      -2.10815908       4.55033991      11.91281212
Zn       5.27398385      -0.01171267       3.70107732
Zn       5.45367353       0.16304879      11.52468239
Zn       2.80587092       4.39999442       3.86271133
Zn       2.90608378       4.61768866      11.66704337
Mg      -0.00370484      -0.04473279      -0.09429727
Zn       0.12280366       0.14415382       7.90113164
Zn      -2.38615068       4.32238558       0.12762822
Zn      -2.15503346       4.42560263       7.95793438
Zn       5.01080229      -0.04831920      -0.18391686
Zn       5.28264751       0.04610893       7.60897484
Zn       2.64362335       4.25499128       0.04206899
Zn       2.87451608       4.49901188       7.84159514
Zn       2.58697687       2.83863250       1.93867333
Zn       2.84675942       3.04261049       9.77361956
Zn       0.25877708       7.24407449       2.06658857
Zn       0.47454793       7.42936603       9.86556095
Zn       7.77597953       2.84301032       1.69417804
Zn       7.95580858       2.89592331       9.61671257
Zn       5.35688391       7.27649673       1.95061858
Zn       5.52988450       7.34601718       9.76300134
Zn      -1.04505965       3.69336700       5.95921068
Zn      -0.79347098       3.76382778      13.85334213
Zn      -3.47980058       8.13504602       6.16478950
Zn      -3.20165890       8.22691384      13.96021053
Zn       4.00402993       3.61128104       5.78012651
Zn       4.22927795       3.66725925      13.60094468
Zn       1.72982742       8.05615126       5.88849938
Zn       1.97256363       8.17761392      13.79179579
Zn       0.30069236       1.60327571      13.69445077
Zn      -2.23436092       5.94206158       6.04253630
Zn      -2.05990346       6.07083168      13.84016108
Zn       5.18978528       1.50076039       5.71530799
Zn       5.45919571       1.60467750      13.53179770
Zn       2.95587542       5.87541457       5.86251235
Mg       2.91718519       6.04393235      13.78282068
Zn       3.90387745       0.72217247       1.82924567
Zn       3.93156909       0.88683625       9.60177863
Zn       1.47734551       5.07541884       2.03064529
Zn       1.59150254       5.19319325       9.80288862
Zn       8.97832152       0.68301093       1.60934552
Zn       6.58420399       5.08819542       1.86777999
Zn       6.73548052       5.12761624       9.69380428
Zn       1.31001058       0.68688528       1.92680541
Zn       1.52566738       0.82624136       9.68548575
Zn      -1.03540796       5.13989350       2.11395165
Zn      -0.88262145       5.19628560       9.92828809
Zn       6.43013138       0.69564788       1.72964154
Zn       6.68132727       0.81586815       9.52795213
Mg       4.05053572       5.05965936       1.98184813
Zn       4.20636154       5.18679151       9.69855666
Zn       1.50788582       3.69883956       5.83334510
Zn       1.77245070       3.84745876      13.66995121
Zn      -0.89565142       8.04261667       6.04843488
Zn      -0.68554332       8.28623456      13.79306840
Zn       6.54063603       3.61107568       5.83540258
Zn       6.80974835       3.79940105      13.42396540
Zn       4.24212922       8.00380545       5.87247056
Zn       4.48324725       8.21497294      13.72806670
