94
Lattice="9.548240320651391 0.08271907788436277 0.017846068172123968 -5.064847981896018 8.619705520471028 -0.14334038377473987 -0.15527304031829672 -0.2548677719835371 15.585096165682069" Properties=species:S:1:pos:R:3 pbc="T T T"
Mg       2.26146567       1.31626726       7.30124106
Mg       2.21691923       1.27673931      15.16878906
Mg      -0.29092606       5.68562454       7.22701033
Mg      -0.33889706       5.57530999      14.99136996
Mg       7.06809841       1.36077471       7.26662597
Mg       6.91069151       1.25542006      15.14921922
Mg       4.47756140       5.65836241       7.22353475
Mg       4.43774305       5.60038453      15.09676440
Mg      -0.09974458       2.84776159       3.39283884
Mg      -0.16221354       2.65554090      11.14283857
Mg      -2.64348727       7.16693709       3.26292186
Mg      -2.71920159       7.03040669      11.04134482
Mg       4.50564923       2.82098202       3.45483908
Mg       4.49784999       2.62844661      11.13426835
Mg       2.12517837       7.16834958       3.26835078
Zn       2.01840452       7.04114397      11.07551603
Mg       2.23052800       1.42861983       4.43758523
Mg       2.23932431       1.19719165      12.15031564
Mg      -0.24654122       5.70441335       4.34576987
Mg      -0.23805260       5.57574501      12.05764555
Mg       7.06666963       1.51805841       4.31901311
Mg       6.90661276       1.32989305      12.15735213
Mg       4.48181011       5.77530325       4.29159202
Mg       4.48151745       5.57260504      11.98144187
Mg      -0.11896833       2.90974033       0.42631136
Mg      -0.25190422       2.69259303       8.18114044
Mg      -2.68893192       7.23512254       0.37145227
Mg      -2.65493385       7.09875320       8.21017692
Mg       4.66344727       2.87473098       0.43082188
Mg       4.58320857       2.79517084       8.16996918
Mg       2.09859013       7.25198204       0.36147064
Mg       2.03535456       7.20496332       8.15701504
Zn       0.03945751       0.05321776      -0.04748910
Zn      -0.16638206      -0.14804684       7.78959533
Zn      -2.54087329       4.41493230      -0.03537700
Zn      -2.57968521       4.13064613       7.70239768
Zn       4.77456116       0.03740359      -0.06121339
Zn       4.75649014      -0.01670408       7.78790344
Zn       2.29412802       4.36209953      -0.10631214
Zn       2.14980706       4.18641983       7.71618921
Zn      -0.06459872      -0.11767077       3.90778368
Zn      -0.12544216      -0.18081813      11.67063123
Zn      -2.53528009       4.23626449       3.81588676
Mg      -2.63906424       4.16812984      11.61502213
Zn       4.64880231      -0.09328411       3.91201303
Zn       4.64897257      -0.19571424      11.77206113
Zn       2.14386183       4.38138897       3.79186067
Zn       2.03443820       4.11745871      11.64751923
Zn      -0.09526771       1.42047320       5.84124917
Zn      -0.17741419       1.22524219      13.60288191
Zn      -2.68266197       5.68315594       5.72455386
Zn      -2.62317537       5.52132853      13.48898653
Zn       4.64095776       1.47548662       5.75720464
Zn       4.60388026       1.19609601      13.68000284
Zn       2.16554236       5.77547618       5.73685818
Zn       2.06374843       5.59080950      13.55690975
Zn      -1.34970107       3.52518825       5.74738946
Zn      -1.45543050       3.35978701      13.57104173
Zn      -3.91888866       7.73330040       5.72096292
Zn      -4.02983704       7.68131002      13.51191253
Zn       3.40906629       3.64017303       5.75052025
Zn       3.35292964       3.48282213      13.57143367
Zn       0.84602403       7.91652755       5.70846572
Zn       0.72914875       7.73238385      13.58419757
Zn       1.16255370       0.73235523       1.93375270
Zn       1.08500346       0.57394285       9.81258680
Zn      -1.38130924       4.93086334       1.84913888
Zn      -1.49715187       4.85391626       9.63295748
Zn       5.97808206       0.76833899       1.95447374
Zn       5.86886282       0.68955624       9.73934937
Zn       3.36026073       5.08362402       1.85782693
Zn       3.35013671       4.91966284       9.64083129
Zn       0.93260746       3.46576318       5.83740518
Zn       0.96669774       3.45767901      13.66245397
Zn      -1.50335692       7.87692578       5.68919352
Zn      -1.68938850       7.68670442      13.54399632
Zn       5.76946876       3.58649046       5.73486803
Zn       5.62289925       3.44065570      13.58149041
Zn       3.21710025       7.75975189      13.48590190
Zn       2.23535394       2.93040000       2.05132337
Zn       2.10832112       2.80168334       9.67351748
Zn      -0.24874663       7.20680900       1.84370937
Zn      -0.30921596       7.11806756       9.61098728
Zn       7.05658194       2.93180458       1.84393664
Zn       6.90915893       2.77833322       9.73817567
Zn       4.54111445       7.04820708       9.66463888
Zn       3.50145888       0.66888182       1.98989823
Zn       3.41070442       0.56255839       9.75187574
Zn       0.99882422       5.00663868       1.78245487
Zn       0.90795528       4.91391099       9.68537709
Zn       8.35869465       0.73114082       1.86741137
Zn       8.23249871       0.56526862       9.68805077
Zn       5.73302010       5.05223571       1.79668474
Zn       5.65654950       4.98980207       9.58047217
