95
Lattice="9.83556300372461 0.43752858149798757 0.2606379297870495 -4.836445608615398 8.101368019770561 -0.10339362218542113 0.2501589638420957 0.26299599762106224 15.923446250494782" Properties=species:S:1:pos:R:3 pbc="T T T"
Mg       0.07188799       2.85760202       3.45762583
Mg       0.18318465       3.00382901      11.46614729
Mg      -2.39430882       6.80314242       3.59432136
Mg      -2.22826617       7.06754205      11.38769909
Mg       5.00666669       3.02021166       3.56473292
Mg       5.07289964       3.12308447      11.53932462
Mg       2.50277081       7.08590665       3.54744063
Mg       2.70179696       7.18638299      11.49380728
Mg       2.59925369       1.59065177       7.54944644
Mg       2.71629874       1.73961350      15.50962940
Mg       0.21235125       5.62653156       7.44491084
Mg       0.24189895       5.80242086      15.45729752
Mg       7.51056461       1.91751882       7.54812913
Mg       7.61588643       2.02027046      15.57096448
Zn       5.15162734       6.04514133      15.52542234
Mg       2.64778287       1.58928889       4.54522980
Mg       2.63193586       1.71588815      12.50974740
Mg       0.16838177       5.61254598       4.57535938
Mg       0.22210565       5.74235259      12.50081565
Mg       7.44588292       1.73446276       4.66372464
Mg       7.58025105       1.91312306      12.54599839
Mg       4.94458651       5.82461321       4.61745453
Mg       5.16769585       5.95738322      12.61411211
Mg      -0.02123206       2.69264802       0.51867616
Mg       0.08351903       2.89473635       8.47301647
Mg      -2.43670114       6.78723273       0.50027323
Mg      -2.20884502       6.96464848       8.37272622
Mg       4.85096961       2.90401754       0.68026634
Mg       5.07698593       3.04552107       8.59059075
Zn       2.48819642       7.03178874       0.63342553
Mg       2.66694134       7.19162626       8.57420133
Zn       0.04159950      -0.06917891       3.93518673
Zn       0.25536477       0.12444008      11.99460064
Zn      -2.31333825       4.09425705       4.01283245
Zn      -2.15358904       4.30979459      11.96515408
Zn       4.95712071       0.32303117       4.21152633
Zn       5.10618381       0.40867212      12.05258664
Zn       2.60939133       4.28952221       4.01034427
Zn       2.68427590       4.47496549      11.99284700
Zn       0.01150587       0.04701016       0.01625414
Mg       0.09905536       0.13739237       8.03448949
Zn      -2.42753092       4.08969392      -0.03931532
Zn      -2.29351517       4.25368701       7.86661769
Zn       4.91952937       0.22753309       0.09132816
Zn       5.04427494       0.42241858       8.13667607
Zn       2.59003565       4.27988322       0.02624121
Zn       2.54862520       4.32798022       7.94190759
Zn       2.54334635       2.93936007       2.04193265
Zn       2.64902239       3.12383371      10.05398240
Mg       0.10640802       7.02474711       2.03249159
Zn       0.19923410       7.06563270       9.99645230
Zn       7.40396953       3.13510983       2.15843318
Zn       7.49819936       3.22527391      10.13558997
Zn       5.05255519       7.10066331       2.12481290
Zn       5.20310092       7.32412164      10.09622283
Zn      -1.08521385       3.61864369       5.91195590
Zn      -0.98639516       3.74361955      13.91741106
Zn      -3.46421570       7.58821058       5.85246998
Zn      -3.39067955       7.74380468      13.79958564
Zn       3.80593437       3.74698409       6.09721107
Zn       3.85559614       3.80333509      14.02011089
Zn       1.42112615       7.81521519       5.99845519
Zn       1.54190501       7.96271733      13.93388152
Zn       0.02866116       1.48798681       6.00258980
Zn       0.26039146       1.66696730      13.98133617
Zn      -2.34026306       5.55023754       5.86758087
Zn      -2.25152891       5.66479387      13.86435259
Zn       5.04532736       1.69966533       6.10267174
Zn       5.13364835       1.86040560      13.96828075
Zn       2.65931330       5.82062207       6.08804614
Zn       2.75934414       5.90980887      14.02542662
Zn       3.71858993       0.89581746       2.00777552
Zn       3.92220622       0.93355752      10.01924514
Zn       1.30542333       4.95259720       2.07322804
Zn       1.43978650       5.04531529       9.95996332
Zn       8.65647377       1.08460358       2.26149279
Zn       8.77473312       1.14690992      10.21727833
Zn       6.16026446       5.19505839       2.15565437
Zn       6.24211882       5.25474354      10.17851292
Zn       1.28422035       0.76940494       2.06394290
Zn       1.38841604       0.91723699      10.06465543
Zn      -1.14935486       4.88070801       2.07386800
Zn      -0.97764936       4.92722443       9.96215859
Zn       6.14340706       0.99817752       2.13490737
Zn       6.33341990       1.12012798      10.22874504
Zn       3.79269981       5.01159783       2.06539644
Zn       3.90503084       5.24719272      10.08879937
Zn       1.38785801       3.63595563       5.99622039
Zn       1.47573726       3.64212293      13.95165755
Zn      -1.03249789       7.70410579       5.97091533
Zn      -0.87814416       7.82035736      13.92129626
Zn       6.25068669       3.92020328       6.04472951
Zn       6.30355229       3.96813535      14.07851528
Zn       3.77507324       7.95654298       6.12165677
Zn       4.05589295       7.96396267      14.01349770
