95
Lattice="9.73063288753482 0.16939460452780117 0.07103526852114288 -4.797397342594591 8.337169515442064 -0.1210173694593358 -0.10050889194257401 0.28869038206932024 15.476056270050957" Properties=species:S:1:pos:R:3 pbc="T T T"
Mg       0.01187063       2.84258083       3.28484287
Mg      -0.05728505       3.00295780      11.11355159
Mg      -2.39636057       7.05786746       3.38875380
Mg      -2.47371635       7.20199875      11.10954857
Mg       4.87567099       3.00091467       3.47905555
Mg       4.71400935       3.07801011      11.19006433
Mg       2.45581908       7.06713772       3.37765813
Mg       2.42479550       7.23367812      10.99834692
Mg       2.37243889       1.56666136       7.32139750
Zn       2.31986691       1.70897548      14.97767123
Mg       0.06596152       5.74589780       7.16711315
Mg      -0.00756434       5.80231948      15.01340459
Mg       7.30850727       1.63958671       7.33088334
Mg       7.20866418       1.91857657      15.05712264
Mg       4.94386958       5.98400128       7.27060941
Mg       4.78596624       6.00240880      14.94489549
Mg       2.38909549       1.55574195       4.35153117
Mg       2.32075396       1.79571185      12.16145638
Mg       0.08551846       5.73024008       4.33230263
Mg      -0.09147541       5.86315318      11.97920509
Mg       7.28481780       1.66143136       4.42233720
Mg       7.22457406       1.74100987      12.05647238
Mg       4.87211105       5.81514709       4.34786926
Mg       4.77603071       5.98031371      11.92135845
Mg       0.07755132       2.82426297       0.48310212
Mg      -0.01529370       2.90762386       8.21022264
Mg      -2.42625838       7.01504239       0.38092424
Mg      -2.36288096       7.16665433       8.09515342
Mg       4.93740105       2.96742123       0.41255756
Mg       4.81988823       2.95213539       8.26692811
Mg       2.52626564       7.12571768       0.38721075
Mg       2.42477040       7.10708993       8.04156513
Zn       0.09720457       0.06580524       3.89024822
Zn      -0.10377948       0.19987876      11.59511088
Zn      -2.43642305       4.25439274       3.75459478
Zn      -2.46660431       4.33944154      11.61160533
Zn       4.78732092       0.12539196       3.81758703
Zn       4.85478554       0.31425183      11.66421686
Zn       2.39207840       4.29211809       3.82793279
Zn       2.41371824       4.45439457      11.67264964
Zn       0.09288757      -0.02774299       0.04283607
Zn       0.03081871       0.16129218       7.74272467
Zn      -2.40989346       4.21853533      -0.06081449
Zn      -2.42806381       4.32012170       7.79213300
Zn       4.92916848       0.04928648       0.01027587
Zn       4.79928734       0.22198346       7.78566579
Zn       2.44414059       4.24117936      -0.07654157
Mg       2.40467792       4.36779489       7.76456849
Zn       2.40809005       2.88602802       2.01508174
Zn       2.43274424       3.06339044       9.67221694
Zn       0.06652018       6.97312956       1.80331609
Zn      -0.06914502       7.12503041       9.70220459
Zn       7.21800580       2.99889031       1.89915509
Zn       7.28441775       3.06594614       9.74974296
Zn       4.94947484       7.22334090       1.84530922
Zn       4.90640915       7.30159631       9.60410443
Zn      -1.27846464       3.63678204       5.73963015
Zn      -1.26302264       3.72633110      13.48753429
Zn      -3.64947882       7.74930503       5.69668690
Zn      -3.71382960       7.91081364      13.38579688
Zn       3.62341237       3.70699555       5.70290470
Zn       3.60054516       3.77854477      13.49844460
Zn       1.21052984       7.83573421       5.70745949
Zn       1.24302159       7.98451969      13.49964659
Zn      -0.00051406       1.57987108       5.68674667
Zn      -0.08498032       1.63103987      13.50326116
Zn      -2.54387768       5.63101468       5.70716026
Zn      -2.52836623       5.86427346      13.47508649
Zn       4.81893838       1.61014634       5.80342992
Zn       4.73660231       1.79717584      13.58183485
Zn       2.43361954       5.75821768       5.80548578
Zn       2.48399980       5.92703945      13.49120889
Zn       3.66050199       0.77969506       1.99874455
Zn       3.64513385       0.91231642       9.63364333
Zn       1.19342779       4.96840823       1.94872117
Zn       1.12317292       5.09081558       9.64927151
Zn       8.42988337       1.06436163       9.69567240
Zn       6.08991130       5.02551980       1.95535904
Zn       6.07594779       5.12552127       9.73605955
Zn       1.19021249       0.76596754       1.98735252
Zn       1.23895899       0.95611485       9.68004536
Zn      -1.15480671       4.93323228       1.81866931
Zn      -1.25893052       5.11284481       9.63702722
Zn       6.07953837       0.84101589       1.94329582
Zn       6.05752051       0.90305143       9.67091929
Zn       3.66431510       5.03493359       1.86404696
Zn       3.71398744       5.15127398       9.61343917
Zn       1.16756204       3.63165879       5.77617228
Zn       1.12063500       3.81365694      13.53492772
Zn      -1.19658831       7.76354479       5.70690557
Zn      -1.21897193       7.93952405      13.49968259
Zn       6.11346628       3.74692312       5.75564337
Zn       6.04529305       3.84473663      13.56543973
Zn       3.63702338       7.96032736       5.83006344
Zn       3.52804346       8.07626132      13.54741841
