93
Lattice="9.728429873734271 -0.08855259818743845 -0.40310513884316695 -4.758637997380622 8.521193556607269 0.18128260722397166 -0.04944445397214422 -0.7617251804750093 15.573999755254826" Properties=species:S:1:pos:R:3 pbc="T T T"
Zn       2.37826889       1.00348124       7.25710915
Mg       2.42839476       0.63730795      14.95920896
Mg      -0.00523674       5.36048353       7.32030433
Mg      -0.00641752       4.94909336      15.09181458
Mg       7.33256651       0.98916778       6.98361282
Mg       7.33309959       0.58930017      14.72225730
Mg       4.90926202       5.12785616       7.05135107
Mg       4.82672267       4.91068667      14.86464922
Mg       0.02756294       2.80387355       3.36818070
Mg       0.04337933       2.27233429      11.17647291
Mg      -2.30294334       6.90259788       3.48376308
Mg      -2.39920338       6.61551755      11.31663164
Mg       4.94205486       2.68606761       3.17557251
Mg       4.84845348       2.23136868      10.99665218
Mg       2.44600880       6.93007662       3.34533032
Mg       2.54309689       6.53032381      11.11112699
Mg       2.54810511       1.18874157       4.36045512
Zn       2.41671137       0.82945873      12.05522089
Mg       0.16992243       5.53688435       4.33441844
Mg      -0.06855935       5.05807592      12.20576907
Mg       7.36143819       1.09418333       4.02424025
Mg       7.28079098       0.85055768      11.80960742
Mg       4.93732022       5.31393142       4.13134361
Zn       4.89451667       4.98939831      11.94733584
Mg       0.06351190       2.86647072       0.47914108
Mg      -0.02667808       2.38782090       8.33511809
Mg      -2.30687541       7.06652535       0.60124230
Mg      -2.31841730       6.66072794       8.25791089
Mg       4.91008607       2.69590630       0.25989101
Mg       4.84560047       2.36737598       8.05760884
Mg       2.53411789       6.75607631       8.09679664
Zn      -0.03151600      -0.07597603      -0.09027948
Zn       0.03266236      -0.37184684       7.83105556
Zn      -2.35792989       4.29732730       0.06782915
Zn      -2.38172047       3.93341162       7.86041250
Zn       4.80571478      -0.00191985      -0.20716014
Mg       4.80798199      -0.35711952       7.54420706
Zn       2.36301932       4.17667129      -0.11604765
Zn       2.40303856       3.86012859       7.71698211
Zn       0.01811169      -0.28952125       3.81814539
Zn       0.01389814      -0.62800859      11.65774100
Zn      -2.34386323       4.04475706       4.03425900
Zn      -2.43115695       3.70522154      11.77284197
Zn       4.82332556      -0.18524811       3.74974565
Zn       4.84944888      -0.55932492      11.58581898
Zn       2.45524854       4.05331288       3.73775576
Zn       2.43295453       3.62510160      11.60257883
Zn      -0.00808997       0.83479485      13.60349601
Zn      -2.40914236       5.43898352       6.02411173
Zn      -2.40559863       5.05086431      13.75210222
Zn       4.96117182       1.11913531       5.52494457
Zn       4.89120742       0.70708895      13.40068774
Zn       2.36754151       5.25978364       5.81113636
Zn       2.47325604       4.98444369      13.43559366
Zn      -1.19351491       3.32353915       6.02381339
Zn      -1.20309076       2.84428360      13.69627267
Zn      -3.55864971       7.74330441       6.04372425
Zn      -3.55434709       7.14774390      13.79870879
Zn       3.75461966       3.30446219       5.71722337
Zn       3.65617072       2.85112884      13.48261045
Zn       1.35801644       7.50754474       5.71691621
Zn       1.24949665       7.10473508      13.57983499
Zn       1.19735005       0.51978554       1.86957689
Zn       1.31788232       0.16399201       9.63715693
Mg      -1.11513186       4.76937977       1.92045929
Zn      -1.26759704       4.42454177       9.79432212
Zn       6.10514010       0.49834775       1.66846338
Zn       6.10266749       0.21717221       9.53889144
Mg       3.69697531       4.72124430       1.75408592
Zn       3.66001068       4.43665292       9.53391918
Zn       1.26778222       3.32537099       5.75571880
Zn       1.14912021       2.86602952      13.44198981
Zn      -1.04275108       7.46792610       5.86140267
Zn      -1.09830300       7.05646414      13.63851101
Zn       6.16728443       3.23790717       5.59627271
Zn       6.13097262       2.79471364      13.28460158
Zn       3.71761015       7.40990722       5.63201373
Zn       3.67229932       7.09725249      13.44358374
Zn       2.51565823       2.73870192       1.80201065
Zn       2.37319887       2.31596578       9.60665156
Zn       0.15926706       7.04674173       1.88616508
Zn       0.06689354       6.50487444       9.84191576
Zn       7.36884488       2.66567568       1.67423186
Zn       4.95089935       6.89435651       1.64857078
Zn       4.96408787       6.61068520       9.47277978
Zn       3.66709513       0.42718905       1.72396296
Zn       3.61361419       0.18172875       9.46824686
Zn       1.28684856       4.80857142       1.80591959
Zn       1.21112160       4.51873241       9.72671513
Zn       8.50297833       0.54302042       1.58582881
Zn       8.46876748       0.14449765       9.35590215
Zn       6.14311491       4.75943405       1.69408279
Zn       6.03662984       4.33031395       9.45613423
