95
Lattice="9.713837000345926 -0.09772407639565234 0.30929774441385627 -5.018778028147652 8.54158093021481 -0.003436369519794497 -0.16956586620668365 -0.1269469534039236 15.29481475973175" Properties=species:S:1:pos:R:3 pbc="T T T"
Mg      -0.04711522       2.88262702       3.41198922
Mg      -0.07239098       2.75556444      11.03361927
Mg      -2.59275533       7.08495824       3.38150816
Mg      -2.60951776       7.02990803      11.11709789
Mg       4.85350175       2.73766642       3.56933640
Mg       4.69837656       2.61597982      11.25357587
Zn       2.26291485       7.00924694       3.59892064
Mg       2.10984457       6.94131224      11.20792552
Mg       2.37136529       1.31367636       7.30631205
Mg       2.18750471       1.20251550      14.98551027
Mg      -0.24129416       5.66785213       7.25667654
Mg      -0.20939645       5.50890704      14.94896466
Mg       7.19217949       1.33447966       7.40622096
Mg       7.06283553       1.19355689      15.01409121
Mg       4.67301112       5.53780407       7.44827055
Mg       4.60813595       5.42645207      15.09430770
Zn       2.33515984       1.31012890       4.39162362
Zn       2.28970559       1.29887455      11.99329797
Mg      -0.13496820       5.61265053       4.43936433
Mg      -0.26680060       5.58943375      12.02277580
Mg       7.26632365       1.33886192       4.60070094
Mg       7.10429331       1.21452598      12.26977976
Mg       4.69079237       5.54987656       4.52403633
Mg       4.65234095       5.57342379      12.32437529
Mg      -0.05483636       2.85583215       0.50660295
Mg      -0.12926131       2.83157558       8.14742959
Mg      -2.56646060       6.99828537       0.56471110
Mg      -2.65251773       7.05934954       8.11431260
Zn       4.85697381       2.77803153       0.67886576
Mg       4.65356204       2.63558547       8.31440663
Zn       2.33883425       6.99365447       0.66630609
Mg       2.15938295       6.88566241       8.34618479
Zn      -0.02019466      -0.03755057       3.93374835
Zn      -0.08716913      -0.10332151      11.49961171
Zn      -2.63845539       4.13256554      11.42700302
Zn       4.80253701      -0.12930460       4.02318766
Zn       4.70961132      -0.10230859      11.66782954
Zn       2.38109182       4.09991691       4.00764314
Zn       2.22429026       4.08925375      11.63846894
Zn      -0.06233591       0.06813129      -0.05014760
Zn      -0.11484488       0.08742835       7.66596807
Zn      -2.50163981       4.21579228       0.02623801
Zn      -2.50404613       4.16639743       7.61387283
Zn       4.99297602      -0.07623512       0.20545683
Zn       4.86230235      -0.14239024       7.74686872
Zn       2.39426939       4.25021037       0.15853557
Zn       2.24817968       4.22015470       7.79939433
Zn       2.37981210       2.77268810       1.99346390
Zn       2.18577097       2.69744835       9.62795868
Zn      -0.16110012       7.06341616       1.99784565
Zn      -0.20827820       6.95698822       9.62603066
Zn       7.16200682       2.78562860       2.20261617
Zn       7.10781408       2.60193452       9.84109980
Zn       4.73041604       7.00245241       2.18633887
Zn       4.55496275       6.94148805       9.83677873
Zn      -1.29988930       3.45487824       5.77099451
Zn      -1.37659632       3.50974178      13.41808380
Zn      -3.86308617       7.68818006       5.73058751
Zn      -3.92334145       7.67471613      13.33570202
Zn       3.50779908       3.51058038       5.88763343
Mg       3.46624044       3.43573331      13.47432707
Zn       1.06837337       7.72877298       5.88415324
Zn       0.85941038       7.59489743      13.49147646
Zn      -0.10600369       1.29114745       5.72214883
Zn      -0.29253106       1.34775569      13.40989095
Zn      -2.62078041       5.61637502       5.85087556
Zn      -2.71560834       5.62567268      13.47919606
Zn       4.80582971       1.19734313       5.93112193
Mg       4.66476936       1.32385001      13.59468467
Zn       2.24284711       5.67850985       5.97450677
Zn       2.06846679       5.56568095      13.54279190
Zn       3.68773570       0.64244303       2.01359984
Zn       3.47152915       0.61610559       9.77794487
Zn       1.17730456       4.99084380       2.12072997
Zn       1.07873889       4.88117551       9.66860433
Mg       8.43722576       0.64961615       2.14668203
Zn       8.48423263       0.55368373       9.80636968
Zn       5.98132720       4.85928672       2.17358853
Zn       5.83859789       4.74415375       9.83474627
Zn       1.14704812       0.69715642       1.96089195
Zn       1.12661960       0.61308190       9.59446919
Zn      -1.26272447       4.90182982       1.95137560
Zn      -1.35063556       4.90424000       9.63811450
Mg       5.94407579       0.72262680       2.14245203
Zn       6.03891183       0.60063539       9.81388785
Zn       3.59144845       4.87993956       2.11366743
Zn       3.47875112       4.86539381       9.79638673
Zn       1.07459891       3.49639648       5.86465025
Zn       1.01194436       3.30786466      13.52574421
Zn      -1.44844986       7.78383050       5.80535266
Zn      -1.47910544       7.66047284      13.48631176
Zn       5.91749265       3.38555251       6.04420257
Mg       5.92834842       3.27729903      13.54561400
Zn       3.36829536       7.71062484       5.87902395
Zn       3.37267623       7.66493728      13.72219718
