96
Lattice="9.53878461012759 0.27769281861231326 -0.18254769152816283 -5.031805509860977 8.413567844575459 0.2644070960014535 -0.21331533471739247 0.021518724334749967 16.222675867746755" Properties=species:S:1:pos:R:3 pbc="T T T"
Mg      -0.15961696       2.83679448       3.67299038
Mg      -0.29004341       2.77633724      11.74388335
Mg      -2.68392517       7.04549801       3.71410517
Mg      -2.75519305       7.04732413      11.81946292
Mg       4.55202666       3.03364148       3.53070778
Mg       4.51331193       2.94190493      11.63909114
Mg       2.10777231       7.18383078       3.64071243
Mg       2.04344870       7.12528526      11.68075338
Mg       2.27778238       1.44638997       7.41570025
Mg       2.18624163       1.44529374      15.75234536
Mg      -0.29397649       5.69051728       7.71362522
Mg      -0.36648236       5.59570467      15.75714448
Mg       7.13229616       1.65460284       7.45154112
Mg       6.96552271       1.62330369      15.59107298
Mg       4.50934236       5.86788432       7.65128374
Mg       4.43820686       5.88235656      15.65850854
Mg       2.30296787       1.48431513       4.56132579
Mg       2.29426310       1.57788515      12.65802371
Mg      -0.26670029       5.66624572       4.67347257
Mg      -0.30718910       5.64368717      12.75407023
Mg       7.00569736       1.64111437       4.50171089
Zn       7.07398126       1.68104027      12.57963615
Mg       4.60298744       5.77619282       4.57743609
Mg       4.42089742       5.88094879      12.69978062
Mg      -0.04815710       2.88974574       0.54923679
Mg      -0.23516979       2.93779898       8.65292625
Mg      -2.60085855       7.07868076       0.68056072
Mg      -2.71173086       7.00532675       8.77879220
Mg       4.68477636       2.94817232       0.43029161
Mg       4.60827275       3.05320990       8.43223092
Mg       2.12072057       7.15926908       0.61300794
Mg       2.03946003       7.18246984       8.75436264
Zn      -0.13677326       0.00494088       4.12682380
Zn      -0.16523755       0.04172165      12.13225253
Zn      -2.55303324       4.23524055       4.26243187
Zn      -2.62657475       4.04647895      12.21611057
Zn       4.64091977       0.15882734       3.92674055
Zn       4.61339932       0.15399549      12.02468537
Zn       2.28819158       4.39808446       4.07903140
Zn       2.05220589       4.35965161      12.12052142
Zn      -0.09605134      -0.12243916       0.00524675
Zn      -0.17215515      -0.06297994       8.09593580
Zn      -2.54080546       4.25446056       0.18376352
Zn      -2.65019855       4.19058274       8.30633976
Zn       4.77219664       0.14679428      -0.10162136
Zn       4.62836266       0.23395354       8.02477454
Zn       2.28322020       4.39646098       0.01059696
Zn       2.18553928       4.39743477       8.13882233
Zn       2.30668420       2.95999403       2.07367635
Zn       2.14250221       2.93923095      10.17390325
Zn      -0.23961455       7.03714947       2.16642244
Zn      -0.36649170       7.09917989      10.32434100
Zn       7.00792868       3.11152433       1.99536143
Zn       6.94620568       3.06722352      10.14482087
Zn       4.47643659       7.30214491       2.09750814
Zn       4.45544714       7.31287682      10.18365443
Zn      -1.31206330       3.65949189       6.17024469
Zn      -1.52507856       3.47647161      14.31888543
Zn      -3.96191050       7.80480517       6.24582327
Zn      -3.96975701       7.75192364      14.46985224
Zn       3.49076979       3.74634780       6.08153300
Zn       3.32513833       3.76745485      14.28551825
Zn       0.82107033       7.87965570       6.19175161
Zn       0.76217818       7.97362225      14.21463622
Zn      -0.14133051       1.47503062       5.99768397
Zn      -0.29045024       1.47703669      14.21223608
Zn      -2.62620670       5.73109335       6.14992785
Zn      -2.61191899       5.66840958      14.32738554
Zn       4.64995422       1.53921000       6.09272166
Zn       4.61939105       1.54945411      14.11872477
Zn       2.12580088       5.77432248       6.11470273
Zn       2.12428648       5.75737907      14.22614100
Zn       3.57676705       0.93152201       2.01173370
Zn       3.42710887       0.84786760      10.14283212
Zn       0.93355549       5.01624381       2.04006474
Zn       0.83864108       5.05643311      10.15593229
Zn       8.39832558       0.91216451       1.82448792
Zn       8.23950661       0.97071160      10.02268766
Mg       5.80513277       5.18072991       2.10057288
Zn       5.72934867       5.13511545      10.10780464
Zn       1.20869244       0.77732168       2.02045813
Zn       1.07648948       0.72119150      10.06442901
Zn      -1.32887697       5.04420819       2.19435259
Zn      -1.48644818       4.96219502      10.37364761
Zn       5.80247274       0.86206323       1.99255856
Zn       5.80610955       0.84671354      10.00403540
Zn       3.41108739       5.04444501       2.05570829
Zn       3.26592311       5.12326461      10.26325754
Zn       0.92200381       3.56534119       6.13184385
Zn       0.87407574       3.63999189      14.27444121
Zn      -1.50182203       7.79328406       6.28898318
Zn      -1.62209234       7.81437622      14.34386442
Zn       5.79693019       3.81835565       6.12059540
Zn       5.60869318       3.74859826      14.14171316
Zn       3.23722748       7.97945456       6.13873383
Zn       3.25148070       7.92078203      14.24876451
