93
Lattice="9.441065489862497 0.0073042156673773125 -0.001252140774540173 -4.614550424471902 8.673761105022669 -0.19168254488874648 -0.6341309033478344 -0.24060164389332372 16.113074285315072" Properties=species:S:1:pos:R:3 pbc="T T T"
Mg      -0.07663313       2.77127356       3.47827940
Mg      -0.39650051       2.63554722      11.56959071
Mg      -2.45919530       7.20979412       3.30104466
Mg      -2.70526685       6.98365936      11.41046013
Mg       4.64114295       2.84454703       3.47820920
Mg       4.22209061       2.74166903      11.50224456
Mg       2.29953078       7.17623044       3.36347936
Mg       1.88931348       7.08395132      11.30511618
Mg       2.06941202       1.39056497       7.53744914
Mg       1.80129704       1.18617008      15.54899502
Mg      -0.12262605       5.71588668       7.36736539
Mg      -0.50810978       5.60207972      15.46300709
Mg       6.78066969       1.20101461       7.43679920
Mg       6.38102203       1.18405812      15.56654695
Mg       4.45145173       5.69141330       7.47623262
Mg       4.14533288       5.46721389      15.49335544
Mg       2.19228513       1.37451863       4.41724045
Mg      -0.09069150       5.68331636       4.49313790
Mg      -0.39295685       5.59397065      12.37140487
Mg       6.95053401       1.33461374       4.53198411
Mg       6.63126374       1.29760196      12.46122942
Mg       4.57948309       5.75231053       4.47086419
Mg       4.24809236       5.64100062      12.48867847
Mg       0.01707086       2.84924968       0.38522373
Mg      -0.29899504       2.79101593       8.53554046
Mg      -2.32298544       7.18913180       0.32174984
Mg      -2.55930122       7.12400547       8.28989274
Mg       4.68403577       2.91966769       0.54426975
Zn       4.50646682       2.74670937       8.49154417
Mg       2.35648537       7.25194202       0.23817404
Mg       2.15893869       7.08732247       8.49722648
Zn      -0.26312830      -0.02914799       4.02733612
Zn      -0.53285773      -0.09841684      12.03930468
Zn      -2.40984877       4.25564413       3.95703434
Zn      -2.79299056       4.08705012      12.04206113
Zn       4.58105741      -0.03972870       4.04191006
Zn       4.15313914      -0.17278449      12.21823231
Zn       2.26997623       4.28931429       3.92136686
Zn       1.88710489       4.20802404      12.00201183
Zn      -0.05166036       0.01030068      -0.03750818
Zn      -0.27568960      -0.19805646       8.10334677
Zn      -2.30508392       4.41091197      -0.13459181
Zn      -2.66490891       4.27426630       8.02078784
Zn       4.35954965      -0.07971598       8.09386911
Zn       2.11717712       4.21838058       7.93641225
Zn       2.36234727       2.95994652       1.96576339
Zn       2.00154784       2.73795312      10.08196531
Zn      -0.03358712       7.21319232       1.90242298
Zn      -0.37129191       7.06513889       9.87334252
Zn       7.11585506       2.84917407       1.92580304
Zn       6.59282326       2.72980038      10.01270302
Zn       4.74430163       7.21827469       1.83757900
Zn       4.35200850       7.05564690       9.97669060
Zn      -1.24707917       3.52975710       5.88860367
Zn      -1.65829775       3.40509771      13.99170337
Zn      -3.60303376       7.85480697       5.82427889
Zn      -4.01923125       7.66367066      13.89762556
Zn       3.37566344       3.56172268       5.96124542
Zn       2.99590775       3.38463527      13.99269335
Zn       1.01447706       7.92056081       5.84221182
Zn       0.66524970       7.79307172      13.93730645
Zn      -0.12584344       1.40890078       6.10590310
Zn      -0.60969417       1.23011144      14.00526540
Zn      -2.45439192       5.73612817       5.89642983
Zn      -2.82623596       5.60592186      13.97560527
Zn       4.41989820       1.32589702       5.97426880
Zn       4.03667440       1.23530719      14.06465034
Zn       2.25987171       5.70773529       5.91772585
Zn       1.92868420       5.63874660      13.97529685
Zn       3.46115132       0.63632534       2.01707937
Zn       3.24887426       0.68882820      10.03195136
Zn       1.15266551       5.13250241       1.95031372
Zn       0.84779238       4.96390105       9.82557558
Zn       8.15511348       0.68136033       2.00218367
Zn       7.93329862       0.51850220      10.02546526
Zn       5.97595581       5.08980143       1.87779562
Zn       5.65019140       4.96405091       9.94092075
Zn       1.10430914       0.72937086       2.01885272
Zn       0.83475107       0.53560811      10.01051735
Zn      -1.19279439       4.97102593       1.82637053
Zn      -1.51792319       4.89322526       9.91710585
Zn       5.88127191       0.57221235       1.91028563
Zn       5.49355987       0.60669206      10.05134947
Zn       3.51283334       5.04682942       1.93699319
Zn       3.25288988       4.94317647       9.95145140
Zn       0.92597785       3.47868147       5.90608552
Zn       0.64055872       3.32840366      14.06378844
Zn      -1.31738877       7.83991730       5.92609836
Zn      -1.64102570       7.73712207      13.93165733
Zn       5.78094794       3.53859843       5.86848697
Zn       5.38433335       3.40998953      14.05580196
Zn       3.41838223       7.84967273       5.89487640
Zn       3.12012990       7.75325268      13.88715180
