96
Lattice="9.184760559200006 -0.006117570583445799 0.03378379686875633 -4.281008826862677 8.219801760516354 -0.08248513609625478 0.45716480797258946 0.24948125148706146 16.548581332112793" Properties=species:S:1:pos:R:3 pbc="T T T"
Zn       0.18594482       2.75086535       3.58699401
Mg       0.48504651       2.91453591      11.88990446
Mg      -1.86996419       6.92374916       3.45877896
Mg      -1.64656231       7.06868359      11.77852936
Mg       4.91892572       2.80579416       3.59817465
Mg       4.98493910       2.91115111      11.88511306
Mg       2.65527593       6.86931674       3.57362067
Mg       2.94700104       7.10512605      11.89151797
Zn       2.48604621       1.47711428       7.67163207
Mg       2.80683637       1.57852779      16.07148808
Mg       0.38438277       5.63485365       7.71700180
Mg       0.71314454       5.69156010      15.95919204
Mg       7.14615923       1.46687025       7.79488004
Mg       7.36638823       1.48338596      16.06971871
Mg       5.01592784       5.61464177       7.81091482
Mg       5.25198370       5.63591863      15.90009118
Zn       2.43144118       1.48057310       4.62309025
Mg       2.66255743       1.54223054      12.86021971
Mg       0.31415192       5.59945291       4.68162515
Mg       0.57154826       5.68883765      12.81125364
Mg       7.11725658       1.40912263       4.57097794
Mg       7.26821525       1.56974343      13.01405909
Mg       5.00191090       5.53150034       4.66518593
Mg       5.08217590       5.62144742      12.91385310
Mg       0.09054269       2.69648108       0.56384440
Mg       0.35901119       2.96199824       8.76400035
Mg      -1.99196387       6.84738562       0.45129785
Mg      -1.78080481       7.00781925       8.76747775
Mg       4.72517692       2.80163569       0.51498860
Mg       4.92665207       2.82464958       8.73294628
Mg       2.63628678       6.79595193       0.54977963
Mg       2.74723295       6.97418423       8.83481920
Zn       0.09998146       0.08530450       4.11729386
Zn       0.32610678       0.16094166      12.46607917
Zn      -2.04422331       4.12692896       4.14007084
Zn      -1.88541511       4.25393435      12.41671576
Zn       4.64879956       0.08890579       4.12128789
Zn       4.92757625       0.22399270      12.40687016
Zn       2.57208520       4.20149548       4.11580067
Zn       2.81992282       4.31212127      12.37951963
Zn      -0.00076201      -0.02022952       0.00873243
Zn       0.27230627       0.06113362       8.18647590
Zn      -2.10786814       4.05571859      -0.02002058
Zn      -1.92523558       4.19186807       8.17873625
Zn       4.55375298       0.05072137      -0.06121613
Zn       4.83650586       0.16118951       8.23914682
Zn       2.42152264       4.13491040      -0.00150357
Zn       2.70333748       4.22048586       8.28059821
Zn       2.43279372       2.73558808       2.01762456
Zn       2.71551332       2.90696044      10.38548220
Zn       0.33294500       6.86461401       2.00242856
Mg       0.53026803       7.05042788      10.26318084
Zn       6.97516625       2.76968984       2.02416965
Zn       7.23717909       2.88856297      10.27101369
Zn       4.88590199       6.92199009       1.97289743
Zn       5.23510222       7.03917980      10.30075648
Zn      -0.81876631       3.47053479       6.14132324
Zn      -0.62184868       3.66381008      14.46430361
Zn      -2.96305524       7.68090549       6.03287222
Zn      -2.74287531       7.81161406      14.36832454
Zn       3.67210217       3.51339419       6.24976212
Zn       3.96950946       3.68985218      14.49634648
Zn       1.66559168       7.52095123       6.12444711
Zn       1.83092343       7.84322092      14.61071158
Zn       0.21016141       1.51044495       6.10780858
Zn       0.47836667       1.61432705      14.47653371
Zn      -1.93165563       5.62058170       6.16299640
Zn      -1.65739285       5.73791997      14.49067681
Zn       4.85626477       1.50009363       6.17656610
Zn       5.07438189       1.60745786      14.54244853
Zn       2.63432214       5.52878231       6.17367462
Zn       2.90001683       5.72067797      14.42939524
Zn       3.55520489       0.71854975       2.12456593
Zn       3.69376630       0.84447541      10.28886011
Zn       1.53279269       4.86578340       1.99561048
Zn       1.64947716       5.03340642      10.37211213
Zn       8.02422399       0.66576508       2.10304827
Zn       8.35530238       0.83530031      10.38847346
Zn       6.00486829       4.86122452       1.94891981
Zn       6.24844813       4.97158108      10.33633962
Zn       1.18848902       0.79407378       2.07185800
Zn       1.41108119       0.80215677      10.34504805
Mg      -0.98367914       4.78719767       2.03509170
Zn      -0.69769088       4.96578111      10.35607759
Zn       5.82412691       0.68214157       2.04884468
Zn       6.08402459       0.79636923      10.29772602
Zn       3.75518180       4.75852838       2.05809367
Zn       3.91839690       4.99334427      10.35758893
Zn       1.44881481       3.57788823       6.19025219
Zn       1.68801583       3.66634114      14.46886275
Mg      -0.61795009       7.67461023       6.12534849
Zn      -0.39295839       7.70255179      14.43204877
Zn       6.05027567       3.51386538       6.25457748
Zn       6.25768376       3.58344370      14.34057132
Zn       3.90209221       7.66944319       6.19205161
Zn       4.13787731       7.70370672      14.43667422
