95
Lattice="9.766113063108966 -0.07224581220277196 -0.15749545920744337 -5.180844819374347 8.731974931346146 0.3713006001833117 0.18225453170146946 -0.048005302873925404 15.38305646647387" Properties=species:S:1:pos:R:3 pbc="T T T"
Mg       2.43837428       1.36150050       7.21267393
Mg       2.59195500       1.35708755      14.83161446
Mg      -0.16127110       5.83497374       7.30315318
Mg      -0.07601548       5.80966368      15.17119351
Mg       7.47679817       1.42381824      14.85043903
Mg       4.79739605       5.78575589       7.34826244
Mg       4.88579793       5.75806767      15.05737437
Mg      -0.08271449       2.81980057       3.50122832
Mg      -0.04951330       2.82314409      11.13310982
Mg      -2.62463770       7.26222619       3.69728451
Mg      -2.52482990       7.14251295      11.26919096
Mg       4.78174964       2.84936852       3.32975775
Mg       4.88889659       2.88480895      11.03215460
Mg       2.26761611       7.28091316       3.53749004
Mg       2.34196847       7.35039740      11.26752580
Mg       2.40174800       1.49231224       4.26072583
Mg       2.51672559       1.38119922      12.06383808
Mg      -0.18481299       5.79718517       4.54361515
Zn      -0.03879775       5.67550626      12.21199461
Mg       7.34579026       1.41199674       4.25967470
Mg       7.42613584       1.28281104      11.99739891
Mg       4.75760357       5.80018219       4.42169622
Mg       4.77623896       5.75740073      12.15456432
Mg      -0.07776635       2.97854525       0.62452893
Mg       0.00631101       2.87988342       8.24647297
Mg      -2.70390294       7.30026647       0.81840012
Mg      -2.58312112       7.24986305       8.43125372
Zn       4.75495426       2.96687799       0.48907580
Mg       4.88097824       2.74698661       8.21315770
Mg       2.13910458       7.17200003       0.61791633
Mg       2.29134295       7.28046806       8.34688649
Zn      -0.02483203      -0.08874178      -0.02328270
Zn       0.10965215       0.04622211       7.68158462
Zn      -2.64860394       4.33850219       0.26906163
Zn      -2.56840473       4.28932201       7.82440471
Zn       4.90259564      -0.09910134      -0.18920372
Zn       5.00235104      -0.13431074       7.63041251
Zn       2.30707822       4.30831023       0.12767375
Zn       2.40125321       4.35093994       7.80060793
Zn       0.02968956      -0.03025990       3.80266995
Zn       0.15527501      -0.06947284      11.58725077
Zn      -2.54523752       4.37594661       4.07358098
Zn      -2.44420745       4.33143484      11.75161924
Zn       4.99142449      -0.00506556       3.81272535
Zn       5.08393295      -0.01769174      11.46886817
Zn       2.27074691       4.30984329       3.97214616
Zn       2.43146600       4.28521540      11.64884378
Zn       0.01287206       1.34662287       5.78797687
Zn       0.17316502       1.39610380      13.53559415
Zn      -2.59127466       5.74434117       6.00502158
Zn      -2.48703523       5.83519170      13.66608548
Zn       4.85467112       1.31629414       5.69076335
Zn       4.96632306       1.37322822      13.43705708
Zn       2.28668154       5.80344323       5.82964506
Zn       2.49465625       5.72791110      13.60122322
Zn      -1.17926804       3.62408017       6.02155948
Zn      -1.24918034       3.54901913      13.60227048
Zn      -3.86568653       8.00557708       6.07498615
Zn      -3.79989917       8.06948781      13.78135075
Zn       3.64040459       3.49129144       5.85245592
Zn       3.69883138       3.48234546      13.52175565
Zn       1.06751798       8.01476456       5.96368137
Mg       1.27376291       7.94068801      13.67361876
Zn       1.15811726       0.69473451       1.88986032
Zn       1.29606274       0.55249396       9.65672342
Zn      -1.40364116       5.09817875       2.09298193
Zn      -1.31300829       5.02714155       9.81616975
Zn       6.02732342       0.73361148       1.83297223
Zn       6.19416520       0.60053811       9.54215650
Zn       3.45214336       4.94945231       2.11845283
Zn       3.61553806       5.04932565       9.75717240
Zn       1.08287312       3.56798867       5.82185658
Zn       1.15674059       3.56655404      13.60377552
Zn      -1.30224397       7.95197099       5.98593963
Zn      -1.25520257       7.93279484      13.72842563
Zn       6.01236580       3.52246174       5.79774369
Zn       6.02795491       3.53746388      13.49254899
Zn       3.46922850       7.85697054       5.97354693
Mg       3.51435306       7.98286365      13.58387583
Zn       2.29280720       2.88303665       1.92690715
Zn       2.55892279       2.80398799       9.63815910
Zn      -0.28699217       7.26630704       2.19044543
Zn      -0.19180398       7.23483402       9.81009790
Zn       7.23837795       2.89226155       1.86963680
Zn       7.37478061       2.77317014       9.53841478
Zn       4.57789362       7.27554866       2.07071880
Zn       4.70395049       7.21666474       9.85396561
Zn       3.67623244       0.78000436       1.90167799
Zn       3.79083487       0.72461328       9.51530466
Zn       1.05255457       5.03506218       1.99897481
Zn       1.10170936       5.06213668       9.86294197
Zn       8.55009348       0.67684426       1.81153947
Zn       8.55296965       0.65467853       9.57506259
Zn       5.96878937       4.95309892       1.96748747
Zn       6.05640737       5.06913097       9.77827181
