96
Lattice="9.631693301436334 0.13993555608143027 -0.012268740964979716 -4.855693359290149 8.308042344958803 0.2887586794114519 0.09497315443936866 -0.5505311402790891 15.594037055073755" Properties=species:S:1:pos:R:3 pbc="T T T"
Mg       0.01612545       2.63233844       3.50089291
Mg       0.09697182       2.41535268      11.33741293
Mg      -2.42069123       6.87431890       3.63519425
Mg      -2.36442489       6.56348112      11.48628997
Mg       4.80437807       2.71161523       3.44759863
Mg       4.84831525       2.54966264      11.26215763
Mg       2.35596125       6.95466947       3.61832427
Mg       2.45810049       6.57654648      11.49488009
Mg       2.49453770       1.07260136       7.33828259
Mg       2.52629317       0.94700832      15.04337200
Mg       0.08183862       5.25035179       7.53245416
Mg       0.02494268       5.10984981      15.37684888
Mg       7.31477843       1.24701377       7.36231045
Zn       7.37817111       0.88826693      15.13102184
Mg       4.92575272       5.37716962       7.49141744
Mg       4.91251734       5.14659969      15.32015871
Mg       2.41974811       1.29128975       4.44861687
Mg       2.49846962       1.07596305      12.23305203
Mg       0.07404798       5.45773326       4.58051291
Mg       0.01983503       5.20263719      12.30758851
Mg       7.19750917       1.31695711       4.35457567
Mg       7.32010539       1.06322129      12.26247251
Mg       4.83975431       5.47831603       4.60308052
Mg       4.79526908       5.25910667      12.50295680
Mg      -0.08682909       2.75131694       0.69802170
Mg       0.10207991       2.44563163       8.34236506
Mg      -2.41497569       6.84822731       0.85130465
Mg      -2.32784252       6.66461048       8.60915201
Zn       4.81761802       2.82270539       0.61826006
Mg       4.80442925       2.70067536       8.30997959
Mg       2.38373637       7.03115253       0.69781889
Mg       2.42470945       6.64779937       8.60905107
Zn      -0.02511163      -0.11587001       3.92830825
Zn       0.00213579      -0.38426587      11.67639620
Zn      -2.35895197       3.95882799       4.15734916
Zn      -2.25104847       3.81764027      11.74446566
Zn       4.88477778      -0.14496105       3.84329472
Zn       4.84147304      -0.27106563      11.60992165
Zn       2.43995380       4.06930631       3.97459707
Zn       2.42318921       3.79929867      11.85562386
Zn      -0.09113314       0.03246759       0.04529925
Mg       0.09641536      -0.28086008       7.79525481
Zn      -2.41101840       4.13593677       0.02744313
Zn      -2.40474903       3.85841911       8.00398885
Zn       4.83763904       0.05838310       0.00912747
Zn       4.73086044      -0.07591547       7.66109591
Zn       2.42511178       4.28350904       0.05491157
Zn       2.44993571       3.93811724       7.88100184
Zn       2.31658127       2.72227743       1.96625791
Zn       2.48758164       2.49972429       9.89036023
Zn       0.00392926       6.91357483       2.12485863
Zn       0.05852150       6.69315010      10.02165823
Zn       7.25756654       2.83634326       1.97874643
Zn       7.25056289       2.52245855       9.83336566
Zn       4.76281225       7.06500303       2.20664457
Zn       4.82152866       6.71345534       9.93247371
Zn      -1.26800616       3.29408103       5.98236943
Zn      -1.11911330       3.06127953      13.73805937
Mg      -3.57630252       7.33789737       6.12297666
Zn      -3.55200902       7.20264935      13.90273380
Zn       3.60278637       3.23242242       5.89593701
Zn       3.67452739       3.01873655      13.82565491
Zn       1.17921298       7.42227626       6.15298781
Zn       1.24420832       7.29679097      13.92329660
Zn       0.03628875       1.20204140       5.87482854
Zn       0.10599728       0.97188580      13.59151205
Zn      -2.49413414       5.37615838       6.06714156
Zn      -2.42821244       5.06060627      13.85050000
Zn       4.90289359       1.20693880       5.95019458
Zn       4.85155519       1.05029112      13.71444970
Zn       2.41061650       5.50208705       5.99681161
Zn       2.50862619       5.13222066      13.82992014
Zn       3.73617196       0.67429851       1.94043429
Zn       3.72713625       0.43550849       9.70169075
Zn       1.20765350       4.86072210       2.15874256
Zn       1.17512820       4.52427551       9.88250348
Zn       8.38177049       0.76246910       1.84631547
Zn       8.45327603       0.50423422       9.71538034
Zn       5.97460196       4.95887816       2.18369152
Zn       6.09133294       4.62009717       9.93542338
Zn       1.17122859       0.58148328       1.97991083
Zn       1.28709392       0.34844269       9.80011649
Zn      -1.26204188       4.80246282       2.10472699
Zn      -1.21030845       4.48474801       9.90648747
Zn       6.03746215       0.74647035       1.95198814
Zn       6.05153486       0.38618901       9.72547450
Zn       3.63306087       4.86968134       2.21068063
Zn       3.61080927       4.67741545       9.77721880
Zn       1.22088896       3.27353058       5.91924426
Zn       1.26613827       3.03794006      13.71243849
Zn      -1.10096524       7.48488575       6.10111993
Zn      -1.11757540       7.21598183      13.92104731
Zn       6.01004322       3.42869648       5.97553870
Zn       6.18190825       3.10275756      13.63584333
Zn       3.66773898       7.53182016       6.16258437
Zn       3.70311204       7.25232995      13.81125086
