95
Lattice="9.8104106045132 0.12642449132739816 -0.10778100049312468 -4.977975923924179 8.189108420089246 -0.10997018873092618 -0.41295310764629783 -0.2238251525477414 15.716001870430933" Properties=species:S:1:pos:R:3 pbc="T T T"
Mg       2.20154327       1.37930324       7.35348374
Mg       2.00734925       1.22706553      15.13612222
Mg      -0.21249202       5.40264052       7.24942839
Mg      -0.54578361       5.17661978      15.07690690
Mg       7.08438043       1.35184993       7.17446723
Mg       7.07606666       1.25690299      15.08662676
Mg       4.61175844       5.37135566       7.21880027
Mg       4.52204074       5.33899042      15.04325823
Mg      -0.05526215       2.77560683       3.40392242
Mg      -0.30681750       2.61904652      11.15395229
Mg      -2.68739137       6.80757598       3.31595828
Mg      -2.82882156       6.70997661      11.18398522
Mg       4.69939171       2.85255327       3.30490263
Mg       4.72100982       2.65527844      11.02807573
Mg       2.33370365       6.95483184       3.25113364
Zn       2.14757033       6.68684863      11.16542368
Mg       2.28747048       1.33588404       4.37354852
Mg       2.15637209       1.20318225      12.31412195
Mg      -0.07052767       5.46545536       4.37986246
Mg      -0.41172793       5.38002030      12.20319198
Mg       7.18438395       1.45113218       4.28205352
Mg       7.06766637       1.21455040      12.16677290
Mg       4.76107991       5.55097242       4.30343330
Mg       4.58785852       5.42929415      12.15555686
Mg       0.02577037       2.72523658       0.43504995
Mg      -0.24204360       2.62440667       8.30631322
Mg      -2.55285811       6.88135858       0.42171945
Mg      -2.71870419       6.70527232       8.19780910
Mg       4.85663757       2.81608462       0.42565573
Mg       4.70478265       2.68122177       8.26781753
Mg       2.30424095       6.78828435       0.30784231
Mg       2.18454590       6.88587626       8.23157968
Zn      -0.05090039       0.02881035       0.07821276
Zn      -0.18751579      -0.10345901       7.86362079
Zn      -2.48012590       4.05751714      -0.12406787
Zn      -2.68954780       3.99353741       7.75134597
Zn       4.79382766       0.04887410      -0.07902853
Zn       4.60051574      -0.07824996       7.77079343
Zn       2.42578282       4.23411638      -0.13558261
Zn       2.23476820       4.04547075       7.79133365
Zn      -0.04761862      -0.05641966       3.91711598
Zn      -0.27243981      -0.16683807      11.82252657
Zn      -2.64665850       4.02773186       3.79249550
Zn      -2.75675382       3.94100118      11.69194567
Zn       4.58075735      -0.18930901      11.74406939
Zn       2.36124473       4.08079902       3.87604354
Zn       2.10468136       4.01375266      11.71649012
Zn      -0.21655256       1.30435005       5.78809787
Zn      -0.35478729       1.17030043      13.83485391
Zn      -2.60738340       5.41772909       5.85428123
Zn      -2.81096390       5.33953942      13.59065776
Zn       4.77538541       1.41266854       5.84148077
Zn       4.47227155       1.23445145      13.67174015
Zn       2.29861936       5.40001854       5.71506792
Zn       1.99302189       5.28503644      13.54792761
Zn      -1.44943206       3.33521095       5.81233278
Zn      -1.50673942       3.19815875      13.72736939
Zn      -3.98901285       7.40833559       5.72759791
Zn      -4.05258914       7.35465930      13.65958992
Zn       3.47831823       3.41807358       5.74327645
Zn       3.36805146       3.32610021      13.65279782
Zn       1.04373796       7.54640052       5.72085136
Zn       0.80743485       7.36553814      13.59279807
Zn       1.17757196       0.65411286       2.04023467
Zn       0.94377227       0.52606832       9.87653238
Zn      -1.30009099       4.72577844       1.96738035
Zn      -1.59493515       4.65443835       9.71520074
Zn       6.13412800       0.75058539       1.90044842
Zn       5.86162253       0.69218394       9.70879574
Zn       3.60572054       4.73079918       1.83219189
Zn       3.51354661       4.69983006       9.75212551
Zn       1.05593093       3.32851609       5.82549019
Zn       0.81387726       3.26554653      13.70739189
Zn      -1.46148892       7.40813427       5.86343092
Zn      -1.65885826       7.37375842      13.61558706
Zn       5.79231071       3.44216276       5.78982952
Zn       5.74246681       3.28606129      13.64571957
Zn       3.39266936       7.58765876       5.71716110
Zn       3.21970997       7.49592997      13.53041352
Zn       2.42973833       2.74976400       1.79622289
Mg       2.08184951       2.61991752       9.75620639
Zn      -0.10266366       6.79951806       1.84381532
Zn      -0.21003766       6.68101284       9.64709843
Zn       7.26888528       2.74547530       1.81105466
Zn       7.13235390       2.62028862       9.71834174
Zn       4.83122051       6.86455076       1.65438028
Zn       4.52847223       6.82720510       9.64320934
Zn       3.52320521       0.77999166       1.93143983
Zn       3.40768580       0.59333704       9.80480634
Zn       1.15481746       4.82439586       1.94815024
Zn       0.92294575       4.73729562       9.67794291
Zn       8.55086261       0.82594087       1.89877939
Zn       8.35729968       0.68014947       9.71626924
Zn       5.99008315       4.88330065       1.80003987
Zn       5.86902587       4.81471067       9.63970964
