94
Lattice="9.500818532496709 -0.07664235615501894 -0.13346514841816332 -4.635941897821028 8.48506189020519 0.17486819830380096 -0.5488337335697683 -0.1995590146122829 16.0410076811095" Properties=species:S:1:pos:R:3 pbc="T T T"
Mg       2.12035457       1.31874615       7.37424309
Mg       1.89915956       1.15870121      15.55468314
Zn      -0.07864540       5.57613795       7.68991029
Mg      -0.42712188       5.45712597      15.54577888
Mg       6.97092964       1.25498140       7.41347456
Mg       6.60350751       1.11957948      15.48195277
Mg       4.59932978       5.44015376       7.62789477
Mg       4.27700053       5.36192488      15.58639337
Mg      -0.04346352       2.76732255       3.54190987
Mg      -0.30386776       2.71239796      11.48304181
Mg      -2.38703422       7.04303569       3.61953442
Mg      -2.65143527       6.90795579      11.66730160
Mg       4.65016775       2.76330991       3.48464042
Mg       4.35890054       2.66408552      11.46784220
Mg       2.27667890       6.93117586       3.67062960
Mg       2.02389250       6.93705238      11.56540597
Mg       2.26750018       1.38629590       4.56493412
Mg       1.91666141       1.27852734      12.50861429
Mg      -0.07451307       5.64388452       4.59176483
Mg      -0.41404243       5.48416105      12.63071022
Mg       6.96238538       1.24023287       4.42644025
Mg       6.78085856       1.10695881      12.37578350
Mg       4.64137215       5.54241938       4.45986933
Mg       4.44693411       5.50391626      12.50738666
Mg      -0.25283770       2.69255521       8.70034884
Mg      -2.28877160       7.07498314       0.66612327
Mg      -2.58754543       6.90424663       8.66666931
Mg       4.73003596       2.79950598       0.36919223
Mg       4.48208937       2.62514397       8.43661016
Zn       2.46519250       7.04780690       0.54211465
Mg       2.17348329       6.93402718       8.48007169
Zn      -0.02324367       0.00678127      -0.01294262
Zn      -0.23500828      -0.21087867       7.98501774
Zn      -2.24868071       4.28580415       0.03766677
Zn      -2.55103127       4.15543245       8.07301865
Zn       4.80192790       0.03927685      -0.11522745
Zn       4.42572446      -0.15453737       7.91982547
Zn       2.43050833       4.17810528       0.03415170
Zn       2.22147790       4.06053739       8.03486907
Zn      -0.15864678      -0.05095653       4.06020658
Zn      -0.34647035      -0.10286878      12.09934652
Zn      -2.43382639       4.20245903       4.04571575
Zn      -2.78615255       4.18114184      12.12318627
Zn       4.72194990      -0.00629294       3.89928706
Zn       4.36945750      -0.12921742      11.92084388
Zn       2.23519433       4.12030884       4.05279842
Zn       1.91943601       4.05877969      11.92102936
Zn      -0.15918319       1.37771201       5.96719041
Zn      -0.42933178       1.31188000      13.94375414
Mg      -2.55979260       5.46755166       6.18754381
Zn      -2.75327978       5.52127361      14.16475633
Zn       4.47812808       1.32167969       6.06070519
Zn       4.30013434       1.14744270      14.03674394
Zn       2.14342073       5.50290257       6.14623595
Zn       2.05941160       5.54255454      14.07637578
Zn      -1.28741405       3.46090115       5.96099996
Zn      -1.66255807       3.43809095      14.07872572
Zn      -3.67593357       7.63593387       6.20703565
Zn      -3.90591471       7.56463601      14.17856539
Zn       3.34257031       3.41202856       6.04069950
Zn       3.12698279       3.32873019      14.03222507
Zn       1.08239326       7.61990084       6.13041342
Zn       0.81242656       7.56989907      14.11874149
Zn       1.13517138       0.65457894       1.97396456
Zn       0.86025374       0.62744962      10.02784279
Zn      -1.18739319       4.95578211       2.19670150
Zn      -1.43908589       4.76620835      10.09544439
Zn       5.92817982       0.60457265       1.96547435
Zn       5.55991501       0.44846769       9.98719741
Zn       3.53208438       4.87211487       1.98255107
Zn       3.33800253       4.82538694       9.97372350
Zn       0.97225466       3.47913829       5.96321620
Zn       0.69148628       3.30161862      14.03323369
Zn      -1.30738612       7.62610547       6.17005827
Zn      -1.46734425       7.52564681      14.24305548
Zn       5.74147496       3.53450415       6.04910721
Zn       5.56078886       3.26897287      14.00482627
Zn       3.34727512       7.70304466       6.10291006
Zn       3.15308105       7.56346829      14.20523324
Zn       2.38618507       2.72356280       1.95854871
Zn       2.14438448       2.71585805      10.05120218
Zn       0.06782134       6.97243416       2.12375973
Zn      -0.23308153       6.92120175      10.04441281
Zn       7.09454971       2.82114635       1.95736877
Zn       6.78095547       2.66687487       9.87038525
Zn       4.86478288       6.99187900       2.04679690
Zn       4.49660383       6.86933196      10.00213305
Mg       3.19265503       0.57990139       9.95501072
Zn       1.15175844       4.87993891       2.09122527
Zn       0.93066329       4.79899293      10.13182251
Zn       8.24862459       0.62064802       1.88973671
Zn       7.91813138       0.47743570       9.86956103
Zn       6.07456930       4.82683693       1.97235424
Zn       5.71240913       4.72084045      10.00935628
