94
Lattice="9.953709901102116 0.0936039383395192 0.3770945987395332 -4.8201429685703845 8.315234902041269 -0.14231339350360178 0.16320522985043107 -0.14543320010672833 15.722036472633395" Properties=species:S:1:pos:R:3 pbc="T T T"
Mg       0.05369820       2.75079185       3.49055874
Mg       0.22428382       2.71637641      11.32314842
Mg      -2.33320860       6.89882140       3.42772395
Mg      -2.30610651       6.91133219      11.20270193
Mg       5.03657349       2.68956281       3.68500098
Mg       5.14523886       2.80675101      11.50564573
Mg       2.66556816       6.97648410       3.57214982
Mg       2.74639049       6.94655508      11.41321376
Zn       2.62742940       1.36100776       7.35071298
Mg       2.66788446       1.26238277      15.33957811
Mg       0.19000199       5.53129569       7.39219806
Mg       0.25053727       5.46166568      15.17778086
Mg       7.65840900       1.36371693       7.63984561
Mg       7.57008288       1.46072431      15.58664148
Mg       5.08987343       5.61265008       7.55406525
Mg       5.22277602       5.45582155      15.48721433
Mg       2.53863056       1.40280002       4.50285475
Mg       2.64739984       1.30973407      12.28428997
Mg       0.12613612       5.54965290       4.47019652
Zn       0.26291631       5.54534403      12.32344905
Mg       7.54246074       1.46571182       4.65948247
Mg       7.65404883       1.36405287      12.63802501
Mg       5.10443585       5.64767269       4.65049802
Mg       5.17850458       5.51844389      12.42328743
Mg       0.11979818       2.78108739       0.58844104
Mg       0.18602176       2.70669995       8.44774657
Mg      -2.33999361       6.91150300       0.43323370
Zn      -2.23719811       6.84373761       8.37912403
Mg       5.02131064       2.83224453       0.68052299
Mg       5.10283189       2.71011175       8.64557820
Mg       2.53778485       6.90350582       0.67865589
Mg       2.70169328       6.92989540       8.48750259
Zn       0.04880610      -0.11121486       3.98932723
Zn       0.16201867      -0.06861126      11.75826873
Zn      -2.40399863       4.14410762       3.90856002
Zn      -2.34689460       4.10234903      11.74602563
Zn       5.01931169      -0.00912423       4.16547673
Zn       5.10009098      -0.03850555      12.02793992
Zn       2.57218232       4.02599516       4.11945187
Zn       2.75057303       4.21128686      11.85259735
Zn      -0.02506838      -0.02671683      -0.10470103
Zn       0.02581781      -0.14212616       7.81523775
Zn      -2.51116972       4.20931286      -0.00094569
Mg      -2.30521766       4.10041195       7.84684900
Zn       4.90659272       0.03640900       0.21266540
Zn       5.09233513      -0.09174966       8.10675352
Zn       2.57888832       4.19938185       0.08459753
Zn       2.68013015       4.19492057       7.94069856
Zn       2.51333685       2.77102433       2.07412765
Zn       2.60509859       2.68558807       9.88790740
Zn       0.15547654       6.90034399       1.95718929
Zn       0.17301904       6.85087553       9.77010885
Zn       7.56999060       2.85669357       2.20101245
Zn       7.73376914       2.69809964      10.13551189
Zn       5.25994090       6.86106752      10.12616964
Zn      -1.19709656       3.41261125       5.87004759
Zn      -0.98958865       3.34258164      13.56486924
Zn      -3.49903498       7.54353858       5.82529607
Zn      -3.43745064       7.52467048      13.64377612
Zn       3.80659051       3.51458729       6.07024923
Zn       4.09440197       3.43562095      13.94173694
Zn       1.44787807       7.65763562       6.00504487
Zn       1.53358555       7.48923522      13.83291270
Zn       0.11756805       1.36962123       5.86956584
Zn      -2.24523785       5.50216579       5.83868561
Zn      -2.22147555       5.47884095      13.75868602
Zn       5.09221169       1.28404793       6.09517305
Zn       5.14966626       1.31768364      13.96631191
Zn       2.64299998       5.55789148       6.00514532
Zn       2.70606345       5.50191012      13.87919538
Zn       3.74644220       0.81568753       2.12850655
Zn       3.75154863       0.64316280       9.96849589
Zn       1.33692021       4.82636124       2.03605332
Zn       1.44656510       4.84300036       9.80177395
Zn       8.77928107       0.82114911       2.30763126
Zn       8.77367984       0.71997648      10.17707630
Zn       6.30413682       4.90866151       2.17432912
Zn       6.41254915       4.85583862      10.10798001
Zn       1.30280727       0.76375016       2.09290384
Zn       1.37291290       0.59260481       9.99244951
Zn      -1.21945856       4.96643577       2.02591897
Zn      -1.05266340       4.73995704       9.79470504
Zn       6.25869784       0.69565723       2.24065451
Zn       6.37870985       0.68655373      10.13194499
Zn       3.80146914       4.88097138       2.04283253
Zn       3.95332274       4.88181504      10.02813754
Zn       1.37012126       3.44117158       5.93326956
Zn       1.34286650       3.45007889      13.82731157
Zn      -0.99504259       7.58436174       5.96730117
Zn      -0.96221387       7.48260275      13.72569998
Mg       6.36720299       3.49733217       6.10161479
Zn       6.54790919       3.39665399      14.04183948
Zn       3.98470969       7.60778151       6.06859943
Zn       4.06141007       7.52999120      13.98785336
