95
Lattice="9.717174859988381 0.05076648267818725 0.06547216809405089 -4.992307020870612 8.358544430570262 0.09496489118429405 0.7402737547545925 0.5306641138852476 16.154401378248576" Properties=species:S:1:pos:R:3 pbc="T T T"
Mg       2.72831072       1.73496814       7.61610745
Mg       3.18707668       1.96271755      15.71238057
Mg       0.32014222       5.85860132       7.66007919
Mg       0.68990404       6.18691817      15.74862290
Zn       7.61592118       1.55616943       7.64419307
Mg       7.98577880       1.93332956      15.74355613
Mg       5.14869987       5.85133374       7.72618041
Mg       5.51913647       6.13379094      15.78554649
Mg       0.09869757       2.97543645       3.60107690
Mg       0.46087687       3.25652442      11.58507955
Mg      -1.98044711       7.24935675      11.71670697
Mg       4.92685342       3.01522931       3.65080301
Mg       5.36769449       3.24880279      11.67863652
Mg       2.49004354       7.11147854       3.61817500
Mg       2.93050689       7.34003862      11.76820135
Mg       2.57805436       1.51376707       4.61198286
Mg       3.00977674       1.78152332      12.67345057
Mg       0.14816407       5.66120731       4.63259725
Mg       0.53738346       6.05742019      12.66282026
Mg       7.49998698       1.55800056       4.53714943
Mg       7.86554170       1.82268730      12.68666928
Mg       4.97996855       5.75842620       4.76654683
Zn       5.43069898       5.99091007      12.66555542
Mg       0.02121728       2.80288141       0.60252277
Mg       0.33095695       3.07961043       8.68418428
Mg      -2.43198919       7.03224023       0.63946651
Mg      -2.13418391       7.23257113       8.70769319
Mg       4.82449525       2.86703283       0.59368187
Mg       5.18979459       2.98985163       8.56632427
Mg       2.27217585       6.97542663       0.59863035
Mg       2.68919308       7.25116544       8.65859016
Zn      -0.03062633       0.04869253       0.08967795
Zn       0.40503306       0.27378672       8.11293298
Zn      -2.53113644       4.12273254       0.04628873
Zn      -2.19036412       4.39717539       8.05537260
Zn       4.81416450      -0.02867963       0.01340506
Zn       5.17038530       0.35957298       8.15381035
Zn       2.40063239       4.20070551       0.13649103
Zn       2.74604173       4.47336026       8.24488179
Zn       0.25097661       0.11077153       4.08068886
Zn       0.53255589       0.42995270      12.08905238
Zn      -2.35235818       4.28822696       4.13370144
Zn      -1.96404810       4.59487436      12.18543426
Zn       4.97181938       0.16270371       4.03688301
Zn       5.42104294       0.32464687      12.08015431
Zn       2.59801254       4.32019458       4.08863614
Zn       2.91814103       4.63774778      12.09212724
Zn       0.32532290       1.49595544       5.99522346
Zn       0.58916183       1.75736042      14.16968278
Zn      -2.25285021       5.76391544       6.14212368
Zn      -1.95314446       6.10735368      14.16122185
Zn       5.09101079       1.67804746       6.14723658
Mg       5.48336098       1.93483370      14.20736969
Zn       2.57056565       5.82455289       6.11476591
Zn       2.97726146       6.11081140      14.24713781
Zn      -0.93745684       3.69129587       6.08888110
Zn      -0.57214523       3.95798726      14.12392553
Zn      -3.51987350       7.94968237       6.17648761
Zn      -3.07453137       8.16697473      14.21842676
Zn       3.84734860       3.75439377       6.12049487
Zn       4.21592638       3.90163821      14.16413543
Zn       1.42157100       7.81022965       6.19900194
Zn       1.68672771       8.14082568      14.30651417
Zn       1.32162081       0.69681985       1.94848324
Mg       1.64682987       1.01163074      10.06233757
Zn      -1.25453039       4.95930342       2.10564311
Zn      -0.90852712       5.19022917      10.13593907
Zn       6.16572144       0.78722517       2.02183784
Zn       6.51491747       1.06452404      10.20471443
Zn       3.57254301       5.01380462       2.06349163
Zn       4.10222634       5.22111833      10.19350780
Zn       1.38817764       3.75462811       6.09063335
Zn       1.77138429       4.03080582      14.15861008
Zn      -1.07665272       7.87554782       6.13138767
Zn      -0.70137650       8.15652838      14.26492418
Zn       6.32703826       3.66146560       6.12417429
Zn       6.64841084       3.94613456      14.19568113
Zn       3.76299428       7.85245116       6.10038665
Zn       4.16479906       8.11288384      14.16207130
Zn       2.45750641       2.92076242       2.10140628
Zn       2.85966440       3.12668584      10.21482991
Zn      -0.10769531       7.06897261       2.24570069
Zn       0.39983068       7.35317878      10.08961944
Zn       7.30940133       2.90260583       2.06909288
Zn       7.80070647       3.14302204      10.14987717
Zn       4.86815196       7.10853177       2.14610916
Zn       5.16047131       7.27755688      10.21647872
Zn       3.69821712       0.74161483       2.09478620
Zn       4.06216216       1.11802471      10.16840973
Zn       1.23934691       5.09132163       2.11253850
Zn       1.60098482       5.26602923      10.14786748
Zn       8.59851183       0.84333526       2.00491722
Zn       8.94532331       0.97233348      10.17215422
Zn       6.06250949       4.93903503       2.17886832
Zn       6.49067941       5.26177015      10.21887399
