96
Lattice="9.332571126346974 0.25546188237330014 -0.27282987087067084 -4.679895970513094 8.455623937921706 0.3949007754342305 0.23537316043438145 -0.27411478945215767 15.589401265472556" Properties=species:S:1:pos:R:3 pbc="T T T"
Mg       0.01467217       2.81393093       3.51766483
Mg       0.12189803       2.61474805      11.37311021
Mg      -2.20802703       6.95219863       3.70065076
Mg      -2.17302324       6.92295359      11.53365707
Mg       4.73453385       2.94984211       3.32144163
Mg       4.85182581       2.79456568      11.13524353
Mg       2.36084308       7.15074385       3.60627332
Mg       2.50273443       7.04003307      11.23805485
Zn       2.38768139       1.27888666       7.28927550
Mg       2.50911253       1.26450068      15.13571672
Mg       0.12789323       5.51331756       7.49178284
Mg       0.21346224       5.44355217      15.28769522
Mg       7.08798617       1.58008076       7.09993464
Mg       7.22385736       1.32595923      14.91591964
Mg       4.79141814       5.70725708       7.29631544
Mg       4.96704238       5.56761192      15.12836475
Mg       2.34431277       1.42040944       4.32155095
Mg       2.52556510       1.29046532      12.13293415
Zn       0.08855997       5.63356250       4.45480700
Mg       0.12467333       5.52632620      12.33733154
Mg       7.03122943       1.57195886       4.30282549
Mg       7.17182401       1.45270525      12.09766954
Mg       4.80390912       5.77959727       4.44603970
Mg       4.87390370       5.54895261      12.24738646
Mg      -0.02040528       2.77244508       0.52514952
Zn       0.13980174       2.71896823       8.42050312
Zn      -2.35787790       7.05977604       0.80871000
Zn      -2.19993652       6.93085555       8.58215765
Mg       4.67133041       2.98987210       0.44876376
Mg       4.73164017       2.77739242       8.19865178
Mg       2.33119129       7.11662052       0.69005106
Mg       2.33271447       7.11086204       8.46298468
Zn       0.08965769      -0.04809254       3.88133100
Zn       0.08080530      -0.26156272      11.72232451
Zn      -2.30010702       4.22379801       4.09255188
Zn      -2.09927763       4.06063016      11.86045494
Zn       4.74364190       0.08292427       3.69520899
Zn       4.88494943      -0.01846691      11.56449011
Zn       2.30840694       4.26026360       3.93972230
Zn       2.49585370       4.09760576      11.75180730
Zn       0.06696718       0.00464174      -0.01589872
Zn       0.13058292      -0.18180046       7.80844105
Zn      -2.45188337       4.27549163       0.14986961
Zn      -2.19097184       4.03293815       7.87549792
Zn       4.68693343       0.18305369      -0.01969613
Zn       4.80884294       0.05522732       7.64627933
Zn       2.30534385       4.36343061       0.04997668
Zn       2.45776387       4.24685808       7.80373313
Zn       2.30966069       2.86492326       1.91299514
Zn       2.52750842       2.77071072       9.73661861
Zn       0.04528999       7.11191947       2.18636422
Mg       0.14329893       6.99427144       9.96599426
Zn       7.09205697       2.95241993       1.82563124
Mg       7.12680407       2.82627553       9.65251125
Zn       4.69615099       7.24554883       2.03051524
Zn       4.83829330       7.04717866       9.84834311
Zn      -1.07968647       3.49135076       6.03904245
Zn      -0.94534325       3.34012794      13.77562709
Zn      -3.41545892       7.80850626       6.26707407
Zn      -3.26759654       7.56751197      13.98770502
Zn       3.58672949       3.53479642       5.79810153
Zn       3.66811254       3.46914870      13.57677286
Zn       1.24975013       7.88654860       6.07038513
Mg       1.33997899       7.69186631      13.83807649
Zn       0.12280204       1.42545086       5.87340867
Zn       0.19988690       1.20621321      13.62110893
Zn      -2.28553195       5.58892956       6.13548381
Zn      -2.15241086       5.45173246      13.85307270
Zn       4.75029787       1.51603834       5.77377324
Zn       4.89819532       1.31034869      13.59154456
Zn       2.42289489       5.76081709       5.89697799
Zn       2.55806057       5.57056134      13.70443029
Zn       3.51333873       0.82235394       1.82960288
Zn       3.63516511       0.64239051       9.71419727
Zn       1.18695843       4.93328177       2.06163696
Zn       1.30287491       4.93595150       9.87281917
Zn       8.18101692       0.85963865       1.67714250
Zn       8.39785269       0.83871209       9.56899195
Zn       5.87941034       5.16117924       1.98242491
Zn       5.94204864       4.96454091       9.73115481
Zn       1.19195716       0.69660703       1.93200074
Zn       1.31224972       0.50513509       9.76557819
Zn      -1.09210132       5.02230703       2.18886493
Mg      -1.04417693       4.80996125       9.92023422
Zn       5.89890530       0.80404863       1.80845067
Zn       5.98612939       0.72982376       9.60609389
Zn       3.52647479       5.08403708       2.03388111
Mg       3.64225096       4.94843282       9.76341500
Zn       1.19035464       3.54103053       6.00922887
Zn       1.32277464       3.27474039      13.73024134
Zn      -1.09511093       7.76331484       6.06338830
Zn      -0.95132036       7.57081277      13.95350461
Zn       5.84834836       3.65772754       5.84063289
Zn       6.00207195       3.44385803      13.56902175
Zn       3.64196667       7.90952217       5.95553782
Zn       3.73322606       7.85303120      13.75252366
