94
Lattice="9.643884188733212 -0.06226605334931918 0.34140316225815653 -4.902483565677932 8.060379142552167 -0.047217013827247106 -0.22534555846983043 -0.116184306357199 15.787931584572341" Properties=species:S:1:pos:R:3 pbc="T T T"
Mg       2.22271650       1.26336471       7.58253321
Mg       2.22869565       1.32331873      15.34202953
Mg      -0.13031944       5.29795562       7.47339297
Mg      -0.17544709       5.21328984      15.39194975
Mg       7.02470846       1.26321468       7.70163966
Zn       6.96677202       1.21119200      15.60727345
Mg       4.69274777       5.29205032       7.74500574
Mg       4.60505873       5.19341651      15.47183915
Mg      -0.02405939       2.65092657       3.49127137
Mg      -0.20841764       2.53648905      11.39061412
Mg      -2.52077126       6.60588740       3.52065697
Mg      -2.65244456       6.62421049      11.45455336
Mg       4.70383649       2.55820773       3.75345115
Mg       4.64635125       2.59194288      11.49641269
Mg       2.41461467       6.63088764       3.57462757
Mg       2.06257358       6.60746689      11.44537651
Mg       2.33526407       1.31517695       4.44517479
Mg       2.22807309       1.25137270      12.46154319
Mg      -0.11601447       5.28003011       4.46045169
Mg      -0.22168800       5.26420661      12.41832806
Mg       7.18578961       1.29325163       4.68037850
Mg       7.05777780       1.11966448      12.65091583
Zn       4.76195844       5.32780935       4.68823291
Mg       4.59605117       5.10983633      12.62615927
Mg       0.03001212       2.66715306       0.56882788
Mg      -0.15984641       2.63355757       8.35188300
Mg      -2.52045125       6.72797522       0.46414319
Mg      -2.49629378       6.63856417       8.43044981
Zn       4.73848458       2.65028972       0.77767647
Zn       4.62548707       2.59774824       8.56700988
Mg       2.39475982       6.69396019       0.66302357
Mg       2.19361622       6.65073046       8.52745533
Zn      -0.05849871       0.00924506      -0.04433028
Zn      -0.08536558      -0.05232477       7.93091295
Zn      -2.45648761       3.96550143       0.01976622
Zn      -2.57638273       4.05522021       7.83529358
Zn       4.83339976      -0.03497826       0.03685082
Zn       4.72376324      -0.05924389       8.11706560
Zn       2.31207968       4.05085596       0.17205986
Zn       2.26103829       3.85275045       8.08472198
Mg       0.04437196      -0.06358817       3.96564653
Zn      -0.26884939      -0.16453427      11.81845067
Zn      -2.51101029       4.07342787       3.94806179
Zn      -2.68055522       3.98558921      11.78252568
Zn       4.79491761      -0.08941224       4.12749406
Mg       4.69397527      -0.09720477      12.04496439
Zn       2.35852210       4.00007724       4.04970496
Zn       2.20407511       3.87755214      11.94781677
Zn      -0.05460198       1.32500369       5.92518259
Zn      -0.13092658       1.33485529      13.84435765
Zn      -2.51949733       5.40160746       5.93112301
Zn      -2.62705662       5.20343689      13.78123621
Zn       4.71764968       1.20070559       6.18429134
Zn       4.66111281       1.20992854      14.00486424
Zn       2.27399864       5.30950040       6.01126927
Zn       2.05614614       5.22175674      14.00783016
Zn      -1.30182633       3.29986710       5.92439139
Zn      -1.47056553       3.24924357      13.87719029
Zn      -3.83072416       7.31437249       5.86388929
Zn       3.36757419       3.27948186      13.99448396
Zn       1.06773767       7.29497944       6.07449966
Zn       0.92250580       7.24282161      13.97458673
Zn       1.11817777       0.64327638       2.12057875
Zn       1.04081541       0.55538977       9.91083968
Zn      -1.26989901       4.74366999       1.96984904
Zn      -1.44399958       4.64306269      10.01047145
Zn       5.99385171       0.56297171       2.25235486
Zn       5.88375716       0.57094201      10.00700022
Zn       3.53503563       4.68475983       2.12052084
Zn       3.45139779       4.67672508      10.18038020
Zn       1.07072725       3.33211021       6.03383209
Zn       0.94734658       3.27170320      13.93106536
Zn      -1.38882463       7.28007882       6.03480387
Zn      -1.32499323       7.24134629      13.94054271
Zn       5.85945114       3.22552929       6.23661093
Zn       5.74016520       3.27051270      14.07754498
Zn       3.43696761       7.28821544       6.16395405
Zn       3.29613514       7.25159121      13.99565696
Zn       2.39011295       2.59326497       2.16342217
Zn       2.20337302       2.60489060       9.98523234
Zn      -0.13346924       6.61365078       2.05192198
Zn      -0.24796911       6.56825206       9.90366307
Zn       7.15704220       2.67060578       2.24512381
Zn       7.07254418       2.52526134      10.12222250
Zn       4.73763766       6.62160724       2.20764733
Zn       4.64201848       6.59174095      10.15623634
Zn       3.50482958       0.58831173       2.08086291
Zn       3.41631954       0.55582982       9.96894276
Zn       1.08087752       4.72227185       2.06087827
Zn       1.09807203       4.67423451      10.00238957
Zn       8.41053073       0.62563239       2.25628461
Zn       8.33433661       0.61250229      10.09663014
Mg       5.89215491       4.62630442       2.30199418
Zn       5.81193844       4.50346728      10.07019161
