95
Lattice="9.706589590826601 -0.020370278429682764 0.2195594569517791 -5.082317148541082 8.192412133070057 -0.15637108174050762 -0.5681002953980376 -0.18136951498981535 16.164286727093934" Properties=species:S:1:pos:R:3 pbc="T T T"
Mg      -0.22625479       2.71558276       3.59304260
Mg      -0.41978173       2.62538166      11.56234784
Mg      -2.72756106       6.79955844       3.44546499
Mg      -3.03948792       6.66532675      11.49307838
Mg       4.59611346       2.71062399       3.55572392
Mg       4.34982553       2.59211530      11.77314041
Zn       2.13266745       6.73908998       3.57863489
Mg       1.82705454       6.69273750      11.67405601
Mg       2.08753800       1.30415589       7.58523720
Mg       1.76526239       1.17341761      15.66774484
Mg      -0.46403761       5.33613635       7.58013602
Mg      -0.74510310       5.24491647      15.68384217
Mg       6.99220084       1.30862648       7.79763857
Mg       6.72116851       1.24039901      15.76822531
Mg       4.42172615       5.43403472       7.54034115
Mg       4.13925502       5.33148853      15.72804104
Mg       2.30448832       1.27279678       4.58503473
Mg       2.01206956       1.29979392      12.75210554
Mg      -0.36088611       5.47107367       4.50331114
Mg      -0.65968992       5.34954513      12.52569361
Mg       7.09412056       1.23622003       4.60616807
Mg       6.81125657       1.20834520      12.72691463
Mg       4.50903045       5.36679401       4.52747898
Mg       4.21909442       5.19191008      12.62798354
Mg      -0.02581183       2.77399293       0.47968374
Mg      -0.37138913       2.56582042       8.59880505
Mg      -2.65415617       6.79100528       0.39113929
Mg      -2.92495773       6.76300333       8.52415516
Mg       4.75347510       2.72655111       0.66731645
Mg       4.41284871       2.57411782       8.64229532
Mg       2.25860788       6.82640016       0.47527580
Mg       2.02156295       6.67239572       8.60481419
Zn      -0.18767405      -0.03297843       4.01523489
Zn      -0.42671198      -0.18091577      12.14180659
Zn      -2.78421332       4.03791330       3.94150913
Zn      -3.01582111       4.00538511      12.02130271
Zn       4.73501507      -0.05409951       4.15649866
Zn       4.27406970      -0.10655747      12.19297278
Zn       2.19590217       4.04045743       4.02505735
Zn       1.95198163       4.01020028      12.08106294
Zn      -0.01490356       0.00788760       0.08036609
Zn      -0.28243557      -0.11778539       8.13076858
Zn      -2.60083380       4.09607012      -0.01744288
Zn      -2.81353605       3.95739570       8.00346491
Zn       4.86104934      -0.03372761       0.17736291
Zn       4.50991910      -0.18400049       8.12716913
Zn       2.29261559       4.09692091      -0.00537973
Zn       1.99152930       4.05160752       8.04566617
Zn       2.27458444       2.68232193       2.12123512
Zn       1.98549735       2.55926816      10.13622653
Zn      -0.31756019       6.75586384       1.89535031
Zn      -0.52027150       6.67320314      10.10727303
Zn       7.01581790       2.74444421       2.17050965
Zn       6.82728308       2.54967399      10.28226385
Zn       4.61948613       6.74868526       2.12409537
Zn       4.23281395       6.67565348      10.16682883
Zn      -1.54518756       3.22365394       5.92057050
Zn      -1.86188977       3.17674323      14.08504981
Zn      -4.08296998       7.47409336       5.99548453
Zn      -4.37121607       7.44608858      13.94352908
Zn       3.38570527       3.31158509       6.18282832
Zn       3.04321964       3.29183394      14.13232388
Zn       0.72941713       7.43123499       6.07750954
Zn       0.47092167       7.39859639      14.11222831
Zn      -0.26656284       1.32755244       6.00646588
Zn      -0.52176439       1.20550014      14.02769462
Zn      -2.78583770       5.41337290       6.04661032
Zn      -3.11655693       5.27162398      14.07375961
Zn       4.67157119       1.28718186       6.11444834
Zn       4.35958000       1.12773987      14.15912666
Zn       2.16605467       5.36650527       6.16230060
Zn       1.78511156       5.35547592      14.12611700
Zn       3.61973051       0.64669247       2.03873824
Zn       3.34533556       0.58119969      10.13830635
Zn       1.00890694       4.65232016       2.08027807
Zn       0.70214800       4.54356639      10.09069191
Zn       8.36611493       0.64558026       2.26121568
Zn       8.16947056       0.57971367      10.36333417
Mg       5.90666346       4.73865964       2.17855680
Zn       5.51384049       4.64364546      10.28280142
Zn       1.14426979       0.57202856       2.17372738
Zn       0.90062547       0.56488719      10.15199415
Zn      -1.44828024       4.72825026       1.96921852
Zn      -1.71024707       4.71323294      10.01494746
Zn       6.00230221       0.61972677       2.14221820
Zn       5.61129825       0.57303747      10.25280053
Zn       3.14412681       4.74130896      10.19402550
Zn       0.92475628       3.36497369       6.06164791
Zn       0.60484370       3.21397257      14.24459975
Zn      -1.64982901       7.42494417       5.96727588
Zn      -1.94627749       7.42654739      13.99084121
Zn       5.81000116       3.29340325       6.24263983
Zn       5.50001598       3.28311346      14.15518113
Zn       3.20831285       7.44194646       6.10340604
Zn       2.89234992       7.39577854      14.10598603
