94
Lattice="9.253147060733 -0.00023640622867773366 -0.4943809345164775 -4.396963561445523 8.190084130838999 0.1458264170344176 -0.3177898728570014 -0.23596268322014985 15.959763842734011" Properties=species:S:1:pos:R:3 pbc="T T T"
Mg      -0.10260740       2.59975819      11.41474002
Mg      -2.09709620       6.77858975       3.58826081
Mg      -2.45156691       6.67321791      11.43397893
Zn       4.63668714       2.69135444       3.19883354
Mg       4.56635233       2.43956523      11.23311763
Mg       2.50600550       6.75999892       3.29624621
Mg       2.27996227       6.65000990      11.25451624
Zn       2.23075413       1.26935385       7.34474834
Mg       2.07177487       1.17405857      15.35871284
Mg       0.01704675       5.39208444       7.50798368
Mg      -0.22460991       5.17199943      15.41830876
Mg       6.78975139       1.20069022       7.15423217
Mg       6.68058811       1.07561090      15.07669279
Zn       4.60089282       5.35890204       7.23246569
Mg       4.46335520       5.28042615      15.17494099
Zn       2.28020457       1.26453537       4.44878523
Mg       1.99864530       1.07705175      12.28140707
Mg       0.03434369       5.39485576       4.50620180
Mg      -0.02701473       5.30944525      12.39584376
Mg       6.86415927       1.29491124       4.10269941
Mg       6.64360376       1.32575702      12.10977978
Mg       4.64536244       5.38193371       4.22689642
Mg       4.48230243       5.23933960      12.21089172
Mg       0.11678571       2.74416852       0.43215808
Mg      -0.15619465       2.62585769       8.46788510
Zn      -2.08716611       6.91408277       0.46297856
Mg      -2.33663794       6.66080375       8.53474972
Mg       4.66449298       2.77155543       0.22457602
Mg       4.50503791       2.49276143       8.20163555
Mg       2.51590974       6.84514148       0.26455104
Mg       2.33631713       6.67561470       8.26017793
Zn      -0.11163807       0.00737842       4.02587994
Zn      -0.25100698      -0.18719554      11.96483690
Zn      -2.30989308       4.07655287       4.12990703
Zn      -2.46268809       3.94759173      12.13086970
Zn       4.55705436      -0.07824576       3.72087703
Zn       4.38571948      -0.18554795      11.67491537
Zn       2.39880545       4.00420430       3.77087597
Zn       2.14359307       3.92642195      11.89068179
Zn      -0.00512262       0.05707436      -0.06555623
Zn      -0.07282994      -0.13179568       7.97968122
Zn      -2.22423605       4.12765927       0.10490056
Zn      -2.32778279       3.97995690       8.09852632
Zn       4.61673080      -0.01057788      -0.30401815
Zn       4.42382154      -0.17533541       7.69420179
Zn       2.43531918       4.17476321      -0.07847183
Zn       2.29744095       3.90996231       7.78077501
Zn       2.35988250       2.75733773       1.92887174
Zn       2.20092042       2.59883146       9.69217571
Zn       0.15286399       6.77755003       1.92099476
Zn       0.03398202       6.66537971       9.88852148
Zn       6.92773530       2.73816144       1.59022375
Zn       4.84341374       6.84467042       1.53529384
Zn       4.56515133       6.61174110       9.63528672
Zn      -1.09939388       3.26000641       5.96439764
Zn      -1.36996043       3.06160241      14.02238002
Zn      -3.39018311       7.37357895       6.05955644
Zn      -3.50335339       7.27100755      14.00122486
Mg       3.42045371       3.36828810       5.71415764
Zn       3.25707487       3.15332067      13.78546904
Zn       1.18309225       7.43884161       5.84193843
Zn       1.09050975       7.22959457      13.82460372
Zn      -0.02449276       1.36232777       5.94243289
Zn      -0.28075726       1.17948820      13.98370993
Zn      -2.31170375       5.33757401       6.04104259
Zn      -2.37278158       5.20464497      14.06301635
Mg       4.58062029       1.30790800       5.82108543
Zn       4.40117168       1.14057778      13.69056865
Zn       2.39154300       5.45080758       5.85996326
Zn       2.25126400       5.33038487      13.87017406
Zn       3.44683534       0.59315924       1.80383311
Zn       3.28419852       0.57883576       9.72743899
Zn       1.28567211       4.71099413       1.86175628
Mg       1.10867982       4.70542416       9.90611907
Zn       8.06844671       0.64148980       1.59386249
Zn       7.97284885       0.59973278       9.57311591
Zn       5.74277904       4.68350478       1.59330234
Zn       5.75698667       4.65145969       9.61627458
Mg       1.25454537       0.58513819       1.87902096
Zn       0.93538648       0.50995381       9.96708973
Zn      -1.02097970       4.69459000       1.98150941
Zn      -1.28224011       4.75058013       9.95710223
Zn       5.87026285       0.56361418       1.70850279
Zn       5.50174786       0.53733172       9.65039471
Zn       3.54783297       4.76470689       1.76345435
Zn       3.46416206       4.58198431       9.63633247
Zn       1.20602519       3.30182769       5.88509926
Zn       0.93273269       3.20208781      13.83672482
Zn      -1.08061979       7.41745809       6.07079483
Zn      -1.25205792       7.25393048      13.95775572
Zn       5.73238442       3.34994085       5.62537382
Zn       5.67313582       3.19779160      13.54559477
Mg       3.57993074       7.34964922       5.71832946
Zn       3.36220960       7.31114618      13.68773387
