95
Lattice="9.72561685772393 -0.23253050526983635 -0.16770030431622882 -4.646759102037245 8.00740765945881 -0.07493845599662033 0.07930754706236907 -0.27385292096560854 15.771920898257228" Properties=species:S:1:pos:R:3 pbc="T T T"
Mg       2.50286176       1.12121493       7.41254942
Mg       2.55279181       1.09116736      15.27263274
Mg       0.13079362       5.09053692       7.31090681
Mg       0.23762261       4.97462385      15.15076270
Mg       7.34256563       0.96834746       7.19062774
Mg       7.45704710       0.93004515      15.09375046
Mg       5.02199317       5.02955176       7.29127326
Mg       5.14781834       4.90814695      15.12652299
Mg       0.15454512       2.56569739       3.41437818
Mg       0.12927248       2.46605177      11.26465564
Mg      -2.28781467       6.48388542       3.33059705
Mg      -2.12480921       6.47467542      11.20714353
Zn       4.93316129       2.45971518       3.28853811
Mg       4.97897633       2.36162589      11.22354252
Mg       2.71595952       6.46330252       3.21190261
Mg       2.67602876       6.34420483      11.13727189
Mg       2.49552840       1.14968994       4.38569851
Mg       2.48303477       1.08256270      12.29972071
Mg       0.24375175       5.19411113       4.34306305
Mg       0.22862556       5.00681820      12.22055579
Mg       7.31624612       1.10891174       4.33588816
Mg       7.41192301       0.99951330      12.12338351
Mg       4.98890043       5.07507056       4.26403721
Mg       4.98729948       4.89790789      12.02284541
Mg       0.08728132       2.59043765       0.37928342
Mg       0.17573534       2.50997903       8.29147883
Mg      -2.20971656       6.70236444       0.41246567
Mg      -2.19197650       6.50647831       8.28158750
Mg       4.93005424       2.52273016       0.26617682
Mg       5.06312372       2.43834426       8.26614141
Mg       2.63987721       6.47930103       0.30727748
Mg       2.62589054       6.42791663       8.33177762
Zn       0.05608712       0.02904426       0.02962657
Zn      -0.02483878      -0.12637333       7.92341126
Zn      -2.34744361       3.90704878      -0.00561354
Zn      -2.28157695       3.90988832       7.80222807
Zn       4.88248259      -0.10618791      -0.08505889
Zn       4.89612836      -0.28974783       7.81743353
Zn       2.57343336       3.83521026      -0.13056291
Zn       2.51276860       3.82868816       7.80816289
Zn       0.03985338      -0.09259856       3.88291846
Zn       0.07946066      -0.18390409      11.83982681
Zn      -2.30086728       3.98504046       3.86700885
Zn      -2.28498739       3.85160262      11.86857183
Zn       4.88965240      -0.19073451       3.87762533
Zn       2.49735828       3.87477604       3.88673534
Zn       2.64495670       3.68441122      11.79937550
Zn       0.02185859       1.22161452       5.84223069
Zn       0.10247598       1.03084375      13.80755867
Zn      -2.19432150       5.17283516       5.83096085
Zn      -2.27886940       5.12326897      13.79089704
Zn       4.98825513       1.14450140       5.81375057
Zn       4.99174910       0.99002276      13.67111476
Zn       2.59702385       5.07411964       5.83561483
Zn       2.67749325       4.96110430      13.61379438
Zn      -1.20630196       3.24021462       5.88780269
Zn      -1.16254011       3.05453992      13.77400990
Zn      -3.38627589       7.22398916       5.88143984
Zn      -3.48630294       7.02072716      13.80586795
Zn       3.82664465       3.08830123       5.65832524
Zn       3.79734513       3.03272513      13.60770152
Zn       1.41904582       7.09263555       5.67124588
Zn       1.48209393       6.95895097      13.54447796
Zn       1.32190102       0.53555460       1.83116196
Zn       1.35894544       0.48258356       9.76533932
Zn      -1.04698709       4.62526014       1.89120273
Zn      -1.00325125       4.47739215       9.80612658
Zn       6.06629050       0.41177891       1.92144455
Zn       6.14317985       0.41009499       9.65637733
Zn       3.80594468       4.39422572       1.87520470
Mg       3.88805950       4.29380256       9.58887889
Zn       1.36136108       3.17250109       5.81570975
Zn       1.33175848       2.95763224      13.74835942
Zn      -0.95178289       7.17082636       5.77324286
Zn      -0.93513459       7.00672074      13.62034650
Zn       6.22792248       3.03408815       5.69722932
Zn       6.29925515       2.87841446      13.64755067
Zn       3.92512379       7.06721041       5.68686659
Zn       3.94489001       6.84631979      13.55961965
Zn       2.46971862       2.54212170       1.84497679
Zn       2.59743466       2.44389220       9.76353419
Zn       0.18659582       6.56323680       1.94453968
Zn       0.27844184       6.45218514       9.64744597
Zn       7.34741393       2.43949865       1.84211128
Zn       7.48126302       2.27751405       9.65451874
Zn       5.13221517       6.46458890       1.66529585
Zn       5.01858340       6.30522447       9.63955127
Zn       3.57047951       0.59571004       1.89090809
Zn       3.80983999       0.39282563       9.73808246
Zn       1.28843249       4.55293237       1.85556869
Zn       1.29196082       4.38087378       9.77463021
Zn       8.56492362       0.40201599       1.83809540
Zn       8.63812266       0.33004729       9.67172958
Zn       6.23154199       4.48810276       1.79503862
Zn       6.27536554       4.28923414       9.68698240
