94
Lattice="9.521364424594143 -0.10342533790687466 -0.3015900480365607 -4.740357186382759 8.119007436569989 0.09556920077488239 -0.3440418489916532 0.048958535846558966 15.309465975215213" Properties=species:S:1:pos:R:3 pbc="T T T"
Mg      -0.03530960       2.63262363       3.31992466
Mg      -0.29562032       2.69574951      10.99553750
Mg      -2.48584513       6.84752012       3.36151124
Mg      -2.55657311       6.79822516      11.09067762
Mg       4.60715810       2.65166556       3.17096777
Zn       4.50446521       2.68069167      10.85850108
Mg       2.25988627       6.66277595       3.21602860
Mg       2.12978798       6.67990466      10.90039294
Mg       2.19971635       1.29339969       7.07954660
Mg       2.06613414       1.40749699      14.74808163
Mg      -0.23823641       5.35777048       7.13089853
Mg      -0.28527061       5.42695585      14.81241269
Mg       6.98747044       1.27423589       6.83556878
Zn       6.78874906       1.34795458      14.59701617
Mg       4.65935472       5.41535065       6.93095077
Mg       4.43946851       5.27240409      14.60406633
Mg       2.27514015       1.29133108       4.31393318
Mg       2.23994364       1.35942392      11.89836525
Mg      -0.02627814       5.45966614       4.30313575
Mg      -0.31152831       5.39648578      11.95926279
Mg       7.03179803       1.23674192       4.08568475
Mg       6.88341910       1.34063299      11.75620920
Mg       4.67692720       5.31399972       4.11685515
Mg       4.45722767       5.30394400      11.78790295
Mg       0.03617682       2.66808602       0.48905109
Mg      -0.12979152       2.69859007       8.12263395
Mg      -2.35010959       6.73666910       0.54141478
Mg      -2.59270576       6.70755741       8.16907266
Mg       4.67337082       2.57898154       0.25778127
Mg       4.52865958       2.63751592       7.94080713
Mg       2.31419289       6.71377047       0.38536728
Mg       2.16957616       6.78697805       7.96155406
Zn      -0.01153663       0.02831850       3.86557233
Zn      -0.34109742      -0.04699123      11.46776641
Zn      -2.40845949       4.00286726       3.94085269
Zn      -2.59248313       4.08442761      11.54769028
Zn       4.62472654      -0.07628331       3.66551776
Zn       4.44980622       0.03871715      11.37149172
Zn       2.30035516       4.06258366       3.66907727
Zn       2.29963144       4.09887102      11.32376210
Zn      -0.03770720       0.19581105       7.62637464
Zn      -2.38848884       4.10804550       0.09445677
Zn      -2.52632623       4.13130078       7.81223862
Zn       4.72899128       0.04510831      -0.19830386
Zn       4.57255981      -0.06119846       7.56218728
Zn       2.39167231       3.87556647      -0.04174126
Zn       2.31569036       4.03650247       7.67967842
Zn       2.44287013       2.67096196       1.79341877
Zn       2.20066713       2.71667891       9.54416502
Zn       0.01506332       6.67941206       1.85609889
Zn      -0.18809690       6.78836645       9.49707415
Zn       7.22327194       2.62196252       1.56288816
Zn       6.86479341       2.64211524       9.31156105
Zn       4.73251411       6.70697071       1.70562563
Zn       4.63569848       6.68087010       9.46338779
Zn      -1.22481597       3.41915928       5.73487710
Zn      -1.44926402       3.35907183      13.35685776
Zn      -3.68684052       7.46928917       5.74184058
Zn      -3.89263315       7.41715273      13.40628550
Zn       3.42305888       3.44729269       5.56214262
Zn       3.29265410       3.38085435      13.25424407
Zn       1.08616397       7.44139794       5.61400055
Zn       0.99368753       7.33530687      13.32285829
Zn      -0.19978590       1.30145137       5.77757762
Zn      -0.31663120       1.33682665      13.34237699
Zn      -2.50975620       5.44332121       5.82789713
Zn      -2.65118267       5.45747718      13.37613065
Zn       4.42582919       1.32591614      13.22428122
Zn       2.15351771       5.40919678       5.64935722
Zn       1.99899867       5.36286753      13.29931251
Zn       3.51856410       0.57039445       1.79343321
Zn       3.32540613       0.62100742       9.40718704
Zn       1.09153133       4.68883620       1.82278338
Zn       0.98936726       4.69380819       9.49042781
Zn       8.37432389       0.63781575       1.66907328
Zn       8.14695827       0.62537793       9.25616164
Zn       5.80132382       4.67310299       1.69180816
Zn       5.69344513       4.60770537       9.31953514
Zn       1.12747734       0.71507931       1.83102420
Zn       0.97587318       0.74314035       9.51109027
Zn      -1.19747921       4.64375754       1.98430332
Zn      -1.47988121       4.71930329       9.56465199
Zn       5.83582637       0.55954853       1.81360283
Zn       5.71757759       0.55952996       9.30767887
Mg       3.51656259       4.69468681       1.71219479
Zn       3.40605272       4.64548250       9.38643574
Zn       1.09151077       3.42811495       5.66242310
Mg       0.89852412       3.38284525      13.35026722
Zn      -1.25202326       7.36156287       5.69581966
Zn      -1.46341483       7.43052221      13.40860042
Zn       5.77844010       3.26733143       5.59363214
Zn       5.74213764       3.26185774      13.21759443
Zn       3.49226774       7.42651571       5.61881442
Zn       3.27176506       7.40971565      13.19413302
