96
Lattice="9.46307941864586 -0.03168590322007516 -0.09095819642049863 -4.995642175397828 8.149966983927154 0.12517454192762684 0.08316014898092441 -0.08880036300911062 15.847405138986806" Properties=species:S:1:pos:R:3 pbc="T T T"
Mg      -0.04922176       2.69724919       3.50363713
Zn      -0.08338164       2.70839343      11.36941664
Zn      -2.63978347       6.75613537       3.50253973
Zn      -2.54349394       6.74638755      11.47397425
Mg       4.56963884       2.73421804       3.44641101
Mg       4.71351079       2.58814318      11.44799279
Mg       2.16404511       6.75754183       3.51519230
Mg       2.14673576       6.70832914      11.36934130
Mg       2.39714967       1.26073964       7.42868446
Mg       2.38253859       1.26547320      15.32699843
Mg      -0.19312079       5.41910524       7.49040091
Mg      -0.04074736       5.25883390      15.45226782
Mg       7.07701129       1.31645221       7.27377829
Mg       7.13194698       1.22455801      15.20860351
Mg       4.62549418       5.36450365       7.38527328
Mg       4.61368525       5.42205550      15.37309824
Mg       2.34981672       1.33944837       4.41351041
Mg       2.32541421       1.28678627      12.34665907
Mg      -0.16571053       5.41612953       4.51847904
Mg      -0.00671846       5.38519089      12.40011228
Mg       7.08232770       1.34195517       4.43677348
Mg       7.12199109       1.28367637      12.32686325
Mg       4.65859504       5.34563916       4.38642065
Mg       4.69666808       5.34299018      12.37017363
Mg      -0.09356851       2.73398385       0.57094231
Mg      -0.06648144       2.63776571       8.38963229
Mg      -2.60207173       6.76594625       0.56838018
Mg      -2.47060182       6.68488035       8.52654290
Mg       4.62425547       2.76938167       0.50565427
Mg       4.70041061       2.59054259       8.36997108
Zn       2.21315946       6.72748647       0.57450300
Mg       2.11388037       6.69010977       8.41794689
Zn       0.04373426      -0.02718220       3.93066227
Zn       0.02411775      -0.09963954      11.84548478
Zn      -2.47097420       3.98587638       4.01737262
Zn      -2.44783588       4.03775966      11.91101648
Zn       4.76124574       0.05503556       3.88392948
Zn       4.80089126      -0.17925042      11.80159540
Zn       2.23322336       4.02038368       3.91707109
Zn       2.29564490       3.95466824      11.91754440
Zn      -0.01812360       0.04085896       0.03666887
Zn      -0.03351037       0.01107137       7.90218435
Zn      -2.47436632       3.99424551       0.06356934
Zn      -2.57219302       4.02492677       8.07785262
Zn       4.79054658      -0.02829101      -0.04846320
Zn       4.70277732      -0.06046765       7.88838046
Zn       2.23350583       4.03630249      -0.01305482
Zn       2.28627438       3.95204198       8.01994244
Zn       2.29218263       2.69124486       1.88131119
Zn       2.29267629       2.58906649       9.96623912
Zn      -0.16292201       6.77071322       1.97704854
Zn      -0.23138439       6.71523193       9.97460689
Zn       7.01117914       2.62345024       2.02072640
Zn       7.11388056       2.66414486       9.87113383
Zn       4.50165507       6.73797592       1.92856520
Zn       4.55644431       6.77427902       9.93332039
Zn      -1.29601385       3.37980990       6.04347625
Zn      -1.23216850       3.35649628      13.95079269
Mg      -3.70791243       7.35662154       6.06354643
Zn      -3.73440464       7.43276199      13.98729322
Zn       3.43414100       3.39265257       6.03191607
Zn       3.50524670       3.25417137      13.89057508
Zn       0.97517278       7.46123502       5.98977073
Zn       1.01394825       7.37288773      13.88037244
Zn       0.02534547       1.33973755       5.98911966
Zn       0.05887719       1.22938302      13.87662267
Mg      -2.52222857       5.41387255       5.94631202
Zn      -2.42343920       5.31921236      13.87738493
Zn       4.70193791       1.22847830       5.96813887
Zn       4.76222638       1.21822032      13.81628422
Zn       2.24416359       5.40270541       5.91243341
Mg       2.18076448       5.42376408      13.93111018
Zn       3.51426600       0.62429410       1.96306541
Zn       3.63010504       0.58075215       9.89585715
Zn       1.04563988       4.76187532       2.03970960
Zn       1.04439483       4.63678042       9.90548118
Zn       8.33691254       0.63146623       1.87628454
Zn       8.28303418       0.58227446       9.87297896
Zn       5.77144445       4.72257383       1.99528303
Zn       5.78941616       4.70795439       9.91273215
Zn       1.16243860       0.59921122       1.91927967
Zn       1.19307847       0.67261835       9.90989181
Mg      -1.28902276       4.78568987       2.03878434
Zn      -1.24750500       4.70271087      10.00328336
Zn       5.83710192       0.71080385       1.87875570
Zn       5.91816059       0.52689493       9.82873509
Zn       3.41316224       4.70711376       2.07916450
Zn       3.39064662       4.68000352       9.93867876
Zn       1.06382035       3.38170664       6.02579520
Zn       1.11690285       3.35544037      13.88327359
Zn      -1.36533828       7.34249587       6.13446144
Zn      -1.34965691       7.35830667      13.94350440
Zn       5.81162620       3.32690979       5.93176463
Zn       5.88353231       3.29873384      13.83812937
Zn       3.28701117       7.45435875       5.88534747
Zn       3.37314846       7.36189844      13.88642014
