96
Lattice="9.622630157500872 -0.3444654544058937 0.29172649460241556 -4.950559328294479 8.565825843170783 0.1686191225294375 0.4590030280744809 -0.13983320172422062 15.654574192903189" Properties=species:S:1:pos:R:3 pbc="T T T"
Mg       0.08553184       2.62159340       3.58734068
Mg       0.38459847       2.59431616      11.37260064
Mg      -2.39248063       7.01800638       3.55775899
Zn      -2.21733532       6.97489302      11.52886144
Mg       4.86952396       2.63343044       3.64904520
Mg       4.98492446       2.53563254      11.44058672
Mg       2.46358061       6.86797659       3.80065141
Mg       2.60046846       6.88440817      11.54068823
Mg       2.57614909       1.27059467       7.42764593
Mg       2.76896867       1.17474180      15.36951290
Mg       0.06934875       5.42529296       7.53258447
Mg       0.45780703       5.41637144      15.37438478
Mg       7.38492107       1.02908078       7.56853103
Mg       7.67992963       0.98858490      15.45379260
Mg       4.92430775       5.31967015       7.65581674
Mg       5.18053509       5.31750586      15.62293963
Mg       2.46994615       1.28092297       4.51034622
Mg       2.70572368       1.18887510      12.37581007
Mg       0.01924405       5.55103862       4.55956039
Mg       0.27579117       5.42602247      12.45663124
Mg       7.35049871       1.13576139       4.62653300
Mg       7.54868655       0.96795742      12.53308840
Mg       4.76962452       5.40490041       4.75888131
Mg       5.06474501       5.33599885      12.57521049
Mg      -0.09384747       2.87439474       0.66677256
Mg       0.12289908       2.76068739       8.43528982
Mg      -2.50039669       7.01576536       0.75199277
Mg      -2.22885767       6.99923711       8.48391588
Mg       4.66549944       2.63587804       0.71010547
Mg       5.00710350       2.62008750       8.59072788
Mg       2.34445562       6.88946889       0.83775373
Mg       2.60597929       6.82670577       8.69287220
Zn       0.15038606       0.02259096       3.87479545
Zn       0.36297908      -0.13774789      11.71792387
Zn      -2.39260160       4.23451352       4.03553748
Zn      -2.16408543       4.13803307      11.80435111
Zn       4.97654473      -0.24092538       3.99683538
Zn       5.12081852      -0.28774176      11.76395584
Zn       2.40586470       4.07171163       4.06714710
Zn       2.67621438       3.97035727      11.96398201
Zn       0.03819989       0.01283357      -0.00821129
Zn       0.19922672      -0.09796267       7.80185981
Zn      -2.51220083       4.25977748       0.02276109
Zn      -2.20506812       4.24551557       7.95761570
Zn       4.79615477      -0.19450033       0.15577748
Zn       5.01974889      -0.23190339       8.06315641
Zn       2.36505717       4.09143348       0.23608544
Zn       2.58114687       4.01189961       8.07254638
Zn       2.34203365       2.72107657       2.16858246
Zn       2.61245624       2.63106655       9.96826210
Zn      -0.08324394       7.03016770       2.22507238
Zn       0.14056883       6.91793406      10.00124103
Zn       7.23845147       2.41787352       2.28518367
Zn       7.47626849       2.43828374      10.08002452
Zn       4.74280672       6.86563400       2.35028789
Zn       4.98009507       6.72128869      10.19379571
Zn      -1.15389213       3.53074634       5.93199255
Zn      -0.83867515       3.49448368      13.74158516
Zn      -3.56885873       7.74897933       5.99590869
Zn      -3.25459555       7.70800540      13.88364886
Zn       3.68798522       3.32271183       6.12115112
Zn       3.92776469       3.17696941      13.91034088
Zn       1.25634243       7.57660716       6.19353182
Zn       1.48725117       7.57277216      14.04335097
Zn       0.25089370       1.35723761       5.92177408
Zn       0.39906967       1.15784091      13.76521215
Zn      -2.34480403       5.67201931       5.98497453
Zn      -2.04249105       5.64433277      13.82950531
Zn       5.03729547       1.22717400       5.99558977
Zn       5.25303370       1.11203732      13.81547195
Zn       2.56434245       5.48957037       6.08842265
Zn       2.76649076       5.43586749      13.99901434
Zn       3.62310546       0.60775666       2.15564919
Zn       3.84318914       0.58452929       9.96362510
Zn       1.18236301       4.88170438       2.09493611
Zn       1.33892219       4.76379756      10.02935216
Zn       8.39642505       0.39599076       2.25726882
Zn       8.64734142       0.32599478      10.08306466
Zn       5.99216254       4.62719515       2.37714855
Zn       6.18713941       4.56354455      10.14121758
Zn       1.20894279       0.65086789       1.98458908
Zn       1.54343768       0.56208458       9.83455558
Zn      -1.12971231       4.91273910       2.03428422
Zn      -0.97363262       4.83463060       9.90080271
Zn       6.16812202       0.44895886       2.13592749
Zn       6.31805429       0.35089877       9.92490713
Mg       3.65064491       4.73668930       2.26701277
Zn       3.89146312       4.70169731      10.04016114
Zn       1.34767372       3.39696455       6.02423616
Zn       1.58987900       3.30226681      13.97050766
Zn      -1.10340844       7.68481553       6.04472663
Zn      -0.96463211       7.64357138      13.93060393
Zn       6.16888970       3.21326802       6.25099165
Zn       6.43188217       3.12656238      14.07608387
Zn       3.73870195       7.50124800       6.26829103
Zn       3.89992368       7.39393218      14.12034185
