96
Lattice="10.048115575248817 -0.08055339791762194 0.2622067010064727 -5.112748882354536 8.681618954333477 -0.3619634901746867 -0.3194534240828014 -0.12231369091896396 15.612099475015137" Properties=species:S:1:pos:R:3 pbc="T T T"
Mg       0.03150572       2.78386072       3.32799172
Mg      -0.28877353       2.74895197      11.10800519
Mg      -2.67487120       7.11711915       3.21156000
Mg      -2.87163367       7.14855662      10.92727369
Mg       4.99560671       2.69618116       3.50328369
Mg       4.75312259       2.78977161      11.21620218
Mg       2.37123428       7.21247128       3.22495752
Mg       2.20173336       7.07959766      11.13589930
Mg       2.34584016       1.39828459       7.39785890
Mg       2.17510949       1.28476729      15.18738632
Mg      -0.16303998       5.75420199       7.20224076
Mg      -0.37211014       5.63695492      15.00581386
Zn       7.34659887       1.38940400       7.41855579
Mg       7.17309111       1.24612798      15.29088436
Mg       4.81239720       5.60409827       7.33992085
Mg       4.67276689       5.54370692      15.17097992
Mg       2.40010183       1.43948616       4.43834278
Mg       2.25218433       1.34422125      12.27206702
Mg      -0.17693981       5.72000517       4.21106156
Mg      -0.29759472       5.70996682      12.05610882
Mg       7.41898773       1.39111642       4.55652225
Zn       7.18021104       1.38555940      12.30897849
Mg       4.84837205       5.75790772       4.38484471
Mg       4.66488591       5.62185079      12.13329487
Mg      -0.04928098       2.86377412       0.35927997
Mg      -0.12361977       2.86176797       8.14682466
Mg      -2.60568710       7.21813258       0.24920362
Mg      -2.85691261       7.22828749       7.95780278
Mg       4.97766292       2.78985330       0.47799057
Mg       4.85407357       2.70564778       8.37748197
Mg       2.44231985       7.08849472       0.38487084
Mg       2.28255818       7.05113598       8.11893207
Zn      -0.03610941      -0.01036161       3.92177618
Zn      -0.29248823      -0.10104081      11.72059411
Mg      -2.55923645       4.31025727       3.81748194
Zn      -2.80703918       4.28239121      11.53943514
Zn       4.96335001      -0.06652080       4.00178802
Zn       4.76258519      -0.14768516      11.81882026
Zn       2.31503277       4.28524969       3.80407350
Zn       2.18060554       4.31509360      11.58483424
Zn      -0.01226866       0.04208606       0.04300187
Zn      -0.26757801      -0.03616139       7.79366122
Zn      -2.45632589       4.39427890      -0.16473874
Zn      -2.71639384       4.36303294       7.58734810
Zn       5.03378579      -0.14726453       0.21843888
Zn       4.81620443      -0.07228550       7.94756706
Zn       2.50730542       4.29071304      -0.05686258
Zn       2.19511970       4.24854463       7.85969872
Zn       2.35297013       2.88273024       1.89755445
Zn       2.28441485       2.80836406       9.72401190
Zn      -0.12219341       7.25728110       1.70364488
Zn      -0.23356951       7.06548310       9.58016196
Zn       7.48299527       2.81542990       2.05404181
Zn       7.22335806       2.72583082       9.84300526
Zn       4.84533863       7.07189059       1.90399450
Zn       4.75734543       7.02377459       9.69365323
Zn      -1.43989509       3.51212769       5.81345623
Zn      -1.59075075       3.59322510      13.47907652
Zn      -4.06188055       7.96236324       5.54391809
Zn      -4.13061968       7.78728688      13.35153345
Zn       3.64217928       3.54495853       5.71642268
Zn       3.51937504       3.39800755      13.65386804
Zn       1.13011684       7.79830371       5.63513754
Zn       0.75905221       7.84153133      13.42802262
Zn      -0.12182214       1.33499935       5.77592114
Zn      -0.24491090       1.30783575      13.62119845
Zn      -2.57116332       5.75943319       5.68806134
Zn      -2.77775486       5.61426563      13.43246358
Zn       4.92522448       1.33543696       5.86363134
Zn       4.69170940       1.24537069      13.73344701
Zn       2.33077212       5.68280732       5.70289046
Zn       2.16442848       5.54944437      13.68301222
Zn       3.76503209       0.54736869       2.01049758
Zn       3.59246769       0.61603890       9.78569552
Zn       1.16677228       5.02702403       1.96017169
Zn       1.02908017       4.93571880       9.63987107
Zn       8.73916111       0.64471828       2.10163017
Zn       8.56869933       0.50321879      10.02199783
Zn       6.22658677       4.99963549       1.92314801
Zn       6.08070029       4.87371749       9.75801405
Zn       1.18711635       0.65396026       1.92602428
Zn       1.04875733       0.63172746       9.88188563
Zn      -1.32271802       5.11498755       1.91228569
Zn      -1.48201389       4.92294266       9.61619023
Zn       6.26772706       0.71039335       2.12866257
Zn       6.12230792       0.58786542       9.87474313
Zn       3.59628291       4.98835049       1.96483033
Mg       3.56440256       4.97194274       9.68328081
Zn       1.15410720       3.60164260       5.78293819
Zn       1.00546739       3.52708575      13.55935578
Zn      -1.39001578       7.91304409       5.63064463
Zn      -1.65103610       7.87635189      13.47550667
Zn       6.10208700       3.51184611       5.91718605
Zn       5.97077039       3.45344103      13.77447380
Zn       3.62627363       7.81952350       5.78244905
Zn       3.31420524       7.75592000      13.63470918
