93
Lattice="9.552112358295872 0.013911648144423467 0.01627478559328848 -4.835010693127943 8.512841062963277 0.046204488174602265 -0.057341904690110655 0.04791457032235451 15.973627144113946" Properties=species:S:1:pos:R:3 pbc="T T T"
Mg      -0.05434393       2.81587973       3.45963416
Zn      -2.46904536       7.13863077       3.56493900
Mg      -2.45491058       7.18263476      11.50869253
Zn       4.76297311       2.76723224       3.55460189
Mg       4.68345749       2.93862947      11.57950126
Mg       2.25840158       7.09905924       3.58584117
Mg       2.27798037       7.19001180      11.57660138
Mg       2.31118899       1.46211241       7.60388931
Mg       2.31910924       1.50244941      15.45983977
Mg      -0.03917104       5.66568092       7.47903915
Mg      -0.08921986       5.68782267      15.50230547
Mg       7.13855629       1.44868325       7.46356197
Mg       7.10781528       1.49101441      15.49200783
Mg       4.65083921       5.65032162       7.49014856
Mg       4.61213837       5.74426620      15.59921394
Mg       2.41335041       1.49331137       4.48859550
Mg       2.30061085       1.52199217      12.45189854
Mg      -0.15463650       5.71243803       4.47856146
Mg      -0.14395468       5.66572431      12.56915560
Zn       7.16234215       1.53149120       4.50218776
Mg       7.22630413       1.46345413      12.50179192
Mg       4.69013488       5.69454061       4.48872182
Mg       4.66319375       5.68455546      12.57989548
Zn      -0.08067729       2.91673813       0.59756783
Mg      -0.07481153       2.85947257       8.53493126
Mg      -2.44113326       7.17830847       0.49677609
Mg      -2.44238889       7.15428125       8.53419292
Mg       4.79342934       2.83336977       0.53341672
Mg       4.73333930       2.84168007       8.50739065
Mg       2.28520450       7.11956784       0.60259788
Mg       2.32763698       7.19207141       8.62160434
Zn      -0.08197664      -0.01411455       3.97543566
Zn      -0.00827331       0.06549109      11.96751883
Zn      -2.43950046       4.35784851       3.98642192
Zn      -2.48301297       4.35418981      11.99970917
Zn       4.85013738       0.04023799       4.08205063
Zn       4.63523745       0.06775664      11.97118373
Zn       2.26000191       4.26522396       4.05470659
Zn       2.23311038       4.24433248      12.02936694
Zn       0.01283801       0.02031222       0.03131371
Zn       0.00657841      -0.02708437       7.97011115
Zn      -2.46091815       4.30582679       0.02645717
Zn      -2.50051184       4.31905987       8.00712411
Zn       4.71775701      -0.03139922       0.06956768
Mg       4.70798623       0.04144824       8.05557058
Zn       2.34734403       4.23572357      -0.04353398
Zn       2.38655927       4.36845640       8.00631276
Zn       2.39151344       2.92843277       2.01047988
Mg       2.32585754       2.82258069       9.96141396
Zn      -0.11316491       7.03252885       1.99243729
Zn      -0.16452598       7.13620418      10.06559254
Zn       7.16827240       2.88898143       2.04540451
Zn       7.16015871       2.80113256      10.00457867
Zn       4.62095189       7.15674560       2.01966346
Zn       4.62306745       7.16502037      10.10798228
Zn      -1.23551347       3.63680536       5.95855829
Zn      -1.22279286       3.58406924      14.05017225
Zn      -3.72670779       7.87177197       6.08648271
Zn      -3.85377384       7.82695058      13.98146136
Zn       3.51491560       3.55939222       6.00834225
Zn       3.54532955       3.53589840      13.97678430
Zn       1.12252423       7.80434663       6.04511010
Zn       1.11336305       7.93110016      13.94494136
Zn       0.03446705       1.38492162       6.07630989
Mg      -0.05647788       1.58171929      13.94769537
Zn      -2.43418559       5.73738961       6.06901673
Zn      -2.53194857       5.74165136      13.98930904
Zn       4.83061158       1.43971813       6.01688765
Zn       4.69452483       1.49719181      13.98375173
Zn       2.34671295       5.63543029       6.02661333
Zn       2.34263451       5.70583381      13.99741076
Zn       3.46361784       0.69655426       1.99116390
Zn       3.52307561       0.77798691       9.93765185
Zn       1.15805659       5.09853129       2.04572886
Zn       1.03400700       4.99754862       9.92185675
Zn       8.38319584       0.78236754       9.97113190
Zn       5.95832347       5.08756898       2.04975728
Zn       5.88029238       5.07608499      10.07596089
Zn       1.22236839       0.65991402       1.99863684
Zn       1.29373571       0.72278416       9.97905099
Zn      -1.26756878       5.01067116       2.04798928
Zn       6.00399430       0.76713666       2.05559487
Zn       5.92768977       0.72659589       9.92838799
Mg       3.50282134       4.99440011       2.08042666
Zn       3.40566169       5.05871108      10.00179844
Zn       1.14981907       3.45389340       6.07484971
Zn       1.18920773       3.55841724      14.08385362
Zn      -1.19190498       7.79728624       6.00366554
Zn      -1.26058071       7.88231869      14.06373505
Zn       5.93890272       3.56069762       5.98190644
Zn       5.89090208       3.60986507      13.97366415
Zn       3.54728398       7.88524442       6.09283829
Zn       3.57910546       7.78797044      14.05748798
