95
Lattice="9.80121519910406 -0.23515174804908778 -0.0666417818970665 -5.172893949919349 8.573431630227004 -0.1536578413234955 0.01124986103615518 0.2792670994267739 15.788670108775538" Properties=species:S:1:pos:R:3 pbc="T T T"
Mg      -0.06230770       2.75160444       3.34956430
Mg      -2.69987057       7.23040922       3.25964740
Mg      -2.62526448       7.29978911      11.16553764
Mg       4.80551091       2.73898213       3.28791293
Mg       4.82123786       2.91329528      11.30361379
Mg       2.16044444       7.03738915       3.28384973
Zn       2.31131852       7.11915318      11.13149020
Mg       2.36788889       1.50835175       7.44433768
Mg       2.48556176       1.63144313      15.26642925
Mg      -0.22397403       5.71674534       7.18250614
Mg      -0.21961878       5.87463976      15.16858095
Mg       7.39152242       1.35003543       7.35681094
Mg       7.34777519       1.52218920      15.18478880
Mg       4.73858523       5.70273323       7.21329427
Mg       4.68217106       5.86823084      15.08326097
Mg       2.36281155       1.44698991       4.42723604
Mg       2.49863817       1.55959893      12.29480152
Mg      -0.15961303       5.71363695       4.37534173
Mg      -0.06013347       5.81062137      12.27114596
Mg       7.39817300       1.29422230       4.41046469
Mg       7.31246736       1.46470101      12.31112565
Mg       4.77477849       5.53297157       4.34111378
Mg       4.72486831       5.72176813      12.13396573
Mg      -0.04556483       2.87580433       0.43904190
Mg      -0.12911542       2.89550184       8.25328333
Mg      -2.61557175       7.19540674       0.18931148
Mg      -2.76541386       7.29335843       8.30104354
Zn       4.84478873       2.71834897       0.47782410
Mg       4.76961788       2.80760847       8.27688554
Mg       2.24490613       6.97865891       0.33434331
Mg       2.22813180       7.13458665       8.27741318
Zn       0.00250798       0.04397810       3.96313613
Zn       0.12035850       0.28998707      11.87378561
Zn      -2.63091460       4.35534269       3.87940007
Zn      -2.67225125       4.54797857      11.76631764
Zn       4.90811332      -0.04698740       3.87408448
Zn       4.88604705       0.10844090      11.82131975
Zn       2.33334126       4.26523972       3.73754044
Zn       2.27491948       4.41823049      11.75150751
Zn       0.07377827      -0.10066016      -0.06662396
Zn       0.05596889       0.04973746       7.89181025
Zn      -2.50500252       4.21568496      -0.12119973
Zn      -2.57649978       4.42346294       7.80724340
Zn       4.94422142      -0.15758154       0.08866809
Zn       4.84222746       0.03013989       7.89353140
Zn       2.27653345       4.20982917      -0.11248266
Zn       2.27064611       4.38534167       7.80758798
Zn       2.35835322       2.79026029       1.83856227
Zn       2.38754420       2.94438459       9.83886832
Zn      -0.23329110       7.14595048       1.84930468
Zn      -0.20668617       7.19833876       9.71502229
Zn       7.23037341       2.65083938       1.91911551
Zn       7.18498094       2.84109532       9.81943580
Zn       4.64982361       7.00697362       1.77509647
Zn       4.68543308       7.10253690       9.61012312
Zn      -1.32827399       3.65688165       5.85859115
Zn      -1.34309662       3.76783837      13.82097879
Zn      -3.93093761       7.85460752       5.68513634
Zn      -3.90138351       8.13532500      13.61606913
Zn       3.60167444       3.58434172       5.83488233
Zn       3.58554457       3.68470065      13.70538917
Zn       0.98283958       7.78158570       5.72796240
Zn       0.97051754       8.04387177      13.62394170
Zn      -0.02349482       1.43077695       5.81602468
Zn      -0.05793712       1.69304044      13.73442333
Zn      -2.60948613       5.77366483       5.88596891
Zn      -2.61665038       5.96115672      13.71140510
Zn       4.88284614       1.36662725       5.89695524
Zn       4.83499712       1.61225894      13.74047172
Zn       2.36748787       5.72813671       5.79051125
Zn       2.33975964       5.84957913      13.63391774
Zn       3.67506780       0.68138769       1.90815825
Zn       3.71329278       0.69545414       9.84039491
Zn       1.02356249       4.80115649       1.88572737
Zn       1.08527293       5.05027404       9.80795358
Zn       8.55818241       0.48139914       1.84576783
Zn       8.63888262       0.68435566       9.76630325
Zn       6.00923592       4.88767606       1.75500365
Zn       5.89563418       5.06601682       9.65399328
Zn       1.11830846       0.75188259       1.94450434
Zn       1.16224946       0.87415312       9.80376582
Zn      -1.34991043       4.90337592       1.83118507
Zn      -1.40159217       5.18320331       9.66711808
Mg       6.09269164       0.59571186       1.86837477
Mg       6.12222289       0.64215059       9.74281140
Zn       3.57353247       4.89036399       1.82816003
Zn       3.53581492       5.06743112       9.78731219
Zn       1.19153193       3.59628218       5.83451766
Zn       1.13568785       3.67557306      13.76063125
Zn      -1.46321914       7.84901674       5.59163555
Zn      -1.36468708       8.09552881      13.56768844
Zn       6.00147145       3.54827906       5.82978228
Zn       6.04419833       3.58429163      13.75811317
Zn       3.47790764       7.77992051       5.78430031
Zn       3.50891842       7.84409528      13.60440781
