94
Lattice="9.585416597952966 0.4062252182005235 -0.004199148087252184 -4.626603842104514 8.39099748927134 0.10662729440485288 -0.3702217953403625 -0.1720563337470265 15.757948458446368" Properties=species:S:1:pos:R:3 pbc="T T T"
Mg      -0.00489099       2.84469990       3.52316652
Mg      -0.10895560       2.84467395      11.32546921
Mg      -2.38030523       6.98215392       3.58275568
Mg      -2.54835715       7.06379752      11.44303717
Mg       4.78630606       3.01553587       3.52447278
Mg       4.50569277       2.95563947      11.39590987
Mg       2.44847170       7.19678205       3.38380989
Mg       2.14767329       7.09351105      11.42843735
Mg       2.20659168       1.40095941       7.35952558
Mg       2.07925371       1.41916306      15.25266572
Mg      -0.14313194       5.59234338       7.52494903
Mg      -0.34003730       5.54108381      15.33607457
Mg       7.00932127       1.72437743       7.37369138
Mg       6.81663286       1.67341001      15.31587537
Mg       4.75266853       5.96039885       7.44876129
Mg       4.56205202       5.74465469      15.35226575
Mg       2.34173806       1.55568111       4.43715899
Mg       2.20021833       1.48468873      12.29209531
Zn      -0.09379279       5.69333336       4.40556764
Mg      -0.25246904       5.64064372      12.42879220
Mg       7.14219282       1.58511633       4.40163902
Mg       6.91109879       1.54819042      12.38937484
Mg       4.81084921       5.95934803       4.48590020
Mg       4.65931729       5.76233929      12.34014674
Mg      -0.01059215       2.90691517       0.56121382
Mg      -0.07607621       2.83680280       8.37987137
Mg      -2.25099218       7.09906400       0.59280849
Mg      -2.52159807       7.00062462       8.53646616
Mg       4.83059746       3.18112485       0.53963498
Mg       4.65704913       2.97174905       8.38142703
Mg       2.49926739       7.25777815       0.63103461
Mg       2.34178843       7.19224870       8.48694090
Zn      -0.32616976      -0.10167021      11.74253079
Mg      -2.41683122       4.19988645       4.00958590
Zn      -2.61496698       4.10010580      11.90301170
Zn       4.71679322       0.21919360       4.02653604
Zn       4.52858867       0.09116523      11.82992578
Zn       2.34947286       4.32033982       3.91663529
Zn       2.20793913       4.15571654      11.82134986
Zn      -0.03613411       0.03707477      -0.03565370
Zn      -0.15207358      -0.13077451       7.84098988
Zn      -2.30665492       4.26907761      -0.01427552
Zn      -2.44125909       4.08233249       7.97156186
Zn       4.82287394       0.30560821      -0.00991781
Zn       4.62219103       0.19717892       7.89571557
Zn       2.40933200       4.48247360       0.02552843
Zn       2.23140496       4.31441655       7.88039018
Zn       2.36024707       3.01056803       2.02116801
Zn       2.20515558       2.82908103       9.91002754
Zn       0.17255473       7.13437748       2.00545272
Zn      -0.11979396       6.99190229       9.89021843
Zn       7.18728179       3.19272647       1.94419063
Zn       7.03564806       3.03552674       9.89552556
Zn       4.82620924       7.35829374       2.12978124
Zn       4.75807398       7.34419705      10.01778059
Zn      -1.28195042       3.39576766       5.99991799
Zn      -1.44876668       3.34479227      13.90935678
Zn      -3.66281792       7.75210212       6.01459735
Zn      -3.83038618       7.68603985      13.88176849
Zn       3.51703462       3.62808047       5.95863905
Zn       3.35158634       3.73416524      13.80602006
Zn       1.22045151       7.85522011       6.07226564
Zn       0.99377486       7.74707715      13.83635972
Zn      -0.08284594       1.43922440       5.92480059
Zn      -0.31176954       1.24383541      13.76910245
Zn      -2.42654485       5.50761629       6.04688613
Zn      -2.60794790       5.48000683      13.83708263
Zn       4.64865760       1.53486358       5.85572042
Zn       4.47177382       1.48115800      13.83516359
Zn       2.38204254       5.70326975       5.91354623
Zn       2.15785737       5.62468013      13.78414789
Zn       3.49469810       0.91053685       1.96408493
Zn       3.33891944       0.77472583       9.93439817
Zn       1.30862015       5.06207860       1.99469436
Zn       1.16502203       4.92454901       9.89264716
Zn       8.35019405       0.97831501       1.97301454
Zn       8.19982678       1.11879627       9.88434953
Zn       5.94906768       5.28896661       1.99389389
Zn       5.91898965       5.21973285       9.85668924
Zn       1.12253675       0.74223917       2.01521585
Zn       1.02337813       0.60496806       9.87118640
Zn      -1.19151299       4.93590702       2.03414200
Zn      -1.47967953       4.79486245       9.95019084
Zn       5.97163024       0.96077514       1.93997424
Zn       5.73118101       0.77797760       9.73887624
Zn       3.62119283       5.22319264       1.98425697
Zn       3.50748381       5.09769440       9.91066376
Zn       1.12008991       3.58895982       5.90518656
Zn       0.90330247       3.45334872      13.81146722
Zn      -1.43346198       7.74175088      13.87903934
Zn       5.95679385       3.72538265       5.89457973
Zn       5.64303745       3.65692728      13.82529072
Zn       3.58624225       7.97008826       5.96594750
Zn       3.43791366       7.87390798      13.80826175
