
     Program PWSCF v.7.2 starts on  8Apr2026 at 16:31:40 

     This program is part of the open-source Quantum ESPRESSO suite
     for quantum simulation of materials; please cite
         "P. Giannozzi et al., J. Phys.:Condens. Matter 21 395502 (2009);
         "P. Giannozzi et al., J. Phys.:Condens. Matter 29 465901 (2017);
         "P. Giannozzi et al., J. Chem. Phys. 152 154105 (2020);
          URL http://www.quantum-espresso.org", 
     in publications or presentations arising from this work. More details at
     http://www.quantum-espresso.org/quote

     Parallel version (MPI), running on     1 processors

     MPI processes distributed on     1 nodes
     4184 MiB available memory on the printing compute node when the environment starts
 
     Reading input from C36/in/laves_124_0_scf.in
Warning: card &CELL ignored
Warning: card / ignored

     Current dimensions of program PWSCF are:
     Max number of different atomic species (ntypx) = 10
     Max number of k-points (npk) =  40000
     Max angular momentum in pseudopotentials (lmaxx) =  4
     file Mg.pbe-spnl-kjpaw_psl.1.0.0.UPF: wavefunction(s)  2P renormalized
     file Ni.pbe-spn-kjpaw_psl.1.0.0.UPF: wavefunction(s)  3P 3D renormalized
 
     Subspace diagonalization in iterative solution of the eigenvalue problem:
     a serial algorithm will be used

 
     G-vector sticks info
     --------------------
     sticks:   dense  smooth     PW     G-vecs:    dense   smooth      PW
     Sum        2651    1333    367               361355   127721   19007
 
     Using Slab Decomposition
 

     Title: 
     C36_MgNi2                                                                  


     bravais-lattice index     =            0
     lattice parameter (alat)  =       8.9377  a.u.
     unit-cell volume          =    2035.3083 (a.u.)^3
     number of atoms/cell      =           23
     number of atomic types    =            2
     number of electrons       =       350.00
     number of Kohn-Sham states=          210
     kinetic-energy cutoff     =      60.0000  Ry
     charge density cutoff     =     480.0000  Ry
     scf convergence threshold =      1.0E-05
     mixing beta               =       0.2200
     number of iterations used =           22  plain     mixing
     Exchange-correlation= SLA  PW   PBX  PBC
                           (   1   4   3   4   0   0   0)

     GPU acceleration is ACTIVE.


     celldm(1)=   8.937747  celldm(2)=   0.000000  celldm(3)=   0.000000
     celldm(4)=   0.000000  celldm(5)=   0.000000  celldm(6)=   0.000000

     crystal axes: (cart. coord. in units of alat)
               a(1) = (   0.999998   0.000589   0.001739 )  
               a(2) = (  -0.500078   0.867015  -0.001587 )  
               a(3) = (   0.001110  -0.001736   3.286799 )  

     reciprocal axes: (cart. coord. in units 2 pi/alat)
               b(1) = (  0.999662  0.576586 -0.000033 )  
               b(2) = ( -0.000681  1.152991  0.000609 )  
               b(3) = ( -0.000529  0.000252  0.304248 )  


     PseudoPot. # 1 for Mg read from file:
     ./pseudo/Mg.pbe-spnl-kjpaw_psl.1.0.0.UPF
     MD5 check sum: fda14e0d92a6a9a5ebed782e5a4b3067
     Pseudo is Projector augmented-wave + core cor, Zval = 10.0
     Generated using &quot;atomic&quot; code by A. Dal Corso  v.6.3
     Shape of augmentation charge: PSQ
     Using radial grid of 1129 points,  4 beta functions with: 
                l(1) =   0
                l(2) =   0
                l(3) =   1
                l(4) =   1
     Q(r) pseudized with 0 coefficients 


     PseudoPot. # 2 for Ni read from file:
     ./pseudo/Ni.pbe-spn-kjpaw_psl.1.0.0.UPF
     MD5 check sum: 6e86b733589c3ad8389697b807d86aa7
     Pseudo is Projector augmented-wave + core cor, Zval = 18.0
     Generated using &quot;atomic&quot; code by A. Dal Corso  v.6.3
     Shape of augmentation charge: PSQ
     Using radial grid of 1195 points,  6 beta functions with: 
                l(1) =   0
                l(2) =   0
                l(3) =   1
                l(4) =   1
                l(5) =   2
                l(6) =   2
     Q(r) pseudized with 0 coefficients 


     atomic species   valence    mass     pseudopotential
        Mg            10.00    24.30500     Mg( 1.00)
        Ni            18.00    58.69340     Ni( 1.00)

     No symmetry found



   Cartesian axes

     site n.     atom                  positions (alat units)
         1           Mg  tau(   1) = (  -0.0002943   0.0006976   1.3337509  )
         2           Mg  tau(   2) = (   0.4989420   0.8658260   2.9773643  )
         3           Mg  tau(   3) = (   0.9990010   0.0007307   1.9543633  )
         4           Mg  tau(   4) = (   0.4997477   0.8667599   0.3093811  )
         5           Mg  tau(   5) = (   0.0001901   0.5782766   2.1540100  )
         6           Mg  tau(   6) = (   0.5005458   0.2888962   0.5136909  )
         7           Mg  tau(   7) = (   0.5014298   0.2879313   1.1326921  )
         8           Mg  tau(   8) = (   0.0024023   0.5774441   2.7719222  )
         9           Ni  tau(   9) = (   0.0024262   0.5773905   1.2301359  )
        10           Ni  tau(  10) = (   0.5006540   0.2895393   2.8752793  )
        11           Ni  tau(  11) = (   0.5000405   0.2865028   2.0570593  )
        12           Ni  tau(  12) = (   0.0015347   0.5778538   0.4112651  )
        13           Ni  tau(  13) = (  -0.0019677   0.2909892   0.8234302  )
        14           Ni  tau(  14) = (   0.7498797   0.1419238   2.4649165  )
        15           Ni  tau(  15) = (   0.5009810   0.5768194   2.4661223  )
        16           Ni  tau(  16) = (  -0.2487994   0.7230845   0.8198235  )
        17           Ni  tau(  17) = (   0.2492737   0.1441746   2.4651447  )
        18           Ni  tau(  18) = (   0.5016805  -0.0002647   1.6427719  )
        19           Ni  tau(  19) = (   0.2499887   0.4333611   0.0008293  )
        20           Ni  tau(  20) = (   0.4998181  -0.0011352   3.2867159  )
        21           Ni  tau(  21) = (   0.2502069   0.4328999   1.6440141  )
        22           Ni  tau(  22) = (  -0.2492208   0.4335947   0.0006443  )
        23           Ni  tau(  23) = (  -0.2486705   0.4321363   1.6436333  )

     number of k points=     5  Marzari-Vanderbilt smearing, width (Ry)=  0.0500
                       cart. coord. in units 2pi/alat
        k(    1) = (   0.0000000   0.0000000   0.0000000), wk =   0.2222222
        k(    2) = (  -0.0002269   0.3843305   0.0002031), wk =   0.4444444
        k(    3) = (   0.3332206   0.1921953  -0.0000110), wk =   0.4444444
        k(    4) = (   0.3329937   0.5765258   0.0001920), wk =   0.4444444
        k(    5) = (   0.3334475  -0.1921352  -0.0002141), wk =   0.4444444

     Dense  grid:   361355 G-vectors     FFT dimensions: (  64,  64, 216)

     Smooth grid:   127721 G-vectors     FFT dimensions: (  45,  45, 150)

     Estimated max dynamical RAM per process >       1.98 GB

     Check: negative core charge=   -0.000009

     Initial potential from superposition of free atoms

     starting charge     349.9889, renormalised to     350.0000
     Starting wfcs are  190 randomized atomic wfcs +   20 random wfcs
     Checking if some PAW data can be deallocated... 

     total cpu time spent up to now is        6.8 secs

     Self-consistent Calculation

     iteration #  1     ecut=    60.00 Ry     beta= 0.22
     Davidson diagonalization with overlap
     ethr =  1.00E-02,  avg # of iterations =  5.8

     negative rho (up, down):  1.573E-02 0.000E+00

     total cpu time spent up to now is       17.5 secs

     total energy              =   -7568.39062653 Ry
     estimated scf accuracy    <      64.14305539 Ry

     iteration #  2     ecut=    60.00 Ry     beta= 0.22
     Davidson diagonalization with overlap
     ethr =  1.00E-02,  avg # of iterations =  1.8

     negative rho (up, down):  3.269E-02 0.000E+00

     total cpu time spent up to now is       25.5 secs

     total energy              =   -7569.29106696 Ry
     estimated scf accuracy    <     222.17429080 Ry

     iteration #  3     ecut=    60.00 Ry     beta= 0.22
     Davidson diagonalization with overlap
     ethr =  1.00E-02,  avg # of iterations =  1.0

     negative rho (up, down):  3.110E-03 0.000E+00

     total cpu time spent up to now is       32.9 secs

     total energy              =   -7570.22799371 Ry
     estimated scf accuracy    <     133.77694733 Ry

     iteration #  4     ecut=    60.00 Ry     beta= 0.22
     Davidson diagonalization with overlap
     ethr =  1.00E-02,  avg # of iterations =  2.0

     negative rho (up, down):  5.912E-03 0.000E+00

     total cpu time spent up to now is       41.0 secs

     total energy              =   -7563.14908163 Ry
     estimated scf accuracy    <     104.87955434 Ry

     iteration #  5     ecut=    60.00 Ry     beta= 0.22
     Davidson diagonalization with overlap
     ethr =  1.00E-02,  avg # of iterations =  2.0

     negative rho (up, down):  4.471E-02 0.000E+00

     total cpu time spent up to now is       49.3 secs

     total energy              =   -7559.97555514 Ry
     estimated scf accuracy    <     266.52272957 Ry

     iteration #  6     ecut=    60.00 Ry     beta= 0.22
     Davidson diagonalization with overlap
     ethr =  1.00E-02,  avg # of iterations =  2.0

     negative rho (up, down):  8.103E-02 0.000E+00

     total cpu time spent up to now is       57.5 secs

     total energy              =   -7567.72858696 Ry
     estimated scf accuracy    <     154.91383586 Ry

     iteration #  7     ecut=    60.00 Ry     beta= 0.22
     Davidson diagonalization with overlap
     ethr =  1.00E-02,  avg # of iterations =  1.0

     negative rho (up, down):  7.916E-02 0.000E+00

     total cpu time spent up to now is       64.8 secs

     total energy              =   -7571.23254071 Ry
     estimated scf accuracy    <     111.84750445 Ry

     iteration #  8     ecut=    60.00 Ry     beta= 0.22
     Davidson diagonalization with overlap
     ethr =  1.00E-02,  avg # of iterations =  1.0

     negative rho (up, down):  9.413E-02 0.000E+00

     total cpu time spent up to now is       72.2 secs

     total energy              =   -7571.39069147 Ry
     estimated scf accuracy    <     119.23752314 Ry

     iteration #  9     ecut=    60.00 Ry     beta= 0.22
     Davidson diagonalization with overlap
     ethr =  1.00E-02,  avg # of iterations =  1.0

     negative rho (up, down):  9.131E-02 0.000E+00

     total cpu time spent up to now is       79.4 secs

     total energy              =   -7571.87660458 Ry
     estimated scf accuracy    <     152.38906270 Ry

     iteration # 10     ecut=    60.00 Ry     beta= 0.22
     Davidson diagonalization with overlap
     ethr =  1.00E-02,  avg # of iterations =  1.0

     negative rho (up, down):  9.153E-02 0.000E+00

     total cpu time spent up to now is       86.8 secs

     total energy              =   -7572.08530878 Ry
     estimated scf accuracy    <     185.52677522 Ry

     iteration # 11     ecut=    60.00 Ry     beta= 0.22
     Davidson diagonalization with overlap
     ethr =  1.00E-02,  avg # of iterations =  1.0

     negative rho (up, down):  3.804E-02 0.000E+00

     total cpu time spent up to now is       94.2 secs

     total energy              =   -7570.14605179 Ry
     estimated scf accuracy    <     187.00738306 Ry

     iteration # 12     ecut=    60.00 Ry     beta= 0.22
     Davidson diagonalization with overlap
     ethr =  1.00E-02,  avg # of iterations =  1.0

     negative rho (up, down):  2.312E-02 0.000E+00

     total cpu time spent up to now is      101.5 secs

     total energy              =   -7567.75054304 Ry
     estimated scf accuracy    <     196.57310835 Ry

     iteration # 13     ecut=    60.00 Ry     beta= 0.22
     Davidson diagonalization with overlap
     ethr =  1.00E-02,  avg # of iterations =  1.0

     negative rho (up, down):  3.054E-02 0.000E+00

     total cpu time spent up to now is      108.9 secs

     total energy              =   -7568.91907796 Ry
     estimated scf accuracy    <     102.26954254 Ry

     iteration # 14     ecut=    60.00 Ry     beta= 0.22
     Davidson diagonalization with overlap
     ethr =  1.00E-02,  avg # of iterations =  1.0

     negative rho (up, down):  5.901E-02 0.000E+00

     total cpu time spent up to now is      116.4 secs

     total energy              =   -7569.50173859 Ry
     estimated scf accuracy    <      41.94588803 Ry

     iteration # 15     ecut=    60.00 Ry     beta= 0.22
     Davidson diagonalization with overlap
     ethr =  1.00E-02,  avg # of iterations =  1.0

     negative rho (up, down):  8.311E-02 0.000E+00

     total cpu time spent up to now is      123.8 secs

     total energy              =   -7569.41237541 Ry
     estimated scf accuracy    <      48.23707406 Ry

     iteration # 16     ecut=    60.00 Ry     beta= 0.22
     Davidson diagonalization with overlap
     ethr =  1.00E-02,  avg # of iterations =  1.0

     negative rho (up, down):  1.002E-01 0.000E+00

     total cpu time spent up to now is      131.2 secs

     total energy              =   -7569.50532463 Ry
     estimated scf accuracy    <      48.83039547 Ry

     iteration # 17     ecut=    60.00 Ry     beta= 0.22
     Davidson diagonalization with overlap
     ethr =  1.00E-02,  avg # of iterations =  1.0

     negative rho (up, down):  1.031E-01 0.000E+00

     total cpu time spent up to now is      138.6 secs

     total energy              =   -7569.42201778 Ry
     estimated scf accuracy    <      47.35995181 Ry

     iteration # 18     ecut=    60.00 Ry     beta= 0.22
     Davidson diagonalization with overlap
     ethr =  1.00E-02,  avg # of iterations =  1.0

     negative rho (up, down):  1.048E-01 0.000E+00

     total cpu time spent up to now is      146.0 secs

     total energy              =   -7569.35014780 Ry
     estimated scf accuracy    <      41.86895443 Ry

     iteration # 19     ecut=    60.00 Ry     beta= 0.22
     Davidson diagonalization with overlap
     ethr =  1.00E-02,  avg # of iterations =  1.0

     negative rho (up, down):  9.993E-02 0.000E+00

     total cpu time spent up to now is      153.4 secs

     total energy              =   -7569.40090479 Ry
     estimated scf accuracy    <      40.13483086 Ry

     iteration # 20     ecut=    60.00 Ry     beta= 0.22
     Davidson diagonalization with overlap
     ethr =  1.00E-02,  avg # of iterations =  1.0

     negative rho (up, down):  8.074E-02 0.000E+00

     total cpu time spent up to now is      160.8 secs

     total energy              =   -7569.44065081 Ry
     estimated scf accuracy    <      39.35158345 Ry

     iteration # 21     ecut=    60.00 Ry     beta= 0.22
     Davidson diagonalization with overlap
     ethr =  1.00E-02,  avg # of iterations =  1.0

     negative rho (up, down):  7.485E-02 0.000E+00

     total cpu time spent up to now is      168.2 secs

     total energy              =   -7569.53696255 Ry
     estimated scf accuracy    <      69.37405393 Ry

     iteration # 22     ecut=    60.00 Ry     beta= 0.22
     Davidson diagonalization with overlap
     ethr =  1.00E-02,  avg # of iterations =  1.0

     negative rho (up, down):  6.475E-02 0.000E+00

     total cpu time spent up to now is      175.6 secs

     total energy              =   -7569.10081233 Ry
     estimated scf accuracy    <      51.08761853 Ry

     iteration # 23     ecut=    60.00 Ry     beta= 0.22
     Davidson diagonalization with overlap
     ethr =  1.00E-02,  avg # of iterations =  1.0

     negative rho (up, down):  8.307E-02 0.000E+00

     total cpu time spent up to now is      183.0 secs

     total energy              =   -7569.00258311 Ry
     estimated scf accuracy    <      34.55319150 Ry

     iteration # 24     ecut=    60.00 Ry     beta= 0.22
     Davidson diagonalization with overlap
     ethr =  9.87E-03,  avg # of iterations =  1.0

     negative rho (up, down):  1.108E-01 0.000E+00

     total cpu time spent up to now is      190.5 secs

     total energy              =   -7569.07780567 Ry
     estimated scf accuracy    <      28.40758521 Ry

     iteration # 25     ecut=    60.00 Ry     beta= 0.22
     Davidson diagonalization with overlap
     ethr =  8.12E-03,  avg # of iterations =  1.0

     negative rho (up, down):  1.707E-01 0.000E+00

     total cpu time spent up to now is      198.0 secs

     total energy              =   -7568.53536864 Ry
     estimated scf accuracy    <      37.43436926 Ry

     iteration # 26     ecut=    60.00 Ry     beta= 0.22
     Davidson diagonalization with overlap
     ethr =  8.12E-03,  avg # of iterations =  1.0

     negative rho (up, down):  8.845E-02 0.000E+00

     total cpu time spent up to now is      205.5 secs

     total energy              =   -7567.71059506 Ry
     estimated scf accuracy    <      46.40913406 Ry

     iteration # 27     ecut=    60.00 Ry     beta= 0.22
     Davidson diagonalization with overlap
     ethr =  8.12E-03,  avg # of iterations =  1.4

     negative rho (up, down):  1.425E-01 0.000E+00

     total cpu time spent up to now is      213.2 secs

     total energy              =   -7568.52437484 Ry
     estimated scf accuracy    <      23.12874225 Ry

     iteration # 28     ecut=    60.00 Ry     beta= 0.22
     Davidson diagonalization with overlap
     ethr =  6.61E-03,  avg # of iterations =  1.0

     negative rho (up, down):  2.075E-01 0.000E+00

     total cpu time spent up to now is      220.6 secs

     total energy              =   -7569.00903599 Ry
     estimated scf accuracy    <      30.35167028 Ry

     iteration # 29     ecut=    60.00 Ry     beta= 0.22
     Davidson diagonalization with overlap
     ethr =  6.61E-03,  avg # of iterations =  1.0

     negative rho (up, down):  2.139E-01 0.000E+00

     total cpu time spent up to now is      228.0 secs

     total energy              =   -7567.87681281 Ry
     estimated scf accuracy    <     134.52657329 Ry

     iteration # 30     ecut=    60.00 Ry     beta= 0.22
     Davidson diagonalization with overlap
     ethr =  6.61E-03,  avg # of iterations =  1.0

     negative rho (up, down):  1.977E-01 0.000E+00

     total cpu time spent up to now is      235.5 secs

     total energy              =   -7568.54160100 Ry
     estimated scf accuracy    <      44.65897151 Ry

     iteration # 31     ecut=    60.00 Ry     beta= 0.22
     Davidson diagonalization with overlap
     ethr =  6.61E-03,  avg # of iterations =  1.0

     negative rho (up, down):  2.019E-01 0.000E+00

     total cpu time spent up to now is      242.9 secs

     total energy              =   -7568.72958723 Ry
     estimated scf accuracy    <      19.85615006 Ry

     iteration # 32     ecut=    60.00 Ry     beta= 0.22
     Davidson diagonalization with overlap
     ethr =  5.67E-03,  avg # of iterations =  1.0

     negative rho (up, down):  2.388E-01 0.000E+00

     total cpu time spent up to now is      250.3 secs

     total energy              =   -7568.86742517 Ry
     estimated scf accuracy    <      26.07955818 Ry

     iteration # 33     ecut=    60.00 Ry     beta= 0.22
     Davidson diagonalization with overlap
     ethr =  5.67E-03,  avg # of iterations =  1.0

     negative rho (up, down):  1.609E-01 0.000E+00

     total cpu time spent up to now is      257.7 secs

     total energy              =   -7568.52366658 Ry
     estimated scf accuracy    <      34.76762857 Ry

     iteration # 34     ecut=    60.00 Ry     beta= 0.22
     Davidson diagonalization with overlap
     ethr =  5.67E-03,  avg # of iterations =  1.0

     negative rho (up, down):  1.696E-01 0.000E+00

     total cpu time spent up to now is      265.1 secs

     total energy              =   -7568.52022580 Ry
     estimated scf accuracy    <      36.70307010 Ry

     iteration # 35     ecut=    60.00 Ry     beta= 0.22
     Davidson diagonalization with overlap
     ethr =  5.67E-03,  avg # of iterations =  1.0

     negative rho (up, down):  1.685E-01 0.000E+00

     total cpu time spent up to now is      272.5 secs

     total energy              =   -7569.01225129 Ry
     estimated scf accuracy    <      33.74048392 Ry

     iteration # 36     ecut=    60.00 Ry     beta= 0.22
     Davidson diagonalization with overlap
     ethr =  5.67E-03,  avg # of iterations =  1.0

     negative rho (up, down):  1.617E-01 0.000E+00

     total cpu time spent up to now is      280.0 secs

     total energy              =   -7568.70920228 Ry
     estimated scf accuracy    <      32.26669016 Ry

     iteration # 37     ecut=    60.00 Ry     beta= 0.22
     Davidson diagonalization with overlap
     ethr =  5.67E-03,  avg # of iterations =  1.0

     negative rho (up, down):  1.689E-01 0.000E+00

     total cpu time spent up to now is      287.4 secs

     total energy              =   -7568.66040781 Ry
     estimated scf accuracy    <      24.37131042 Ry

     iteration # 38     ecut=    60.00 Ry     beta= 0.22
     Davidson diagonalization with overlap
     ethr =  5.67E-03,  avg # of iterations =  1.0

     negative rho (up, down):  1.409E-01 0.000E+00

     total cpu time spent up to now is      294.9 secs

     total energy              =   -7568.41560832 Ry
     estimated scf accuracy    <      30.89984151 Ry

     iteration # 39     ecut=    60.00 Ry     beta= 0.22
     Davidson diagonalization with overlap
     ethr =  5.67E-03,  avg # of iterations =  1.0

     negative rho (up, down):  1.005E-01 0.000E+00

     total cpu time spent up to now is      302.3 secs

     total energy              =   -7568.45877275 Ry
     estimated scf accuracy    <      12.39848181 Ry

     iteration # 40     ecut=    60.00 Ry     beta= 0.22
     Davidson diagonalization with overlap
     ethr =  3.54E-03,  avg # of iterations =  1.0

     negative rho (up, down):  1.160E-01 0.000E+00

     total cpu time spent up to now is      309.8 secs

     total energy              =   -7568.35364653 Ry
     estimated scf accuracy    <      13.83866258 Ry

     iteration # 41     ecut=    60.00 Ry     beta= 0.22
     Davidson diagonalization with overlap
     ethr =  3.54E-03,  avg # of iterations =  1.2

     negative rho (up, down):  1.210E-01 0.000E+00

     total cpu time spent up to now is      317.4 secs

     total energy              =   -7568.53148694 Ry
     estimated scf accuracy    <       7.50324524 Ry

     iteration # 42     ecut=    60.00 Ry     beta= 0.22
     Davidson diagonalization with overlap
     ethr =  2.14E-03,  avg # of iterations =  2.0

     negative rho (up, down):  1.252E-01 0.000E+00

     total cpu time spent up to now is      325.6 secs

     total energy              =   -7568.78402186 Ry
     estimated scf accuracy    <      21.24671802 Ry

     iteration # 43     ecut=    60.00 Ry     beta= 0.22
     Davidson diagonalization with overlap
     ethr =  2.14E-03,  avg # of iterations =  1.0

     negative rho (up, down):  1.328E-01 0.000E+00

     total cpu time spent up to now is      333.0 secs

     total energy              =   -7568.35234723 Ry
     estimated scf accuracy    <      18.91409348 Ry

     iteration # 44     ecut=    60.00 Ry     beta= 0.22
     Davidson diagonalization with overlap
     ethr =  2.14E-03,  avg # of iterations =  1.2

     negative rho (up, down):  1.145E-01 0.000E+00

     total cpu time spent up to now is      340.5 secs

     total energy              =   -7568.35245547 Ry
     estimated scf accuracy    <      10.97880043 Ry

     iteration # 45     ecut=    60.00 Ry     beta= 0.22
     Davidson diagonalization with overlap
     ethr =  2.14E-03,  avg # of iterations =  1.2

     negative rho (up, down):  1.231E-01 0.000E+00

     total cpu time spent up to now is      348.0 secs

     total energy              =   -7568.32133429 Ry
     estimated scf accuracy    <       5.10419517 Ry

     iteration # 46     ecut=    60.00 Ry     beta= 0.22
     Davidson diagonalization with overlap
     ethr =  1.46E-03,  avg # of iterations =  2.0

     negative rho (up, down):  1.274E-01 0.000E+00

     total cpu time spent up to now is      356.2 secs

     total energy              =   -7568.27782358 Ry
     estimated scf accuracy    <      10.92529412 Ry

     iteration # 47     ecut=    60.00 Ry     beta= 0.22
     Davidson diagonalization with overlap
     ethr =  1.46E-03,  avg # of iterations =  1.2

     negative rho (up, down):  1.195E-01 0.000E+00

     total cpu time spent up to now is      363.6 secs

     total energy              =   -7568.43896545 Ry
     estimated scf accuracy    <       1.68761707 Ry

     iteration # 48     ecut=    60.00 Ry     beta= 0.22
     Davidson diagonalization with overlap
     ethr =  4.82E-04,  avg # of iterations =  1.8

     negative rho (up, down):  1.152E-01 0.000E+00

     total cpu time spent up to now is      371.7 secs

     total energy              =   -7568.44606681 Ry
     estimated scf accuracy    <       2.00537696 Ry

     iteration # 49     ecut=    60.00 Ry     beta= 0.22
     Davidson diagonalization with overlap
     ethr =  4.82E-04,  avg # of iterations =  1.0

     negative rho (up, down):  1.098E-01 0.000E+00

     total cpu time spent up to now is      379.0 secs

     total energy              =   -7568.48844675 Ry
     estimated scf accuracy    <       1.08720267 Ry

     iteration # 50     ecut=    60.00 Ry     beta= 0.22
     Davidson diagonalization with overlap
     ethr =  3.11E-04,  avg # of iterations =  1.0

     negative rho (up, down):  1.097E-01 0.000E+00

     total cpu time spent up to now is      386.4 secs

     total energy              =   -7568.50864863 Ry
     estimated scf accuracy    <       1.30816890 Ry

     iteration # 51     ecut=    60.00 Ry     beta= 0.22
     Davidson diagonalization with overlap
     ethr =  3.11E-04,  avg # of iterations =  1.0

     negative rho (up, down):  1.139E-01 0.000E+00

     total cpu time spent up to now is      393.8 secs

     total energy              =   -7568.48978988 Ry
     estimated scf accuracy    <       1.37494798 Ry

     iteration # 52     ecut=    60.00 Ry     beta= 0.22
     Davidson diagonalization with overlap
     ethr =  3.11E-04,  avg # of iterations =  1.0

     negative rho (up, down):  1.167E-01 0.000E+00

     total cpu time spent up to now is      401.2 secs

     total energy              =   -7568.48202836 Ry
     estimated scf accuracy    <       1.10754698 Ry

     iteration # 53     ecut=    60.00 Ry     beta= 0.22
     Davidson diagonalization with overlap
     ethr =  3.11E-04,  avg # of iterations =  1.0

     negative rho (up, down):  1.189E-01 0.000E+00

     total cpu time spent up to now is      408.5 secs

     total energy              =   -7568.47669870 Ry
     estimated scf accuracy    <       1.22129246 Ry

     iteration # 54     ecut=    60.00 Ry     beta= 0.22
     Davidson diagonalization with overlap
     ethr =  3.11E-04,  avg # of iterations =  2.0

     negative rho (up, down):  1.241E-01 0.000E+00

     total cpu time spent up to now is      416.8 secs

     total energy              =   -7568.48392678 Ry
     estimated scf accuracy    <       2.75851090 Ry

     iteration # 55     ecut=    60.00 Ry     beta= 0.22
     Davidson diagonalization with overlap
     ethr =  3.11E-04,  avg # of iterations =  1.0

     negative rho (up, down):  1.302E-01 0.000E+00

     total cpu time spent up to now is      424.1 secs

     total energy              =   -7568.48182759 Ry
     estimated scf accuracy    <       2.17365441 Ry

     iteration # 56     ecut=    60.00 Ry     beta= 0.22
     Davidson diagonalization with overlap
     ethr =  3.11E-04,  avg # of iterations =  1.0

     negative rho (up, down):  1.196E-01 0.000E+00

     total cpu time spent up to now is      431.5 secs

     total energy              =   -7568.48724895 Ry
     estimated scf accuracy    <       1.84757020 Ry

     iteration # 57     ecut=    60.00 Ry     beta= 0.22
     Davidson diagonalization with overlap
     ethr =  3.11E-04,  avg # of iterations =  1.0

     negative rho (up, down):  1.197E-01 0.000E+00

     total cpu time spent up to now is      438.9 secs

     total energy              =   -7568.47076891 Ry
     estimated scf accuracy    <       1.74526169 Ry

     iteration # 58     ecut=    60.00 Ry     beta= 0.22
     Davidson diagonalization with overlap
     ethr =  3.11E-04,  avg # of iterations =  1.0

     negative rho (up, down):  1.201E-01 0.000E+00

     total cpu time spent up to now is      446.3 secs

     total energy              =   -7568.47216152 Ry
     estimated scf accuracy    <       1.12133684 Ry

     iteration # 59     ecut=    60.00 Ry     beta= 0.22
     Davidson diagonalization with overlap
     ethr =  3.11E-04,  avg # of iterations =  1.2

     negative rho (up, down):  1.096E-01 0.000E+00

     total cpu time spent up to now is      453.8 secs

     total energy              =   -7568.46671744 Ry
     estimated scf accuracy    <       1.21499210 Ry

     iteration # 60     ecut=    60.00 Ry     beta= 0.22
     Davidson diagonalization with overlap
     ethr =  3.11E-04,  avg # of iterations =  2.0

     negative rho (up, down):  1.024E-01 0.000E+00

     total cpu time spent up to now is      462.1 secs

     total energy              =   -7568.52475908 Ry
     estimated scf accuracy    <       1.69715143 Ry

     iteration # 61     ecut=    60.00 Ry     beta= 0.22
     Davidson diagonalization with overlap
     ethr =  3.11E-04,  avg # of iterations =  1.0

     negative rho (up, down):  1.012E-01 0.000E+00

     total cpu time spent up to now is      469.4 secs

     total energy              =   -7568.53215452 Ry
     estimated scf accuracy    <       2.00822292 Ry

     iteration # 62     ecut=    60.00 Ry     beta= 0.22
     Davidson diagonalization with overlap
     ethr =  3.11E-04,  avg # of iterations =  1.0

     negative rho (up, down):  1.025E-01 0.000E+00

     total cpu time spent up to now is      476.8 secs

     total energy              =   -7568.52646157 Ry
     estimated scf accuracy    <       2.13593296 Ry

     iteration # 63     ecut=    60.00 Ry     beta= 0.22
     Davidson diagonalization with overlap
     ethr =  3.11E-04,  avg # of iterations =  1.0

     negative rho (up, down):  1.064E-01 0.000E+00

     total cpu time spent up to now is      484.1 secs

     total energy              =   -7568.51209425 Ry
     estimated scf accuracy    <       2.41751855 Ry

     iteration # 64     ecut=    60.00 Ry     beta= 0.22
     Davidson diagonalization with overlap
     ethr =  3.11E-04,  avg # of iterations =  1.2

     negative rho (up, down):  1.037E-01 0.000E+00

     total cpu time spent up to now is      491.7 secs

     total energy              =   -7568.52021744 Ry
     estimated scf accuracy    <       2.20687584 Ry

     iteration # 65     ecut=    60.00 Ry     beta= 0.22
     Davidson diagonalization with overlap
     ethr =  3.11E-04,  avg # of iterations =  1.0

     negative rho (up, down):  1.063E-01 0.000E+00

     total cpu time spent up to now is      499.0 secs

     total energy              =   -7568.52175495 Ry
     estimated scf accuracy    <       2.47570870 Ry

     iteration # 66     ecut=    60.00 Ry     beta= 0.22
     Davidson diagonalization with overlap
     ethr =  3.11E-04,  avg # of iterations =  1.0

     negative rho (up, down):  1.185E-01 0.000E+00

     total cpu time spent up to now is      506.3 secs

     total energy              =   -7568.45532612 Ry
     estimated scf accuracy    <       2.32947632 Ry

     iteration # 67     ecut=    60.00 Ry     beta= 0.22
     Davidson diagonalization with overlap
     ethr =  3.11E-04,  avg # of iterations =  2.0

     negative rho (up, down):  1.235E-01 0.000E+00

     total cpu time spent up to now is      514.5 secs

     total energy              =   -7568.44828378 Ry
     estimated scf accuracy    <       0.81937221 Ry

     iteration # 68     ecut=    60.00 Ry     beta= 0.22
     Davidson diagonalization with overlap
     ethr =  2.34E-04,  avg # of iterations =  2.0

     negative rho (up, down):  1.253E-01 0.000E+00

     total cpu time spent up to now is      522.6 secs

     total energy              =   -7568.46681789 Ry
     estimated scf accuracy    <       2.17127130 Ry

     iteration # 69     ecut=    60.00 Ry     beta= 0.22
     Davidson diagonalization with overlap
     ethr =  2.34E-04,  avg # of iterations =  1.8

     negative rho (up, down):  1.381E-01 0.000E+00

     total cpu time spent up to now is      530.6 secs

     total energy              =   -7568.45128302 Ry
     estimated scf accuracy    <       2.82308208 Ry

     iteration # 70     ecut=    60.00 Ry     beta= 0.22
     Davidson diagonalization with overlap
     ethr =  2.34E-04,  avg # of iterations =  1.2

     negative rho (up, down):  1.522E-01 0.000E+00

     total cpu time spent up to now is      538.1 secs

     total energy              =   -7568.46913221 Ry
     estimated scf accuracy    <       1.27077931 Ry

     iteration # 71     ecut=    60.00 Ry     beta= 0.22
     Davidson diagonalization with overlap
     ethr =  2.34E-04,  avg # of iterations =  2.0

     negative rho (up, down):  1.597E-01 0.000E+00

     total cpu time spent up to now is      546.5 secs

     total energy              =   -7568.50832579 Ry
     estimated scf accuracy    <       2.82639186 Ry

     iteration # 72     ecut=    60.00 Ry     beta= 0.22
     Davidson diagonalization with overlap
     ethr =  2.34E-04,  avg # of iterations =  1.2

     negative rho (up, down):  1.727E-01 0.000E+00

     total cpu time spent up to now is      554.0 secs

     total energy              =   -7568.47531353 Ry
     estimated scf accuracy    <       3.47283626 Ry

     iteration # 73     ecut=    60.00 Ry     beta= 0.22
     Davidson diagonalization with overlap
     ethr =  2.34E-04,  avg # of iterations =  2.0

     negative rho (up, down):  1.760E-01 0.000E+00

     total cpu time spent up to now is      562.1 secs

     total energy              =   -7568.48409851 Ry
     estimated scf accuracy    <       3.68936719 Ry

     iteration # 74     ecut=    60.00 Ry     beta= 0.22
     Davidson diagonalization with overlap
     ethr =  2.34E-04,  avg # of iterations =  1.0

     negative rho (up, down):  1.909E-01 0.000E+00

     total cpu time spent up to now is      569.5 secs

     total energy              =   -7568.42421278 Ry
     estimated scf accuracy    <       5.20639400 Ry

     iteration # 75     ecut=    60.00 Ry     beta= 0.22
     Davidson diagonalization with overlap
     ethr =  2.34E-04,  avg # of iterations =  2.0

     negative rho (up, down):  2.075E-01 0.000E+00

     total cpu time spent up to now is      577.6 secs

     total energy              =   -7568.41778154 Ry
     estimated scf accuracy    <       2.79858751 Ry

     iteration # 76     ecut=    60.00 Ry     beta= 0.22
     Davidson diagonalization with overlap
     ethr =  2.34E-04,  avg # of iterations =  1.6

     negative rho (up, down):  2.020E-01 0.000E+00

     total cpu time spent up to now is      585.5 secs

     total energy              =   -7568.39835607 Ry
     estimated scf accuracy    <       1.81623050 Ry

     iteration # 77     ecut=    60.00 Ry     beta= 0.22
     Davidson diagonalization with overlap
     ethr =  2.34E-04,  avg # of iterations =  1.0

     negative rho (up, down):  2.030E-01 0.000E+00

     total cpu time spent up to now is      592.8 secs

     total energy              =   -7568.40754455 Ry
     estimated scf accuracy    <       1.21415583 Ry

     iteration # 78     ecut=    60.00 Ry     beta= 0.22
     Davidson diagonalization with overlap
     ethr =  2.34E-04,  avg # of iterations =  2.0

     negative rho (up, down):  2.252E-01 0.000E+00

     total cpu time spent up to now is      600.9 secs

     total energy              =   -7568.37678896 Ry
     estimated scf accuracy    <       1.97345919 Ry

     iteration # 79     ecut=    60.00 Ry     beta= 0.22
     Davidson diagonalization with overlap
     ethr =  2.34E-04,  avg # of iterations =  2.0

     negative rho (up, down):  2.473E-01 0.000E+00

     total cpu time spent up to now is      609.2 secs

     total energy              =   -7568.37802293 Ry
     estimated scf accuracy    <       2.23371277 Ry

     iteration # 80     ecut=    60.00 Ry     beta= 0.22
     Davidson diagonalization with overlap
     ethr =  2.34E-04,  avg # of iterations =  1.8

     negative rho (up, down):  2.518E-01 0.000E+00

     total cpu time spent up to now is      617.2 secs

     total energy              =   -7568.38683280 Ry
     estimated scf accuracy    <       1.42568005 Ry

     iteration # 81     ecut=    60.00 Ry     beta= 0.22
     Davidson diagonalization with overlap
     ethr =  2.34E-04,  avg # of iterations =  1.0

     negative rho (up, down):  2.593E-01 0.000E+00

     total cpu time spent up to now is      624.6 secs

     total energy              =   -7568.36717645 Ry
     estimated scf accuracy    <       1.41914294 Ry

     iteration # 82     ecut=    60.00 Ry     beta= 0.22
     Davidson diagonalization with overlap
     ethr =  2.34E-04,  avg # of iterations =  1.0

     negative rho (up, down):  2.630E-01 0.000E+00

     total cpu time spent up to now is      632.0 secs

     total energy              =   -7568.37620974 Ry
     estimated scf accuracy    <       0.89211417 Ry

     iteration # 83     ecut=    60.00 Ry     beta= 0.22
     Davidson diagonalization with overlap
     ethr =  2.34E-04,  avg # of iterations =  1.0

     negative rho (up, down):  2.668E-01 0.000E+00

     total cpu time spent up to now is      639.4 secs

     total energy              =   -7568.37135724 Ry
     estimated scf accuracy    <       1.19316688 Ry

     iteration # 84     ecut=    60.00 Ry     beta= 0.22
     Davidson diagonalization with overlap
     ethr =  2.34E-04,  avg # of iterations =  1.0

     negative rho (up, down):  2.682E-01 0.000E+00

     total cpu time spent up to now is      646.8 secs

     total energy              =   -7568.37883467 Ry
     estimated scf accuracy    <       1.33346786 Ry

     iteration # 85     ecut=    60.00 Ry     beta= 0.22
     Davidson diagonalization with overlap
     ethr =  2.34E-04,  avg # of iterations =  1.0

     negative rho (up, down):  2.664E-01 0.000E+00

     total cpu time spent up to now is      654.1 secs

     total energy              =   -7568.37962874 Ry
     estimated scf accuracy    <       1.45256729 Ry

     iteration # 86     ecut=    60.00 Ry     beta= 0.22
     Davidson diagonalization with overlap
     ethr =  2.34E-04,  avg # of iterations =  1.0

     negative rho (up, down):  2.641E-01 0.000E+00

     total cpu time spent up to now is      661.5 secs

     total energy              =   -7568.37012180 Ry
     estimated scf accuracy    <       1.44738782 Ry

     iteration # 87     ecut=    60.00 Ry     beta= 0.22
     Davidson diagonalization with overlap
     ethr =  2.34E-04,  avg # of iterations =  2.0

     negative rho (up, down):  2.728E-01 0.000E+00

     total cpu time spent up to now is      669.7 secs

     total energy              =   -7568.35427406 Ry
     estimated scf accuracy    <       1.86841208 Ry

     iteration # 88     ecut=    60.00 Ry     beta= 0.22
     Davidson diagonalization with overlap
     ethr =  2.34E-04,  avg # of iterations =  2.0

     negative rho (up, down):  2.716E-01 0.000E+00

     total cpu time spent up to now is      677.9 secs

     total energy              =   -7568.37021649 Ry
     estimated scf accuracy    <       1.32145720 Ry

     iteration # 89     ecut=    60.00 Ry     beta= 0.22
     Davidson diagonalization with overlap
     ethr =  2.34E-04,  avg # of iterations =  1.0

     negative rho (up, down):  2.734E-01 0.000E+00

     total cpu time spent up to now is      685.3 secs

     total energy              =   -7568.37674134 Ry
     estimated scf accuracy    <       1.56959828 Ry

     iteration # 90     ecut=    60.00 Ry     beta= 0.22
     Davidson diagonalization with overlap
     ethr =  2.34E-04,  avg # of iterations =  1.0

     negative rho (up, down):  2.940E-01 0.000E+00

     total cpu time spent up to now is      692.6 secs

     total energy              =   -7568.31143192 Ry
     estimated scf accuracy    <       1.98587746 Ry

     iteration # 91     ecut=    60.00 Ry     beta= 0.22
     Davidson diagonalization with overlap
     ethr =  2.34E-04,  avg # of iterations =  2.0

     negative rho (up, down):  2.991E-01 0.000E+00

     total cpu time spent up to now is      700.8 secs

     total energy              =   -7568.33500672 Ry
     estimated scf accuracy    <       0.81654179 Ry

     iteration # 92     ecut=    60.00 Ry     beta= 0.22
     Davidson diagonalization with overlap
     ethr =  2.33E-04,  avg # of iterations =  2.0

     negative rho (up, down):  2.924E-01 0.000E+00

     total cpu time spent up to now is      708.9 secs

     total energy              =   -7568.36814524 Ry
     estimated scf accuracy    <       1.28949368 Ry

     iteration # 93     ecut=    60.00 Ry     beta= 0.22
     Davidson diagonalization with overlap
     ethr =  2.33E-04,  avg # of iterations =  1.4

     negative rho (up, down):  2.864E-01 0.000E+00

     total cpu time spent up to now is      716.6 secs

     total energy              =   -7568.36792243 Ry
     estimated scf accuracy    <       2.22423861 Ry

     iteration # 94     ecut=    60.00 Ry     beta= 0.22
     Davidson diagonalization with overlap
     ethr =  2.33E-04,  avg # of iterations =  1.0

     negative rho (up, down):  2.901E-01 0.000E+00

     total cpu time spent up to now is      724.0 secs

     total energy              =   -7568.36547645 Ry
     estimated scf accuracy    <       1.66920342 Ry

     iteration # 95     ecut=    60.00 Ry     beta= 0.22
     Davidson diagonalization with overlap
     ethr =  2.33E-04,  avg # of iterations =  1.0

     negative rho (up, down):  2.908E-01 0.000E+00

     total cpu time spent up to now is      731.4 secs

     total energy              =   -7568.37748558 Ry
     estimated scf accuracy    <       1.58856189 Ry

     iteration # 96     ecut=    60.00 Ry     beta= 0.22
     Davidson diagonalization with overlap
     ethr =  2.33E-04,  avg # of iterations =  1.0

     negative rho (up, down):  2.861E-01 0.000E+00

     total cpu time spent up to now is      738.8 secs

     total energy              =   -7568.33285754 Ry
     estimated scf accuracy    <       2.28878432 Ry

     iteration # 97     ecut=    60.00 Ry     beta= 0.22
     Davidson diagonalization with overlap
     ethr =  2.33E-04,  avg # of iterations =  2.0

     negative rho (up, down):  2.918E-01 0.000E+00

     total cpu time spent up to now is      747.0 secs

     total energy              =   -7568.35034742 Ry
     estimated scf accuracy    <       1.09934384 Ry

     iteration # 98     ecut=    60.00 Ry     beta= 0.22
     Davidson diagonalization with overlap
     ethr =  2.33E-04,  avg # of iterations =  2.0

     negative rho (up, down):  3.000E-01 0.000E+00

     total cpu time spent up to now is      755.1 secs

     total energy              =   -7568.37183521 Ry
     estimated scf accuracy    <       1.61197895 Ry

     iteration # 99     ecut=    60.00 Ry     beta= 0.22
     Davidson diagonalization with overlap
     ethr =  2.33E-04,  avg # of iterations =  1.4

     negative rho (up, down):  2.971E-01 0.000E+00

     total cpu time spent up to now is      762.8 secs

     total energy              =   -7568.34688137 Ry
     estimated scf accuracy    <       2.57368271 Ry

     iteration #100     ecut=    60.00 Ry     beta= 0.22
     Davidson diagonalization with overlap
     ethr =  2.33E-04,  avg # of iterations =  1.4

     negative rho (up, down):  2.912E-01 0.000E+00

     total cpu time spent up to now is      770.4 secs

     total energy              =   -7568.34204224 Ry
     estimated scf accuracy    <       1.33324779 Ry

     iteration #101     ecut=    60.00 Ry     beta= 0.22
     Davidson diagonalization with overlap
     ethr =  2.33E-04,  avg # of iterations =  2.0

     negative rho (up, down):  3.021E-01 0.000E+00

     total cpu time spent up to now is      778.5 secs

     total energy              =   -7568.32846022 Ry
     estimated scf accuracy    <       1.08890883 Ry

     iteration #102     ecut=    60.00 Ry     beta= 0.22
     Davidson diagonalization with overlap
     ethr =  2.33E-04,  avg # of iterations =  1.0

     negative rho (up, down):  3.343E-01 0.000E+00

     total cpu time spent up to now is      785.8 secs

     total energy              =   -7568.31043266 Ry
     estimated scf accuracy    <       0.47108355 Ry

     iteration #103     ecut=    60.00 Ry     beta= 0.22
     Davidson diagonalization with overlap
     ethr =  1.35E-04,  avg # of iterations =  2.0

     negative rho (up, down):  3.401E-01 0.000E+00

     total cpu time spent up to now is      794.1 secs

     total energy              =   -7568.32519768 Ry
     estimated scf accuracy    <       1.32110102 Ry

     iteration #104     ecut=    60.00 Ry     beta= 0.22
     Davidson diagonalization with overlap
     ethr =  1.35E-04,  avg # of iterations =  1.0

     negative rho (up, down):  3.447E-01 0.000E+00

     total cpu time spent up to now is      801.5 secs

     total energy              =   -7568.31695448 Ry
     estimated scf accuracy    <       1.26437682 Ry

     iteration #105     ecut=    60.00 Ry     beta= 0.22
     Davidson diagonalization with overlap
     ethr =  1.35E-04,  avg # of iterations =  1.0

     negative rho (up, down):  3.461E-01 0.000E+00

     total cpu time spent up to now is      808.9 secs

     total energy              =   -7568.31248377 Ry
     estimated scf accuracy    <       1.39900897 Ry

     iteration #106     ecut=    60.00 Ry     beta= 0.22
     Davidson diagonalization with overlap
     ethr =  1.35E-04,  avg # of iterations =  1.0

     negative rho (up, down):  3.528E-01 0.000E+00

     total cpu time spent up to now is      816.3 secs

     total energy              =   -7568.31941200 Ry
     estimated scf accuracy    <       1.13713724 Ry

     iteration #107     ecut=    60.00 Ry     beta= 0.22
     Davidson diagonalization with overlap
     ethr =  1.35E-04,  avg # of iterations =  1.0

     negative rho (up, down):  3.473E-01 0.000E+00

     total cpu time spent up to now is      823.7 secs

     total energy              =   -7568.31291415 Ry
     estimated scf accuracy    <       1.47319199 Ry

     iteration #108     ecut=    60.00 Ry     beta= 0.22
     Davidson diagonalization with overlap
     ethr =  1.35E-04,  avg # of iterations =  1.0

     negative rho (up, down):  3.262E-01 0.000E+00

     total cpu time spent up to now is      831.0 secs

     total energy              =   -7568.33494813 Ry
     estimated scf accuracy    <       1.00436079 Ry

     iteration #109     ecut=    60.00 Ry     beta= 0.22
     Davidson diagonalization with overlap
     ethr =  1.35E-04,  avg # of iterations =  1.0

     negative rho (up, down):  3.421E-01 0.000E+00

     total cpu time spent up to now is      838.4 secs

     total energy              =   -7568.32317015 Ry
     estimated scf accuracy    <       1.30198227 Ry

     iteration #110     ecut=    60.00 Ry     beta= 0.22
     Davidson diagonalization with overlap
     ethr =  1.35E-04,  avg # of iterations =  1.0

     negative rho (up, down):  3.385E-01 0.000E+00

     total cpu time spent up to now is      845.8 secs

     total energy              =   -7568.32598512 Ry
     estimated scf accuracy    <       1.31557340 Ry

     iteration #111     ecut=    60.00 Ry     beta= 0.22
     Davidson diagonalization with overlap
     ethr =  1.35E-04,  avg # of iterations =  1.0

     negative rho (up, down):  3.439E-01 0.000E+00

     total cpu time spent up to now is      853.2 secs

     total energy              =   -7568.31623098 Ry
     estimated scf accuracy    <       1.43439055 Ry

     iteration #112     ecut=    60.00 Ry     beta= 0.22
     Davidson diagonalization with overlap
     ethr =  1.35E-04,  avg # of iterations =  1.0

     negative rho (up, down):  3.400E-01 0.000E+00

     total cpu time spent up to now is      860.5 secs

     total energy              =   -7568.32098992 Ry
     estimated scf accuracy    <       1.17386804 Ry

     iteration #113     ecut=    60.00 Ry     beta= 0.22
     Davidson diagonalization with overlap
     ethr =  1.35E-04,  avg # of iterations =  1.0

     negative rho (up, down):  3.389E-01 0.000E+00

     total cpu time spent up to now is      867.9 secs

     total energy              =   -7568.32118305 Ry
     estimated scf accuracy    <       1.22883932 Ry

     iteration #114     ecut=    60.00 Ry     beta= 0.22
     Davidson diagonalization with overlap
     ethr =  1.35E-04,  avg # of iterations =  1.0

     negative rho (up, down):  3.519E-01 0.000E+00

     total cpu time spent up to now is      875.3 secs

     total energy              =   -7568.30191216 Ry
     estimated scf accuracy    <       1.22910148 Ry

     iteration #115     ecut=    60.00 Ry     beta= 0.22
     Davidson diagonalization with overlap
     ethr =  1.35E-04,  avg # of iterations =  1.4

     negative rho (up, down):  3.470E-01 0.000E+00

     total cpu time spent up to now is      883.0 secs

     total energy              =   -7568.29910616 Ry
     estimated scf accuracy    <       1.02499657 Ry

     iteration #116     ecut=    60.00 Ry     beta= 0.22
     Davidson diagonalization with overlap
     ethr =  1.35E-04,  avg # of iterations =  1.0

     negative rho (up, down):  3.456E-01 0.000E+00

     total cpu time spent up to now is      890.3 secs

     total energy              =   -7568.31756225 Ry
     estimated scf accuracy    <       0.75410248 Ry

     iteration #117     ecut=    60.00 Ry     beta= 0.22
     Davidson diagonalization with overlap
     ethr =  1.35E-04,  avg # of iterations =  2.0

     negative rho (up, down):  3.423E-01 0.000E+00

     total cpu time spent up to now is      898.5 secs

     total energy              =   -7568.34019172 Ry
     estimated scf accuracy    <       1.64803374 Ry

     iteration #118     ecut=    60.00 Ry     beta= 0.22
     Davidson diagonalization with overlap
     ethr =  1.35E-04,  avg # of iterations =  1.0

     negative rho (up, down):  3.441E-01 0.000E+00

     total cpu time spent up to now is      905.8 secs

     total energy              =   -7568.35565778 Ry
     estimated scf accuracy    <       2.20526805 Ry

     iteration #119     ecut=    60.00 Ry     beta= 0.22
     Davidson diagonalization with overlap
     ethr =  1.35E-04,  avg # of iterations =  1.0

     negative rho (up, down):  3.397E-01 0.000E+00

     total cpu time spent up to now is      913.2 secs

     total energy              =   -7568.36126210 Ry
     estimated scf accuracy    <       3.07548316 Ry

     iteration #120     ecut=    60.00 Ry     beta= 0.22
     Davidson diagonalization with overlap
     ethr =  1.35E-04,  avg # of iterations =  1.0

     negative rho (up, down):  3.617E-01 0.000E+00

     total cpu time spent up to now is      920.5 secs

     total energy              =   -7568.36081372 Ry
     estimated scf accuracy    <       3.26391925 Ry

     iteration #121     ecut=    60.00 Ry     beta= 0.22
     Davidson diagonalization with overlap
     ethr =  1.35E-04,  avg # of iterations =  1.0

     negative rho (up, down):  3.628E-01 0.000E+00

     total cpu time spent up to now is      927.9 secs

     total energy              =   -7568.37492097 Ry
     estimated scf accuracy    <       4.26264729 Ry

     iteration #122     ecut=    60.00 Ry     beta= 0.22
     Davidson diagonalization with overlap
     ethr =  1.35E-04,  avg # of iterations =  1.0

     negative rho (up, down):  3.513E-01 0.000E+00

     total cpu time spent up to now is      935.3 secs

     total energy              =   -7568.37624237 Ry
     estimated scf accuracy    <       4.87653208 Ry

     iteration #123     ecut=    60.00 Ry     beta= 0.22
     Davidson diagonalization with overlap
     ethr =  1.35E-04,  avg # of iterations =  1.0

     negative rho (up, down):  3.694E-01 0.000E+00

     total cpu time spent up to now is      942.7 secs

     total energy              =   -7568.35839799 Ry
     estimated scf accuracy    <       4.56776080 Ry

     iteration #124     ecut=    60.00 Ry     beta= 0.22
     Davidson diagonalization with overlap
     ethr =  1.35E-04,  avg # of iterations =  1.0

     negative rho (up, down):  3.730E-01 0.000E+00

     total cpu time spent up to now is      950.0 secs

     total energy              =   -7568.35500889 Ry
     estimated scf accuracy    <       4.69041413 Ry

     iteration #125     ecut=    60.00 Ry     beta= 0.22
     Davidson diagonalization with overlap
     ethr =  1.35E-04,  avg # of iterations =  1.0

     negative rho (up, down):  4.289E-01 0.000E+00

     total cpu time spent up to now is      957.4 secs

     total energy              =   -7568.32657112 Ry
     estimated scf accuracy    <       4.64286963 Ry

     iteration #126     ecut=    60.00 Ry     beta= 0.22
     Davidson diagonalization with overlap
     ethr =  1.35E-04,  avg # of iterations =  2.0

     negative rho (up, down):  3.394E-01 0.000E+00

     total cpu time spent up to now is      965.6 secs

     total energy              =   -7568.24235543 Ry
     estimated scf accuracy    <       8.39181595 Ry

     iteration #127     ecut=    60.00 Ry     beta= 0.22
     Davidson diagonalization with overlap
     ethr =  1.35E-04,  avg # of iterations =  2.0

     negative rho (up, down):  3.833E-01 0.000E+00

     total cpu time spent up to now is      974.3 secs

     total energy              =   -7568.27819413 Ry
     estimated scf accuracy    <       2.32789250 Ry

     iteration #128     ecut=    60.00 Ry     beta= 0.22
     Davidson diagonalization with overlap
     ethr =  1.35E-04,  avg # of iterations =  2.0

     negative rho (up, down):  3.780E-01 0.000E+00

     total cpu time spent up to now is      982.6 secs

     total energy              =   -7568.32530359 Ry
     estimated scf accuracy    <       3.22818214 Ry

     iteration #129     ecut=    60.00 Ry     beta= 0.22
     Davidson diagonalization with overlap
     ethr =  1.35E-04,  avg # of iterations =  1.0

     negative rho (up, down):  3.788E-01 0.000E+00

     total cpu time spent up to now is      990.0 secs

     total energy              =   -7568.31475826 Ry
     estimated scf accuracy    <       3.19373365 Ry

     iteration #130     ecut=    60.00 Ry     beta= 0.22
     Davidson diagonalization with overlap
     ethr =  1.35E-04,  avg # of iterations =  1.2

     negative rho (up, down):  3.226E-01 0.000E+00

     total cpu time spent up to now is      997.5 secs

     total energy              =   -7568.23396404 Ry
     estimated scf accuracy    <       2.88228431 Ry

     iteration #131     ecut=    60.00 Ry     beta= 0.22
     Davidson diagonalization with overlap
     ethr =  1.35E-04,  avg # of iterations =  2.0

     negative rho (up, down):  3.078E-01 0.000E+00

     total cpu time spent up to now is     1006.1 secs

     total energy              =   -7568.29328839 Ry
     estimated scf accuracy    <       0.56776207 Ry

     iteration #132     ecut=    60.00 Ry     beta= 0.22
     Davidson diagonalization with overlap
     ethr =  1.35E-04,  avg # of iterations =  2.0

     negative rho (up, down):  3.039E-01 0.000E+00

     total cpu time spent up to now is     1014.4 secs

     total energy              =   -7568.29737101 Ry
     estimated scf accuracy    <       0.77010810 Ry

     iteration #133     ecut=    60.00 Ry     beta= 0.22
     Davidson diagonalization with overlap
     ethr =  1.35E-04,  avg # of iterations =  2.0

     negative rho (up, down):  3.027E-01 0.000E+00

     total cpu time spent up to now is     1022.6 secs

     total energy              =   -7568.32308722 Ry
     estimated scf accuracy    <       0.21060368 Ry

     iteration #134     ecut=    60.00 Ry     beta= 0.22
     Davidson diagonalization with overlap
     ethr =  6.02E-05,  avg # of iterations =  1.0

     negative rho (up, down):  3.009E-01 0.000E+00

     total cpu time spent up to now is     1029.9 secs

     total energy              =   -7568.33251185 Ry
     estimated scf accuracy    <       0.30070339 Ry

     iteration #135     ecut=    60.00 Ry     beta= 0.22
     Davidson diagonalization with overlap
     ethr =  6.02E-05,  avg # of iterations =  2.0

     negative rho (up, down):  3.022E-01 0.000E+00

     total cpu time spent up to now is     1038.0 secs

     total energy              =   -7568.32272419 Ry
     estimated scf accuracy    <       0.73107616 Ry

     iteration #136     ecut=    60.00 Ry     beta= 0.22
     Davidson diagonalization with overlap
     ethr =  6.02E-05,  avg # of iterations =  1.6

     negative rho (up, down):  2.878E-01 0.000E+00

     total cpu time spent up to now is     1045.8 secs

     total energy              =   -7568.31530180 Ry
     estimated scf accuracy    <       0.28109033 Ry

     iteration #137     ecut=    60.00 Ry     beta= 0.22
     Davidson diagonalization with overlap
     ethr =  6.02E-05,  avg # of iterations =  2.0

     negative rho (up, down):  2.800E-01 0.000E+00

     total cpu time spent up to now is     1054.3 secs

     total energy              =   -7568.35160946 Ry
     estimated scf accuracy    <       0.46895317 Ry

     iteration #138     ecut=    60.00 Ry     beta= 0.22
     Davidson diagonalization with overlap
     ethr =  6.02E-05,  avg # of iterations =  2.0

     negative rho (up, down):  2.909E-01 0.000E+00

     total cpu time spent up to now is     1062.4 secs

     total energy              =   -7568.30185738 Ry
     estimated scf accuracy    <       0.96718499 Ry

     iteration #139     ecut=    60.00 Ry     beta= 0.22
     Davidson diagonalization with overlap
     ethr =  6.02E-05,  avg # of iterations =  2.0

     negative rho (up, down):  2.877E-01 0.000E+00

     total cpu time spent up to now is     1070.9 secs

     total energy              =   -7568.32764216 Ry
     estimated scf accuracy    <       0.08933889 Ry

     iteration #140     ecut=    60.00 Ry     beta= 0.22
     Davidson diagonalization with overlap
     ethr =  2.55E-05,  avg # of iterations =  2.0

     negative rho (up, down):  2.976E-01 0.000E+00

     total cpu time spent up to now is     1079.3 secs

     total energy              =   -7568.31139343 Ry
     estimated scf accuracy    <       0.20420176 Ry

     iteration #141     ecut=    60.00 Ry     beta= 0.22
     Davidson diagonalization with overlap
     ethr =  2.55E-05,  avg # of iterations =  2.0

     negative rho (up, down):  3.037E-01 0.000E+00

     total cpu time spent up to now is     1087.9 secs

     total energy              =   -7568.31696290 Ry
     estimated scf accuracy    <       0.76072201 Ry

     iteration #142     ecut=    60.00 Ry     beta= 0.22
     Davidson diagonalization with overlap
     ethr =  2.55E-05,  avg # of iterations =  2.0

     negative rho (up, down):  3.146E-01 0.000E+00

     total cpu time spent up to now is     1096.4 secs

     total energy              =   -7568.30517619 Ry
     estimated scf accuracy    <       0.18071726 Ry

     iteration #143     ecut=    60.00 Ry     beta= 0.22
     Davidson diagonalization with overlap
     ethr =  2.55E-05,  avg # of iterations =  2.0

     negative rho (up, down):  3.103E-01 0.000E+00

     total cpu time spent up to now is     1105.0 secs

     total energy              =   -7568.31484971 Ry
     estimated scf accuracy    <       0.15781270 Ry

     iteration #144     ecut=    60.00 Ry     beta= 0.22
     Davidson diagonalization with overlap
     ethr =  2.55E-05,  avg # of iterations =  2.0

     negative rho (up, down):  3.095E-01 0.000E+00

     total cpu time spent up to now is     1113.1 secs

     total energy              =   -7568.31679936 Ry
     estimated scf accuracy    <       0.09792203 Ry

     iteration #145     ecut=    60.00 Ry     beta= 0.22
     Davidson diagonalization with overlap
     ethr =  2.55E-05,  avg # of iterations =  1.0

     negative rho (up, down):  3.149E-01 0.000E+00

     total cpu time spent up to now is     1120.5 secs

     total energy              =   -7568.31131720 Ry
     estimated scf accuracy    <       0.09203767 Ry

     iteration #146     ecut=    60.00 Ry     beta= 0.22
     Davidson diagonalization with overlap
     ethr =  2.55E-05,  avg # of iterations =  2.0

     negative rho (up, down):  3.133E-01 0.000E+00

     total cpu time spent up to now is     1128.8 secs

     total energy              =   -7568.31490857 Ry
     estimated scf accuracy    <       0.20017912 Ry

     iteration #147     ecut=    60.00 Ry     beta= 0.22
     Davidson diagonalization with overlap
     ethr =  2.55E-05,  avg # of iterations =  1.2

     negative rho (up, down):  3.149E-01 0.000E+00

     total cpu time spent up to now is     1136.4 secs

     total energy              =   -7568.31403995 Ry
     estimated scf accuracy    <       0.13660934 Ry

     iteration #148     ecut=    60.00 Ry     beta= 0.22
     Davidson diagonalization with overlap
     ethr =  2.55E-05,  avg # of iterations =  1.0

     negative rho (up, down):  3.139E-01 0.000E+00

     total cpu time spent up to now is     1143.7 secs

     total energy              =   -7568.31419344 Ry
     estimated scf accuracy    <       0.12926893 Ry

     iteration #149     ecut=    60.00 Ry     beta= 0.22
     Davidson diagonalization with overlap
     ethr =  2.55E-05,  avg # of iterations =  1.0

     negative rho (up, down):  3.108E-01 0.000E+00

     total cpu time spent up to now is     1151.1 secs

     total energy              =   -7568.31362117 Ry
     estimated scf accuracy    <       0.10799336 Ry

     iteration #150     ecut=    60.00 Ry     beta= 0.22
     Davidson diagonalization with overlap
     ethr =  2.55E-05,  avg # of iterations =  1.6

     negative rho (up, down):  3.116E-01 0.000E+00

     total cpu time spent up to now is     1158.9 secs

     total energy              =   -7568.31442179 Ry
     estimated scf accuracy    <       0.03417011 Ry

     iteration #151     ecut=    60.00 Ry     beta= 0.22
     Davidson diagonalization with overlap
     ethr =  9.76E-06,  avg # of iterations =  1.0

     negative rho (up, down):  3.129E-01 0.000E+00

     total cpu time spent up to now is     1166.4 secs

     total energy              =   -7568.31428668 Ry
     estimated scf accuracy    <       0.04754257 Ry

     iteration #152     ecut=    60.00 Ry     beta= 0.22
     Davidson diagonalization with overlap
     ethr =  9.76E-06,  avg # of iterations =  1.0

     negative rho (up, down):  3.146E-01 0.000E+00

     total cpu time spent up to now is     1173.7 secs

     total energy              =   -7568.31346932 Ry
     estimated scf accuracy    <       0.08281584 Ry

     iteration #153     ecut=    60.00 Ry     beta= 0.22
     Davidson diagonalization with overlap
     ethr =  9.76E-06,  avg # of iterations =  1.2

     negative rho (up, down):  3.159E-01 0.000E+00

     total cpu time spent up to now is     1181.3 secs

     total energy              =   -7568.31328030 Ry
     estimated scf accuracy    <       0.09974528 Ry

     iteration #154     ecut=    60.00 Ry     beta= 0.22
     Davidson diagonalization with overlap
     ethr =  9.76E-06,  avg # of iterations =  1.0

     negative rho (up, down):  3.159E-01 0.000E+00

     total cpu time spent up to now is     1188.7 secs

     total energy              =   -7568.31342609 Ry
     estimated scf accuracy    <       0.12720498 Ry

     iteration #155     ecut=    60.00 Ry     beta= 0.22
     Davidson diagonalization with overlap
     ethr =  9.76E-06,  avg # of iterations =  1.0

     negative rho (up, down):  3.159E-01 0.000E+00

     total cpu time spent up to now is     1196.1 secs

     total energy              =   -7568.31353905 Ry
     estimated scf accuracy    <       0.13390013 Ry

     iteration #156     ecut=    60.00 Ry     beta= 0.22
     Davidson diagonalization with overlap
     ethr =  9.76E-06,  avg # of iterations =  1.0

     negative rho (up, down):  3.156E-01 0.000E+00

     total cpu time spent up to now is     1203.5 secs

     total energy              =   -7568.31359479 Ry
     estimated scf accuracy    <       0.13991453 Ry

     iteration #157     ecut=    60.00 Ry     beta= 0.22
     Davidson diagonalization with overlap
     ethr =  9.76E-06,  avg # of iterations =  1.0

     negative rho (up, down):  3.158E-01 0.000E+00

     total cpu time spent up to now is     1210.8 secs

     total energy              =   -7568.31346905 Ry
     estimated scf accuracy    <       0.13734760 Ry

     iteration #158     ecut=    60.00 Ry     beta= 0.22
     Davidson diagonalization with overlap
     ethr =  9.76E-06,  avg # of iterations =  1.0

     negative rho (up, down):  3.163E-01 0.000E+00

     total cpu time spent up to now is     1218.1 secs

     total energy              =   -7568.31307980 Ry
     estimated scf accuracy    <       0.13701647 Ry

     iteration #159     ecut=    60.00 Ry     beta= 0.22
     Davidson diagonalization with overlap
     ethr =  9.76E-06,  avg # of iterations =  1.0

     negative rho (up, down):  3.159E-01 0.000E+00

     total cpu time spent up to now is     1225.5 secs

     total energy              =   -7568.31319737 Ry
     estimated scf accuracy    <       0.13601785 Ry

     iteration #160     ecut=    60.00 Ry     beta= 0.22
     Davidson diagonalization with overlap
     ethr =  9.76E-06,  avg # of iterations =  1.0

     negative rho (up, down):  3.157E-01 0.000E+00

     total cpu time spent up to now is     1232.8 secs

     total energy              =   -7568.31279666 Ry
     estimated scf accuracy    <       0.12895848 Ry

     iteration #161     ecut=    60.00 Ry     beta= 0.22
     Davidson diagonalization with overlap
     ethr =  9.76E-06,  avg # of iterations =  1.0

     negative rho (up, down):  3.119E-01 0.000E+00

     total cpu time spent up to now is     1240.2 secs

     total energy              =   -7568.31277702 Ry
     estimated scf accuracy    <       0.10638759 Ry

     iteration #162     ecut=    60.00 Ry     beta= 0.22
     Davidson diagonalization with overlap
     ethr =  9.76E-06,  avg # of iterations =  2.0

     negative rho (up, down):  3.130E-01 0.000E+00

     total cpu time spent up to now is     1248.3 secs

     total energy              =   -7568.31307069 Ry
     estimated scf accuracy    <       0.02022167 Ry

     iteration #163     ecut=    60.00 Ry     beta= 0.22
     Davidson diagonalization with overlap
     ethr =  5.78E-06,  avg # of iterations =  1.0

     negative rho (up, down):  3.113E-01 0.000E+00

     total cpu time spent up to now is     1255.7 secs

     total energy              =   -7568.31365942 Ry
     estimated scf accuracy    <       0.02649418 Ry

     iteration #164     ecut=    60.00 Ry     beta= 0.22
     Davidson diagonalization with overlap
     ethr =  5.78E-06,  avg # of iterations =  1.2

     negative rho (up, down):  3.117E-01 0.000E+00

     total cpu time spent up to now is     1263.2 secs

     total energy              =   -7568.31353836 Ry
     estimated scf accuracy    <       0.00730591 Ry

     iteration #165     ecut=    60.00 Ry     beta= 0.22
     Davidson diagonalization with overlap
     ethr =  2.09E-06,  avg # of iterations =  1.0

     negative rho (up, down):  3.128E-01 0.000E+00

     total cpu time spent up to now is     1270.6 secs

     total energy              =   -7568.31286908 Ry
     estimated scf accuracy    <       0.00537841 Ry

     iteration #166     ecut=    60.00 Ry     beta= 0.22
     Davidson diagonalization with overlap
     ethr =  1.54E-06,  avg # of iterations =  1.0

     negative rho (up, down):  3.127E-01 0.000E+00

     total cpu time spent up to now is     1277.9 secs

     total energy              =   -7568.31299173 Ry
     estimated scf accuracy    <       0.00594414 Ry

     iteration #167     ecut=    60.00 Ry     beta= 0.22
     Davidson diagonalization with overlap
     ethr =  1.54E-06,  avg # of iterations =  1.2

     negative rho (up, down):  3.144E-01 0.000E+00

     total cpu time spent up to now is     1285.4 secs

     total energy              =   -7568.31192617 Ry
     estimated scf accuracy    <       0.00801614 Ry

     iteration #168     ecut=    60.00 Ry     beta= 0.22
     Davidson diagonalization with overlap
     ethr =  1.54E-06,  avg # of iterations =  1.0

     negative rho (up, down):  3.150E-01 0.000E+00

     total cpu time spent up to now is     1292.8 secs

     total energy              =   -7568.31161965 Ry
     estimated scf accuracy    <       0.00901292 Ry

     iteration #169     ecut=    60.00 Ry     beta= 0.22
     Davidson diagonalization with overlap
     ethr =  1.54E-06,  avg # of iterations =  1.0

     negative rho (up, down):  3.154E-01 0.000E+00

     total cpu time spent up to now is     1300.2 secs

     total energy              =   -7568.31135925 Ry
     estimated scf accuracy    <       0.01311861 Ry

     iteration #170     ecut=    60.00 Ry     beta= 0.22
     Davidson diagonalization with overlap
     ethr =  1.54E-06,  avg # of iterations =  1.0

     negative rho (up, down):  3.165E-01 0.000E+00

     total cpu time spent up to now is     1307.5 secs

     total energy              =   -7568.31065289 Ry
     estimated scf accuracy    <       0.01027932 Ry

     iteration #171     ecut=    60.00 Ry     beta= 0.22
     Davidson diagonalization with overlap
     ethr =  1.54E-06,  avg # of iterations =  1.0

     negative rho (up, down):  3.166E-01 0.000E+00

     total cpu time spent up to now is     1314.8 secs

     total energy              =   -7568.31040101 Ry
     estimated scf accuracy    <       0.01146108 Ry

     iteration #172     ecut=    60.00 Ry     beta= 0.22
     Davidson diagonalization with overlap
     ethr =  1.54E-06,  avg # of iterations =  2.0

     negative rho (up, down):  3.192E-01 0.000E+00

     total cpu time spent up to now is     1323.0 secs

     total energy              =   -7568.30858684 Ry
     estimated scf accuracy    <       0.00415887 Ry

     iteration #173     ecut=    60.00 Ry     beta= 0.22
     Davidson diagonalization with overlap
     ethr =  1.19E-06,  avg # of iterations =  2.0

     negative rho (up, down):  3.191E-01 0.000E+00

     total cpu time spent up to now is     1331.4 secs

     total energy              =   -7568.30870234 Ry
     estimated scf accuracy    <       0.00310830 Ry

     iteration #174     ecut=    60.00 Ry     beta= 0.22
     Davidson diagonalization with overlap
     ethr =  8.88E-07,  avg # of iterations =  2.0

     negative rho (up, down):  3.174E-01 0.000E+00

     total cpu time spent up to now is     1339.6 secs

     total energy              =   -7568.30994270 Ry
     estimated scf accuracy    <       0.00016918 Ry

     iteration #175     ecut=    60.00 Ry     beta= 0.22
     Davidson diagonalization with overlap
     ethr =  4.83E-08,  avg # of iterations =  2.2

     negative rho (up, down):  3.194E-01 0.000E+00

     total cpu time spent up to now is     1348.4 secs

     total energy              =   -7568.30833400 Ry
     estimated scf accuracy    <       0.00481835 Ry

     iteration #176     ecut=    60.00 Ry     beta= 0.22
     Davidson diagonalization with overlap
     ethr =  4.83E-08,  avg # of iterations =  3.0

     negative rho (up, down):  3.201E-01 0.000E+00

     total cpu time spent up to now is     1357.5 secs

     total energy              =   -7568.30822545 Ry
     estimated scf accuracy    <       0.00447694 Ry

     iteration #177     ecut=    60.00 Ry     beta= 0.22
     Davidson diagonalization with overlap
     ethr =  4.83E-08,  avg # of iterations =  2.0

     negative rho (up, down):  3.201E-01 0.000E+00

     total cpu time spent up to now is     1366.0 secs

     total energy              =   -7568.30820635 Ry
     estimated scf accuracy    <       0.00210958 Ry

     iteration #178     ecut=    60.00 Ry     beta= 0.22
     Davidson diagonalization with overlap
     ethr =  4.83E-08,  avg # of iterations =  1.2

     negative rho (up, down):  3.205E-01 0.000E+00

     total cpu time spent up to now is     1373.5 secs

     total energy              =   -7568.30794328 Ry
     estimated scf accuracy    <       0.00156362 Ry

     iteration #179     ecut=    60.00 Ry     beta= 0.22
     Davidson diagonalization with overlap
     ethr =  4.83E-08,  avg # of iterations =  2.0

     negative rho (up, down):  3.203E-01 0.000E+00

     total cpu time spent up to now is     1382.1 secs

     total energy              =   -7568.30806360 Ry
     estimated scf accuracy    <       0.00065702 Ry

     iteration #180     ecut=    60.00 Ry     beta= 0.22
     Davidson diagonalization with overlap
     ethr =  4.83E-08,  avg # of iterations =  2.0

     negative rho (up, down):  3.202E-01 0.000E+00

     total cpu time spent up to now is     1390.3 secs

     total energy              =   -7568.30817175 Ry
     estimated scf accuracy    <       0.00026223 Ry

     iteration #181     ecut=    60.00 Ry     beta= 0.22
     Davidson diagonalization with overlap
     ethr =  4.83E-08,  avg # of iterations =  2.0

     negative rho (up, down):  3.200E-01 0.000E+00

     total cpu time spent up to now is     1398.5 secs

     total energy              =   -7568.30829249 Ry
     estimated scf accuracy    <       0.00006014 Ry

     iteration #182     ecut=    60.00 Ry     beta= 0.22
     Davidson diagonalization with overlap
     ethr =  1.72E-08,  avg # of iterations =  2.0

     negative rho (up, down):  3.197E-01 0.000E+00

     total cpu time spent up to now is     1406.8 secs

     total energy              =   -7568.30847617 Ry
     estimated scf accuracy    <       0.00009856 Ry

     iteration #183     ecut=    60.00 Ry     beta= 0.22
     Davidson diagonalization with overlap
     ethr =  1.72E-08,  avg # of iterations =  2.0

     negative rho (up, down):  3.197E-01 0.000E+00

     total cpu time spent up to now is     1415.3 secs

     total energy              =   -7568.30854465 Ry
     estimated scf accuracy    <       0.00115176 Ry

     iteration #184     ecut=    60.00 Ry     beta= 0.22
     Davidson diagonalization with overlap
     ethr =  1.72E-08,  avg # of iterations =  2.0

     negative rho (up, down):  3.197E-01 0.000E+00

     total cpu time spent up to now is     1423.6 secs

     total energy              =   -7568.30853681 Ry
     estimated scf accuracy    <       0.00183742 Ry

     iteration #185     ecut=    60.00 Ry     beta= 0.22
     Davidson diagonalization with overlap
     ethr =  1.72E-08,  avg # of iterations =  1.0

     negative rho (up, down):  3.197E-01 0.000E+00

     total cpu time spent up to now is     1430.9 secs

     total energy              =   -7568.30851295 Ry
     estimated scf accuracy    <       0.00162999 Ry

     iteration #186     ecut=    60.00 Ry     beta= 0.22
     Davidson diagonalization with overlap
     ethr =  1.72E-08,  avg # of iterations =  1.8

     negative rho (up, down):  3.198E-01 0.000E+00

     total cpu time spent up to now is     1439.0 secs

     total energy              =   -7568.30847118 Ry
     estimated scf accuracy    <       0.00118433 Ry

     iteration #187     ecut=    60.00 Ry     beta= 0.22
     Davidson diagonalization with overlap
     ethr =  1.72E-08,  avg # of iterations =  1.4

     negative rho (up, down):  3.197E-01 0.000E+00

     total cpu time spent up to now is     1446.7 secs

     total energy              =   -7568.30851278 Ry
     estimated scf accuracy    <       0.00090726 Ry

     iteration #188     ecut=    60.00 Ry     beta= 0.22
     Davidson diagonalization with overlap
     ethr =  1.72E-08,  avg # of iterations =  1.4

     negative rho (up, down):  3.198E-01 0.000E+00

     total cpu time spent up to now is     1454.3 secs

     total energy              =   -7568.30847583 Ry
     estimated scf accuracy    <       0.00122886 Ry

     iteration #189     ecut=    60.00 Ry     beta= 0.22
     Davidson diagonalization with overlap
     ethr =  1.72E-08,  avg # of iterations =  1.4

     negative rho (up, down):  3.198E-01 0.000E+00

     total cpu time spent up to now is     1462.0 secs

     total energy              =   -7568.30846273 Ry
     estimated scf accuracy    <       0.00089038 Ry

     iteration #190     ecut=    60.00 Ry     beta= 0.22
     Davidson diagonalization with overlap
     ethr =  1.72E-08,  avg # of iterations =  1.0

     negative rho (up, down):  3.198E-01 0.000E+00

     total cpu time spent up to now is     1469.4 secs

     total energy              =   -7568.30843934 Ry
     estimated scf accuracy    <       0.00091954 Ry

     iteration #191     ecut=    60.00 Ry     beta= 0.22
     Davidson diagonalization with overlap
     ethr =  1.72E-08,  avg # of iterations =  1.0

     negative rho (up, down):  3.198E-01 0.000E+00

     total cpu time spent up to now is     1476.7 secs

     total energy              =   -7568.30842298 Ry
     estimated scf accuracy    <       0.00074382 Ry

     iteration #192     ecut=    60.00 Ry     beta= 0.22
     Davidson diagonalization with overlap
     ethr =  1.72E-08,  avg # of iterations =  1.0

     negative rho (up, down):  3.198E-01 0.000E+00

     total cpu time spent up to now is     1484.1 secs

     total energy              =   -7568.30842569 Ry
     estimated scf accuracy    <       0.00066695 Ry

     iteration #193     ecut=    60.00 Ry     beta= 0.22
     Davidson diagonalization with overlap
     ethr =  1.72E-08,  avg # of iterations =  1.0

     negative rho (up, down):  3.198E-01 0.000E+00

     total cpu time spent up to now is     1491.4 secs

     total energy              =   -7568.30844315 Ry
     estimated scf accuracy    <       0.00066471 Ry

     iteration #194     ecut=    60.00 Ry     beta= 0.22
     Davidson diagonalization with overlap
     ethr =  1.72E-08,  avg # of iterations =  1.0

     negative rho (up, down):  3.198E-01 0.000E+00

     total cpu time spent up to now is     1498.8 secs

     total energy              =   -7568.30846000 Ry
     estimated scf accuracy    <       0.00083618 Ry

     iteration #195     ecut=    60.00 Ry     beta= 0.22
     Davidson diagonalization with overlap
     ethr =  1.72E-08,  avg # of iterations =  1.0

     negative rho (up, down):  3.198E-01 0.000E+00

     total cpu time spent up to now is     1506.2 secs

     total energy              =   -7568.30842633 Ry
     estimated scf accuracy    <       0.00088877 Ry

     iteration #196     ecut=    60.00 Ry     beta= 0.22
     Davidson diagonalization with overlap
     ethr =  1.72E-08,  avg # of iterations =  1.2

     negative rho (up, down):  3.198E-01 0.000E+00

     total cpu time spent up to now is     1513.8 secs

     total energy              =   -7568.30842683 Ry
     estimated scf accuracy    <       0.00068303 Ry

     iteration #197     ecut=    60.00 Ry     beta= 0.22
     Davidson diagonalization with overlap
     ethr =  1.72E-08,  avg # of iterations =  1.0

     negative rho (up, down):  3.198E-01 0.000E+00

     total cpu time spent up to now is     1521.1 secs

     total energy              =   -7568.30843107 Ry
     estimated scf accuracy    <       0.00069315 Ry

     iteration #198     ecut=    60.00 Ry     beta= 0.22
     Davidson diagonalization with overlap
     ethr =  1.72E-08,  avg # of iterations =  1.0

     negative rho (up, down):  3.199E-01 0.000E+00

     total cpu time spent up to now is     1528.5 secs

     total energy              =   -7568.30837660 Ry
     estimated scf accuracy    <       0.00074725 Ry

     iteration #199     ecut=    60.00 Ry     beta= 0.22
     Davidson diagonalization with overlap
     ethr =  1.72E-08,  avg # of iterations =  2.0

     negative rho (up, down):  3.199E-01 0.000E+00

     total cpu time spent up to now is     1536.7 secs

     total energy              =   -7568.30837581 Ry
     estimated scf accuracy    <       0.00032782 Ry

     iteration #200     ecut=    60.00 Ry     beta= 0.22
     Davidson diagonalization with overlap
     ethr =  1.72E-08,  avg # of iterations =  1.0

     negative rho (up, down):  3.199E-01 0.000E+00

     total cpu time spent up to now is     1544.1 secs

     total energy              =   -7568.30837250 Ry
     estimated scf accuracy    <       0.00038142 Ry

     iteration #201     ecut=    60.00 Ry     beta= 0.22
     Davidson diagonalization with overlap
     ethr =  1.72E-08,  avg # of iterations =  1.0

     negative rho (up, down):  3.199E-01 0.000E+00

     total cpu time spent up to now is     1551.5 secs

     total energy              =   -7568.30836386 Ry
     estimated scf accuracy    <       0.00037883 Ry

     iteration #202     ecut=    60.00 Ry     beta= 0.22
     Davidson diagonalization with overlap
     ethr =  1.72E-08,  avg # of iterations =  1.0

     negative rho (up, down):  3.199E-01 0.000E+00

     total cpu time spent up to now is     1558.9 secs

     total energy              =   -7568.30836426 Ry
     estimated scf accuracy    <       0.00034181 Ry

     iteration #203     ecut=    60.00 Ry     beta= 0.22
     Davidson diagonalization with overlap
     ethr =  1.72E-08,  avg # of iterations =  1.0

     negative rho (up, down):  3.199E-01 0.000E+00

     total cpu time spent up to now is     1566.2 secs

     total energy              =   -7568.30835081 Ry
     estimated scf accuracy    <       0.00035658 Ry

     iteration #204     ecut=    60.00 Ry     beta= 0.22
     Davidson diagonalization with overlap
     ethr =  1.72E-08,  avg # of iterations =  1.0

     negative rho (up, down):  3.199E-01 0.000E+00

     total cpu time spent up to now is     1573.7 secs

     total energy              =   -7568.30834749 Ry
     estimated scf accuracy    <       0.00027961 Ry

     iteration #205     ecut=    60.00 Ry     beta= 0.22
     Davidson diagonalization with overlap
     ethr =  1.72E-08,  avg # of iterations =  1.0

     negative rho (up, down):  3.199E-01 0.000E+00

     total cpu time spent up to now is     1581.0 secs

     total energy              =   -7568.30834582 Ry
     estimated scf accuracy    <       0.00026884 Ry

     iteration #206     ecut=    60.00 Ry     beta= 0.22
     Davidson diagonalization with overlap
     ethr =  1.72E-08,  avg # of iterations =  1.0

     negative rho (up, down):  3.199E-01 0.000E+00

     total cpu time spent up to now is     1588.4 secs

     total energy              =   -7568.30834466 Ry
     estimated scf accuracy    <       0.00023835 Ry

     iteration #207     ecut=    60.00 Ry     beta= 0.22
     Davidson diagonalization with overlap
     ethr =  1.72E-08,  avg # of iterations =  1.0

     negative rho (up, down):  3.199E-01 0.000E+00

     total cpu time spent up to now is     1595.8 secs

     total energy              =   -7568.30836013 Ry
     estimated scf accuracy    <       0.00024604 Ry

     iteration #208     ecut=    60.00 Ry     beta= 0.22
     Davidson diagonalization with overlap
     ethr =  1.72E-08,  avg # of iterations =  1.0

     negative rho (up, down):  3.200E-01 0.000E+00

     total cpu time spent up to now is     1603.2 secs

     total energy              =   -7568.30829019 Ry
     estimated scf accuracy    <       0.00035622 Ry

     iteration #209     ecut=    60.00 Ry     beta= 0.22
     Davidson diagonalization with overlap
     ethr =  1.72E-08,  avg # of iterations =  2.0

     negative rho (up, down):  3.200E-01 0.000E+00

     total cpu time spent up to now is     1611.4 secs

     total energy              =   -7568.30831501 Ry
     estimated scf accuracy    <       0.00008842 Ry

     iteration #210     ecut=    60.00 Ry     beta= 0.22
     Davidson diagonalization with overlap
     ethr =  1.72E-08,  avg # of iterations =  1.0

     negative rho (up, down):  3.200E-01 0.000E+00

     total cpu time spent up to now is     1618.8 secs

     total energy              =   -7568.30831709 Ry
     estimated scf accuracy    <       0.00016387 Ry

     iteration #211     ecut=    60.00 Ry     beta= 0.22
     Davidson diagonalization with overlap
     ethr =  1.72E-08,  avg # of iterations =  1.0

     negative rho (up, down):  3.199E-01 0.000E+00

     total cpu time spent up to now is     1626.2 secs

     total energy              =   -7568.30836743 Ry
     estimated scf accuracy    <       0.00017273 Ry

     iteration #212     ecut=    60.00 Ry     beta= 0.22
     Davidson diagonalization with overlap
     ethr =  1.72E-08,  avg # of iterations =  2.0

     negative rho (up, down):  3.200E-01 0.000E+00

     total cpu time spent up to now is     1634.4 secs

     total energy              =   -7568.30831268 Ry
     estimated scf accuracy    <       0.00046155 Ry

     iteration #213     ecut=    60.00 Ry     beta= 0.22
     Davidson diagonalization with overlap
     ethr =  1.72E-08,  avg # of iterations =  2.0

     negative rho (up, down):  3.199E-01 0.000E+00

     total cpu time spent up to now is     1642.5 secs

     total energy              =   -7568.30835020 Ry
     estimated scf accuracy    <       0.00015927 Ry

     iteration #214     ecut=    60.00 Ry     beta= 0.22
     Davidson diagonalization with overlap
     ethr =  1.72E-08,  avg # of iterations =  2.0

     negative rho (up, down):  3.199E-01 0.000E+00

     total cpu time spent up to now is     1650.7 secs

     total energy              =   -7568.30834373 Ry
     estimated scf accuracy    <       0.00035184 Ry

     iteration #215     ecut=    60.00 Ry     beta= 0.22
     Davidson diagonalization with overlap
     ethr =  1.72E-08,  avg # of iterations =  1.0

     negative rho (up, down):  3.199E-01 0.000E+00

     total cpu time spent up to now is     1658.0 secs

     total energy              =   -7568.30834394 Ry
     estimated scf accuracy    <       0.00031229 Ry

     iteration #216     ecut=    60.00 Ry     beta= 0.22
     Davidson diagonalization with overlap
     ethr =  1.72E-08,  avg # of iterations =  1.0

     negative rho (up, down):  3.200E-01 0.000E+00

     total cpu time spent up to now is     1665.4 secs

     total energy              =   -7568.30830810 Ry
     estimated scf accuracy    <       0.00031033 Ry

     iteration #217     ecut=    60.00 Ry     beta= 0.22
     Davidson diagonalization with overlap
     ethr =  1.72E-08,  avg # of iterations =  1.6

     negative rho (up, down):  3.200E-01 0.000E+00

     total cpu time spent up to now is     1673.1 secs

     total energy              =   -7568.30830321 Ry
     estimated scf accuracy    <       0.00014532 Ry

     iteration #218     ecut=    60.00 Ry     beta= 0.22
     Davidson diagonalization with overlap
     ethr =  1.72E-08,  avg # of iterations =  1.0

     negative rho (up, down):  3.201E-01 0.000E+00

     total cpu time spent up to now is     1680.5 secs

     total energy              =   -7568.30821628 Ry
     estimated scf accuracy    <       0.00013795 Ry

     iteration #219     ecut=    60.00 Ry     beta= 0.22
     Davidson diagonalization with overlap
     ethr =  1.72E-08,  avg # of iterations =  2.0

     negative rho (up, down):  3.202E-01 0.000E+00

     total cpu time spent up to now is     1688.7 secs

     End of self-consistent calculation

          k = 0.0000 0.0000 0.0000 ( 15881 PWs)   bands (ev):

   -90.1269 -90.1183 -90.0881 -90.0744 -90.0662 -90.0614 -90.0577 -90.0471
   -90.0318 -90.0193 -90.0140 -89.9977 -89.9887 -89.8161 -89.7876 -62.1993
   -62.1968 -62.1782 -62.1722 -62.1509 -62.1471 -62.1131 -62.1112 -50.7951
   -50.7767 -50.7448 -50.6655 -50.6195 -50.5790 -50.5773 -50.5605 -50.5561
   -50.5498 -50.5434 -50.5411 -50.5389 -50.4642 -50.4606 -50.4247 -50.4223
   -50.4152 -50.4131 -50.3855 -50.3829 -50.3767 -50.3727 -50.3703 -50.3669
   -50.3653 -50.3627 -50.3540 -50.3531 -50.3453 -50.3366 -50.3040 -50.3038
   -50.2989 -50.2954 -50.2889 -50.2713 -50.2676 -50.2538 -50.2404 -50.2299
   -50.2158 -50.1636 -49.9783 -49.9427 -28.9608 -28.9581 -28.9536 -28.9380
   -28.9349 -28.9319 -28.9314 -28.9285 -28.9267 -28.9226 -28.9216 -28.9080
   -28.9058 -28.9034 -28.8927 -28.8885 -28.8858 -28.8822 -28.8574 -28.8560
   -28.8550 -28.8547 -28.8543 -28.8531   4.4748   5.0494   5.4096   6.9014
     7.2885   8.4456   8.4808   8.9165   9.1645   9.3261   9.4484   9.5163
     9.5181   9.5260   9.5560   9.5674   9.5868   9.7303   9.7397   9.8143
     9.8608   9.8770   9.9220  10.0342  10.0636  10.2981  10.3172  10.3443
    10.3475  10.3808  10.4003  10.4153  10.4523  10.5216  10.6534  10.8127
    10.8731  10.8877  10.9199  10.9739  11.0352  11.0805  11.1230  11.1897
    11.4766  11.5018  11.6606  11.7498  11.7721  11.8337  11.8458  11.8758
    11.9839  12.0098  12.0548  12.1407  12.1987  12.2089  12.2255  12.2368
    12.2387  12.2392  12.2469  12.2483  12.2620  12.2901  12.3179  12.3262
    12.3359  12.3568  12.3686  12.3786  12.3862  12.5075  12.6666  12.7857
    12.8540  12.9956  13.1489  13.3209  13.3425  13.3513  13.8642  13.8848
    14.0720  14.1010  14.1278  14.1776  14.2050  14.2391  14.4803  14.5026
    14.5717  15.3994  15.5401  15.8638  15.9131  15.9363  16.2380  16.4423
    16.4949  16.9808  17.0385  17.4715  17.5478  17.6328  17.8182  17.9013
    18.0411  18.5415  18.7093  18.9251  19.1581  19.3512  19.7363  19.8256
    19.8350  20.1037

          k =-0.0002 0.3843 0.0002 ( 15986 PWs)   bands (ev):

   -90.1258 -90.1177 -90.0833 -90.0720 -90.0664 -90.0623 -90.0591 -90.0472
   -90.0313 -90.0245 -90.0178 -89.9975 -89.9887 -89.8130 -89.7912 -62.1992
   -62.1967 -62.1781 -62.1722 -62.1510 -62.1472 -62.1132 -62.1113 -50.7607
   -50.7453 -50.7032 -50.6651 -50.6320 -50.5902 -50.5858 -50.5611 -50.5536
   -50.5506 -50.5398 -50.5347 -50.5255 -50.4684 -50.4627 -50.4235 -50.4171
   -50.4157 -50.3859 -50.3834 -50.3812 -50.3796 -50.3772 -50.3730 -50.3644
   -50.3629 -50.3617 -50.3565 -50.3511 -50.3382 -50.3356 -50.3175 -50.3166
   -50.3095 -50.3085 -50.3029 -50.2887 -50.2863 -50.2798 -50.2417 -50.2308
   -50.2164 -50.1765 -49.9767 -49.9449 -28.9608 -28.9581 -28.9545 -28.9385
   -28.9356 -28.9326 -28.9321 -28.9290 -28.9265 -28.9234 -28.9210 -28.9091
   -28.9050 -28.9026 -28.8927 -28.8887 -28.8856 -28.8820 -28.8581 -28.8562
   -28.8559 -28.8538 -28.8537 -28.8520   5.4804   6.0332   6.3776   7.8045
     8.0303   8.1617   8.4549   8.6581   9.0431   9.0980   9.3222   9.4316
     9.4803   9.5018   9.6446   9.7383   9.7580   9.8027   9.8609   9.8935
     9.9252  10.1310  10.1348  10.1863  10.2183  10.2963  10.3328  10.3785
    10.4017  10.4185  10.4862  10.5322  10.5619  10.5783  10.6266  10.7369
    10.7488  10.8044  10.8387  10.9103  10.9193  10.9605  11.0120  11.0441
    11.1308  11.1528  11.1916  11.2560  11.3242  11.4023  11.4208  11.4598
    11.4764  11.5796  11.6147  11.6544  11.6996  11.7445  11.8024  11.8155
    11.8496  11.8593  11.9495  11.9724  12.0251  12.0742  12.0817  12.1051
    12.1419  12.2002  12.2386  12.2623  12.3029  12.3355  12.3557  12.3906
    12.3955  12.4165  12.5094  12.5267  12.7137  12.7322  12.8722  13.0547
    13.2134  13.6827  13.7114  13.9138  13.9869  14.0601  14.1981  14.2699
    14.3368  14.7135  15.1197  15.4420  15.8199  16.0194  16.1364  17.4034
    17.9274  18.0136  18.1103  18.9093  19.0120  19.0463  19.3480  19.3994
    19.4127  19.9472  20.3636  20.4021  20.4809  20.9936  21.1520  21.3417
    21.8885  22.1870

          k = 0.3332 0.1922-0.0000 ( 15989 PWs)   bands (ev):

   -90.1258 -90.1177 -90.0836 -90.0692 -90.0638 -90.0613 -90.0600 -90.0521
   -90.0386 -90.0195 -90.0157 -89.9977 -89.9888 -89.8163 -89.7878 -62.1992
   -62.1967 -62.1781 -62.1722 -62.1510 -62.1472 -62.1132 -62.1113 -50.7594
   -50.7423 -50.7013 -50.6663 -50.6362 -50.5942 -50.5899 -50.5607 -50.5563
   -50.5512 -50.5365 -50.5321 -50.5254 -50.4713 -50.4596 -50.4273 -50.4152
   -50.4135 -50.4121 -50.3889 -50.3845 -50.3777 -50.3697 -50.3670 -50.3622
   -50.3618 -50.3603 -50.3561 -50.3551 -50.3458 -50.3393 -50.3269 -50.3263
   -50.3170 -50.3047 -50.2995 -50.2838 -50.2783 -50.2538 -50.2408 -50.2302
   -50.2159 -50.1637 -49.9785 -49.9429 -28.9617 -28.9589 -28.9545 -28.9365
   -28.9342 -28.9329 -28.9320 -28.9278 -28.9274 -28.9225 -28.9219 -28.9090
   -28.9065 -28.9039 -28.8921 -28.8878 -28.8858 -28.8824 -28.8586 -28.8564
   -28.8553 -28.8538 -28.8535 -28.8520   5.4788   6.0353   6.3443   7.7113
     8.0299   8.1791   8.4670   8.7285   9.0490   9.1002   9.2965   9.3047
     9.4614   9.5771   9.5954   9.6241   9.7329   9.7875   9.8567   9.8675
     9.9096  10.0971  10.1621  10.1799  10.1943  10.2653  10.3076  10.3295
    10.3712  10.4286  10.4333  10.4986  10.5538  10.5795  10.6031  10.6659
    10.7087  10.7927  10.8293  10.8787  11.0019  11.0163  11.0242  11.0685
    11.1124  11.1161  11.1308  11.2304  11.3629  11.4128  11.4609  11.4995
    11.5395  11.6295  11.6578  11.7417  11.7622  11.8179  11.8225  11.8287
    11.9021  11.9263  11.9920  12.0298  12.0725  12.0871  12.1335  12.1999
    12.2457  12.2609  12.2854  12.3064  12.3130  12.3397  12.3599  12.4094
    12.4431  12.5307  12.5824  12.6146  12.6841  12.7621  12.8426  13.1829
    13.2033  13.5583  13.5991  13.7410  14.0404  14.0508  14.1813  14.2389
    14.3901  14.4846  14.5678  15.2049  15.7674  16.3178  16.3780  17.5972
    17.8181  18.0922  18.2569  18.8288  18.9309  19.1987  19.2077  19.2284
    19.3683  19.8609  20.3247  20.4376  20.4598  21.0877  21.1686  21.3948
    21.8925  22.2447

          k = 0.3330 0.5765 0.0002 ( 15995 PWs)   bands (ev):

   -90.1253 -90.1174 -90.0776 -90.0725 -90.0663 -90.0595 -90.0585 -90.0536
   -90.0365 -90.0233 -90.0172 -89.9975 -89.9886 -89.8130 -89.7913 -62.1992
   -62.1967 -62.1781 -62.1721 -62.1511 -62.1473 -62.1132 -62.1114 -50.7347
   -50.7210 -50.6673 -50.6663 -50.6328 -50.6288 -50.6019 -50.5661 -50.5552
   -50.5515 -50.5317 -50.5272 -50.5145 -50.4688 -50.4649 -50.4260 -50.4172
   -50.4103 -50.3937 -50.3862 -50.3825 -50.3760 -50.3709 -50.3701 -50.3684
   -50.3667 -50.3538 -50.3465 -50.3444 -50.3414 -50.3362 -50.3345 -50.3189
   -50.3159 -50.3111 -50.3079 -50.3032 -50.3015 -50.2800 -50.2419 -50.2309
   -50.2164 -50.1765 -49.9767 -49.9449 -28.9614 -28.9586 -28.9549 -28.9374
   -28.9348 -28.9330 -28.9329 -28.9297 -28.9259 -28.9242 -28.9202 -28.9097
   -28.9053 -28.9028 -28.8928 -28.8886 -28.8851 -28.8817 -28.8588 -28.8568
   -28.8551 -28.8535 -28.8530 -28.8518   7.0199   7.3366   7.5685   7.6088
     7.6911   8.0347   8.1563   8.1816   8.3947   9.0242   9.0771   9.1390
     9.1733   9.2150   9.5532   9.6365   9.8863   9.9277   9.9386   9.9864
    10.0290  10.1046  10.2350  10.2575  10.2741  10.2960  10.3821  10.3906
    10.4628  10.4855  10.4909  10.5339  10.5379  10.5509  10.5751  10.5844
    10.6488  10.6959  10.7294  10.7366  10.7776  10.7828  10.8562  10.9611
    11.0001  11.0192  11.0646  11.1408  11.2748  11.2788  11.3224  11.3608
    11.3784  11.3929  11.4620  11.5555  11.5812  11.6711  11.6801  11.7534
    11.7664  11.8150  11.8800  11.8917  11.9027  11.9479  11.9647  11.9680
    12.0113  12.0283  12.0689  12.0829  12.1159  12.1813  12.2612  12.3535
    12.3831  12.4216  12.5117  12.5248  12.5488  12.6033  12.7167  12.7693
    12.7967  12.8817  13.0439  13.1690  13.3162  13.3748  14.7483  14.7735
    14.8158  14.9160  15.3199  15.7608  17.4814  17.6486  17.7943  17.8924
    18.0145  18.6378  18.6607  18.6670  18.7642  18.8576  19.1507  19.4146
    19.6582  19.7274  19.7489  20.4885  20.5828  20.9934  21.0137  21.1292
    21.8153  23.0127

          k = 0.3334-0.1921-0.0002 ( 15980 PWs)   bands (ev):

   -90.1258 -90.1177 -90.0826 -90.0688 -90.0674 -90.0621 -90.0581 -90.0534
   -90.0317 -90.0243 -90.0153 -89.9977 -89.9887 -89.8129 -89.7912 -62.1992
   -62.1967 -62.1781 -62.1722 -62.1510 -62.1472 -62.1132 -62.1113 -50.7598
   -50.7440 -50.7019 -50.6653 -50.6324 -50.5890 -50.5882 -50.5616 -50.5550
   -50.5493 -50.5390 -50.5352 -50.5254 -50.4695 -50.4618 -50.4239 -50.4171
   -50.4152 -50.3870 -50.3813 -50.3798 -50.3792 -50.3753 -50.3717 -50.3660
   -50.3644 -50.3630 -50.3573 -50.3508 -50.3386 -50.3372 -50.3217 -50.3167
   -50.3156 -50.3085 -50.3017 -50.2869 -50.2801 -50.2790 -50.2416 -50.2308
   -50.2164 -50.1765 -49.9767 -49.9448 -28.9610 -28.9581 -28.9544 -28.9382
   -28.9356 -28.9326 -28.9321 -28.9292 -28.9262 -28.9233 -28.9211 -28.9090
   -28.9051 -28.9026 -28.8934 -28.8890 -28.8851 -28.8817 -28.8580 -28.8561
   -28.8558 -28.8542 -28.8537 -28.8519   5.4835   6.0360   6.3802   7.8063
     8.0328   8.1693   8.4617   8.6609   9.0464   9.0996   9.3256   9.4335
     9.4832   9.5041   9.6464   9.7336   9.7537   9.7992   9.8625   9.8958
     9.9224  10.1219  10.1375  10.1829  10.2207  10.3011  10.3295  10.3754
    10.4083  10.4176  10.4927  10.5278  10.5601  10.5872  10.6208  10.7373
    10.7566  10.8045  10.8257  10.9101  10.9216  10.9553  11.0151  11.0385
    11.1310  11.1598  11.1940  11.2510  11.3190  11.4074  11.4179  11.4588
    11.4688  11.5767  11.6173  11.6502  11.6954  11.7441  11.7989  11.8210
    11.8442  11.8675  11.9491  11.9720  12.0282  12.0674  12.0773  12.0991
    12.1465  12.2106  12.2370  12.2603  12.3010  12.3341  12.3572  12.3912
    12.4023  12.4206  12.5077  12.5325  12.7172  12.7404  12.8618  13.0559
    13.2081  13.6777  13.7208  13.9090  13.9765  14.0443  14.1899  14.2594
    14.3250  14.7037  15.1119  15.4544  15.8252  16.0107  16.1272  17.3889
    17.9073  18.0118  18.1097  18.9013  19.0029  19.0351  19.3380  19.3870
    19.4226  19.9581  20.3692  20.3941  20.4745  21.0021  21.1581  21.3581
    21.8932  22.1854

     the Fermi energy is    12.9432 ev

!    total energy              =   -7568.30816830 Ry
     total all-electron energy =    -48828.951931 Ry
     estimated scf accuracy    <       0.00000010 Ry
     smearing contrib. (-TS)   =       0.24207089 Ry
     internal energy E=F+TS    =   -7568.55023919 Ry

     The total energy is F=E-TS. E is the sum of the following terms:
     one-electron contribution =   -4493.34443866 Ry
     hartree contribution      =    2395.28334132 Ry
     xc contribution           =    -658.43884317 Ry
     ewald contribution        =   -3324.95124466 Ry
     one-center paw contrib.   =   -1487.09905401 Ry

     convergence has been achieved in 219 iterations

     negative rho (up, down):  3.202E-01 0.000E+00

     Forces acting on atoms (cartesian axes, Ry/au):

     atom    1 type  1   force =     0.00503642    0.01579222    0.00014675
     atom    2 type  1   force =     0.00338616    0.01512299    0.00735875
     atom    3 type  1   force =     0.00383942    0.01391701   -0.00619817
     atom    4 type  1   force =     0.00303280    0.01494120   -0.00230022
     atom    5 type  1   force =     0.00117955    0.01387426    0.00134788
     atom    6 type  1   force =    -0.00092297    0.01405335    0.00649600
     atom    7 type  1   force =    -0.00128333    0.01449591   -0.00771002
     atom    8 type  1   force =    -0.00056699    0.01440709    0.00278386
     atom    9 type  2   force =    -0.00715680    0.01401598   -0.01299267
     atom   10 type  2   force =     0.00485188    0.01382232    0.00535979
     atom   11 type  2   force =     0.00309539    0.01892727   -0.00809282
     atom   12 type  2   force =    -0.00590722    0.01346989    0.01537572
     atom   13 type  2   force =    -0.08840327   -0.26240662   -0.08045200
     atom   14 type  2   force =     0.01999434    0.00730820    0.00268787
     atom   15 type  2   force =     0.00229775    0.03603809   -0.00138395
     atom   16 type  2   force =    -0.00881335    0.03736109    0.00041149
     atom   17 type  2   force =    -0.01559760    0.00353946    0.00166671
     atom   18 type  2   force =     0.00101374    0.01548572    0.00116175
     atom   19 type  2   force =     0.06370104   -0.07699136    0.07731497
     atom   20 type  2   force =     0.00585532    0.01399251    0.00219242
     atom   21 type  2   force =     0.00555156    0.01561877   -0.00112763
     atom   22 type  2   force =     0.00275199    0.01435921   -0.00033855
     atom   23 type  2   force =     0.00306416    0.01885542   -0.00370794
     The non-local contrib.  to forces
     atom    1 type  1   force =    -0.02110568   -0.02389503    0.00173260
     atom    2 type  1   force =     0.00195681    0.00003963    0.02877399
     atom    3 type  1   force =     0.00554998   -0.01052160   -0.02883984
     atom    4 type  1   force =    -0.03299582   -0.01756387   -0.00338368
     atom    5 type  1   force =    -0.00211696   -0.00722388    0.00764758
     atom    6 type  1   force =     0.01410932    0.00710860    0.02470927
     atom    7 type  1   force =     0.01110192    0.01188821   -0.02760188
     atom    8 type  1   force =    -0.00929337   -0.00122242    0.00708034
     atom    9 type  2   force =     0.13163400    0.07889505    0.00186511
     atom   10 type  2   force =    -0.02150342    0.01867238   -0.00031768
     atom   11 type  2   force =    -0.02337624   -0.03531346   -0.00340895
     atom   12 type  2   force =     0.12664702    0.01355180    0.05826528
     atom   13 type  2   force =     0.47514318   -4.15082925    3.55898130
     atom   14 type  2   force =     0.05906457   -0.07110157   -0.00510982
     atom   15 type  2   force =     0.00736552    0.07604869    0.00889484
     atom   16 type  2   force =    -0.11240410   -0.06533276   -0.00257929
     atom   17 type  2   force =    -0.06961306   -0.01471160    0.00312565
     atom   18 type  2   force =    -0.00617330   -0.00888546   -0.02493106
     atom   19 type  2   force =    -1.49669658    2.61099505   -0.55248439
     atom   20 type  2   force =    -0.04772051    0.03636384    0.02988310
     atom   21 type  2   force =    -0.01411969   -0.00494354   -0.01383303
     atom   22 type  2   force =    -0.04280282   -0.00183373   -0.02468481
     atom   23 type  2   force =    -0.02146952   -0.01745138    0.04109859
     The ionic contribution  to forces
     atom    1 type  1   force =    -1.99309909   -1.70070742  -23.23552094
     atom    2 type  1   force =     0.15592365    0.05804439   10.11808486
     atom    3 type  1   force =     0.25832987   -0.33354522  -10.08215395
     atom    4 type  1   force =    -2.41149248   -1.24167377   23.29712877
     atom    5 type  1   force =    -0.05997139   -0.15793547   -6.11401052
     atom    6 type  1   force =    -0.08193752   -0.00316596   19.84575502
     atom    7 type  1   force =    -0.08416695    0.08460378  -20.11164535
     atom    8 type  1   force =    -0.35197835   -0.01025588    6.57134712
     atom    9 type  2   force =     8.87962170    5.37225755  -43.89485340
     atom   10 type  2   force =     0.18989442   -0.01545425   16.66451371
     atom   11 type  2   force =    -0.14270665    0.21478115  -16.79751234
     atom   12 type  2   force =     8.96063425    5.21477727   44.24961064
     atom   13 type  2   force =     0.30502910  -16.96827017   -0.82795659
     atom   14 type  2   force =    13.80265376   -7.98761884    0.39850469
     atom   15 type  2   force =     0.40923741   16.10026796    0.12328794
     atom   16 type  2   force =   -14.31538670    8.71213415    0.01728295
     atom   17 type  2   force =   -14.03036405   -8.00253490    0.53681408
     atom   18 type  2   force =     0.17227116   -0.25497676  -29.71731034
     atom   19 type  2   force =     0.03994688    0.63000674   29.32457359
     atom   20 type  2   force =     0.41205715   -0.35650867   29.19103410
     atom   21 type  2   force =     0.45848429    0.43082670  -29.33910997
     atom   22 type  2   force =    -0.36986542   -0.24948711   28.66399005
     atom   23 type  2   force =    -0.20311504    0.46443473  -28.88185413
     The local contribution  to forces
     atom    1 type  1   force =     2.01719444    1.72500109   23.23339873
     atom    2 type  1   force =    -0.15648237   -0.05828612  -10.13950643
     atom    3 type  1   force =    -0.26201638    0.34261293   10.10406309
     atom    4 type  1   force =     2.44542383    1.25876972  -23.29647479
     atom    5 type  1   force =     0.06123952    0.16366656    6.10720118
     atom    6 type  1   force =     0.06494034   -0.00519842  -19.86426964
     atom    7 type  1   force =     0.06982374   -0.09730218   20.13088595
     atom    8 type  1   force =     0.35865102    0.01054588   -6.57582909
     atom    9 type  2   force =    -9.01682987   -5.45018313   43.88538330
     atom   10 type  2   force =    -0.16660912   -0.00374561  -16.65495475
     atom   11 type  2   force =     0.16593819   -0.17779694   16.78829620
     atom   12 type  2   force =    -9.09207855   -5.23136851  -44.29602292
     atom   13 type  2   force =    -0.84417891   20.66819990   -2.64510297
     atom   14 type  2   force =   -13.84298127    8.04822982   -0.39131690
     atom   15 type  2   force =    -0.41608654  -16.15445894   -0.13344437
     atom   16 type  2   force =    14.41749862   -8.63041638   -0.01523492
     atom   17 type  2   force =    14.08115211    8.00619774   -0.53862893
     atom   18 type  2   force =    -0.16743686    0.26347548   29.74173109
     atom   19 type  2   force =     1.41315387   -3.14795899  -28.73882589
     atom   20 type  2   force =    -0.36238746    0.32093184  -29.21750508
     atom   21 type  2   force =    -0.44147804   -0.42573555   29.35026973
     atom   22 type  2   force =     0.41096396    0.24981542  -28.64302318
     atom   23 type  2   force =     0.22413677   -0.44456835   28.84003444
     The core correction contribution to forces
     atom    1 type  1   force =     0.00004434    0.00006788   -0.00006297
     atom    2 type  1   force =    -0.00001215    0.00000026   -0.00015736
     atom    3 type  1   force =    -0.00002777    0.00004285    0.00015576
     atom    4 type  1   force =     0.00009950    0.00005277    0.00008959
     atom    5 type  1   force =     0.00001275    0.00003604   -0.00002989
     atom    6 type  1   force =    -0.00003373   -0.00002279   -0.00006327
     atom    7 type  1   force =    -0.00002656   -0.00003424    0.00008568
     atom    8 type  1   force =     0.00004595    0.00000922   -0.00003706
     atom    9 type  2   force =    -0.00361967   -0.00229018   -0.00609889
     atom   10 type  2   force =     0.00105888   -0.00102075   -0.00378413
     atom   11 type  2   force =     0.00129761    0.00190830    0.00382314
     atom   12 type  2   force =    -0.00319879    0.00119709    0.00320969
     atom   13 type  2   force =    -0.02620242    0.17331295   -0.16650050
     atom   14 type  2   force =    -0.00074298    0.00245862    0.00021023
     atom   15 type  2   force =    -0.00025484   -0.00112467   -0.00054086
     atom   16 type  2   force =    -0.00056749    0.00562637    0.00049576
     atom   17 type  2   force =     0.00117640   -0.00075077   -0.00006643
     atom   18 type  2   force =     0.00033285    0.00052994    0.00095356
     atom   19 type  2   force =     0.10521764   -0.18535997    0.04399841
     atom   20 type  2   force =     0.00189464   -0.00215090   -0.00125777
     atom   21 type  2   force =     0.00063576    0.00013818    0.00078684
     atom   22 type  2   force =     0.00249875    0.00052014    0.00337557
     atom   23 type  2   force =     0.00152020    0.00109992   -0.00373864
     The Hubbard contrib.    to forces
     atom    1 type  1   force =     0.00000000    0.00000000    0.00000000
     atom    2 type  1   force =     0.00000000    0.00000000    0.00000000
     atom    3 type  1   force =     0.00000000    0.00000000    0.00000000
     atom    4 type  1   force =     0.00000000    0.00000000    0.00000000
     atom    5 type  1   force =     0.00000000    0.00000000    0.00000000
     atom    6 type  1   force =     0.00000000    0.00000000    0.00000000
     atom    7 type  1   force =     0.00000000    0.00000000    0.00000000
     atom    8 type  1   force =     0.00000000    0.00000000    0.00000000
     atom    9 type  2   force =     0.00000000    0.00000000    0.00000000
     atom   10 type  2   force =     0.00000000    0.00000000    0.00000000
     atom   11 type  2   force =     0.00000000    0.00000000    0.00000000
     atom   12 type  2   force =     0.00000000    0.00000000    0.00000000
     atom   13 type  2   force =     0.00000000    0.00000000    0.00000000
     atom   14 type  2   force =     0.00000000    0.00000000    0.00000000
     atom   15 type  2   force =     0.00000000    0.00000000    0.00000000
     atom   16 type  2   force =     0.00000000    0.00000000    0.00000000
     atom   17 type  2   force =     0.00000000    0.00000000    0.00000000
     atom   18 type  2   force =     0.00000000    0.00000000    0.00000000
     atom   19 type  2   force =     0.00000000    0.00000000    0.00000000
     atom   20 type  2   force =     0.00000000    0.00000000    0.00000000
     atom   21 type  2   force =     0.00000000    0.00000000    0.00000000
     atom   22 type  2   force =     0.00000000    0.00000000    0.00000000
     atom   23 type  2   force =     0.00000000    0.00000000    0.00000000
     The SCF correction term to forces
     atom    1 type  1   force =    -0.00000584   -0.00001087    0.00018484
     atom    2 type  1   force =    -0.00000804   -0.00001174   -0.00025079
     atom    3 type  1   force =    -0.00000454   -0.00000850    0.00016229
     atom    4 type  1   force =    -0.00001049    0.00001979   -0.00007459
     atom    5 type  1   force =     0.00000737   -0.00000556    0.00012505
     atom    6 type  1   force =    -0.00000965   -0.00000465   -0.00004986
     atom    7 type  1   force =    -0.00002373    0.00000377    0.00015110
     atom    8 type  1   force =    -0.00000048   -0.00000628   -0.00019191
     atom    9 type  2   force =     0.00002879    0.00000012    0.00029674
     atom   10 type  2   force =     0.00000286    0.00003397   -0.00051184
     atom   11 type  2   force =    -0.00006578    0.00001165    0.00029464
     atom   12 type  2   force =     0.00008060   -0.00002432   -0.00010145
     atom   13 type  2   force =    -0.00020248   -0.00015663   -0.00028772
     atom   14 type  2   force =    -0.00000799    0.00000360   -0.00001482
     atom   15 type  2   force =     0.00002796   -0.00003152    0.00000403
     atom   16 type  2   force =     0.00003806    0.00001314    0.00003250
     atom   17 type  2   force =     0.00004274    0.00000243    0.00000786
     atom   18 type  2   force =     0.00001164    0.00000596    0.00030401
     atom   19 type  2   force =     0.00007097   -0.00001076   -0.00036123
     atom   20 type  2   force =     0.00000323    0.00001983   -0.00037640
     atom   21 type  2   force =     0.00002099   -0.00000358    0.00034431
     atom   22 type  2   force =    -0.00005072    0.00000792   -0.00041065
     atom   23 type  2   force =    -0.00001650    0.00000394    0.00033733

     Total force =     0.327834     Total SCF correction =     0.001264


     Computing stress (Cartesian axis) and pressure


     negative rho (up, down):  3.202E-01 0.000E+00
          total   stress  (Ry/bohr**3)                   (kbar)     P=       10.10
   0.00006347  -0.00003994   0.00000037            9.34       -5.88        0.05
  -0.00003994   0.00001277   0.00002357           -5.88        1.88        3.47
   0.00000037   0.00002357   0.00012965            0.05        3.47       19.07


     Writing all to output data dir ./C36/out_logs/C36_out_124/laves_C36.save/
 
     init_run     :      6.35s CPU      6.52s WALL (       1 calls)
     electrons    :   1682.71s CPU   1681.95s WALL (       1 calls)
     forces       :      1.92s CPU      1.92s WALL (       1 calls)
     stress       :      8.54s CPU      8.53s WALL (       1 calls)

     Called by init_run:
     wfcinit      :      1.89s CPU      1.97s WALL (       1 calls)
                                        1.97s GPU  (       1 calls)
     potinit      :      3.39s CPU      3.42s WALL (       1 calls)
     hinit0       :      0.90s CPU      0.92s WALL (       1 calls)

     Called by electrons:
     c_bands      :    986.88s CPU    986.62s WALL (     219 calls)
     sum_band     :    160.17s CPU    160.13s WALL (     219 calls)
     v_of_rho     :      5.95s CPU      5.97s WALL (     220 calls)
     newd         :     18.90s CPU     18.91s WALL (     220 calls)
                                       18.91s GPU  (     220 calls)
     PAW_pot      :    488.11s CPU    487.64s WALL (     220 calls)
     mix_rho      :     19.30s CPU     19.31s WALL (     219 calls)

     Called by c_bands:
     init_us_2    :      2.59s CPU      2.59s WALL (    2205 calls)
     init_us_2:gp :      2.56s CPU      2.57s WALL (    2205 calls)
     cegterg      :    945.73s CPU    945.47s WALL (    1095 calls)

     Called by *egterg:
     cdiaghg      :     64.93s CPU     65.38s WALL (    2573 calls)
                                       65.11s GPU  (    2573 calls)
     h_psi        :    451.71s CPU    451.80s WALL (    2578 calls)
                                      451.29s GPU  (    2578 calls)
     s_psi        :      1.96s CPU     84.12s WALL (    2578 calls)
                                       83.48s GPU  (    2578 calls)
     g_psi        :      0.01s CPU      1.64s WALL (    1478 calls)
                                        1.33s GPU  (    1478 calls)

     Called by h_psi:
     h_psi:calbec :      0.17s CPU    100.61s WALL (    2578 calls)
                                      100.58s GPU  (    2578 calls)
     vloc_psi     :    263.66s CPU    263.72s WALL (    2578 calls)
                                      263.59s GPU  (    2578 calls)
     add_vuspsi   :      3.36s CPU     85.35s WALL (    2578 calls)
                                       84.76s GPU  (    2578 calls)

     General routines
     calbec       :      0.19s CPU      0.21s WALL (    3698 calls)
     fft          :      2.99s CPU      4.36s WALL (    2883 calls)
                                        1.36s GPU  (    2663 calls)
     ffts         :      0.69s CPU      0.74s WALL (     439 calls)
                                        0.06s GPU  (     219 calls)
     fftw         :      0.64s CPU    267.80s WALL (   78188 calls)
                                      264.01s GPU  (   78188 calls)
     interpolate  :      4.19s CPU      4.19s WALL (     220 calls)
 
     Parallel routines
 
     PWSCF        :  28m19.86s CPU  28m19.37s WALL

 
   This run was terminated on:  17: 0: 0   8Apr2026            

=------------------------------------------------------------------------------=
   JOB DONE.
=------------------------------------------------------------------------------=
