
     Program PWSCF v.7.2 starts on 10Apr2026 at  3:17:16 

     This program is part of the open-source Quantum ESPRESSO suite
     for quantum simulation of materials; please cite
         "P. Giannozzi et al., J. Phys.:Condens. Matter 21 395502 (2009);
         "P. Giannozzi et al., J. Phys.:Condens. Matter 29 465901 (2017);
         "P. Giannozzi et al., J. Chem. Phys. 152 154105 (2020);
          URL http://www.quantum-espresso.org", 
     in publications or presentations arising from this work. More details at
     http://www.quantum-espresso.org/quote

     Parallel version (MPI), running on     1 processors

     MPI processes distributed on     1 nodes
     2088 MiB available memory on the printing compute node when the environment starts
 
     Reading input from C36/in/laves_211_0_scf.in
Warning: card &CELL ignored
Warning: card / ignored

     Current dimensions of program PWSCF are:
     Max number of different atomic species (ntypx) = 10
     Max number of k-points (npk) =  40000
     Max angular momentum in pseudopotentials (lmaxx) =  4
     file Mg.pbe-spnl-kjpaw_psl.1.0.0.UPF: wavefunction(s)  2P renormalized
     file Ni.pbe-spn-kjpaw_psl.1.0.0.UPF: wavefunction(s)  3P 3D renormalized
 
     Subspace diagonalization in iterative solution of the eigenvalue problem:
     a serial algorithm will be used

 
     G-vector sticks info
     --------------------
     sticks:   dense  smooth     PW     G-vecs:    dense   smooth      PW
     Sum        2649    1325    367               360477   127351   18989
 
     Using Slab Decomposition
 

     Title: 
     C36_MgNi2                                                                  


     bravais-lattice index     =            0
     lattice parameter (alat)  =       8.9558  a.u.
     unit-cell volume          =    2030.1026 (a.u.)^3
     number of atoms/cell      =           24
     number of atomic types    =            2
     number of electrons       =       368.00
     number of Kohn-Sham states=          221
     kinetic-energy cutoff     =      60.0000  Ry
     charge density cutoff     =     480.0000  Ry
     scf convergence threshold =      1.0E-05
     mixing beta               =       0.2200
     number of iterations used =           22  plain     mixing
     Exchange-correlation= SLA  PW   PBX  PBC
                           (   1   4   3   4   0   0   0)

     GPU acceleration is ACTIVE.


     celldm(1)=   8.955810  celldm(2)=   0.000000  celldm(3)=   0.000000
     celldm(4)=   0.000000  celldm(5)=   0.000000  celldm(6)=   0.000000

     crystal axes: (cart. coord. in units of alat)
               a(1) = (   0.999999  -0.000410   0.000956 )  
               a(2) = (  -0.498494   0.863218   0.000177 )  
               a(3) = (  -0.000686   0.003030   3.274811 )  

     reciprocal axes: (cart. coord. in units 2 pi/alat)
               b(1) = (  1.000238  0.577621 -0.000325 )  
               b(2) = (  0.000476  1.158731 -0.001072 )  
               b(3) = ( -0.000292 -0.000231  0.305361 )  


     PseudoPot. # 1 for Mg read from file:
     ./pseudo/Mg.pbe-spnl-kjpaw_psl.1.0.0.UPF
     MD5 check sum: fda14e0d92a6a9a5ebed782e5a4b3067
     Pseudo is Projector augmented-wave + core cor, Zval = 10.0
     Generated using &quot;atomic&quot; code by A. Dal Corso  v.6.3
     Shape of augmentation charge: PSQ
     Using radial grid of 1129 points,  4 beta functions with: 
                l(1) =   0
                l(2) =   0
                l(3) =   1
                l(4) =   1
     Q(r) pseudized with 0 coefficients 


     PseudoPot. # 2 for Ni read from file:
     ./pseudo/Ni.pbe-spn-kjpaw_psl.1.0.0.UPF
     MD5 check sum: 6e86b733589c3ad8389697b807d86aa7
     Pseudo is Projector augmented-wave + core cor, Zval = 18.0
     Generated using &quot;atomic&quot; code by A. Dal Corso  v.6.3
     Shape of augmentation charge: PSQ
     Using radial grid of 1195 points,  6 beta functions with: 
                l(1) =   0
                l(2) =   0
                l(3) =   1
                l(4) =   1
                l(5) =   2
                l(6) =   2
     Q(r) pseudized with 0 coefficients 


     atomic species   valence    mass     pseudopotential
        Mg            10.00    24.30500     Mg( 1.00)
        Ni            18.00    58.69340     Ni( 1.00)

     No symmetry found



   Cartesian axes

     site n.     atom                  positions (alat units)
         1           Mg  tau(   1) = (  -0.0001976   0.0018294   1.3299046  )
         2           Mg  tau(   2) = (   0.0005598   0.0035902   2.9667024  )
         3           Mg  tau(   3) = (   0.9982534   0.0014432   1.9463008  )
         4           Mg  tau(   4) = (   0.5010940   0.8624391   0.3085585  )
         5           Mg  tau(   5) = (  -0.0003051   0.5764453   2.1483184  )
         6           Mg  tau(   6) = (   0.5006585   0.2897207   0.5119550  )
         7           Mg  tau(   7) = (   0.5020510   0.2879026   1.1265908  )
         8           Mg  tau(   8) = (   0.0005740   0.5761846   2.7661643  )
         9           Ni  tau(   9) = (  -0.0000765   0.5765371   1.2299213  )
        10           Ni  tau(  10) = (   0.4999046   0.2917108   2.8650898  )
        11           Ni  tau(  11) = (   0.5008099   0.2884841   2.0484130  )
        12           Ni  tau(  12) = (   0.0012449   0.5757264   0.4093169  )
        13           Ni  tau(  13) = (   0.0002971   0.2882505   0.8180761  )
        14           Ni  tau(  14) = (   0.7481576   0.1459010   2.4562815  )
        15           Ni  tau(  15) = (   0.5017185   0.5783752   2.4583121  )
        16           Ni  tau(  16) = (  -0.2496012   0.7201995   0.8189044  )
        17           Ni  tau(  17) = (   0.2498970   0.7193968   0.8194961  )
        18           Ni  tau(  18) = (   0.2492053   0.1461697   2.4571243  )
        19           Ni  tau(  19) = (   0.0020731   0.8634775   1.6393478  )
        20           Ni  tau(  20) = (   0.2515392   0.4310308   0.0015069  )
        21           Ni  tau(  21) = (   0.4996347   0.0004291   0.0010611  )
        22           Ni  tau(  22) = (   0.2512674   0.4325369   1.6395446  )
        23           Ni  tau(  23) = (  -0.2485545   0.4350692   3.2742039  )
        24           Ni  tau(  24) = (  -0.2494267   0.4333923   1.6366496  )

     number of k points=     5  Marzari-Vanderbilt smearing, width (Ry)=  0.0500
                       cart. coord. in units 2pi/alat
        k(    1) = (   0.0000000   0.0000000   0.0000000), wk =   0.2222222
        k(    2) = (   0.0001587   0.3862438  -0.0003573), wk =   0.4444444
        k(    3) = (   0.3334126   0.1925404  -0.0001083), wk =   0.4444444
        k(    4) = (   0.3335713   0.5787842  -0.0004656), wk =   0.4444444
        k(    5) = (   0.3332539  -0.1937034   0.0002491), wk =   0.4444444

     Dense  grid:   360477 G-vectors     FFT dimensions: (  64,  64, 216)

     Smooth grid:   127351 G-vectors     FFT dimensions: (  45,  45, 150)

     Estimated max dynamical RAM per process >       2.02 GB

     Check: negative core charge=   -0.000009

     Initial potential from superposition of free atoms

     starting charge     367.9886, renormalised to     368.0000
     Starting wfcs are  200 randomized atomic wfcs +   21 random wfcs
     Checking if some PAW data can be deallocated... 

     total cpu time spent up to now is        6.4 secs

     Self-consistent Calculation

     iteration #  1     ecut=    60.00 Ry     beta= 0.22
     Davidson diagonalization with overlap
     ethr =  1.00E-02,  avg # of iterations =  5.2

     negative rho (up, down):  1.832E-02 0.000E+00

     total cpu time spent up to now is       16.2 secs

     total energy              =   -7998.37980873 Ry
     estimated scf accuracy    <      67.47326042 Ry

     iteration #  2     ecut=    60.00 Ry     beta= 0.22
     Davidson diagonalization with overlap
     ethr =  1.00E-02,  avg # of iterations =  2.0

     negative rho (up, down):  3.735E-04 0.000E+00

     total cpu time spent up to now is       23.6 secs

     total energy              =   -7997.71542854 Ry
     estimated scf accuracy    <     120.07653899 Ry

     iteration #  3     ecut=    60.00 Ry     beta= 0.22
     Davidson diagonalization with overlap
     ethr =  1.00E-02,  avg # of iterations =  2.0

     negative rho (up, down):  1.898E-04 0.000E+00

     total cpu time spent up to now is       31.1 secs

     total energy              =   -7987.63736947 Ry
     estimated scf accuracy    <      84.80793277 Ry

     iteration #  4     ecut=    60.00 Ry     beta= 0.22
     Davidson diagonalization with overlap
     ethr =  1.00E-02,  avg # of iterations =  4.0

     negative rho (up, down):  1.069E-02 0.000E+00

     total cpu time spent up to now is       39.7 secs

     total energy              =   -7976.48038066 Ry
     estimated scf accuracy    <    1237.07681031 Ry

     iteration #  5     ecut=    60.00 Ry     beta= 0.22
     Davidson diagonalization with overlap
     ethr =  1.00E-02,  avg # of iterations =  3.0

     negative rho (up, down):  2.841E-02 0.000E+00

     total cpu time spent up to now is       47.8 secs

     total energy              =   -7995.20895612 Ry
     estimated scf accuracy    <     193.79084812 Ry

     iteration #  6     ecut=    60.00 Ry     beta= 0.22
     Davidson diagonalization with overlap
     ethr =  1.00E-02,  avg # of iterations =  2.0

     negative rho (up, down):  3.600E-02 0.000E+00

     total cpu time spent up to now is       55.3 secs

     total energy              =   -7999.25905489 Ry
     estimated scf accuracy    <     288.61438038 Ry

     iteration #  7     ecut=    60.00 Ry     beta= 0.22
     Davidson diagonalization with overlap
     ethr =  1.00E-02,  avg # of iterations =  1.0

     negative rho (up, down):  4.070E-02 0.000E+00

     total cpu time spent up to now is       62.1 secs

     total energy              =   -8000.51596261 Ry
     estimated scf accuracy    <      84.20967590 Ry

     iteration #  8     ecut=    60.00 Ry     beta= 0.22
     Davidson diagonalization with overlap
     ethr =  1.00E-02,  avg # of iterations =  1.0

     negative rho (up, down):  3.403E-02 0.000E+00

     total cpu time spent up to now is       68.8 secs

     total energy              =   -8000.57662702 Ry
     estimated scf accuracy    <      91.82507933 Ry

     iteration #  9     ecut=    60.00 Ry     beta= 0.22
     Davidson diagonalization with overlap
     ethr =  1.00E-02,  avg # of iterations =  1.0

     negative rho (up, down):  4.226E-02 0.000E+00

     total cpu time spent up to now is       75.6 secs

     total energy              =   -8000.56572366 Ry
     estimated scf accuracy    <      97.81503252 Ry

     iteration # 10     ecut=    60.00 Ry     beta= 0.22
     Davidson diagonalization with overlap
     ethr =  1.00E-02,  avg # of iterations =  1.0

     negative rho (up, down):  4.015E-02 0.000E+00

     total cpu time spent up to now is       82.3 secs

     total energy              =   -8001.15653822 Ry
     estimated scf accuracy    <     122.43695161 Ry

     iteration # 11     ecut=    60.00 Ry     beta= 0.22
     Davidson diagonalization with overlap
     ethr =  1.00E-02,  avg # of iterations =  1.0

     negative rho (up, down):  3.950E-02 0.000E+00

     total cpu time spent up to now is       89.1 secs

     total energy              =   -8000.12428377 Ry
     estimated scf accuracy    <     133.32218031 Ry

     iteration # 12     ecut=    60.00 Ry     beta= 0.22
     Davidson diagonalization with overlap
     ethr =  1.00E-02,  avg # of iterations =  1.0

     negative rho (up, down):  5.305E-02 0.000E+00

     total cpu time spent up to now is       95.8 secs

     total energy              =   -7998.98972378 Ry
     estimated scf accuracy    <     124.35051634 Ry

     iteration # 13     ecut=    60.00 Ry     beta= 0.22
     Davidson diagonalization with overlap
     ethr =  1.00E-02,  avg # of iterations =  1.0

     negative rho (up, down):  6.942E-02 0.000E+00

     total cpu time spent up to now is      102.6 secs

     total energy              =   -7999.77578209 Ry
     estimated scf accuracy    <      97.68721980 Ry

     iteration # 14     ecut=    60.00 Ry     beta= 0.22
     Davidson diagonalization with overlap
     ethr =  1.00E-02,  avg # of iterations =  1.0

     negative rho (up, down):  1.287E-01 0.000E+00

     total cpu time spent up to now is      109.4 secs

     total energy              =   -7999.30590510 Ry
     estimated scf accuracy    <      75.71183368 Ry

     iteration # 15     ecut=    60.00 Ry     beta= 0.22
     Davidson diagonalization with overlap
     ethr =  1.00E-02,  avg # of iterations =  1.0

     negative rho (up, down):  1.934E-01 0.000E+00

     total cpu time spent up to now is      116.1 secs

     total energy              =   -7998.83655172 Ry
     estimated scf accuracy    <      81.59325040 Ry

     iteration # 16     ecut=    60.00 Ry     beta= 0.22
     Davidson diagonalization with overlap
     ethr =  1.00E-02,  avg # of iterations =  1.0

     negative rho (up, down):  2.270E-01 0.000E+00

     total cpu time spent up to now is      122.9 secs

     total energy              =   -7999.08394748 Ry
     estimated scf accuracy    <      43.66564150 Ry

     iteration # 17     ecut=    60.00 Ry     beta= 0.22
     Davidson diagonalization with overlap
     ethr =  1.00E-02,  avg # of iterations =  1.0

     negative rho (up, down):  2.466E-01 0.000E+00

     total cpu time spent up to now is      129.7 secs

     total energy              =   -7999.16399866 Ry
     estimated scf accuracy    <      46.71467346 Ry

     iteration # 18     ecut=    60.00 Ry     beta= 0.22
     Davidson diagonalization with overlap
     ethr =  1.00E-02,  avg # of iterations =  1.0

     negative rho (up, down):  1.493E-01 0.000E+00

     total cpu time spent up to now is      136.5 secs

     total energy              =   -7999.08585857 Ry
     estimated scf accuracy    <      49.34256188 Ry

     iteration # 19     ecut=    60.00 Ry     beta= 0.22
     Davidson diagonalization with overlap
     ethr =  1.00E-02,  avg # of iterations =  1.0

     negative rho (up, down):  1.659E-01 0.000E+00

     total cpu time spent up to now is      143.3 secs

     total energy              =   -7998.91643173 Ry
     estimated scf accuracy    <      47.11711895 Ry

     iteration # 20     ecut=    60.00 Ry     beta= 0.22
     Davidson diagonalization with overlap
     ethr =  1.00E-02,  avg # of iterations =  1.0

     negative rho (up, down):  2.206E-01 0.000E+00

     total cpu time spent up to now is      150.1 secs

     total energy              =   -7998.49751909 Ry
     estimated scf accuracy    <      39.80123913 Ry

     iteration # 21     ecut=    60.00 Ry     beta= 0.22
     Davidson diagonalization with overlap
     ethr =  1.00E-02,  avg # of iterations =  1.0

     negative rho (up, down):  2.056E-01 0.000E+00

     total cpu time spent up to now is      156.9 secs

     total energy              =   -7998.32881912 Ry
     estimated scf accuracy    <      33.24149343 Ry

     iteration # 22     ecut=    60.00 Ry     beta= 0.22
     Davidson diagonalization with overlap
     ethr =  9.03E-03,  avg # of iterations =  1.0

     negative rho (up, down):  2.678E-01 0.000E+00

     total cpu time spent up to now is      163.7 secs

     total energy              =   -7998.17092624 Ry
     estimated scf accuracy    <      41.13612488 Ry

     iteration # 23     ecut=    60.00 Ry     beta= 0.22
     Davidson diagonalization with overlap
     ethr =  9.03E-03,  avg # of iterations =  1.0

     negative rho (up, down):  2.715E-01 0.000E+00

     total cpu time spent up to now is      170.5 secs

     total energy              =   -7998.48826088 Ry
     estimated scf accuracy    <      28.39323732 Ry

     iteration # 24     ecut=    60.00 Ry     beta= 0.22
     Davidson diagonalization with overlap
     ethr =  7.72E-03,  avg # of iterations =  1.0

     negative rho (up, down):  4.108E-01 0.000E+00

     total cpu time spent up to now is      177.3 secs

     total energy              =   -7998.11273662 Ry
     estimated scf accuracy    <      28.34016670 Ry

     iteration # 25     ecut=    60.00 Ry     beta= 0.22
     Davidson diagonalization with overlap
     ethr =  7.70E-03,  avg # of iterations =  1.0

     negative rho (up, down):  7.180E-01 0.000E+00

     total cpu time spent up to now is      184.2 secs

     total energy              =   -7997.02325891 Ry
     estimated scf accuracy    <      31.01524184 Ry

     iteration # 26     ecut=    60.00 Ry     beta= 0.22
     Davidson diagonalization with overlap
     ethr =  7.70E-03,  avg # of iterations =  1.6

     negative rho (up, down):  1.782E+00 0.000E+00

     total cpu time spent up to now is      191.4 secs

     total energy              =   -7996.55016564 Ry
     estimated scf accuracy    <      38.90428152 Ry

     iteration # 27     ecut=    60.00 Ry     beta= 0.22
     Davidson diagonalization with overlap
     ethr =  7.70E-03,  avg # of iterations =  1.8

     negative rho (up, down):  1.654E+00 0.000E+00

     total cpu time spent up to now is      198.8 secs

     total energy              =   -7996.06448062 Ry
     estimated scf accuracy    <     118.35807387 Ry

     iteration # 28     ecut=    60.00 Ry     beta= 0.22
     Davidson diagonalization with overlap
     ethr =  7.70E-03,  avg # of iterations =  1.0

     negative rho (up, down):  1.539E+00 0.000E+00

     total cpu time spent up to now is      205.6 secs

     total energy              =   -7997.95902415 Ry
     estimated scf accuracy    <      63.54110574 Ry

     iteration # 29     ecut=    60.00 Ry     beta= 0.22
     Davidson diagonalization with overlap
     ethr =  7.70E-03,  avg # of iterations =  1.0

     negative rho (up, down):  1.482E+00 0.000E+00

     total cpu time spent up to now is      212.4 secs

     total energy              =   -7997.47027095 Ry
     estimated scf accuracy    <     101.16833351 Ry

     iteration # 30     ecut=    60.00 Ry     beta= 0.22
     Davidson diagonalization with overlap
     ethr =  7.70E-03,  avg # of iterations =  1.0

     negative rho (up, down):  1.435E+00 0.000E+00

     total cpu time spent up to now is      219.2 secs

     total energy              =   -7997.94191884 Ry
     estimated scf accuracy    <      56.62620649 Ry

     iteration # 31     ecut=    60.00 Ry     beta= 0.22
     Davidson diagonalization with overlap
     ethr =  7.70E-03,  avg # of iterations =  1.0

     negative rho (up, down):  9.178E-01 0.000E+00

     total cpu time spent up to now is      226.0 secs

     total energy              =   -7997.91647665 Ry
     estimated scf accuracy    <      62.75656690 Ry

     iteration # 32     ecut=    60.00 Ry     beta= 0.22
     Davidson diagonalization with overlap
     ethr =  7.70E-03,  avg # of iterations =  1.0

     negative rho (up, down):  9.977E-01 0.000E+00

     total cpu time spent up to now is      232.9 secs

     total energy              =   -7996.90694603 Ry
     estimated scf accuracy    <      85.90334318 Ry

     iteration # 33     ecut=    60.00 Ry     beta= 0.22
     Davidson diagonalization with overlap
     ethr =  7.70E-03,  avg # of iterations =  1.0

     negative rho (up, down):  6.355E-01 0.000E+00

     total cpu time spent up to now is      239.7 secs

     total energy              =   -7996.65200692 Ry
     estimated scf accuracy    <      78.58187365 Ry

     iteration # 34     ecut=    60.00 Ry     beta= 0.22
     Davidson diagonalization with overlap
     ethr =  7.70E-03,  avg # of iterations =  1.0

     negative rho (up, down):  5.174E-01 0.000E+00

     total cpu time spent up to now is      246.5 secs

     total energy              =   -7997.62530531 Ry
     estimated scf accuracy    <      29.37554897 Ry

     iteration # 35     ecut=    60.00 Ry     beta= 0.22
     Davidson diagonalization with overlap
     ethr =  7.70E-03,  avg # of iterations =  1.0

     negative rho (up, down):  4.428E-01 0.000E+00

     total cpu time spent up to now is      253.3 secs

     total energy              =   -7997.01113005 Ry
     estimated scf accuracy    <      42.39937504 Ry

     iteration # 36     ecut=    60.00 Ry     beta= 0.22
     Davidson diagonalization with overlap
     ethr =  7.70E-03,  avg # of iterations =  1.0

     negative rho (up, down):  4.541E-01 0.000E+00

     total cpu time spent up to now is      260.1 secs

     total energy              =   -7997.82724145 Ry
     estimated scf accuracy    <      26.74824409 Ry

     iteration # 37     ecut=    60.00 Ry     beta= 0.22
     Davidson diagonalization with overlap
     ethr =  7.27E-03,  avg # of iterations =  1.0

     negative rho (up, down):  3.731E-01 0.000E+00

     total cpu time spent up to now is      266.9 secs

     total energy              =   -7997.78050769 Ry
     estimated scf accuracy    <      22.03002812 Ry

     iteration # 38     ecut=    60.00 Ry     beta= 0.22
     Davidson diagonalization with overlap
     ethr =  5.99E-03,  avg # of iterations =  1.0

     negative rho (up, down):  3.543E-01 0.000E+00

     total cpu time spent up to now is      273.7 secs

     total energy              =   -7997.31679161 Ry
     estimated scf accuracy    <      22.36102690 Ry

     iteration # 39     ecut=    60.00 Ry     beta= 0.22
     Davidson diagonalization with overlap
     ethr =  5.99E-03,  avg # of iterations =  1.4

     negative rho (up, down):  3.181E-01 0.000E+00

     total cpu time spent up to now is      280.8 secs

     total energy              =   -7997.43577316 Ry
     estimated scf accuracy    <      10.50226638 Ry

     iteration # 40     ecut=    60.00 Ry     beta= 0.22
     Davidson diagonalization with overlap
     ethr =  2.85E-03,  avg # of iterations =  1.0

     negative rho (up, down):  2.901E-01 0.000E+00

     total cpu time spent up to now is      287.7 secs

     total energy              =   -7997.64573066 Ry
     estimated scf accuracy    <       9.93246535 Ry

     iteration # 41     ecut=    60.00 Ry     beta= 0.22
     Davidson diagonalization with overlap
     ethr =  2.70E-03,  avg # of iterations =  1.0

     negative rho (up, down):  2.911E-01 0.000E+00

     total cpu time spent up to now is      294.5 secs

     total energy              =   -7997.77772029 Ry
     estimated scf accuracy    <      11.48618193 Ry

     iteration # 42     ecut=    60.00 Ry     beta= 0.22
     Davidson diagonalization with overlap
     ethr =  2.70E-03,  avg # of iterations =  1.0

     negative rho (up, down):  3.080E-01 0.000E+00

     total cpu time spent up to now is      301.3 secs

     total energy              =   -7997.89519151 Ry
     estimated scf accuracy    <      19.31601072 Ry

     iteration # 43     ecut=    60.00 Ry     beta= 0.22
     Davidson diagonalization with overlap
     ethr =  2.70E-03,  avg # of iterations =  1.0

     negative rho (up, down):  3.060E-01 0.000E+00

     total cpu time spent up to now is      308.1 secs

     total energy              =   -7997.97220432 Ry
     estimated scf accuracy    <      18.41757127 Ry

     iteration # 44     ecut=    60.00 Ry     beta= 0.22
     Davidson diagonalization with overlap
     ethr =  2.70E-03,  avg # of iterations =  1.0

     negative rho (up, down):  3.023E-01 0.000E+00

     total cpu time spent up to now is      314.9 secs

     total energy              =   -7997.45641770 Ry
     estimated scf accuracy    <      18.98993508 Ry

     iteration # 45     ecut=    60.00 Ry     beta= 0.22
     Davidson diagonalization with overlap
     ethr =  2.70E-03,  avg # of iterations =  1.4

     negative rho (up, down):  2.874E-01 0.000E+00

     total cpu time spent up to now is      322.0 secs

     total energy              =   -7997.38898266 Ry
     estimated scf accuracy    <      11.38029040 Ry

     iteration # 46     ecut=    60.00 Ry     beta= 0.22
     Davidson diagonalization with overlap
     ethr =  2.70E-03,  avg # of iterations =  1.4

     negative rho (up, down):  2.998E-01 0.000E+00

     total cpu time spent up to now is      329.1 secs

     total energy              =   -7997.44622012 Ry
     estimated scf accuracy    <      16.94487469 Ry

     iteration # 47     ecut=    60.00 Ry     beta= 0.22
     Davidson diagonalization with overlap
     ethr =  2.70E-03,  avg # of iterations =  1.0

     negative rho (up, down):  2.913E-01 0.000E+00

     total cpu time spent up to now is      335.9 secs

     total energy              =   -7997.62003509 Ry
     estimated scf accuracy    <       8.82912353 Ry

     iteration # 48     ecut=    60.00 Ry     beta= 0.22
     Davidson diagonalization with overlap
     ethr =  2.40E-03,  avg # of iterations =  1.0

     negative rho (up, down):  2.731E-01 0.000E+00

     total cpu time spent up to now is      342.7 secs

     total energy              =   -7997.62880426 Ry
     estimated scf accuracy    <       6.02008198 Ry

     iteration # 49     ecut=    60.00 Ry     beta= 0.22
     Davidson diagonalization with overlap
     ethr =  1.64E-03,  avg # of iterations =  1.0

     negative rho (up, down):  2.811E-01 0.000E+00

     total cpu time spent up to now is      349.5 secs

     total energy              =   -7997.64937818 Ry
     estimated scf accuracy    <       6.64662922 Ry

     iteration # 50     ecut=    60.00 Ry     beta= 0.22
     Davidson diagonalization with overlap
     ethr =  1.64E-03,  avg # of iterations =  1.0

     negative rho (up, down):  2.832E-01 0.000E+00

     total cpu time spent up to now is      356.3 secs

     total energy              =   -7997.64189631 Ry
     estimated scf accuracy    <       5.89825899 Ry

     iteration # 51     ecut=    60.00 Ry     beta= 0.22
     Davidson diagonalization with overlap
     ethr =  1.60E-03,  avg # of iterations =  1.0

     negative rho (up, down):  2.861E-01 0.000E+00

     total cpu time spent up to now is      363.1 secs

     total energy              =   -7997.67493916 Ry
     estimated scf accuracy    <       7.35329540 Ry

     iteration # 52     ecut=    60.00 Ry     beta= 0.22
     Davidson diagonalization with overlap
     ethr =  1.60E-03,  avg # of iterations =  1.0

     negative rho (up, down):  2.843E-01 0.000E+00

     total cpu time spent up to now is      369.9 secs

     total energy              =   -7997.67538107 Ry
     estimated scf accuracy    <       6.89401931 Ry

     iteration # 53     ecut=    60.00 Ry     beta= 0.22
     Davidson diagonalization with overlap
     ethr =  1.60E-03,  avg # of iterations =  1.0

     negative rho (up, down):  2.961E-01 0.000E+00

     total cpu time spent up to now is      376.7 secs

     total energy              =   -7997.56837601 Ry
     estimated scf accuracy    <       7.50779836 Ry

     iteration # 54     ecut=    60.00 Ry     beta= 0.22
     Davidson diagonalization with overlap
     ethr =  1.60E-03,  avg # of iterations =  1.0

     negative rho (up, down):  2.883E-01 0.000E+00

     total cpu time spent up to now is      383.5 secs

     total energy              =   -7997.45543088 Ry
     estimated scf accuracy    <       8.13535013 Ry

     iteration # 55     ecut=    60.00 Ry     beta= 0.22
     Davidson diagonalization with overlap
     ethr =  1.60E-03,  avg # of iterations =  1.4

     negative rho (up, down):  2.835E-01 0.000E+00

     total cpu time spent up to now is      390.6 secs

     total energy              =   -7997.36094107 Ry
     estimated scf accuracy    <      15.23630482 Ry

     iteration # 56     ecut=    60.00 Ry     beta= 0.22
     Davidson diagonalization with overlap
     ethr =  1.60E-03,  avg # of iterations =  2.0

     negative rho (up, down):  2.936E-01 0.000E+00

     total cpu time spent up to now is      398.2 secs

     total energy              =   -7997.51392339 Ry
     estimated scf accuracy    <       6.82942369 Ry

     iteration # 57     ecut=    60.00 Ry     beta= 0.22
     Davidson diagonalization with overlap
     ethr =  1.60E-03,  avg # of iterations =  1.2

     negative rho (up, down):  3.166E-01 0.000E+00

     total cpu time spent up to now is      405.1 secs

     total energy              =   -7997.58066388 Ry
     estimated scf accuracy    <       7.96236081 Ry

     iteration # 58     ecut=    60.00 Ry     beta= 0.22
     Davidson diagonalization with overlap
     ethr =  1.60E-03,  avg # of iterations =  1.2

     negative rho (up, down):  3.170E-01 0.000E+00

     total cpu time spent up to now is      412.0 secs

     total energy              =   -7997.59353846 Ry
     estimated scf accuracy    <       8.12616362 Ry

     iteration # 59     ecut=    60.00 Ry     beta= 0.22
     Davidson diagonalization with overlap
     ethr =  1.60E-03,  avg # of iterations =  1.2

     negative rho (up, down):  3.137E-01 0.000E+00

     total cpu time spent up to now is      419.0 secs

     total energy              =   -7997.67926834 Ry
     estimated scf accuracy    <       8.51032221 Ry

     iteration # 60     ecut=    60.00 Ry     beta= 0.22
     Davidson diagonalization with overlap
     ethr =  1.60E-03,  avg # of iterations =  1.0

     negative rho (up, down):  2.937E-01 0.000E+00

     total cpu time spent up to now is      425.8 secs

     total energy              =   -7997.64249869 Ry
     estimated scf accuracy    <       8.11107165 Ry

     iteration # 61     ecut=    60.00 Ry     beta= 0.22
     Davidson diagonalization with overlap
     ethr =  1.60E-03,  avg # of iterations =  1.0

     negative rho (up, down):  2.938E-01 0.000E+00

     total cpu time spent up to now is      432.6 secs

     total energy              =   -7997.53819668 Ry
     estimated scf accuracy    <       9.64606253 Ry

     iteration # 62     ecut=    60.00 Ry     beta= 0.22
     Davidson diagonalization with overlap
     ethr =  1.60E-03,  avg # of iterations =  1.0

     negative rho (up, down):  2.995E-01 0.000E+00

     total cpu time spent up to now is      439.4 secs

     total energy              =   -7997.58041234 Ry
     estimated scf accuracy    <      12.15216443 Ry

     iteration # 63     ecut=    60.00 Ry     beta= 0.22
     Davidson diagonalization with overlap
     ethr =  1.60E-03,  avg # of iterations =  1.0

     negative rho (up, down):  2.898E-01 0.000E+00

     total cpu time spent up to now is      446.2 secs

     total energy              =   -7997.65850628 Ry
     estimated scf accuracy    <       8.27116701 Ry

     iteration # 64     ecut=    60.00 Ry     beta= 0.22
     Davidson diagonalization with overlap
     ethr =  1.60E-03,  avg # of iterations =  1.0

     negative rho (up, down):  2.949E-01 0.000E+00

     total cpu time spent up to now is      453.0 secs

     total energy              =   -7997.61150344 Ry
     estimated scf accuracy    <       6.82084666 Ry

     iteration # 65     ecut=    60.00 Ry     beta= 0.22
     Davidson diagonalization with overlap
     ethr =  1.60E-03,  avg # of iterations =  1.0

     negative rho (up, down):  3.025E-01 0.000E+00

     total cpu time spent up to now is      459.8 secs

     total energy              =   -7997.62247776 Ry
     estimated scf accuracy    <       5.97299585 Ry

     iteration # 66     ecut=    60.00 Ry     beta= 0.22
     Davidson diagonalization with overlap
     ethr =  1.60E-03,  avg # of iterations =  2.0

     negative rho (up, down):  2.884E-01 0.000E+00

     total cpu time spent up to now is      467.4 secs

     total energy              =   -7997.58697532 Ry
     estimated scf accuracy    <      12.85552639 Ry

     iteration # 67     ecut=    60.00 Ry     beta= 0.22
     Davidson diagonalization with overlap
     ethr =  1.60E-03,  avg # of iterations =  2.0

     negative rho (up, down):  2.868E-01 0.000E+00

     total cpu time spent up to now is      475.0 secs

     total energy              =   -7997.45274451 Ry
     estimated scf accuracy    <      14.92772234 Ry

     iteration # 68     ecut=    60.00 Ry     beta= 0.22
     Davidson diagonalization with overlap
     ethr =  1.60E-03,  avg # of iterations =  2.0

     negative rho (up, down):  2.725E-01 0.000E+00

     total cpu time spent up to now is      482.6 secs

     total energy              =   -7997.42746764 Ry
     estimated scf accuracy    <       9.23884497 Ry

     iteration # 69     ecut=    60.00 Ry     beta= 0.22
     Davidson diagonalization with overlap
     ethr =  1.60E-03,  avg # of iterations =  2.0

     negative rho (up, down):  2.923E-01 0.000E+00

     total cpu time spent up to now is      490.1 secs

     total energy              =   -7997.51907882 Ry
     estimated scf accuracy    <       5.76824583 Ry

     iteration # 70     ecut=    60.00 Ry     beta= 0.22
     Davidson diagonalization with overlap
     ethr =  1.57E-03,  avg # of iterations =  2.0

     negative rho (up, down):  2.899E-01 0.000E+00

     total cpu time spent up to now is      497.7 secs

     total energy              =   -7997.62430372 Ry
     estimated scf accuracy    <      11.30760371 Ry

     iteration # 71     ecut=    60.00 Ry     beta= 0.22
     Davidson diagonalization with overlap
     ethr =  1.57E-03,  avg # of iterations =  1.0

     negative rho (up, down):  2.854E-01 0.000E+00

     total cpu time spent up to now is      504.5 secs

     total energy              =   -7997.68390526 Ry
     estimated scf accuracy    <       6.82552678 Ry

     iteration # 72     ecut=    60.00 Ry     beta= 0.22
     Davidson diagonalization with overlap
     ethr =  1.57E-03,  avg # of iterations =  1.0

     negative rho (up, down):  2.940E-01 0.000E+00

     total cpu time spent up to now is      511.3 secs

     total energy              =   -7997.67665823 Ry
     estimated scf accuracy    <       6.75499758 Ry

     iteration # 73     ecut=    60.00 Ry     beta= 0.22
     Davidson diagonalization with overlap
     ethr =  1.57E-03,  avg # of iterations =  1.0

     negative rho (up, down):  3.017E-01 0.000E+00

     total cpu time spent up to now is      518.1 secs

     total energy              =   -7997.71542899 Ry
     estimated scf accuracy    <       9.16072696 Ry

     iteration # 74     ecut=    60.00 Ry     beta= 0.22
     Davidson diagonalization with overlap
     ethr =  1.57E-03,  avg # of iterations =  1.0

     negative rho (up, down):  3.054E-01 0.000E+00

     total cpu time spent up to now is      524.9 secs

     total energy              =   -7997.76338970 Ry
     estimated scf accuracy    <      11.45495883 Ry

     iteration # 75     ecut=    60.00 Ry     beta= 0.22
     Davidson diagonalization with overlap
     ethr =  1.57E-03,  avg # of iterations =  1.2

     negative rho (up, down):  3.075E-01 0.000E+00

     total cpu time spent up to now is      531.9 secs

     total energy              =   -7997.79992923 Ry
     estimated scf accuracy    <      12.51197347 Ry

     iteration # 76     ecut=    60.00 Ry     beta= 0.22
     Davidson diagonalization with overlap
     ethr =  1.57E-03,  avg # of iterations =  1.0

     negative rho (up, down):  3.113E-01 0.000E+00

     total cpu time spent up to now is      538.7 secs

     total energy              =   -7997.76330707 Ry
     estimated scf accuracy    <      12.13913189 Ry

     iteration # 77     ecut=    60.00 Ry     beta= 0.22
     Davidson diagonalization with overlap
     ethr =  1.57E-03,  avg # of iterations =  1.0

     negative rho (up, down):  3.059E-01 0.000E+00

     total cpu time spent up to now is      545.5 secs

     total energy              =   -7997.67718264 Ry
     estimated scf accuracy    <      11.11480431 Ry

     iteration # 78     ecut=    60.00 Ry     beta= 0.22
     Davidson diagonalization with overlap
     ethr =  1.57E-03,  avg # of iterations =  1.0

     negative rho (up, down):  3.015E-01 0.000E+00

     total cpu time spent up to now is      552.3 secs

     total energy              =   -7997.30102271 Ry
     estimated scf accuracy    <      12.39425594 Ry

     iteration # 79     ecut=    60.00 Ry     beta= 0.22
     Davidson diagonalization with overlap
     ethr =  1.57E-03,  avg # of iterations =  2.0

     negative rho (up, down):  3.113E-01 0.000E+00

     total cpu time spent up to now is      559.8 secs

     total energy              =   -7997.51230185 Ry
     estimated scf accuracy    <       2.39363714 Ry

     iteration # 80     ecut=    60.00 Ry     beta= 0.22
     Davidson diagonalization with overlap
     ethr =  6.50E-04,  avg # of iterations =  1.6

     negative rho (up, down):  3.061E-01 0.000E+00

     total cpu time spent up to now is      567.0 secs

     total energy              =   -7997.53292483 Ry
     estimated scf accuracy    <       3.67067516 Ry

     iteration # 81     ecut=    60.00 Ry     beta= 0.22
     Davidson diagonalization with overlap
     ethr =  6.50E-04,  avg # of iterations =  1.0

     negative rho (up, down):  3.269E-01 0.000E+00

     total cpu time spent up to now is      573.8 secs

     total energy              =   -7997.48105593 Ry
     estimated scf accuracy    <       2.69768611 Ry

     iteration # 82     ecut=    60.00 Ry     beta= 0.22
     Davidson diagonalization with overlap
     ethr =  6.50E-04,  avg # of iterations =  1.4

     negative rho (up, down):  3.061E-01 0.000E+00

     total cpu time spent up to now is      581.0 secs

     total energy              =   -7997.56454692 Ry
     estimated scf accuracy    <       2.35083094 Ry

     iteration # 83     ecut=    60.00 Ry     beta= 0.22
     Davidson diagonalization with overlap
     ethr =  6.39E-04,  avg # of iterations =  1.0

     negative rho (up, down):  3.122E-01 0.000E+00

     total cpu time spent up to now is      587.8 secs

     total energy              =   -7997.55850077 Ry
     estimated scf accuracy    <       2.81257231 Ry

     iteration # 84     ecut=    60.00 Ry     beta= 0.22
     Davidson diagonalization with overlap
     ethr =  6.39E-04,  avg # of iterations =  1.0

     negative rho (up, down):  3.134E-01 0.000E+00

     total cpu time spent up to now is      594.7 secs

     total energy              =   -7997.56621016 Ry
     estimated scf accuracy    <       2.48420505 Ry

     iteration # 85     ecut=    60.00 Ry     beta= 0.22
     Davidson diagonalization with overlap
     ethr =  6.39E-04,  avg # of iterations =  1.0

     negative rho (up, down):  3.043E-01 0.000E+00

     total cpu time spent up to now is      601.5 secs

     total energy              =   -7997.59169157 Ry
     estimated scf accuracy    <       2.09639941 Ry

     iteration # 86     ecut=    60.00 Ry     beta= 0.22
     Davidson diagonalization with overlap
     ethr =  5.70E-04,  avg # of iterations =  1.0

     negative rho (up, down):  2.845E-01 0.000E+00

     total cpu time spent up to now is      608.4 secs

     total energy              =   -7997.54648974 Ry
     estimated scf accuracy    <       3.50296047 Ry

     iteration # 87     ecut=    60.00 Ry     beta= 0.22
     Davidson diagonalization with overlap
     ethr =  5.70E-04,  avg # of iterations =  1.6

     negative rho (up, down):  2.900E-01 0.000E+00

     total cpu time spent up to now is      615.7 secs

     total energy              =   -7997.50817617 Ry
     estimated scf accuracy    <       2.75844133 Ry

     iteration # 88     ecut=    60.00 Ry     beta= 0.22
     Davidson diagonalization with overlap
     ethr =  5.70E-04,  avg # of iterations =  1.6

     negative rho (up, down):  2.905E-01 0.000E+00

     total cpu time spent up to now is      623.0 secs

     total energy              =   -7997.58268455 Ry
     estimated scf accuracy    <       2.09791624 Ry

     iteration # 89     ecut=    60.00 Ry     beta= 0.22
     Davidson diagonalization with overlap
     ethr =  5.70E-04,  avg # of iterations =  1.0

     negative rho (up, down):  2.842E-01 0.000E+00

     total cpu time spent up to now is      629.8 secs

     total energy              =   -7997.56392092 Ry
     estimated scf accuracy    <       3.14119220 Ry

     iteration # 90     ecut=    60.00 Ry     beta= 0.22
     Davidson diagonalization with overlap
     ethr =  5.70E-04,  avg # of iterations =  1.0

     negative rho (up, down):  2.762E-01 0.000E+00

     total cpu time spent up to now is      636.6 secs

     total energy              =   -7997.59297898 Ry
     estimated scf accuracy    <       1.99680344 Ry

     iteration # 91     ecut=    60.00 Ry     beta= 0.22
     Davidson diagonalization with overlap
     ethr =  5.43E-04,  avg # of iterations =  1.4

     negative rho (up, down):  2.779E-01 0.000E+00

     total cpu time spent up to now is      643.8 secs

     total energy              =   -7997.55710664 Ry
     estimated scf accuracy    <       2.67428493 Ry

     iteration # 92     ecut=    60.00 Ry     beta= 0.22
     Davidson diagonalization with overlap
     ethr =  5.43E-04,  avg # of iterations =  2.0

     negative rho (up, down):  2.726E-01 0.000E+00

     total cpu time spent up to now is      651.3 secs

     total energy              =   -7997.60350855 Ry
     estimated scf accuracy    <       3.55376628 Ry

     iteration # 93     ecut=    60.00 Ry     beta= 0.22
     Davidson diagonalization with overlap
     ethr =  5.43E-04,  avg # of iterations =  2.0

     negative rho (up, down):  2.760E-01 0.000E+00

     total cpu time spent up to now is      658.8 secs

     total energy              =   -7997.62443437 Ry
     estimated scf accuracy    <       5.57858299 Ry

     iteration # 94     ecut=    60.00 Ry     beta= 0.22
     Davidson diagonalization with overlap
     ethr =  5.43E-04,  avg # of iterations =  1.0

     negative rho (up, down):  2.734E-01 0.000E+00

     total cpu time spent up to now is      665.6 secs

     total energy              =   -7997.65862714 Ry
     estimated scf accuracy    <       4.55602611 Ry

     iteration # 95     ecut=    60.00 Ry     beta= 0.22
     Davidson diagonalization with overlap
     ethr =  5.43E-04,  avg # of iterations =  1.0

     negative rho (up, down):  2.667E-01 0.000E+00

     total cpu time spent up to now is      672.5 secs

     total energy              =   -7997.61992029 Ry
     estimated scf accuracy    <       4.56566039 Ry

     iteration # 96     ecut=    60.00 Ry     beta= 0.22
     Davidson diagonalization with overlap
     ethr =  5.43E-04,  avg # of iterations =  1.4

     negative rho (up, down):  2.657E-01 0.000E+00

     total cpu time spent up to now is      679.5 secs

     total energy              =   -7997.64604411 Ry
     estimated scf accuracy    <       3.86873297 Ry

     iteration # 97     ecut=    60.00 Ry     beta= 0.22
     Davidson diagonalization with overlap
     ethr =  5.43E-04,  avg # of iterations =  1.0

     negative rho (up, down):  2.639E-01 0.000E+00

     total cpu time spent up to now is      686.3 secs

     total energy              =   -7997.65661716 Ry
     estimated scf accuracy    <       3.45131836 Ry

     iteration # 98     ecut=    60.00 Ry     beta= 0.22
     Davidson diagonalization with overlap
     ethr =  5.43E-04,  avg # of iterations =  1.0

     negative rho (up, down):  2.727E-01 0.000E+00

     total cpu time spent up to now is      693.2 secs

     total energy              =   -7997.60930719 Ry
     estimated scf accuracy    <       3.70960990 Ry

     iteration # 99     ecut=    60.00 Ry     beta= 0.22
     Davidson diagonalization with overlap
     ethr =  5.43E-04,  avg # of iterations =  1.4

     negative rho (up, down):  2.653E-01 0.000E+00

     total cpu time spent up to now is      700.3 secs

     total energy              =   -7997.62139715 Ry
     estimated scf accuracy    <       3.51735418 Ry

     iteration #100     ecut=    60.00 Ry     beta= 0.22
     Davidson diagonalization with overlap
     ethr =  5.43E-04,  avg # of iterations =  1.8

     negative rho (up, down):  2.678E-01 0.000E+00

     total cpu time spent up to now is      707.7 secs

     total energy              =   -7997.57983617 Ry
     estimated scf accuracy    <       7.12068294 Ry

     iteration #101     ecut=    60.00 Ry     beta= 0.22
     Davidson diagonalization with overlap
     ethr =  5.43E-04,  avg # of iterations =  2.0

     negative rho (up, down):  2.696E-01 0.000E+00

     total cpu time spent up to now is      715.2 secs

     total energy              =   -7997.61646536 Ry
     estimated scf accuracy    <       3.58357662 Ry

     iteration #102     ecut=    60.00 Ry     beta= 0.22
     Davidson diagonalization with overlap
     ethr =  5.43E-04,  avg # of iterations =  1.0

     negative rho (up, down):  2.722E-01 0.000E+00

     total cpu time spent up to now is      722.0 secs

     total energy              =   -7997.62827558 Ry
     estimated scf accuracy    <       3.80590168 Ry

     iteration #103     ecut=    60.00 Ry     beta= 0.22
     Davidson diagonalization with overlap
     ethr =  5.43E-04,  avg # of iterations =  1.0

     negative rho (up, down):  2.810E-01 0.000E+00

     total cpu time spent up to now is      728.8 secs

     total energy              =   -7997.59581373 Ry
     estimated scf accuracy    <       4.30295600 Ry

     iteration #104     ecut=    60.00 Ry     beta= 0.22
     Davidson diagonalization with overlap
     ethr =  5.43E-04,  avg # of iterations =  1.0

     negative rho (up, down):  2.856E-01 0.000E+00

     total cpu time spent up to now is      735.6 secs

     total energy              =   -7997.59777970 Ry
     estimated scf accuracy    <       3.60507872 Ry

     iteration #105     ecut=    60.00 Ry     beta= 0.22
     Davidson diagonalization with overlap
     ethr =  5.43E-04,  avg # of iterations =  1.0

     negative rho (up, down):  3.034E-01 0.000E+00

     total cpu time spent up to now is      742.4 secs

     total energy              =   -7997.60075207 Ry
     estimated scf accuracy    <       2.45767456 Ry

     iteration #106     ecut=    60.00 Ry     beta= 0.22
     Davidson diagonalization with overlap
     ethr =  5.43E-04,  avg # of iterations =  1.4

     negative rho (up, down):  3.067E-01 0.000E+00

     total cpu time spent up to now is      749.5 secs

     total energy              =   -7997.61260199 Ry
     estimated scf accuracy    <       3.99764061 Ry

     iteration #107     ecut=    60.00 Ry     beta= 0.22
     Davidson diagonalization with overlap
     ethr =  5.43E-04,  avg # of iterations =  1.0

     negative rho (up, down):  2.763E-01 0.000E+00

     total cpu time spent up to now is      756.3 secs

     total energy              =   -7997.57978310 Ry
     estimated scf accuracy    <       3.85086250 Ry

     iteration #108     ecut=    60.00 Ry     beta= 0.22
     Davidson diagonalization with overlap
     ethr =  5.43E-04,  avg # of iterations =  2.0

     negative rho (up, down):  2.941E-01 0.000E+00

     total cpu time spent up to now is      763.9 secs

     total energy              =   -7997.51741848 Ry
     estimated scf accuracy    <       8.81978603 Ry

     iteration #109     ecut=    60.00 Ry     beta= 0.22
     Davidson diagonalization with overlap
     ethr =  5.43E-04,  avg # of iterations =  1.8

     negative rho (up, down):  2.886E-01 0.000E+00

     total cpu time spent up to now is      771.3 secs

     total energy              =   -7997.61049625 Ry
     estimated scf accuracy    <       7.26218253 Ry

     iteration #110     ecut=    60.00 Ry     beta= 0.22
     Davidson diagonalization with overlap
     ethr =  5.43E-04,  avg # of iterations =  1.0

     negative rho (up, down):  2.710E-01 0.000E+00

     total cpu time spent up to now is      778.1 secs

     total energy              =   -7997.49972664 Ry
     estimated scf accuracy    <       6.35458383 Ry

     iteration #111     ecut=    60.00 Ry     beta= 0.22
     Davidson diagonalization with overlap
     ethr =  5.43E-04,  avg # of iterations =  2.0

     negative rho (up, down):  2.919E-01 0.000E+00

     total cpu time spent up to now is      785.7 secs

     total energy              =   -7997.48855755 Ry
     estimated scf accuracy    <       5.86330927 Ry

     iteration #112     ecut=    60.00 Ry     beta= 0.22
     Davidson diagonalization with overlap
     ethr =  5.43E-04,  avg # of iterations =  1.4

     negative rho (up, down):  2.951E-01 0.000E+00

     total cpu time spent up to now is      792.8 secs

     total energy              =   -7997.60283140 Ry
     estimated scf accuracy    <       4.06898840 Ry

     iteration #113     ecut=    60.00 Ry     beta= 0.22
     Davidson diagonalization with overlap
     ethr =  5.43E-04,  avg # of iterations =  1.0

     negative rho (up, down):  3.124E-01 0.000E+00

     total cpu time spent up to now is      799.6 secs

     total energy              =   -7997.60360060 Ry
     estimated scf accuracy    <       3.57254310 Ry

     iteration #114     ecut=    60.00 Ry     beta= 0.22
     Davidson diagonalization with overlap
     ethr =  5.43E-04,  avg # of iterations =  1.4

     negative rho (up, down):  3.842E-01 0.000E+00

     total cpu time spent up to now is      806.7 secs

     total energy              =   -7997.47375891 Ry
     estimated scf accuracy    <       4.91858685 Ry

     iteration #115     ecut=    60.00 Ry     beta= 0.22
     Davidson diagonalization with overlap
     ethr =  5.43E-04,  avg # of iterations =  2.0

     negative rho (up, down):  4.169E-01 0.000E+00

     total cpu time spent up to now is      814.2 secs

     total energy              =   -7997.50234111 Ry
     estimated scf accuracy    <       5.56483154 Ry

     iteration #116     ecut=    60.00 Ry     beta= 0.22
     Davidson diagonalization with overlap
     ethr =  5.43E-04,  avg # of iterations =  1.6

     negative rho (up, down):  3.511E-01 0.000E+00

     total cpu time spent up to now is      821.5 secs

     total energy              =   -7997.52167026 Ry
     estimated scf accuracy    <       6.33096234 Ry

     iteration #117     ecut=    60.00 Ry     beta= 0.22
     Davidson diagonalization with overlap
     ethr =  5.43E-04,  avg # of iterations =  2.0

     negative rho (up, down):  3.683E-01 0.000E+00

     total cpu time spent up to now is      829.2 secs

     total energy              =   -7997.41562163 Ry
     estimated scf accuracy    <       8.88502219 Ry

     iteration #118     ecut=    60.00 Ry     beta= 0.22
     Davidson diagonalization with overlap
     ethr =  5.43E-04,  avg # of iterations =  2.0

     negative rho (up, down):  3.224E-01 0.000E+00

     total cpu time spent up to now is      836.8 secs

     total energy              =   -7997.41490295 Ry
     estimated scf accuracy    <       5.98852341 Ry

     iteration #119     ecut=    60.00 Ry     beta= 0.22
     Davidson diagonalization with overlap
     ethr =  5.43E-04,  avg # of iterations =  2.0

     negative rho (up, down):  2.949E-01 0.000E+00

     total cpu time spent up to now is      844.8 secs

     total energy              =   -7997.51169958 Ry
     estimated scf accuracy    <       5.97505149 Ry

     iteration #120     ecut=    60.00 Ry     beta= 0.22
     Davidson diagonalization with overlap
     ethr =  5.43E-04,  avg # of iterations =  2.0

     negative rho (up, down):  2.942E-01 0.000E+00

     total cpu time spent up to now is      852.6 secs

     total energy              =   -7997.66527366 Ry
     estimated scf accuracy    <       5.55584296 Ry

     iteration #121     ecut=    60.00 Ry     beta= 0.22
     Davidson diagonalization with overlap
     ethr =  5.43E-04,  avg # of iterations =  1.0

     negative rho (up, down):  2.863E-01 0.000E+00

     total cpu time spent up to now is      859.4 secs

     total energy              =   -7997.64098183 Ry
     estimated scf accuracy    <       5.50239184 Ry

     iteration #122     ecut=    60.00 Ry     beta= 0.22
     Davidson diagonalization with overlap
     ethr =  5.43E-04,  avg # of iterations =  1.2

     negative rho (up, down):  2.969E-01 0.000E+00

     total cpu time spent up to now is      866.4 secs

     total energy              =   -7997.60593645 Ry
     estimated scf accuracy    <       5.17489005 Ry

     iteration #123     ecut=    60.00 Ry     beta= 0.22
     Davidson diagonalization with overlap
     ethr =  5.43E-04,  avg # of iterations =  1.2

     negative rho (up, down):  2.920E-01 0.000E+00

     total cpu time spent up to now is      873.3 secs

     total energy              =   -7997.58914385 Ry
     estimated scf accuracy    <       3.75876327 Ry

     iteration #124     ecut=    60.00 Ry     beta= 0.22
     Davidson diagonalization with overlap
     ethr =  5.43E-04,  avg # of iterations =  1.4

     negative rho (up, down):  2.930E-01 0.000E+00

     total cpu time spent up to now is      880.4 secs

     total energy              =   -7997.59356568 Ry
     estimated scf accuracy    <       3.02816586 Ry

     iteration #125     ecut=    60.00 Ry     beta= 0.22
     Davidson diagonalization with overlap
     ethr =  5.43E-04,  avg # of iterations =  1.4

     negative rho (up, down):  2.829E-01 0.000E+00

     total cpu time spent up to now is      887.5 secs

     total energy              =   -7997.60077303 Ry
     estimated scf accuracy    <       2.86147427 Ry

     iteration #126     ecut=    60.00 Ry     beta= 0.22
     Davidson diagonalization with overlap
     ethr =  5.43E-04,  avg # of iterations =  1.2

     negative rho (up, down):  2.795E-01 0.000E+00

     total cpu time spent up to now is      894.5 secs

     total energy              =   -7997.59657869 Ry
     estimated scf accuracy    <       3.67756122 Ry

     iteration #127     ecut=    60.00 Ry     beta= 0.22
     Davidson diagonalization with overlap
     ethr =  5.43E-04,  avg # of iterations =  1.2

     negative rho (up, down):  2.778E-01 0.000E+00

     total cpu time spent up to now is      901.4 secs

     total energy              =   -7997.61542302 Ry
     estimated scf accuracy    <       3.31910404 Ry

     iteration #128     ecut=    60.00 Ry     beta= 0.22
     Davidson diagonalization with overlap
     ethr =  5.43E-04,  avg # of iterations =  1.0

     negative rho (up, down):  2.818E-01 0.000E+00

     total cpu time spent up to now is      908.2 secs

     total energy              =   -7997.59995496 Ry
     estimated scf accuracy    <       3.89973397 Ry

     iteration #129     ecut=    60.00 Ry     beta= 0.22
     Davidson diagonalization with overlap
     ethr =  5.43E-04,  avg # of iterations =  1.0

     negative rho (up, down):  2.669E-01 0.000E+00

     total cpu time spent up to now is      915.1 secs

     total energy              =   -7997.61176213 Ry
     estimated scf accuracy    <       3.16055867 Ry

     iteration #130     ecut=    60.00 Ry     beta= 0.22
     Davidson diagonalization with overlap
     ethr =  5.43E-04,  avg # of iterations =  1.2

     negative rho (up, down):  2.530E-01 0.000E+00

     total cpu time spent up to now is      922.0 secs

     total energy              =   -7997.55934913 Ry
     estimated scf accuracy    <       2.47120948 Ry

     iteration #131     ecut=    60.00 Ry     beta= 0.22
     Davidson diagonalization with overlap
     ethr =  5.43E-04,  avg # of iterations =  2.0

     negative rho (up, down):  2.541E-01 0.000E+00

     total cpu time spent up to now is      929.6 secs

     total energy              =   -7997.65156558 Ry
     estimated scf accuracy    <       2.01600950 Ry

     iteration #132     ecut=    60.00 Ry     beta= 0.22
     Davidson diagonalization with overlap
     ethr =  5.43E-04,  avg # of iterations =  1.0

     negative rho (up, down):  2.390E-01 0.000E+00

     total cpu time spent up to now is      936.4 secs

     total energy              =   -7997.59896349 Ry
     estimated scf accuracy    <       2.52812190 Ry

     iteration #133     ecut=    60.00 Ry     beta= 0.22
     Davidson diagonalization with overlap
     ethr =  5.43E-04,  avg # of iterations =  2.0

     negative rho (up, down):  2.446E-01 0.000E+00

     total cpu time spent up to now is      944.0 secs

     total energy              =   -7997.56340571 Ry
     estimated scf accuracy    <       3.12398978 Ry

     iteration #134     ecut=    60.00 Ry     beta= 0.22
     Davidson diagonalization with overlap
     ethr =  5.43E-04,  avg # of iterations =  2.0

     negative rho (up, down):  2.547E-01 0.000E+00

     total cpu time spent up to now is      951.6 secs

     total energy              =   -7997.61553530 Ry
     estimated scf accuracy    <       0.87694788 Ry

     iteration #135     ecut=    60.00 Ry     beta= 0.22
     Davidson diagonalization with overlap
     ethr =  2.38E-04,  avg # of iterations =  2.0

     negative rho (up, down):  2.575E-01 0.000E+00

     total cpu time spent up to now is      959.1 secs

     total energy              =   -7997.60609957 Ry
     estimated scf accuracy    <       1.81595371 Ry

     iteration #136     ecut=    60.00 Ry     beta= 0.22
     Davidson diagonalization with overlap
     ethr =  2.38E-04,  avg # of iterations =  2.0

     negative rho (up, down):  2.505E-01 0.000E+00

     total cpu time spent up to now is      966.6 secs

     total energy              =   -7997.58458328 Ry
     estimated scf accuracy    <       1.71642938 Ry

     iteration #137     ecut=    60.00 Ry     beta= 0.22
     Davidson diagonalization with overlap
     ethr =  2.38E-04,  avg # of iterations =  2.0

     negative rho (up, down):  2.570E-01 0.000E+00

     total cpu time spent up to now is      974.2 secs

     total energy              =   -7997.57764542 Ry
     estimated scf accuracy    <       1.02845361 Ry

     iteration #138     ecut=    60.00 Ry     beta= 0.22
     Davidson diagonalization with overlap
     ethr =  2.38E-04,  avg # of iterations =  2.0

     negative rho (up, down):  2.521E-01 0.000E+00

     total cpu time spent up to now is      982.3 secs

     total energy              =   -7997.62893416 Ry
     estimated scf accuracy    <       4.37313310 Ry

     iteration #139     ecut=    60.00 Ry     beta= 0.22
     Davidson diagonalization with overlap
     ethr =  2.38E-04,  avg # of iterations =  2.0

     negative rho (up, down):  2.524E-01 0.000E+00

     total cpu time spent up to now is      989.8 secs

     total energy              =   -7997.66020716 Ry
     estimated scf accuracy    <       2.52474718 Ry

     iteration #140     ecut=    60.00 Ry     beta= 0.22
     Davidson diagonalization with overlap
     ethr =  2.38E-04,  avg # of iterations =  1.0

     negative rho (up, down):  2.524E-01 0.000E+00

     total cpu time spent up to now is      996.6 secs

     total energy              =   -7997.65334660 Ry
     estimated scf accuracy    <       2.72427536 Ry

     iteration #141     ecut=    60.00 Ry     beta= 0.22
     Davidson diagonalization with overlap
     ethr =  2.38E-04,  avg # of iterations =  1.0

     negative rho (up, down):  2.449E-01 0.000E+00

     total cpu time spent up to now is     1003.4 secs

     total energy              =   -7997.61507566 Ry
     estimated scf accuracy    <       2.69787813 Ry

     iteration #142     ecut=    60.00 Ry     beta= 0.22
     Davidson diagonalization with overlap
     ethr =  2.38E-04,  avg # of iterations =  1.6

     negative rho (up, down):  2.435E-01 0.000E+00

     total cpu time spent up to now is     1010.7 secs

     total energy              =   -7997.60393531 Ry
     estimated scf accuracy    <       1.28478744 Ry

     iteration #143     ecut=    60.00 Ry     beta= 0.22
     Davidson diagonalization with overlap
     ethr =  2.38E-04,  avg # of iterations =  1.4

     negative rho (up, down):  2.443E-01 0.000E+00

     total cpu time spent up to now is     1017.8 secs

     total energy              =   -7997.59862285 Ry
     estimated scf accuracy    <       0.42281232 Ry

     iteration #144     ecut=    60.00 Ry     beta= 0.22
     Davidson diagonalization with overlap
     ethr =  1.15E-04,  avg # of iterations =  2.0

     negative rho (up, down):  2.442E-01 0.000E+00

     total cpu time spent up to now is     1025.3 secs

     total energy              =   -7997.60656329 Ry
     estimated scf accuracy    <       0.06680695 Ry

     iteration #145     ecut=    60.00 Ry     beta= 0.22
     Davidson diagonalization with overlap
     ethr =  1.82E-05,  avg # of iterations =  1.2

     negative rho (up, down):  2.438E-01 0.000E+00

     total cpu time spent up to now is     1032.2 secs

     total energy              =   -7997.60744649 Ry
     estimated scf accuracy    <       0.05078068 Ry

     iteration #146     ecut=    60.00 Ry     beta= 0.22
     Davidson diagonalization with overlap
     ethr =  1.38E-05,  avg # of iterations =  1.0

     negative rho (up, down):  2.423E-01 0.000E+00

     total cpu time spent up to now is     1039.1 secs

     total energy              =   -7997.60821007 Ry
     estimated scf accuracy    <       0.04314733 Ry

     iteration #147     ecut=    60.00 Ry     beta= 0.22
     Davidson diagonalization with overlap
     ethr =  1.17E-05,  avg # of iterations =  1.4

     negative rho (up, down):  2.410E-01 0.000E+00

     total cpu time spent up to now is     1046.0 secs

     total energy              =   -7997.60932925 Ry
     estimated scf accuracy    <       0.02608178 Ry

     iteration #148     ecut=    60.00 Ry     beta= 0.22
     Davidson diagonalization with overlap
     ethr =  7.09E-06,  avg # of iterations =  3.0

     negative rho (up, down):  2.393E-01 0.000E+00

     total cpu time spent up to now is     1053.5 secs

     total energy              =   -7997.61125991 Ry
     estimated scf accuracy    <       0.02252554 Ry

     iteration #149     ecut=    60.00 Ry     beta= 0.22
     Davidson diagonalization with overlap
     ethr =  6.12E-06,  avg # of iterations =  1.2

     negative rho (up, down):  2.369E-01 0.000E+00

     total cpu time spent up to now is     1060.5 secs

     total energy              =   -7997.61386495 Ry
     estimated scf accuracy    <       0.04800049 Ry

     iteration #150     ecut=    60.00 Ry     beta= 0.22
     Davidson diagonalization with overlap
     ethr =  6.12E-06,  avg # of iterations =  2.0

     negative rho (up, down):  2.359E-01 0.000E+00

     total cpu time spent up to now is     1068.2 secs

     total energy              =   -7997.61477821 Ry
     estimated scf accuracy    <       0.11903937 Ry

     iteration #151     ecut=    60.00 Ry     beta= 0.22
     Davidson diagonalization with overlap
     ethr =  6.12E-06,  avg # of iterations =  1.4

     negative rho (up, down):  2.341E-01 0.000E+00

     total cpu time spent up to now is     1075.3 secs

     total energy              =   -7997.61218862 Ry
     estimated scf accuracy    <       0.08244628 Ry

     iteration #152     ecut=    60.00 Ry     beta= 0.22
     Davidson diagonalization with overlap
     ethr =  6.12E-06,  avg # of iterations =  2.0

     negative rho (up, down):  2.346E-01 0.000E+00

     total cpu time spent up to now is     1083.3 secs

     total energy              =   -7997.61467670 Ry
     estimated scf accuracy    <       0.07776374 Ry

     iteration #153     ecut=    60.00 Ry     beta= 0.22
     Davidson diagonalization with overlap
     ethr =  6.12E-06,  avg # of iterations =  1.2

     negative rho (up, down):  2.353E-01 0.000E+00

     total cpu time spent up to now is     1090.3 secs

     total energy              =   -7997.61328599 Ry
     estimated scf accuracy    <       0.03519912 Ry

     iteration #154     ecut=    60.00 Ry     beta= 0.22
     Davidson diagonalization with overlap
     ethr =  6.12E-06,  avg # of iterations =  2.0

     negative rho (up, down):  2.341E-01 0.000E+00

     total cpu time spent up to now is     1097.9 secs

     total energy              =   -7997.61443914 Ry
     estimated scf accuracy    <       0.02091861 Ry

     iteration #155     ecut=    60.00 Ry     beta= 0.22
     Davidson diagonalization with overlap
     ethr =  5.68E-06,  avg # of iterations =  2.0

     negative rho (up, down):  2.336E-01 0.000E+00

     total cpu time spent up to now is     1105.9 secs

     total energy              =   -7997.62124088 Ry
     estimated scf accuracy    <       0.15339878 Ry

     iteration #156     ecut=    60.00 Ry     beta= 0.22
     Davidson diagonalization with overlap
     ethr =  5.68E-06,  avg # of iterations =  2.0

     negative rho (up, down):  2.337E-01 0.000E+00

     total cpu time spent up to now is     1113.6 secs

     total energy              =   -7997.62156182 Ry
     estimated scf accuracy    <       0.30544112 Ry

     iteration #157     ecut=    60.00 Ry     beta= 0.22
     Davidson diagonalization with overlap
     ethr =  5.68E-06,  avg # of iterations =  1.0

     negative rho (up, down):  2.339E-01 0.000E+00

     total cpu time spent up to now is     1120.4 secs

     total energy              =   -7997.61888726 Ry
     estimated scf accuracy    <       0.30072805 Ry

     iteration #158     ecut=    60.00 Ry     beta= 0.22
     Davidson diagonalization with overlap
     ethr =  5.68E-06,  avg # of iterations =  2.0

     negative rho (up, down):  2.344E-01 0.000E+00

     total cpu time spent up to now is     1128.0 secs

     total energy              =   -7997.61649429 Ry
     estimated scf accuracy    <       0.22234656 Ry

     iteration #159     ecut=    60.00 Ry     beta= 0.22
     Davidson diagonalization with overlap
     ethr =  5.68E-06,  avg # of iterations =  2.0

     negative rho (up, down):  2.346E-01 0.000E+00

     total cpu time spent up to now is     1135.5 secs

     total energy              =   -7997.61543225 Ry
     estimated scf accuracy    <       0.12355427 Ry

     iteration #160     ecut=    60.00 Ry     beta= 0.22
     Davidson diagonalization with overlap
     ethr =  5.68E-06,  avg # of iterations =  1.4

     negative rho (up, down):  2.351E-01 0.000E+00

     total cpu time spent up to now is     1142.7 secs

     total energy              =   -7997.61154835 Ry
     estimated scf accuracy    <       0.07052776 Ry

     iteration #161     ecut=    60.00 Ry     beta= 0.22
     Davidson diagonalization with overlap
     ethr =  5.68E-06,  avg # of iterations =  2.0

     negative rho (up, down):  2.349E-01 0.000E+00

     total cpu time spent up to now is     1150.6 secs

     total energy              =   -7997.61387065 Ry
     estimated scf accuracy    <       0.00625427 Ry

     iteration #162     ecut=    60.00 Ry     beta= 0.22
     Davidson diagonalization with overlap
     ethr =  1.70E-06,  avg # of iterations =  2.0

     negative rho (up, down):  2.352E-01 0.000E+00

     total cpu time spent up to now is     1158.5 secs

     total energy              =   -7997.61328250 Ry
     estimated scf accuracy    <       0.01069463 Ry

     iteration #163     ecut=    60.00 Ry     beta= 0.22
     Davidson diagonalization with overlap
     ethr =  1.70E-06,  avg # of iterations =  2.0

     negative rho (up, down):  2.349E-01 0.000E+00

     total cpu time spent up to now is     1166.4 secs

     total energy              =   -7997.61363977 Ry
     estimated scf accuracy    <       0.00838878 Ry

     iteration #164     ecut=    60.00 Ry     beta= 0.22
     Davidson diagonalization with overlap
     ethr =  1.70E-06,  avg # of iterations =  2.0

     negative rho (up, down):  2.349E-01 0.000E+00

     total cpu time spent up to now is     1174.3 secs

     total energy              =   -7997.61414875 Ry
     estimated scf accuracy    <       0.00697772 Ry

     iteration #165     ecut=    60.00 Ry     beta= 0.22
     Davidson diagonalization with overlap
     ethr =  1.70E-06,  avg # of iterations =  1.0

     negative rho (up, down):  2.349E-01 0.000E+00

     total cpu time spent up to now is     1181.2 secs

     total energy              =   -7997.61426027 Ry
     estimated scf accuracy    <       0.00500555 Ry

     iteration #166     ecut=    60.00 Ry     beta= 0.22
     Davidson diagonalization with overlap
     ethr =  1.36E-06,  avg # of iterations =  1.0

     negative rho (up, down):  2.350E-01 0.000E+00

     total cpu time spent up to now is     1188.0 secs

     total energy              =   -7997.61411229 Ry
     estimated scf accuracy    <       0.00713156 Ry

     iteration #167     ecut=    60.00 Ry     beta= 0.22
     Davidson diagonalization with overlap
     ethr =  1.36E-06,  avg # of iterations =  1.0

     negative rho (up, down):  2.350E-01 0.000E+00

     total cpu time spent up to now is     1194.8 secs

     total energy              =   -7997.61420671 Ry
     estimated scf accuracy    <       0.00579430 Ry

     iteration #168     ecut=    60.00 Ry     beta= 0.22
     Davidson diagonalization with overlap
     ethr =  1.36E-06,  avg # of iterations =  1.0

     negative rho (up, down):  2.349E-01 0.000E+00

     total cpu time spent up to now is     1201.6 secs

     total energy              =   -7997.61424279 Ry
     estimated scf accuracy    <       0.00679999 Ry

     iteration #169     ecut=    60.00 Ry     beta= 0.22
     Davidson diagonalization with overlap
     ethr =  1.36E-06,  avg # of iterations =  1.0

     negative rho (up, down):  2.349E-01 0.000E+00

     total cpu time spent up to now is     1208.5 secs

     total energy              =   -7997.61425679 Ry
     estimated scf accuracy    <       0.00781228 Ry

     iteration #170     ecut=    60.00 Ry     beta= 0.22
     Davidson diagonalization with overlap
     ethr =  1.36E-06,  avg # of iterations =  1.0

     negative rho (up, down):  2.349E-01 0.000E+00

     total cpu time spent up to now is     1215.2 secs

     total energy              =   -7997.61432321 Ry
     estimated scf accuracy    <       0.00819541 Ry

     iteration #171     ecut=    60.00 Ry     beta= 0.22
     Davidson diagonalization with overlap
     ethr =  1.36E-06,  avg # of iterations =  1.0

     negative rho (up, down):  2.351E-01 0.000E+00

     total cpu time spent up to now is     1222.0 secs

     total energy              =   -7997.61384333 Ry
     estimated scf accuracy    <       0.01079390 Ry

     iteration #172     ecut=    60.00 Ry     beta= 0.22
     Davidson diagonalization with overlap
     ethr =  1.36E-06,  avg # of iterations =  2.0

     negative rho (up, down):  2.351E-01 0.000E+00

     total cpu time spent up to now is     1230.1 secs

     total energy              =   -7997.61416547 Ry
     estimated scf accuracy    <       0.05038914 Ry

     iteration #173     ecut=    60.00 Ry     beta= 0.22
     Davidson diagonalization with overlap
     ethr =  1.36E-06,  avg # of iterations =  2.0

     negative rho (up, down):  2.352E-01 0.000E+00

     total cpu time spent up to now is     1237.8 secs

     total energy              =   -7997.61394485 Ry
     estimated scf accuracy    <       0.01879310 Ry

     iteration #174     ecut=    60.00 Ry     beta= 0.22
     Davidson diagonalization with overlap
     ethr =  1.36E-06,  avg # of iterations =  2.0

     negative rho (up, down):  2.354E-01 0.000E+00

     total cpu time spent up to now is     1245.4 secs

     total energy              =   -7997.61382678 Ry
     estimated scf accuracy    <       0.00809807 Ry

     iteration #175     ecut=    60.00 Ry     beta= 0.22
     Davidson diagonalization with overlap
     ethr =  1.36E-06,  avg # of iterations =  2.0

     negative rho (up, down):  2.353E-01 0.000E+00

     total cpu time spent up to now is     1252.9 secs

     total energy              =   -7997.61401212 Ry
     estimated scf accuracy    <       0.00526990 Ry

     iteration #176     ecut=    60.00 Ry     beta= 0.22
     Davidson diagonalization with overlap
     ethr =  1.36E-06,  avg # of iterations =  2.0

     negative rho (up, down):  2.354E-01 0.000E+00

     total cpu time spent up to now is     1260.6 secs

     total energy              =   -7997.61385630 Ry
     estimated scf accuracy    <       0.01380221 Ry

     iteration #177     ecut=    60.00 Ry     beta= 0.22
     Davidson diagonalization with overlap
     ethr =  1.36E-06,  avg # of iterations =  2.0

     negative rho (up, down):  2.355E-01 0.000E+00

     total cpu time spent up to now is     1268.1 secs

     total energy              =   -7997.61388944 Ry
     estimated scf accuracy    <       0.00608085 Ry

     iteration #178     ecut=    60.00 Ry     beta= 0.22
     Davidson diagonalization with overlap
     ethr =  1.36E-06,  avg # of iterations =  1.8

     negative rho (up, down):  2.355E-01 0.000E+00

     total cpu time spent up to now is     1275.5 secs

     total energy              =   -7997.61392958 Ry
     estimated scf accuracy    <       0.00931356 Ry

     iteration #179     ecut=    60.00 Ry     beta= 0.22
     Davidson diagonalization with overlap
     ethr =  1.36E-06,  avg # of iterations =  1.0

     negative rho (up, down):  2.351E-01 0.000E+00

     total cpu time spent up to now is     1282.3 secs

     total energy              =   -7997.61371197 Ry
     estimated scf accuracy    <       0.00840171 Ry

     iteration #180     ecut=    60.00 Ry     beta= 0.22
     Davidson diagonalization with overlap
     ethr =  1.36E-06,  avg # of iterations =  2.0

     negative rho (up, down):  2.351E-01 0.000E+00

     total cpu time spent up to now is     1290.2 secs

     total energy              =   -7997.61423244 Ry
     estimated scf accuracy    <       0.00805092 Ry

     iteration #181     ecut=    60.00 Ry     beta= 0.22
     Davidson diagonalization with overlap
     ethr =  1.36E-06,  avg # of iterations =  1.6

     negative rho (up, down):  2.354E-01 0.000E+00

     total cpu time spent up to now is     1297.5 secs

     total energy              =   -7997.61369137 Ry
     estimated scf accuracy    <       0.01355765 Ry

     iteration #182     ecut=    60.00 Ry     beta= 0.22
     Davidson diagonalization with overlap
     ethr =  1.36E-06,  avg # of iterations =  2.0

     negative rho (up, down):  2.353E-01 0.000E+00

     total cpu time spent up to now is     1305.1 secs

     total energy              =   -7997.61392247 Ry
     estimated scf accuracy    <       0.00494695 Ry

     iteration #183     ecut=    60.00 Ry     beta= 0.22
     Davidson diagonalization with overlap
     ethr =  1.34E-06,  avg # of iterations =  1.0

     negative rho (up, down):  2.355E-01 0.000E+00

     total cpu time spent up to now is     1311.9 secs

     total energy              =   -7997.61378601 Ry
     estimated scf accuracy    <       0.00436126 Ry

     iteration #184     ecut=    60.00 Ry     beta= 0.22
     Davidson diagonalization with overlap
     ethr =  1.19E-06,  avg # of iterations =  2.0

     negative rho (up, down):  2.355E-01 0.000E+00

     total cpu time spent up to now is     1319.5 secs

     total energy              =   -7997.61384373 Ry
     estimated scf accuracy    <       0.00363432 Ry

     iteration #185     ecut=    60.00 Ry     beta= 0.22
     Davidson diagonalization with overlap
     ethr =  9.88E-07,  avg # of iterations =  1.0

     negative rho (up, down):  2.353E-01 0.000E+00

     total cpu time spent up to now is     1326.3 secs

     total energy              =   -7997.61386685 Ry
     estimated scf accuracy    <       0.00328283 Ry

     iteration #186     ecut=    60.00 Ry     beta= 0.22
     Davidson diagonalization with overlap
     ethr =  8.92E-07,  avg # of iterations =  1.2

     negative rho (up, down):  2.355E-01 0.000E+00

     total cpu time spent up to now is     1333.2 secs

     total energy              =   -7997.61388882 Ry
     estimated scf accuracy    <       0.00270116 Ry

     iteration #187     ecut=    60.00 Ry     beta= 0.22
     Davidson diagonalization with overlap
     ethr =  7.34E-07,  avg # of iterations =  2.0

     negative rho (up, down):  2.355E-01 0.000E+00

     total cpu time spent up to now is     1340.9 secs

     total energy              =   -7997.61398788 Ry
     estimated scf accuracy    <       0.01140837 Ry

     iteration #188     ecut=    60.00 Ry     beta= 0.22
     Davidson diagonalization with overlap
     ethr =  7.34E-07,  avg # of iterations =  1.0

     negative rho (up, down):  2.355E-01 0.000E+00

     total cpu time spent up to now is     1347.7 secs

     total energy              =   -7997.61398222 Ry
     estimated scf accuracy    <       0.01209008 Ry

     iteration #189     ecut=    60.00 Ry     beta= 0.22
     Davidson diagonalization with overlap
     ethr =  7.34E-07,  avg # of iterations =  1.0

     negative rho (up, down):  2.352E-01 0.000E+00

     total cpu time spent up to now is     1354.5 secs

     total energy              =   -7997.61396451 Ry
     estimated scf accuracy    <       0.01061260 Ry

     iteration #190     ecut=    60.00 Ry     beta= 0.22
     Davidson diagonalization with overlap
     ethr =  7.34E-07,  avg # of iterations =  2.0

     negative rho (up, down):  2.354E-01 0.000E+00

     total cpu time spent up to now is     1362.0 secs

     total energy              =   -7997.61391391 Ry
     estimated scf accuracy    <       0.00387955 Ry

     iteration #191     ecut=    60.00 Ry     beta= 0.22
     Davidson diagonalization with overlap
     ethr =  7.34E-07,  avg # of iterations =  1.0

     negative rho (up, down):  2.353E-01 0.000E+00

     total cpu time spent up to now is     1368.8 secs

     total energy              =   -7997.61396316 Ry
     estimated scf accuracy    <       0.00479924 Ry

     iteration #192     ecut=    60.00 Ry     beta= 0.22
     Davidson diagonalization with overlap
     ethr =  7.34E-07,  avg # of iterations =  1.2

     negative rho (up, down):  2.353E-01 0.000E+00

     total cpu time spent up to now is     1375.8 secs

     total energy              =   -7997.61398389 Ry
     estimated scf accuracy    <       0.00382724 Ry

     iteration #193     ecut=    60.00 Ry     beta= 0.22
     Davidson diagonalization with overlap
     ethr =  7.34E-07,  avg # of iterations =  1.0

     negative rho (up, down):  2.352E-01 0.000E+00

     total cpu time spent up to now is     1382.6 secs

     total energy              =   -7997.61397064 Ry
     estimated scf accuracy    <       0.00400869 Ry

     iteration #194     ecut=    60.00 Ry     beta= 0.22
     Davidson diagonalization with overlap
     ethr =  7.34E-07,  avg # of iterations =  1.0

     negative rho (up, down):  2.352E-01 0.000E+00

     total cpu time spent up to now is     1389.4 secs

     total energy              =   -7997.61399634 Ry
     estimated scf accuracy    <       0.00367411 Ry

     iteration #195     ecut=    60.00 Ry     beta= 0.22
     Davidson diagonalization with overlap
     ethr =  7.34E-07,  avg # of iterations =  1.0

     negative rho (up, down):  2.352E-01 0.000E+00

     total cpu time spent up to now is     1396.2 secs

     total energy              =   -7997.61402796 Ry
     estimated scf accuracy    <       0.00416090 Ry

     iteration #196     ecut=    60.00 Ry     beta= 0.22
     Davidson diagonalization with overlap
     ethr =  7.34E-07,  avg # of iterations =  1.0

     negative rho (up, down):  2.353E-01 0.000E+00

     total cpu time spent up to now is     1403.0 secs

     total energy              =   -7997.61392377 Ry
     estimated scf accuracy    <       0.00461296 Ry

     iteration #197     ecut=    60.00 Ry     beta= 0.22
     Davidson diagonalization with overlap
     ethr =  7.34E-07,  avg # of iterations =  1.4

     negative rho (up, down):  2.353E-01 0.000E+00

     total cpu time spent up to now is     1410.1 secs

     total energy              =   -7997.61396319 Ry
     estimated scf accuracy    <       0.00342420 Ry

     iteration #198     ecut=    60.00 Ry     beta= 0.22
     Davidson diagonalization with overlap
     ethr =  7.34E-07,  avg # of iterations =  1.0

     negative rho (up, down):  2.352E-01 0.000E+00

     total cpu time spent up to now is     1416.9 secs

     total energy              =   -7997.61400071 Ry
     estimated scf accuracy    <       0.00344771 Ry

     iteration #199     ecut=    60.00 Ry     beta= 0.22
     Davidson diagonalization with overlap
     ethr =  7.34E-07,  avg # of iterations =  1.0

     negative rho (up, down):  2.353E-01 0.000E+00

     total cpu time spent up to now is     1423.7 secs

     total energy              =   -7997.61396012 Ry
     estimated scf accuracy    <       0.00383980 Ry

     iteration #200     ecut=    60.00 Ry     beta= 0.22
     Davidson diagonalization with overlap
     ethr =  7.34E-07,  avg # of iterations =  1.0

     negative rho (up, down):  2.352E-01 0.000E+00

     total cpu time spent up to now is     1430.5 secs

     total energy              =   -7997.61398593 Ry
     estimated scf accuracy    <       0.00260835 Ry

     iteration #201     ecut=    60.00 Ry     beta= 0.22
     Davidson diagonalization with overlap
     ethr =  7.09E-07,  avg # of iterations =  2.0

     negative rho (up, down):  2.352E-01 0.000E+00

     total cpu time spent up to now is     1438.0 secs

     total energy              =   -7997.61403952 Ry
     estimated scf accuracy    <       0.00537037 Ry

     iteration #202     ecut=    60.00 Ry     beta= 0.22
     Davidson diagonalization with overlap
     ethr =  7.09E-07,  avg # of iterations =  1.0

     negative rho (up, down):  2.353E-01 0.000E+00

     total cpu time spent up to now is     1444.8 secs

     total energy              =   -7997.61397997 Ry
     estimated scf accuracy    <       0.00468658 Ry

     iteration #203     ecut=    60.00 Ry     beta= 0.22
     Davidson diagonalization with overlap
     ethr =  7.09E-07,  avg # of iterations =  2.0

     negative rho (up, down):  2.353E-01 0.000E+00

     total cpu time spent up to now is     1452.4 secs

     total energy              =   -7997.61379370 Ry
     estimated scf accuracy    <       0.00514472 Ry

     iteration #204     ecut=    60.00 Ry     beta= 0.22
     Davidson diagonalization with overlap
     ethr =  7.09E-07,  avg # of iterations =  2.0

     negative rho (up, down):  2.354E-01 0.000E+00

     total cpu time spent up to now is     1460.2 secs

     total energy              =   -7997.61378331 Ry
     estimated scf accuracy    <       0.00287921 Ry

     iteration #205     ecut=    60.00 Ry     beta= 0.22
     Davidson diagonalization with overlap
     ethr =  7.09E-07,  avg # of iterations =  2.0

     negative rho (up, down):  2.355E-01 0.000E+00

     total cpu time spent up to now is     1467.7 secs

     total energy              =   -7997.61374887 Ry
     estimated scf accuracy    <       0.00132607 Ry

     iteration #206     ecut=    60.00 Ry     beta= 0.22
     Davidson diagonalization with overlap
     ethr =  3.60E-07,  avg # of iterations =  1.2

     negative rho (up, down):  2.354E-01 0.000E+00

     total cpu time spent up to now is     1474.7 secs

     total energy              =   -7997.61379783 Ry
     estimated scf accuracy    <       0.00134514 Ry

     iteration #207     ecut=    60.00 Ry     beta= 0.22
     Davidson diagonalization with overlap
     ethr =  3.60E-07,  avg # of iterations =  1.0

     negative rho (up, down):  2.355E-01 0.000E+00

     total cpu time spent up to now is     1481.5 secs

     total energy              =   -7997.61375334 Ry
     estimated scf accuracy    <       0.00124457 Ry

     iteration #208     ecut=    60.00 Ry     beta= 0.22
     Davidson diagonalization with overlap
     ethr =  3.38E-07,  avg # of iterations =  1.0

     negative rho (up, down):  2.354E-01 0.000E+00

     total cpu time spent up to now is     1488.3 secs

     total energy              =   -7997.61378562 Ry
     estimated scf accuracy    <       0.00088802 Ry

     iteration #209     ecut=    60.00 Ry     beta= 0.22
     Davidson diagonalization with overlap
     ethr =  2.41E-07,  avg # of iterations =  1.0

     negative rho (up, down):  2.354E-01 0.000E+00

     total cpu time spent up to now is     1495.1 secs

     total energy              =   -7997.61380543 Ry
     estimated scf accuracy    <       0.00037696 Ry

     iteration #210     ecut=    60.00 Ry     beta= 0.22
     Davidson diagonalization with overlap
     ethr =  1.02E-07,  avg # of iterations =  1.0

     negative rho (up, down):  2.354E-01 0.000E+00

     total cpu time spent up to now is     1501.9 secs

     total energy              =   -7997.61378976 Ry
     estimated scf accuracy    <       0.00042465 Ry

     iteration #211     ecut=    60.00 Ry     beta= 0.22
     Davidson diagonalization with overlap
     ethr =  1.02E-07,  avg # of iterations =  1.0

     negative rho (up, down):  2.354E-01 0.000E+00

     total cpu time spent up to now is     1508.7 secs

     total energy              =   -7997.61378046 Ry
     estimated scf accuracy    <       0.00009615 Ry

     iteration #212     ecut=    60.00 Ry     beta= 0.22
     Davidson diagonalization with overlap
     ethr =  2.61E-08,  avg # of iterations =  1.2

     negative rho (up, down):  2.355E-01 0.000E+00

     total cpu time spent up to now is     1515.7 secs

     total energy              =   -7997.61373931 Ry
     estimated scf accuracy    <       0.00011626 Ry

     iteration #213     ecut=    60.00 Ry     beta= 0.22
     Davidson diagonalization with overlap
     ethr =  2.61E-08,  avg # of iterations =  2.0

     negative rho (up, down):  2.355E-01 0.000E+00

     total cpu time spent up to now is     1523.2 secs

     total energy              =   -7997.61375184 Ry
     estimated scf accuracy    <       0.00004777 Ry

     iteration #214     ecut=    60.00 Ry     beta= 0.22
     Davidson diagonalization with overlap
     ethr =  1.30E-08,  avg # of iterations =  1.0

     negative rho (up, down):  2.355E-01 0.000E+00

     total cpu time spent up to now is     1530.0 secs

     total energy              =   -7997.61374642 Ry
     estimated scf accuracy    <       0.00003666 Ry

     iteration #215     ecut=    60.00 Ry     beta= 0.22
     Davidson diagonalization with overlap
     ethr =  9.96E-09,  avg # of iterations =  2.0

     negative rho (up, down):  2.354E-01 0.000E+00

     total cpu time spent up to now is     1537.6 secs

     total energy              =   -7997.61378596 Ry
     estimated scf accuracy    <       0.00007366 Ry

     iteration #216     ecut=    60.00 Ry     beta= 0.22
     Davidson diagonalization with overlap
     ethr =  9.96E-09,  avg # of iterations =  2.0

     negative rho (up, down):  2.355E-01 0.000E+00

     total cpu time spent up to now is     1545.3 secs

     total energy              =   -7997.61375965 Ry
     estimated scf accuracy    <       0.00006270 Ry

     iteration #217     ecut=    60.00 Ry     beta= 0.22
     Davidson diagonalization with overlap
     ethr =  9.96E-09,  avg # of iterations =  2.0

     negative rho (up, down):  2.354E-01 0.000E+00

     total cpu time spent up to now is     1553.0 secs

     total energy              =   -7997.61380278 Ry
     estimated scf accuracy    <       0.00004147 Ry

     iteration #218     ecut=    60.00 Ry     beta= 0.22
     Davidson diagonalization with overlap
     ethr =  9.96E-09,  avg # of iterations =  2.0

     negative rho (up, down):  2.354E-01 0.000E+00

     total cpu time spent up to now is     1560.7 secs

     total energy              =   -7997.61379001 Ry
     estimated scf accuracy    <       0.00005466 Ry

     iteration #219     ecut=    60.00 Ry     beta= 0.22
     Davidson diagonalization with overlap
     ethr =  9.96E-09,  avg # of iterations =  2.0

     negative rho (up, down):  2.354E-01 0.000E+00

     total cpu time spent up to now is     1568.2 secs

     total energy              =   -7997.61379353 Ry
     estimated scf accuracy    <       0.00007795 Ry

     iteration #220     ecut=    60.00 Ry     beta= 0.22
     Davidson diagonalization with overlap
     ethr =  9.96E-09,  avg # of iterations =  2.0

     negative rho (up, down):  2.356E-01 0.000E+00

     total cpu time spent up to now is     1575.7 secs

     End of self-consistent calculation

          k = 0.0000 0.0000 0.0000 ( 15831 PWs)   bands (ev):

   -89.2758 -89.2721 -89.2668 -89.2627 -89.2512 -89.2371 -89.2282 -89.2204
   -89.2184 -89.2109 -89.2048 -89.2046 -89.1955 -89.1907 -89.1822 -89.1815
   -61.3274 -61.3239 -61.3234 -61.3217 -61.2679 -61.2670 -61.2647 -61.2646
   -49.9598 -49.9429 -49.9233 -49.8892 -49.8349 -49.7915 -49.7772 -49.7536
   -49.7202 -49.7142 -49.7109 -49.7032 -49.6955 -49.6923 -49.6912 -49.6872
   -49.6125 -49.6116 -49.6077 -49.6041 -49.5766 -49.5719 -49.5682 -49.5662
   -49.5639 -49.5632 -49.5384 -49.5331 -49.5245 -49.5235 -49.5224 -49.5207
   -49.5153 -49.5139 -49.5125 -49.5118 -49.5098 -49.5072 -49.5055 -49.4972
   -49.4577 -49.4547 -49.4516 -49.4485 -49.4460 -49.4426 -49.4181 -49.4113
   -28.0832 -28.0785 -28.0776 -28.0764 -28.0745 -28.0742 -28.0730 -28.0725
   -28.0721 -28.0710 -28.0591 -28.0559 -28.0234 -28.0227 -28.0118 -28.0107
   -28.0105 -28.0099 -28.0084 -28.0082 -28.0073 -28.0070 -27.9997 -27.9991
     5.1844   5.8091   5.8446   7.3125   8.0052   9.2476   9.2517   9.3340
     9.9221   9.9506  10.0475  10.1792  10.2970  10.3109  10.3201  10.3542
    10.3579  10.3685  10.4881  10.5028  10.5633  10.6168  10.6307  10.6585
    10.6833  10.6892  10.7784  10.7887  10.8467  10.8556  11.1847  11.1914
    11.2236  11.2322  11.2331  11.2431  11.4728  11.4865  11.6526  11.6713
    11.6750  11.7155  11.7220  11.7313  11.9210  11.9319  12.2006  12.4075
    12.4236  12.4623  12.4687  12.4892  12.6411  12.6505  12.7923  12.7963
    12.9171  12.9317  13.0399  13.0449  13.0474  13.0510  13.0606  13.0656
    13.0685  13.0736  13.0808  13.0909  13.0942  13.0974  13.0988  13.1091
    13.1179  13.1783  13.1810  13.1885  13.1916  13.3054  13.3123  13.6549
    13.6589  13.9526  13.9542  14.1706  14.1761  14.1775  14.1855  14.5015
    14.6902  14.8564  14.9045  14.9189  14.9255  14.9396  14.9693  15.0758
    15.2804  15.3014  15.3637  15.3779  16.7078  16.7212  16.7833  16.7906
    17.2712  17.3054  17.6611  17.7053  18.3639  18.3957  18.4073  18.6480
    18.7304  18.9210  19.3188  19.3363  19.7363  19.7584  20.1372  20.3844
    20.4070  20.6911  20.9089  22.2832  22.4379

          k = 0.0002 0.3862-0.0004 ( 15947 PWs)   bands (ev):

   -89.2733 -89.2707 -89.2653 -89.2630 -89.2505 -89.2318 -89.2259 -89.2181
   -89.2178 -89.2139 -89.2094 -89.2051 -89.1977 -89.1943 -89.1873 -89.1818
   -61.3273 -61.3238 -61.3233 -61.3216 -61.2680 -61.2671 -61.2648 -61.2647
   -49.9226 -49.9088 -49.8892 -49.8477 -49.8426 -49.7905 -49.7777 -49.7543
   -49.7304 -49.7239 -49.7101 -49.7072 -49.7000 -49.6941 -49.6785 -49.6746
   -49.6191 -49.6148 -49.6104 -49.6049 -49.5714 -49.5693 -49.5662 -49.5658
   -49.5633 -49.5630 -49.5390 -49.5345 -49.5336 -49.5294 -49.5285 -49.5240
   -49.5185 -49.5151 -49.5130 -49.5116 -49.5056 -49.5034 -49.4990 -49.4943
   -49.4762 -49.4749 -49.4671 -49.4655 -49.4618 -49.4557 -49.4327 -49.4241
   -28.0841 -28.0797 -28.0781 -28.0760 -28.0741 -28.0736 -28.0734 -28.0733
   -28.0720 -28.0713 -28.0601 -28.0570 -28.0223 -28.0216 -28.0122 -28.0118
   -28.0110 -28.0096 -28.0092 -28.0090 -28.0065 -28.0062 -27.9989 -27.9983
     6.1995   6.7910   6.8295   8.2489   8.7369   8.9243   9.2006   9.2453
     9.7503   9.7883   9.9397  10.0525  10.1452  10.2383  10.3271  10.4109
    10.4600  10.5332  10.5780  10.5933  10.6045  10.6463  10.7909  10.8511
    10.9272  10.9393  11.0116  11.0786  11.0929  11.0978  11.1082  11.2315
    11.2380  11.2758  11.2932  11.3393  11.3681  11.3939  11.4498  11.5094
    11.6042  11.6387  11.6461  11.6746  11.7547  11.8483  11.8979  11.9169
    11.9212  12.0445  12.0674  12.1149  12.1296  12.1820  12.2701  12.2926
    12.3131  12.3803  12.4599  12.4812  12.5028  12.6064  12.6254  12.6367
    12.7035  12.7480  12.7506  12.8125  12.8244  12.8680  12.9111  12.9648
    12.9829  13.0694  13.0865  13.0917  13.1195  13.1304  13.1686  13.1853
    13.2318  13.2614  13.2724  13.4108  13.4311  13.5139  13.5862  13.7217
    14.0239  14.0871  14.4603  14.4719  14.6846  14.7845  14.8785  15.0457
    15.1202  15.1444  15.2331  15.4104  16.0851  16.5547  16.8593  16.8903
    18.2642  18.6426  18.7087  18.9142  19.6718  19.7804  19.8945  19.9993
    20.0132  20.1809  20.6990  21.1276  21.1481  21.2681  21.7200  21.9188
    22.1121  22.6306  22.9924  23.2285  23.3044

          k = 0.3334 0.1925-0.0001 ( 15944 PWs)   bands (ev):

   -89.2727 -89.2708 -89.2653 -89.2630 -89.2499 -89.2334 -89.2250 -89.2230
   -89.2162 -89.2114 -89.2094 -89.2050 -89.2010 -89.1919 -89.1854 -89.1824
   -61.3273 -61.3238 -61.3233 -61.3216 -61.2680 -61.2671 -61.2648 -61.2647
   -49.9236 -49.9085 -49.8908 -49.8480 -49.8442 -49.7921 -49.7776 -49.7546
   -49.7333 -49.7262 -49.7081 -49.7057 -49.7011 -49.6940 -49.6773 -49.6712
   -49.6179 -49.6156 -49.6122 -49.6029 -49.5719 -49.5711 -49.5669 -49.5643
   -49.5633 -49.5617 -49.5392 -49.5343 -49.5333 -49.5308 -49.5292 -49.5237
   -49.5224 -49.5179 -49.5166 -49.5084 -49.5072 -49.4989 -49.4947 -49.4902
   -49.4800 -49.4691 -49.4647 -49.4644 -49.4602 -49.4563 -49.4353 -49.4272
   -28.0839 -28.0793 -28.0784 -28.0758 -28.0754 -28.0748 -28.0730 -28.0723
   -28.0719 -28.0703 -28.0602 -28.0571 -28.0223 -28.0217 -28.0128 -28.0113
   -28.0103 -28.0097 -28.0090 -28.0084 -28.0074 -28.0066 -27.9989 -27.9983
     6.1932   6.7844   6.8239   8.2425   8.7343   8.9038   9.1860   9.2286
     9.7465   9.7855   9.9375  10.0524  10.1422  10.2345  10.3174  10.4138
    10.4496  10.5404  10.5707  10.5933  10.6065  10.6626  10.8076  10.8498
    10.9238  10.9463  11.0075  11.0686  11.0827  11.1053  11.1131  11.2302
    11.2324  11.2647  11.2786  11.3401  11.3701  11.3979  11.4550  11.5133
    11.6048  11.6371  11.6529  11.6763  11.7597  11.8491  11.8913  11.9132
    11.9296  12.0381  12.0604  12.1233  12.1294  12.1916  12.2770  12.2873
    12.3075  12.3680  12.4646  12.4931  12.5029  12.5977  12.6223  12.6455
    12.7034  12.7386  12.7444  12.8184  12.8313  12.8747  12.9011  12.9729
    12.9844  13.0865  13.0921  13.0982  13.1264  13.1390  13.1668  13.1878
    13.2384  13.2615  13.2726  13.4113  13.4329  13.5124  13.5861  13.7252
    14.0290  14.0843  14.4492  14.4829  14.7035  14.8039  14.8900  15.0784
    15.1315  15.1671  15.2792  15.4408  16.0604  16.5373  16.8810  16.8930
    18.2895  18.6713  18.7318  18.9128  19.6806  19.7811  19.9204  19.9977
    20.0476  20.1837  20.6867  21.1247  21.1526  21.2715  21.7169  21.9080
    22.0717  22.6239  22.9863  23.2479  23.2588

          k = 0.3336 0.5788-0.0005 ( 15952 PWs)   bands (ev):

   -89.2715 -89.2704 -89.2644 -89.2633 -89.2497 -89.2282 -89.2239 -89.2205
   -89.2196 -89.2122 -89.2090 -89.2071 -89.1983 -89.1969 -89.1863 -89.1848
   -61.3273 -61.3238 -61.3233 -61.3215 -61.2680 -61.2672 -61.2648 -61.2648
   -49.8865 -49.8849 -49.8739 -49.8701 -49.7870 -49.7834 -49.7788 -49.7782
   -49.7556 -49.7499 -49.7149 -49.7128 -49.6993 -49.6874 -49.6632 -49.6618
   -49.6197 -49.6140 -49.6124 -49.6088 -49.5726 -49.5717 -49.5676 -49.5627
   -49.5604 -49.5597 -49.5442 -49.5419 -49.5352 -49.5337 -49.5318 -49.5303
   -49.5148 -49.5135 -49.5035 -49.5013 -49.4979 -49.4960 -49.4932 -49.4916
   -49.4896 -49.4873 -49.4738 -49.4689 -49.4639 -49.4571 -49.4556 -49.4469
   -28.0842 -28.0797 -28.0792 -28.0761 -28.0757 -28.0750 -28.0739 -28.0718
   -28.0713 -28.0694 -28.0609 -28.0577 -28.0216 -28.0209 -28.0133 -28.0124
   -28.0111 -28.0108 -28.0085 -28.0076 -28.0063 -28.0060 -27.9986 -27.9979
     7.8407   7.8482   8.3131   8.4216   8.4256   8.6124   8.7328   8.7465
     8.9602   9.7504   9.7562   9.7986   9.8065   9.8564   9.8790  10.4710
    10.4797  10.5167  10.6562  10.6619  10.8130  10.8253  10.9758  10.9896
    11.0634  11.0681  11.1208  11.1267  11.1407  11.1455  11.2407  11.2967
    11.3013  11.3244  11.3306  11.3496  11.3760  11.3856  11.4017  11.4154
    11.4267  11.4329  11.5131  11.5181  11.5920  11.6110  11.6144  11.6175
    11.6260  11.8282  11.8489  11.8682  11.9902  12.1301  12.1373  12.1634
    12.1678  12.2225  12.3834  12.3885  12.4762  12.5183  12.5226  12.5745
    12.5976  12.6006  12.6512  12.7356  12.7435  12.7753  12.7888  12.8063
    12.8245  12.8774  12.8792  12.8987  12.9065  12.9542  12.9554  13.0625
    13.2266  13.2447  13.3466  13.3598  13.3627  13.4414  13.4467  13.5651
    13.6249  13.6795  13.6836  13.9406  14.0724  14.0854  14.1778  15.5914
    15.6083  15.6651  15.8431  15.8738  16.4872  18.3177  18.3385  18.5086
    18.7494  18.7679  19.3857  19.4573  19.4719  19.5415  19.5524  19.7895
    20.0267  20.4622  20.5176  20.5338  21.3284  21.3573  21.7168  21.7355
    21.8377  22.5516  23.8342  23.8594  24.0306

          k = 0.3333-0.1937 0.0002 ( 15940 PWs)   bands (ev):

   -89.2734 -89.2708 -89.2655 -89.2629 -89.2506 -89.2328 -89.2260 -89.2177
   -89.2162 -89.2145 -89.2098 -89.2067 -89.1945 -89.1911 -89.1870 -89.1862
   -61.3273 -61.3238 -61.3233 -61.3216 -61.2680 -61.2671 -61.2648 -61.2647
   -49.9240 -49.9106 -49.8905 -49.8469 -49.8452 -49.7907 -49.7788 -49.7555
   -49.7300 -49.7168 -49.7079 -49.7063 -49.7023 -49.6973 -49.6765 -49.6741
   -49.6188 -49.6139 -49.6106 -49.6056 -49.5717 -49.5691 -49.5671 -49.5654
   -49.5634 -49.5626 -49.5365 -49.5348 -49.5334 -49.5314 -49.5307 -49.5243
   -49.5170 -49.5126 -49.5104 -49.5097 -49.5087 -49.5054 -49.4995 -49.4922
   -49.4770 -49.4707 -49.4681 -49.4661 -49.4642 -49.4524 -49.4328 -49.4282
   -28.0840 -28.0794 -28.0776 -28.0765 -28.0752 -28.0747 -28.0729 -28.0724
   -28.0721 -28.0705 -28.0602 -28.0570 -28.0223 -28.0216 -28.0129 -28.0116
   -28.0101 -28.0094 -28.0091 -28.0082 -28.0074 -28.0067 -27.9989 -27.9982
     6.1949   6.7863   6.8256   8.2464   8.7348   8.9097   9.1925   9.2354
     9.7488   9.7859   9.9390  10.0533  10.1469  10.2364  10.3208  10.4155
    10.4533  10.5369  10.5730  10.5953  10.6025  10.6557  10.8020  10.8494
    10.9248  10.9433  11.0083  11.0720  11.0882  11.1008  11.1132  11.2312
    11.2367  11.2668  11.2827  11.3423  11.3696  11.3925  11.4544  11.5117
    11.6021  11.6372  11.6492  11.6791  11.7638  11.8503  11.8925  11.9155
    11.9233  12.0357  12.0644  12.1139  12.1259  12.1892  12.2716  12.2937
    12.3080  12.3721  12.4580  12.4898  12.5034  12.6007  12.6250  12.6364
    12.7044  12.7417  12.7476  12.8119  12.8312  12.8705  12.9053  12.9736
    12.9813  13.0805  13.0938  13.0985  13.1254  13.1368  13.1710  13.1856
    13.2362  13.2638  13.2740  13.4104  13.4295  13.5140  13.5876  13.7257
    14.0270  14.0910  14.4471  14.4782  14.6974  14.7990  14.8960  15.0650
    15.1353  15.1600  15.2442  15.4276  16.0599  16.5475  16.8746  16.8932
    18.2777  18.6610  18.7249  18.9145  19.6742  19.7821  19.9133  19.9964
    20.0369  20.1849  20.6921  21.1288  21.1482  21.2750  21.7074  21.9087
    22.0888  22.6270  22.9872  23.2435  23.2747

     the Fermi energy is    13.7965 ev

!    total energy              =   -7997.61365817 Ry
     total all-electron energy =    -51870.689528 Ry
     estimated scf accuracy    <       0.00000837 Ry
     smearing contrib. (-TS)   =       0.25437910 Ry
     internal energy E=F+TS    =   -7997.86803727 Ry

     The total energy is F=E-TS. E is the sum of the following terms:
     one-electron contribution =   -4411.61981591 Ry
     hartree contribution      =    2374.39226105 Ry
     xc contribution           =    -693.49792988 Ry
     ewald contribution        =   -3689.35791060 Ry
     one-center paw contrib.   =   -1577.78464193 Ry

     convergence has been achieved in 220 iterations

     negative rho (up, down):  2.356E-01 0.000E+00

     Forces acting on atoms (cartesian axes, Ry/au):

     atom    1 type  1   force =    -0.00018132    0.00505728    0.01670191
     atom    2 type  1   force =    -0.00145583    0.00417966    0.01748631
     atom    3 type  1   force =     0.00034747    0.00498018    0.00510420
     atom    4 type  1   force =     0.00026523    0.00709840    0.00668406
     atom    5 type  1   force =    -0.00062816    0.00916588    0.01163355
     atom    6 type  1   force =    -0.00217410    0.00710677    0.01084507
     atom    7 type  1   force =    -0.00448219    0.01065182    0.01200562
     atom    8 type  1   force =    -0.00042437    0.01095062    0.00900768
     atom    9 type  2   force =     0.00075826    0.00632512    0.00746187
     atom   10 type  2   force =    -0.00053021    0.00573873    0.01610736
     atom   11 type  2   force =    -0.00186500    0.00860439    0.00918157
     atom   12 type  2   force =    -0.00197018    0.00825811    0.01229235
     atom   13 type  2   force =    -0.00265020   -0.01249432    0.01337760
     atom   14 type  2   force =     0.01976065   -0.00393007    0.01358136
     atom   15 type  2   force =    -0.00393656    0.02767848    0.00746840
     atom   16 type  2   force =    -0.01817338    0.01797144    0.01240119
     atom   17 type  2   force =    -0.05009892    0.10488751    0.02377049
     atom   18 type  2   force =    -0.01874903   -0.00125836    0.01018187
     atom   19 type  2   force =     0.04114909    0.00872488   -0.10042084
     atom   20 type  2   force =    -0.00107809    0.00815365    0.00954519
     atom   21 type  2   force =     0.00185280    0.00736147    0.00984446
     atom   22 type  2   force =    -0.01003562   -0.11966479   -0.06362564
     atom   23 type  2   force =     0.05521041   -0.12902140   -0.08467920
     atom   24 type  2   force =    -0.00091077    0.00347453    0.01404357
     The non-local contrib.  to forces
     atom    1 type  1   force =    -0.00046670   -0.00652157    0.02834876
     atom    2 type  1   force =    -0.00301570   -0.00159313    0.03204609
     atom    3 type  1   force =     0.00932972   -0.00302353   -0.02856603
     atom    4 type  1   force =     0.00236145   -0.00571995   -0.02678365
     atom    5 type  1   force =     0.00299918    0.00228527    0.00418555
     atom    6 type  1   force =    -0.00020998   -0.00067502   -0.00028416
     atom    7 type  1   force =    -0.01077510    0.00720033    0.00132128
     atom    8 type  1   force =     0.00076243    0.00833584   -0.00749373
     atom    9 type  2   force =    -0.02291712    0.04361334    0.01076582
     atom   10 type  2   force =    -0.00047652    0.02719867    0.01387100
     atom   11 type  2   force =    -0.00420756    0.02329659   -0.00914146
     atom   12 type  2   force =     0.00422463   -0.00031921   -0.01125406
     atom   13 type  2   force =    -0.01452136   -0.08964827   -0.00127709
     atom   14 type  2   force =     0.05194789   -0.03559905   -0.00466620
     atom   15 type  2   force =     0.02301356    0.08125353    0.00070118
     atom   16 type  2   force =    -0.02870365    0.03886750   -0.00017732
     atom   17 type  2   force =     1.56047596   -1.34073444   -0.79275251
     atom   18 type  2   force =    -0.07524125   -0.03002629    0.00397923
     atom   19 type  2   force =    -1.77512530    1.05583738    2.05257456
     atom   20 type  2   force =    -0.04313681   -0.00298864   -0.00416620
     atom   21 type  2   force =     0.01565373    0.02597485    0.00078693
     atom   22 type  2   force =    -0.15020923    3.29956138   -1.43762638
     atom   23 type  2   force =    -1.60923910    2.47349120    0.54237960
     atom   24 type  2   force =     0.00079988   -0.00259861   -0.00489661
     The ionic contribution  to forces
     atom    1 type  1   force =     0.01022025   -0.08254006   -0.45443580
     atom    2 type  1   force =    -0.18120474    0.03160762   -0.15204174
     atom    3 type  1   force =     0.24094591   -0.01030689    0.20006839
     atom    4 type  1   force =    -0.02222307   -0.01082672    0.43678756
     atom    5 type  1   force =     0.11195824   -0.03167004    0.04472591
     atom    6 type  1   force =     0.05268570   -0.11558065    0.12083469
     atom    7 type  1   force =    -0.27223945    0.10740728    0.10884473
     atom    8 type  1   force =     0.07322417    0.19350879   -0.14935598
     atom    9 type  2   force =     0.25744768   -0.04487002    0.43478972
     atom   10 type  2   force =     0.03332718   -0.20195940    1.75701840
     atom   11 type  2   force =    -0.15813385    0.18446156   -1.48770047
     atom   12 type  2   force =    -0.09697201    0.09136838   -0.65905163
     atom   13 type  2   force =    -0.03086994  -16.02714357    0.45478530
     atom   14 type  2   force =    14.24251493   -8.46766853    0.04536000
     atom   15 type  2   force =    -0.15349879   16.09576767   -0.45630059
     atom   16 type  2   force =   -13.84553905    7.93125659    0.29152755
     atom   17 type  2   force =    14.03486333    8.07736508    0.42167652
     atom   18 type  2   force =   -14.06218033   -7.73363644   -0.15542027
     atom   19 type  2   force =    -0.03374354    0.31474819   -0.23095897
     atom   20 type  2   force =     0.15954993    0.18013393    0.11626189
     atom   21 type  2   force =     0.23267329    0.09864181   -0.05143983
     atom   22 type  2   force =    -0.05710246   -0.15918851   -0.43270219
     atom   23 type  2   force =    -0.23717595   -0.25807991   -0.04102845
     atom   24 type  2   force =    -0.29852742   -0.16279618   -0.16224472
     The local contribution  to forces
     atom    1 type  1   force =    -0.00875447    0.08624978    0.43164401
     atom    2 type  1   force =     0.18401853   -0.03371764    0.12566538
     atom    3 type  1   force =    -0.24865026    0.01042089   -0.17613760
     atom    4 type  1   force =     0.02132499    0.01578209   -0.41579987
     atom    5 type  1   force =    -0.11436561    0.03075149   -0.04689099
     atom    6 type  1   force =    -0.05357269    0.11551535   -0.12173444
     atom    7 type  1   force =     0.27969669   -0.11170616   -0.10971773
     atom    8 type  1   force =    -0.07307756   -0.19866752    0.15448628
     atom    9 type  2   force =    -0.23397953    0.00207726   -0.44573982
     atom   10 type  2   force =    -0.03264344    0.17427914   -1.76287434
     atom   11 type  2   force =     0.16175136   -0.20599944    1.49424443
     atom   12 type  2   force =     0.09307657   -0.09064709    0.66532725
     atom   13 type  2   force =     0.04317518   16.09461521   -0.45201413
     atom   14 type  2   force =   -14.27361458    8.49139262   -0.03667511
     atom   15 type  2   force =     0.12917993  -16.15595436    0.45347352
     atom   16 type  2   force =    13.85763747   -7.95914457   -0.29069581
     atom   17 type  2   force =   -15.51265468   -6.76062111    0.31504431
     atom   18 type  2   force =    14.11854353    7.75452862    0.15225039
     atom   19 type  2   force =     1.72138992   -1.29289947   -1.77156023
     atom   20 type  2   force =    -0.11856385   -0.17732900   -0.11675346
     atom   21 type  2   force =    -0.24424586   -0.12377562    0.04650403
     atom   22 type  2   force =     0.19180631   -3.05632614    1.70812560
     atom   23 type  2   force =     1.78696294   -2.17286662   -0.55650082
     atom   24 type  2   force =     0.29855277    0.16021434    0.17152531
     The core correction contribution to forces
     atom    1 type  1   force =     0.00000148    0.00003548   -0.00015098
     atom    2 type  1   force =     0.00001031    0.00002555   -0.00016498
     atom    3 type  1   force =    -0.00004472    0.00002101    0.00015005
     atom    4 type  1   force =    -0.00001566    0.00002131    0.00014398
     atom    5 type  1   force =    -0.00001467   -0.00001537   -0.00001701
     atom    6 type  1   force =     0.00000693    0.00000584    0.00000257
     atom    7 type  1   force =     0.00005330   -0.00003688   -0.00000957
     atom    8 type  1   force =    -0.00000715   -0.00004521    0.00003774
     atom    9 type  2   force =     0.00139680   -0.00229216   -0.00407011
     atom   10 type  2   force =    -0.00004713   -0.00162263   -0.00417343
     atom   11 type  2   force =     0.00006806   -0.00101843    0.00401926
     atom   12 type  2   force =    -0.00033934    0.00008612    0.00413746
     atom   13 type  2   force =     0.00102822    0.00190944    0.00001017
     atom   14 type  2   force =    -0.00016688    0.00025459    0.00012984
     atom   15 type  2   force =    -0.00132358   -0.00150611    0.00011705
     atom   16 type  2   force =    -0.00097257   -0.00074464   -0.00012001
     atom   17 type  2   force =    -0.12974531    0.12026100    0.06719530
     atom   18 type  2   force =     0.00156315    0.00020449   -0.00015842
     atom   19 type  2   force =     0.13331849   -0.07580201   -0.15730699
     atom   20 type  2   force =     0.00240484    0.00031420    0.00039535
     atom   21 type  2   force =    -0.00108024   -0.00109593    0.00019549
     atom   22 type  2   force =     0.00673898   -0.21260978    0.08746978
     atom   23 type  2   force =     0.11628496   -0.17981993   -0.04340742
     atom   24 type  2   force =    -0.00039091    0.00072296    0.00013108
     The Hubbard contrib.    to forces
     atom    1 type  1   force =     0.00000000    0.00000000    0.00000000
     atom    2 type  1   force =     0.00000000    0.00000000    0.00000000
     atom    3 type  1   force =     0.00000000    0.00000000    0.00000000
     atom    4 type  1   force =     0.00000000    0.00000000    0.00000000
     atom    5 type  1   force =     0.00000000    0.00000000    0.00000000
     atom    6 type  1   force =     0.00000000    0.00000000    0.00000000
     atom    7 type  1   force =     0.00000000    0.00000000    0.00000000
     atom    8 type  1   force =     0.00000000    0.00000000    0.00000000
     atom    9 type  2   force =     0.00000000    0.00000000    0.00000000
     atom   10 type  2   force =     0.00000000    0.00000000    0.00000000
     atom   11 type  2   force =     0.00000000    0.00000000    0.00000000
     atom   12 type  2   force =     0.00000000    0.00000000    0.00000000
     atom   13 type  2   force =     0.00000000    0.00000000    0.00000000
     atom   14 type  2   force =     0.00000000    0.00000000    0.00000000
     atom   15 type  2   force =     0.00000000    0.00000000    0.00000000
     atom   16 type  2   force =     0.00000000    0.00000000    0.00000000
     atom   17 type  2   force =     0.00000000    0.00000000    0.00000000
     atom   18 type  2   force =     0.00000000    0.00000000    0.00000000
     atom   19 type  2   force =     0.00000000    0.00000000    0.00000000
     atom   20 type  2   force =     0.00000000    0.00000000    0.00000000
     atom   21 type  2   force =     0.00000000    0.00000000    0.00000000
     atom   22 type  2   force =     0.00000000    0.00000000    0.00000000
     atom   23 type  2   force =     0.00000000    0.00000000    0.00000000
     atom   24 type  2   force =     0.00000000    0.00000000    0.00000000
     The SCF correction term to forces
     atom    1 type  1   force =     0.00004188   -0.00001237    0.00007614
     atom    2 type  1   force =    -0.00004047    0.00001126    0.00076178
     atom    3 type  1   force =    -0.00000942    0.00002270   -0.00163038
     atom    4 type  1   force =     0.00004127   -0.00000435    0.00111626
     atom    5 type  1   force =     0.00001848   -0.00003148   -0.00158969
     atom    6 type  1   force =     0.00013970   -0.00000476    0.00080663
     atom    7 type  1   force =     0.00000613   -0.00005875    0.00034713
     atom    8 type  1   force =    -0.00010250   -0.00002728    0.00011359
     atom    9 type  2   force =     0.00003420   -0.00004930    0.00049649
     atom   10 type  2   force =     0.00053345   -0.00000306    0.00104596
     atom   11 type  2   force =    -0.00011925    0.00001810   -0.00345996
     atom   12 type  2   force =    -0.00073626   -0.00007610    0.00191356
     atom   13 type  2   force =    -0.00023853   -0.00007314    0.00065358
     atom   14 type  2   force =     0.00030306   -0.00015570   -0.00178694
     atom   15 type  2   force =    -0.00008391    0.00027175   -0.00174252
     atom   16 type  2   force =     0.00062820   -0.00010945    0.00064701
     atom   17 type  2   force =    -0.00181446    0.00077098    0.00138710
     atom   18 type  2   force =    -0.00021037   -0.00017475   -0.00168883
     atom   19 type  2   force =    -0.00346671   -0.00100521   -0.00438898
     atom   20 type  2   force =    -0.00010842    0.00017715    0.00258784
     atom   21 type  2   force =     0.00007564   -0.00022965    0.00257807
     atom   22 type  2   force =    -0.00004546    0.00105225   -0.00011222
     atom   23 type  2   force =    -0.00039867    0.00040785    0.00265813
     atom   24 type  2   force =    -0.00012132    0.00008600   -0.00169126

     Total force =     0.277925     Total SCF correction =     0.009964


     Computing stress (Cartesian axis) and pressure


     negative rho (up, down):  2.356E-01 0.000E+00
          total   stress  (Ry/bohr**3)                   (kbar)     P=       35.59
   0.00016465  -0.00002001  -0.00001141           24.22       -2.94       -1.68
  -0.00002001   0.00028152  -0.00000261           -2.94       41.41       -0.38
  -0.00001141  -0.00000261   0.00027969           -1.68       -0.38       41.14


     Writing all to output data dir ./C36/out_logs/C36_out_211/laves_C36.save/
 
     init_run     :      5.94s CPU      6.16s WALL (       1 calls)
     electrons    :   1568.98s CPU   1569.30s WALL (       1 calls)
     forces       :      1.62s CPU      1.61s WALL (       1 calls)
     stress       :      8.19s CPU      8.19s WALL (       1 calls)

     Called by init_run:
     wfcinit      :      1.74s CPU      1.83s WALL (       1 calls)
                                        1.83s GPU  (       1 calls)
     potinit      :      3.16s CPU      3.18s WALL (       1 calls)
     hinit0       :      0.84s CPU      0.86s WALL (       1 calls)

     Called by electrons:
     c_bands      :    915.98s CPU    916.22s WALL (     220 calls)
     sum_band     :    148.36s CPU    148.39s WALL (     220 calls)
     v_of_rho     :      5.36s CPU      5.38s WALL (     221 calls)
     newd         :     17.09s CPU     17.10s WALL (     221 calls)
                                       17.10s GPU  (     221 calls)
     PAW_pot      :    460.83s CPU    460.81s WALL (     221 calls)
     mix_rho      :     18.43s CPU     18.47s WALL (     220 calls)

     Called by c_bands:
     init_us_2    :      2.64s CPU      2.64s WALL (    2215 calls)
     init_us_2:gp :      2.62s CPU      2.62s WALL (    2215 calls)
     cegterg      :    875.27s CPU    875.48s WALL (    1100 calls)

     Called by *egterg:
     cdiaghg      :     61.53s CPU     62.04s WALL (    2655 calls)
                                       62.02s GPU  (    2655 calls)
     h_psi        :    417.24s CPU    417.44s WALL (    2660 calls)
                                      417.04s GPU  (    2660 calls)
     s_psi        :      1.93s CPU     78.85s WALL (    2660 calls)
                                       78.21s GPU  (    2660 calls)
     g_psi        :      0.01s CPU      1.27s WALL (    1555 calls)
                                        1.24s GPU  (    1555 calls)

     Called by h_psi:
     h_psi:calbec :      0.13s CPU     90.75s WALL (    2660 calls)
                                       90.74s GPU  (    2660 calls)
     vloc_psi     :    245.91s CPU    246.08s WALL (    2660 calls)
                                      246.04s GPU  (    2660 calls)
     add_vuspsi   :      2.27s CPU     79.12s WALL (    2660 calls)
                                       79.00s GPU  (    2660 calls)

     General routines
     calbec       :      0.14s CPU      0.15s WALL (    3785 calls)
     fft          :      2.57s CPU      3.91s WALL (    2896 calls)
                                        1.36s GPU  (    2675 calls)
     ffts         :      0.65s CPU      0.71s WALL (     441 calls)
                                        0.06s GPU  (     220 calls)
     fftw         :      0.55s CPU    264.73s WALL (   78768 calls)
                                      263.71s GPU  (   78768 calls)
     interpolate  :      3.68s CPU      3.68s WALL (     221 calls)
 
     Parallel routines
 
     PWSCF        :  26m25.07s CPU  26m25.75s WALL

 
   This run was terminated on:   3:43:42  10Apr2026            

=------------------------------------------------------------------------------=
   JOB DONE.
=------------------------------------------------------------------------------=
