
     Program PWSCF v.7.2 starts on  9Apr2026 at 22:49: 2 

     This program is part of the open-source Quantum ESPRESSO suite
     for quantum simulation of materials; please cite
         "P. Giannozzi et al., J. Phys.:Condens. Matter 21 395502 (2009);
         "P. Giannozzi et al., J. Phys.:Condens. Matter 29 465901 (2017);
         "P. Giannozzi et al., J. Chem. Phys. 152 154105 (2020);
          URL http://www.quantum-espresso.org", 
     in publications or presentations arising from this work. More details at
     http://www.quantum-espresso.org/quote

     Parallel version (MPI), running on     1 processors

     MPI processes distributed on     1 nodes
     1905 MiB available memory on the printing compute node when the environment starts
 
     Reading input from C36/in/laves_201_0_scf.in
Warning: card &CELL ignored
Warning: card / ignored

     Current dimensions of program PWSCF are:
     Max number of different atomic species (ntypx) = 10
     Max number of k-points (npk) =  40000
     Max angular momentum in pseudopotentials (lmaxx) =  4
     file Mg.pbe-spnl-kjpaw_psl.1.0.0.UPF: wavefunction(s)  2P renormalized
     file Ni.pbe-spn-kjpaw_psl.1.0.0.UPF: wavefunction(s)  3P 3D renormalized
 
     Subspace diagonalization in iterative solution of the eigenvalue problem:
     a serial algorithm will be used

 
     G-vector sticks info
     --------------------
     sticks:   dense  smooth     PW     G-vecs:    dense   smooth      PW
     Sum        2665    1333    371               362223   128045   19057
 
     Using Slab Decomposition
 

     Title: 
     C36_MgNi2                                                                  


     bravais-lattice index     =            0
     lattice parameter (alat)  =       8.9520  a.u.
     unit-cell volume          =    2039.9032 (a.u.)^3
     number of atoms/cell      =           24
     number of atomic types    =            2
     number of electrons       =       368.00
     number of Kohn-Sham states=          221
     kinetic-energy cutoff     =      60.0000  Ry
     charge density cutoff     =     480.0000  Ry
     scf convergence threshold =      1.0E-05
     mixing beta               =       0.2200
     number of iterations used =           22  plain     mixing
     Exchange-correlation= SLA  PW   PBX  PBC
                           (   1   4   3   4   0   0   0)

     GPU acceleration is ACTIVE.


     celldm(1)=   8.952007  celldm(2)=   0.000000  celldm(3)=   0.000000
     celldm(4)=   0.000000  celldm(5)=   0.000000  celldm(6)=   0.000000

     crystal axes: (cart. coord. in units of alat)
               a(1) = (   0.999998  -0.002041   0.000183 )  
               a(2) = (  -0.500622   0.867957   0.000045 )  
               a(3) = (   0.000729   0.003236   3.279915 )  

     reciprocal axes: (cart. coord. in units 2 pi/alat)
               b(1) = (  1.001181  0.577463 -0.000792 )  
               b(2) = (  0.002355  1.153489 -0.001139 )  
               b(3) = ( -0.000056 -0.000048  0.304886 )  


     PseudoPot. # 1 for Mg read from file:
     ./pseudo/Mg.pbe-spnl-kjpaw_psl.1.0.0.UPF
     MD5 check sum: fda14e0d92a6a9a5ebed782e5a4b3067
     Pseudo is Projector augmented-wave + core cor, Zval = 10.0
     Generated using &quot;atomic&quot; code by A. Dal Corso  v.6.3
     Shape of augmentation charge: PSQ
     Using radial grid of 1129 points,  4 beta functions with: 
                l(1) =   0
                l(2) =   0
                l(3) =   1
                l(4) =   1
     Q(r) pseudized with 0 coefficients 


     PseudoPot. # 2 for Ni read from file:
     ./pseudo/Ni.pbe-spn-kjpaw_psl.1.0.0.UPF
     MD5 check sum: 6e86b733589c3ad8389697b807d86aa7
     Pseudo is Projector augmented-wave + core cor, Zval = 18.0
     Generated using &quot;atomic&quot; code by A. Dal Corso  v.6.3
     Shape of augmentation charge: PSQ
     Using radial grid of 1195 points,  6 beta functions with: 
                l(1) =   0
                l(2) =   0
                l(3) =   1
                l(4) =   1
                l(5) =   2
                l(6) =   2
     Q(r) pseudized with 0 coefficients 


     atomic species   valence    mass     pseudopotential
        Mg            10.00    24.30500     Mg( 1.00)
        Ni            18.00    58.69340     Ni( 1.00)

     No symmetry found



   Cartesian axes

     site n.     atom                  positions (alat units)
         1           Mg  tau(   1) = (  -0.4988760   0.8685890   1.3295623  )
         2           Mg  tau(   2) = (   0.5000153   0.8687341   2.9716406  )
         3           Mg  tau(   3) = (   0.5007514   0.8650236   1.9481593  )
         4           Mg  tau(   4) = (   0.0010484   0.0007260   0.3091257  )
         5           Mg  tau(   5) = (  -0.0001890   0.5803286   2.1527353  )
         6           Mg  tau(   6) = (   0.4994770   0.2870884   0.5123478  )
         7           Mg  tau(   7) = (   0.5013030   0.2895595   1.1287165  )
         8           Mg  tau(   8) = (   0.0003502   0.5809949   2.7683459  )
         9           Ni  tau(   9) = (  -0.0014589   0.5805608   1.2294852  )
        10           Ni  tau(  10) = (   0.5000548   0.2896426   2.8686058  )
        11           Ni  tau(  11) = (   0.4997567   0.2885297   2.0504736  )
        12           Ni  tau(  12) = (   0.0005327   0.5774195   0.4101690  )
        13           Ni  tau(  13) = (  -0.0009657   0.2906268   0.8198701  )
        14           Ni  tau(  14) = (   0.7520891   0.1467743   2.4580465  )
        15           Ni  tau(  15) = (   0.5021573   0.5787453   2.4598335  )
        16           Ni  tau(  16) = (  -0.2500743   0.7264823   0.8196539  )
        17           Ni  tau(  17) = (   0.2477603   0.7232176   0.8200101  )
        18           Ni  tau(  18) = (   0.2494641   0.1462698   2.4619691  )
        19           Ni  tau(  19) = (   0.5014699   0.0012339   1.6381795  )
        20           Ni  tau(  20) = (   0.2502171   0.4338045   3.2794118  )
        21           Ni  tau(  21) = (   0.5012184   0.0022444   3.2789600  )
        22           Ni  tau(  22) = (   0.2496387   0.4348391   1.6387594  )
        23           Ni  tau(  23) = (  -0.2502153   0.4385832   3.2783403  )
        24           Ni  tau(  24) = (   0.7505035   0.4313518   1.6395786  )

     number of k points=     5  Marzari-Vanderbilt smearing, width (Ry)=  0.0500
                       cart. coord. in units 2pi/alat
        k(    1) = (   0.0000000   0.0000000   0.0000000), wk =   0.2222222
        k(    2) = (   0.0007849   0.3844962  -0.0003795), wk =   0.4444444
        k(    3) = (   0.3337270   0.1924878  -0.0002640), wk =   0.4444444
        k(    4) = (   0.3345119   0.5769840  -0.0006436), wk =   0.4444444
        k(    5) = (   0.3329421  -0.1920084   0.0001155), wk =   0.4444444

     Dense  grid:   362223 G-vectors     FFT dimensions: (  64,  64, 216)

     Smooth grid:   128045 G-vectors     FFT dimensions: (  45,  45, 150)

     Estimated max dynamical RAM per process >       2.03 GB

     Check: negative core charge=   -0.000009

     Initial potential from superposition of free atoms

     starting charge     367.9886, renormalised to     368.0000
     Starting wfcs are  200 randomized atomic wfcs +   21 random wfcs
     Checking if some PAW data can be deallocated... 

     total cpu time spent up to now is        6.8 secs

     Self-consistent Calculation

     iteration #  1     ecut=    60.00 Ry     beta= 0.22
     Davidson diagonalization with overlap
     ethr =  1.00E-02,  avg # of iterations =  5.2

     negative rho (up, down):  1.926E-02 0.000E+00

     total cpu time spent up to now is       17.3 secs

     total energy              =   -7998.46787057 Ry
     estimated scf accuracy    <      67.64348803 Ry

     iteration #  2     ecut=    60.00 Ry     beta= 0.22
     Davidson diagonalization with overlap
     ethr =  1.00E-02,  avg # of iterations =  2.0

     negative rho (up, down):  1.555E-04 0.000E+00

     total cpu time spent up to now is       25.5 secs

     total energy              =   -7995.96578597 Ry
     estimated scf accuracy    <     128.58028309 Ry

     iteration #  3     ecut=    60.00 Ry     beta= 0.22
     Davidson diagonalization with overlap
     ethr =  1.00E-02,  avg # of iterations =  2.0

     negative rho (up, down):  5.910E-04 0.000E+00

     total cpu time spent up to now is       34.1 secs

     total energy              =   -7984.55613710 Ry
     estimated scf accuracy    <      91.07354443 Ry

     iteration #  4     ecut=    60.00 Ry     beta= 0.22
     Davidson diagonalization with overlap
     ethr =  1.00E-02,  avg # of iterations =  4.4

     negative rho (up, down):  3.541E-03 0.000E+00

     total cpu time spent up to now is       43.7 secs

     total energy              =   -7971.66335808 Ry
     estimated scf accuracy    <    1529.32908029 Ry

     iteration #  5     ecut=    60.00 Ry     beta= 0.22
     Davidson diagonalization with overlap
     ethr =  1.00E-02,  avg # of iterations =  3.2

     negative rho (up, down):  8.637E-03 0.000E+00

     total cpu time spent up to now is       52.6 secs

     total energy              =   -7994.99008712 Ry
     estimated scf accuracy    <     149.11600086 Ry

     iteration #  6     ecut=    60.00 Ry     beta= 0.22
     Davidson diagonalization with overlap
     ethr =  1.00E-02,  avg # of iterations =  2.0

     negative rho (up, down):  1.333E-02 0.000E+00

     total cpu time spent up to now is       60.6 secs

     total energy              =   -7997.81645710 Ry
     estimated scf accuracy    <      94.30050348 Ry

     iteration #  7     ecut=    60.00 Ry     beta= 0.22
     Davidson diagonalization with overlap
     ethr =  1.00E-02,  avg # of iterations =  1.0

     negative rho (up, down):  2.292E-02 0.000E+00

     total cpu time spent up to now is       67.8 secs

     total energy              =   -7998.76787713 Ry
     estimated scf accuracy    <      76.30832573 Ry

     iteration #  8     ecut=    60.00 Ry     beta= 0.22
     Davidson diagonalization with overlap
     ethr =  1.00E-02,  avg # of iterations =  1.0

     negative rho (up, down):  1.502E-02 0.000E+00

     total cpu time spent up to now is       75.2 secs

     total energy              =   -7999.41910733 Ry
     estimated scf accuracy    <      47.16720508 Ry

     iteration #  9     ecut=    60.00 Ry     beta= 0.22
     Davidson diagonalization with overlap
     ethr =  1.00E-02,  avg # of iterations =  1.0

     negative rho (up, down):  5.012E-04 0.000E+00

     total cpu time spent up to now is       82.6 secs

     total energy              =   -7998.71373901 Ry
     estimated scf accuracy    <      46.37906496 Ry

     iteration # 10     ecut=    60.00 Ry     beta= 0.22
     Davidson diagonalization with overlap
     ethr =  1.00E-02,  avg # of iterations =  1.0

     negative rho (up, down):  2.157E-03 0.000E+00

     total cpu time spent up to now is       89.9 secs

     total energy              =   -7998.52771563 Ry
     estimated scf accuracy    <      32.05520204 Ry

     iteration # 11     ecut=    60.00 Ry     beta= 0.22
     Davidson diagonalization with overlap
     ethr =  8.71E-03,  avg # of iterations =  1.0

     negative rho (up, down):  1.121E-02 0.000E+00

     total cpu time spent up to now is       97.1 secs

     total energy              =   -7998.38299946 Ry
     estimated scf accuracy    <      30.71627912 Ry

     iteration # 12     ecut=    60.00 Ry     beta= 0.22
     Davidson diagonalization with overlap
     ethr =  8.35E-03,  avg # of iterations =  1.0

     negative rho (up, down):  2.973E-02 0.000E+00

     total cpu time spent up to now is      104.3 secs

     total energy              =   -7998.22134373 Ry
     estimated scf accuracy    <      24.07298671 Ry

     iteration # 13     ecut=    60.00 Ry     beta= 0.22
     Davidson diagonalization with overlap
     ethr =  6.54E-03,  avg # of iterations =  1.4

     negative rho (up, down):  6.494E-02 0.000E+00

     total cpu time spent up to now is      111.8 secs

     total energy              =   -7998.02364290 Ry
     estimated scf accuracy    <      22.24958675 Ry

     iteration # 14     ecut=    60.00 Ry     beta= 0.22
     Davidson diagonalization with overlap
     ethr =  6.05E-03,  avg # of iterations =  1.0

     negative rho (up, down):  6.205E-02 0.000E+00

     total cpu time spent up to now is      119.0 secs

     total energy              =   -7998.08432185 Ry
     estimated scf accuracy    <      17.07945493 Ry

     iteration # 15     ecut=    60.00 Ry     beta= 0.22
     Davidson diagonalization with overlap
     ethr =  4.64E-03,  avg # of iterations =  1.0

     negative rho (up, down):  6.848E-02 0.000E+00

     total cpu time spent up to now is      126.3 secs

     total energy              =   -7998.12792707 Ry
     estimated scf accuracy    <      17.04547998 Ry

     iteration # 16     ecut=    60.00 Ry     beta= 0.22
     Davidson diagonalization with overlap
     ethr =  4.63E-03,  avg # of iterations =  1.0

     negative rho (up, down):  5.270E-02 0.000E+00

     total cpu time spent up to now is      133.6 secs

     total energy              =   -7998.19285159 Ry
     estimated scf accuracy    <      15.94471825 Ry

     iteration # 17     ecut=    60.00 Ry     beta= 0.22
     Davidson diagonalization with overlap
     ethr =  4.33E-03,  avg # of iterations =  1.0

     negative rho (up, down):  4.314E-02 0.000E+00

     total cpu time spent up to now is      140.8 secs

     total energy              =   -7998.23185066 Ry
     estimated scf accuracy    <      18.64147825 Ry

     iteration # 18     ecut=    60.00 Ry     beta= 0.22
     Davidson diagonalization with overlap
     ethr =  4.33E-03,  avg # of iterations =  1.0

     negative rho (up, down):  3.354E-02 0.000E+00

     total cpu time spent up to now is      148.1 secs

     total energy              =   -7998.17638665 Ry
     estimated scf accuracy    <      21.32327103 Ry

     iteration # 19     ecut=    60.00 Ry     beta= 0.22
     Davidson diagonalization with overlap
     ethr =  4.33E-03,  avg # of iterations =  1.0

     negative rho (up, down):  3.648E-02 0.000E+00

     total cpu time spent up to now is      155.4 secs

     total energy              =   -7998.25523888 Ry
     estimated scf accuracy    <      18.23082310 Ry

     iteration # 20     ecut=    60.00 Ry     beta= 0.22
     Davidson diagonalization with overlap
     ethr =  4.33E-03,  avg # of iterations =  1.0

     negative rho (up, down):  3.887E-02 0.000E+00

     total cpu time spent up to now is      162.7 secs

     total energy              =   -7998.18598306 Ry
     estimated scf accuracy    <      17.22621622 Ry

     iteration # 21     ecut=    60.00 Ry     beta= 0.22
     Davidson diagonalization with overlap
     ethr =  4.33E-03,  avg # of iterations =  1.0

     negative rho (up, down):  4.010E-02 0.000E+00

     total cpu time spent up to now is      169.9 secs

     total energy              =   -7997.97891654 Ry
     estimated scf accuracy    <      16.40928724 Ry

     iteration # 22     ecut=    60.00 Ry     beta= 0.22
     Davidson diagonalization with overlap
     ethr =  4.33E-03,  avg # of iterations =  1.0

     negative rho (up, down):  3.938E-02 0.000E+00

     total cpu time spent up to now is      177.2 secs

     total energy              =   -7998.08239272 Ry
     estimated scf accuracy    <      13.86268203 Ry

     iteration # 23     ecut=    60.00 Ry     beta= 0.22
     Davidson diagonalization with overlap
     ethr =  3.77E-03,  avg # of iterations =  1.0

     negative rho (up, down):  5.245E-02 0.000E+00

     total cpu time spent up to now is      184.5 secs

     total energy              =   -7998.02858138 Ry
     estimated scf accuracy    <      12.74225431 Ry

     iteration # 24     ecut=    60.00 Ry     beta= 0.22
     Davidson diagonalization with overlap
     ethr =  3.46E-03,  avg # of iterations =  1.0

     negative rho (up, down):  4.699E-02 0.000E+00

     total cpu time spent up to now is      191.8 secs

     total energy              =   -7998.01538539 Ry
     estimated scf accuracy    <      12.44657402 Ry

     iteration # 25     ecut=    60.00 Ry     beta= 0.22
     Davidson diagonalization with overlap
     ethr =  3.38E-03,  avg # of iterations =  1.0

     negative rho (up, down):  9.720E-02 0.000E+00

     total cpu time spent up to now is      199.1 secs

     total energy              =   -7997.64460664 Ry
     estimated scf accuracy    <      11.26696299 Ry

     iteration # 26     ecut=    60.00 Ry     beta= 0.22
     Davidson diagonalization with overlap
     ethr =  3.06E-03,  avg # of iterations =  1.0

     negative rho (up, down):  1.620E-01 0.000E+00

     total cpu time spent up to now is      206.4 secs

     total energy              =   -7997.46860590 Ry
     estimated scf accuracy    <       6.52149138 Ry

     iteration # 27     ecut=    60.00 Ry     beta= 0.22
     Davidson diagonalization with overlap
     ethr =  1.77E-03,  avg # of iterations =  2.0

     negative rho (up, down):  1.072E-01 0.000E+00

     total cpu time spent up to now is      214.4 secs

     total energy              =   -7997.35143926 Ry
     estimated scf accuracy    <      19.49318255 Ry

     iteration # 28     ecut=    60.00 Ry     beta= 0.22
     Davidson diagonalization with overlap
     ethr =  1.77E-03,  avg # of iterations =  2.0

     negative rho (up, down):  1.084E-01 0.000E+00

     total cpu time spent up to now is      222.5 secs

     total energy              =   -7997.79470499 Ry
     estimated scf accuracy    <       8.75129397 Ry

     iteration # 29     ecut=    60.00 Ry     beta= 0.22
     Davidson diagonalization with overlap
     ethr =  1.77E-03,  avg # of iterations =  1.2

     negative rho (up, down):  7.050E-02 0.000E+00

     total cpu time spent up to now is      229.9 secs

     total energy              =   -7997.80787322 Ry
     estimated scf accuracy    <       8.46392476 Ry

     iteration # 30     ecut=    60.00 Ry     beta= 0.22
     Davidson diagonalization with overlap
     ethr =  1.77E-03,  avg # of iterations =  1.4

     negative rho (up, down):  6.749E-02 0.000E+00

     total cpu time spent up to now is      237.5 secs

     total energy              =   -7997.85800815 Ry
     estimated scf accuracy    <       6.34338626 Ry

     iteration # 31     ecut=    60.00 Ry     beta= 0.22
     Davidson diagonalization with overlap
     ethr =  1.72E-03,  avg # of iterations =  1.0

     negative rho (up, down):  7.110E-02 0.000E+00

     total cpu time spent up to now is      244.8 secs

     total energy              =   -7997.83015663 Ry
     estimated scf accuracy    <       7.27355230 Ry

     iteration # 32     ecut=    60.00 Ry     beta= 0.22
     Davidson diagonalization with overlap
     ethr =  1.72E-03,  avg # of iterations =  1.0

     negative rho (up, down):  7.423E-02 0.000E+00

     total cpu time spent up to now is      252.2 secs

     total energy              =   -7997.81588464 Ry
     estimated scf accuracy    <       4.49268170 Ry

     iteration # 33     ecut=    60.00 Ry     beta= 0.22
     Davidson diagonalization with overlap
     ethr =  1.22E-03,  avg # of iterations =  1.0

     negative rho (up, down):  7.070E-02 0.000E+00

     total cpu time spent up to now is      259.5 secs

     total energy              =   -7997.84306691 Ry
     estimated scf accuracy    <       3.34221827 Ry

     iteration # 34     ecut=    60.00 Ry     beta= 0.22
     Davidson diagonalization with overlap
     ethr =  9.08E-04,  avg # of iterations =  1.0

     negative rho (up, down):  5.428E-02 0.000E+00

     total cpu time spent up to now is      266.8 secs

     total energy              =   -7997.79459923 Ry
     estimated scf accuracy    <       4.07747563 Ry

     iteration # 35     ecut=    60.00 Ry     beta= 0.22
     Davidson diagonalization with overlap
     ethr =  9.08E-04,  avg # of iterations =  1.4

     negative rho (up, down):  5.969E-02 0.000E+00

     total cpu time spent up to now is      274.4 secs

     total energy              =   -7997.82867691 Ry
     estimated scf accuracy    <       5.03236491 Ry

     iteration # 36     ecut=    60.00 Ry     beta= 0.22
     Davidson diagonalization with overlap
     ethr =  9.08E-04,  avg # of iterations =  1.0

     negative rho (up, down):  5.138E-02 0.000E+00

     total cpu time spent up to now is      281.7 secs

     total energy              =   -7997.81321465 Ry
     estimated scf accuracy    <       4.40725290 Ry

     iteration # 37     ecut=    60.00 Ry     beta= 0.22
     Davidson diagonalization with overlap
     ethr =  9.08E-04,  avg # of iterations =  1.0

     negative rho (up, down):  4.035E-02 0.000E+00

     total cpu time spent up to now is      288.9 secs

     total energy              =   -7997.81254295 Ry
     estimated scf accuracy    <       3.34328211 Ry

     iteration # 38     ecut=    60.00 Ry     beta= 0.22
     Davidson diagonalization with overlap
     ethr =  9.08E-04,  avg # of iterations =  1.2

     negative rho (up, down):  4.128E-02 0.000E+00

     total cpu time spent up to now is      296.4 secs

     total energy              =   -7997.83368272 Ry
     estimated scf accuracy    <       3.53393505 Ry

     iteration # 39     ecut=    60.00 Ry     beta= 0.22
     Davidson diagonalization with overlap
     ethr =  9.08E-04,  avg # of iterations =  1.0

     negative rho (up, down):  6.833E-02 0.000E+00

     total cpu time spent up to now is      303.7 secs

     total energy              =   -7997.76535970 Ry
     estimated scf accuracy    <       3.81363932 Ry

     iteration # 40     ecut=    60.00 Ry     beta= 0.22
     Davidson diagonalization with overlap
     ethr =  9.08E-04,  avg # of iterations =  1.6

     negative rho (up, down):  5.466E-02 0.000E+00

     total cpu time spent up to now is      311.4 secs

     total energy              =   -7997.73730344 Ry
     estimated scf accuracy    <       4.09364859 Ry

     iteration # 41     ecut=    60.00 Ry     beta= 0.22
     Davidson diagonalization with overlap
     ethr =  9.08E-04,  avg # of iterations =  2.0

     negative rho (up, down):  4.276E-02 0.000E+00

     total cpu time spent up to now is      319.5 secs

     total energy              =   -7997.79884005 Ry
     estimated scf accuracy    <       2.96652883 Ry

     iteration # 42     ecut=    60.00 Ry     beta= 0.22
     Davidson diagonalization with overlap
     ethr =  8.06E-04,  avg # of iterations =  2.0

     negative rho (up, down):  7.344E-02 0.000E+00

     total cpu time spent up to now is      327.6 secs

     total energy              =   -7997.63035621 Ry
     estimated scf accuracy    <       5.01229489 Ry

     iteration # 43     ecut=    60.00 Ry     beta= 0.22
     Davidson diagonalization with overlap
     ethr =  8.06E-04,  avg # of iterations =  2.0

     negative rho (up, down):  8.963E-02 0.000E+00

     total cpu time spent up to now is      336.1 secs

     total energy              =   -7997.70546012 Ry
     estimated scf accuracy    <       4.21237974 Ry

     iteration # 44     ecut=    60.00 Ry     beta= 0.22
     Davidson diagonalization with overlap
     ethr =  8.06E-04,  avg # of iterations =  2.0

     negative rho (up, down):  9.817E-02 0.000E+00

     total cpu time spent up to now is      344.0 secs

     total energy              =   -7997.71627489 Ry
     estimated scf accuracy    <       3.43142496 Ry

     iteration # 45     ecut=    60.00 Ry     beta= 0.22
     Davidson diagonalization with overlap
     ethr =  8.06E-04,  avg # of iterations =  1.0

     negative rho (up, down):  1.041E-01 0.000E+00

     total cpu time spent up to now is      351.2 secs

     total energy              =   -7997.73517973 Ry
     estimated scf accuracy    <       2.88591224 Ry

     iteration # 46     ecut=    60.00 Ry     beta= 0.22
     Davidson diagonalization with overlap
     ethr =  7.84E-04,  avg # of iterations =  1.0

     negative rho (up, down):  9.370E-02 0.000E+00

     total cpu time spent up to now is      358.5 secs

     total energy              =   -7997.66027513 Ry
     estimated scf accuracy    <       3.46712120 Ry

     iteration # 47     ecut=    60.00 Ry     beta= 0.22
     Davidson diagonalization with overlap
     ethr =  7.84E-04,  avg # of iterations =  2.0

     negative rho (up, down):  7.893E-02 0.000E+00

     total cpu time spent up to now is      367.1 secs

     total energy              =   -7997.67447383 Ry
     estimated scf accuracy    <       5.91178751 Ry

     iteration # 48     ecut=    60.00 Ry     beta= 0.22
     Davidson diagonalization with overlap
     ethr =  7.84E-04,  avg # of iterations =  2.0

     negative rho (up, down):  8.170E-02 0.000E+00

     total cpu time spent up to now is      375.4 secs

     total energy              =   -7997.79474464 Ry
     estimated scf accuracy    <       2.77054938 Ry

     iteration # 49     ecut=    60.00 Ry     beta= 0.22
     Davidson diagonalization with overlap
     ethr =  7.53E-04,  avg # of iterations =  1.0

     negative rho (up, down):  8.532E-02 0.000E+00

     total cpu time spent up to now is      382.8 secs

     total energy              =   -7997.80623140 Ry
     estimated scf accuracy    <       2.61732616 Ry

     iteration # 50     ecut=    60.00 Ry     beta= 0.22
     Davidson diagonalization with overlap
     ethr =  7.11E-04,  avg # of iterations =  1.0

     negative rho (up, down):  1.025E-01 0.000E+00

     total cpu time spent up to now is      390.2 secs

     total energy              =   -7997.75245879 Ry
     estimated scf accuracy    <       3.43928413 Ry

     iteration # 51     ecut=    60.00 Ry     beta= 0.22
     Davidson diagonalization with overlap
     ethr =  7.11E-04,  avg # of iterations =  1.8

     negative rho (up, down):  1.136E-01 0.000E+00

     total cpu time spent up to now is      398.3 secs

     total energy              =   -7997.70314447 Ry
     estimated scf accuracy    <       2.91376162 Ry

     iteration # 52     ecut=    60.00 Ry     beta= 0.22
     Davidson diagonalization with overlap
     ethr =  7.11E-04,  avg # of iterations =  1.0

     negative rho (up, down):  1.038E-01 0.000E+00

     total cpu time spent up to now is      405.6 secs

     total energy              =   -7997.73719768 Ry
     estimated scf accuracy    <       1.91782820 Ry

     iteration # 53     ecut=    60.00 Ry     beta= 0.22
     Davidson diagonalization with overlap
     ethr =  5.21E-04,  avg # of iterations =  1.0

     negative rho (up, down):  1.049E-01 0.000E+00

     total cpu time spent up to now is      412.7 secs

     total energy              =   -7997.75724349 Ry
     estimated scf accuracy    <       2.29041176 Ry

     iteration # 54     ecut=    60.00 Ry     beta= 0.22
     Davidson diagonalization with overlap
     ethr =  5.21E-04,  avg # of iterations =  1.4

     negative rho (up, down):  9.608E-02 0.000E+00

     total cpu time spent up to now is      420.0 secs

     total energy              =   -7997.80381216 Ry
     estimated scf accuracy    <       3.18663051 Ry

     iteration # 55     ecut=    60.00 Ry     beta= 0.22
     Davidson diagonalization with overlap
     ethr =  5.21E-04,  avg # of iterations =  1.0

     negative rho (up, down):  1.012E-01 0.000E+00

     total cpu time spent up to now is      427.0 secs

     total energy              =   -7997.79353063 Ry
     estimated scf accuracy    <       3.59021813 Ry

     iteration # 56     ecut=    60.00 Ry     beta= 0.22
     Davidson diagonalization with overlap
     ethr =  5.21E-04,  avg # of iterations =  1.0

     negative rho (up, down):  9.563E-02 0.000E+00

     total cpu time spent up to now is      434.1 secs

     total energy              =   -7997.78713675 Ry
     estimated scf accuracy    <       3.81486544 Ry

     iteration # 57     ecut=    60.00 Ry     beta= 0.22
     Davidson diagonalization with overlap
     ethr =  5.21E-04,  avg # of iterations =  1.0

     negative rho (up, down):  9.615E-02 0.000E+00

     total cpu time spent up to now is      441.5 secs

     total energy              =   -7997.80331508 Ry
     estimated scf accuracy    <       3.06021647 Ry

     iteration # 58     ecut=    60.00 Ry     beta= 0.22
     Davidson diagonalization with overlap
     ethr =  5.21E-04,  avg # of iterations =  1.4

     negative rho (up, down):  9.943E-02 0.000E+00

     total cpu time spent up to now is      449.3 secs

     total energy              =   -7997.80014728 Ry
     estimated scf accuracy    <       4.17145012 Ry

     iteration # 59     ecut=    60.00 Ry     beta= 0.22
     Davidson diagonalization with overlap
     ethr =  5.21E-04,  avg # of iterations =  1.0

     negative rho (up, down):  1.014E-01 0.000E+00

     total cpu time spent up to now is      456.5 secs

     total energy              =   -7997.81411686 Ry
     estimated scf accuracy    <       3.69398108 Ry

     iteration # 60     ecut=    60.00 Ry     beta= 0.22
     Davidson diagonalization with overlap
     ethr =  5.21E-04,  avg # of iterations =  1.2

     negative rho (up, down):  9.965E-02 0.000E+00

     total cpu time spent up to now is      463.6 secs

     total energy              =   -7997.81197927 Ry
     estimated scf accuracy    <       4.87978650 Ry

     iteration # 61     ecut=    60.00 Ry     beta= 0.22
     Davidson diagonalization with overlap
     ethr =  5.21E-04,  avg # of iterations =  1.0

     negative rho (up, down):  9.926E-02 0.000E+00

     total cpu time spent up to now is      470.6 secs

     total energy              =   -7997.84418938 Ry
     estimated scf accuracy    <       4.76445594 Ry

     iteration # 62     ecut=    60.00 Ry     beta= 0.22
     Davidson diagonalization with overlap
     ethr =  5.21E-04,  avg # of iterations =  1.0

     negative rho (up, down):  9.864E-02 0.000E+00

     total cpu time spent up to now is      477.6 secs

     total energy              =   -7997.84112068 Ry
     estimated scf accuracy    <       5.76446913 Ry

     iteration # 63     ecut=    60.00 Ry     beta= 0.22
     Davidson diagonalization with overlap
     ethr =  5.21E-04,  avg # of iterations =  1.0

     negative rho (up, down):  1.007E-01 0.000E+00

     total cpu time spent up to now is      484.6 secs

     total energy              =   -7997.85530009 Ry
     estimated scf accuracy    <       5.46256090 Ry

     iteration # 64     ecut=    60.00 Ry     beta= 0.22
     Davidson diagonalization with overlap
     ethr =  5.21E-04,  avg # of iterations =  1.0

     negative rho (up, down):  1.064E-01 0.000E+00

     total cpu time spent up to now is      491.7 secs

     total energy              =   -7997.62656975 Ry
     estimated scf accuracy    <       6.48008241 Ry

     iteration # 65     ecut=    60.00 Ry     beta= 0.22
     Davidson diagonalization with overlap
     ethr =  5.21E-04,  avg # of iterations =  2.0

     negative rho (up, down):  1.102E-01 0.000E+00

     total cpu time spent up to now is      499.8 secs

     total energy              =   -7997.74620360 Ry
     estimated scf accuracy    <       1.30160250 Ry

     iteration # 66     ecut=    60.00 Ry     beta= 0.22
     Davidson diagonalization with overlap
     ethr =  3.54E-04,  avg # of iterations =  1.4

     negative rho (up, down):  1.170E-01 0.000E+00

     total cpu time spent up to now is      507.1 secs

     total energy              =   -7997.75684254 Ry
     estimated scf accuracy    <       2.33862049 Ry

     iteration # 67     ecut=    60.00 Ry     beta= 0.22
     Davidson diagonalization with overlap
     ethr =  3.54E-04,  avg # of iterations =  1.8

     negative rho (up, down):  1.140E-01 0.000E+00

     total cpu time spent up to now is      514.7 secs

     total energy              =   -7997.79354296 Ry
     estimated scf accuracy    <       3.13602248 Ry

     iteration # 68     ecut=    60.00 Ry     beta= 0.22
     Davidson diagonalization with overlap
     ethr =  3.54E-04,  avg # of iterations =  1.0

     negative rho (up, down):  1.239E-01 0.000E+00

     total cpu time spent up to now is      521.6 secs

     total energy              =   -7997.75520480 Ry
     estimated scf accuracy    <       3.84917952 Ry

     iteration # 69     ecut=    60.00 Ry     beta= 0.22
     Davidson diagonalization with overlap
     ethr =  3.54E-04,  avg # of iterations =  2.0

     negative rho (up, down):  1.162E-01 0.000E+00

     total cpu time spent up to now is      529.7 secs

     total energy              =   -7997.70964931 Ry
     estimated scf accuracy    <       3.35508996 Ry

     iteration # 70     ecut=    60.00 Ry     beta= 0.22
     Davidson diagonalization with overlap
     ethr =  3.54E-04,  avg # of iterations =  2.0

     negative rho (up, down):  1.380E-01 0.000E+00

     total cpu time spent up to now is      537.8 secs

     total energy              =   -7997.69606418 Ry
     estimated scf accuracy    <       3.14912437 Ry

     iteration # 71     ecut=    60.00 Ry     beta= 0.22
     Davidson diagonalization with overlap
     ethr =  3.54E-04,  avg # of iterations =  2.0

     negative rho (up, down):  1.501E-01 0.000E+00

     total cpu time spent up to now is      545.6 secs

     total energy              =   -7997.71520829 Ry
     estimated scf accuracy    <       3.60642182 Ry

     iteration # 72     ecut=    60.00 Ry     beta= 0.22
     Davidson diagonalization with overlap
     ethr =  3.54E-04,  avg # of iterations =  2.0

     negative rho (up, down):  1.420E-01 0.000E+00

     total cpu time spent up to now is      553.3 secs

     total energy              =   -7997.74811581 Ry
     estimated scf accuracy    <       3.21149752 Ry

     iteration # 73     ecut=    60.00 Ry     beta= 0.22
     Davidson diagonalization with overlap
     ethr =  3.54E-04,  avg # of iterations =  2.0

     negative rho (up, down):  1.329E-01 0.000E+00

     total cpu time spent up to now is      561.1 secs

     total energy              =   -7997.76950776 Ry
     estimated scf accuracy    <       3.49215739 Ry

     iteration # 74     ecut=    60.00 Ry     beta= 0.22
     Davidson diagonalization with overlap
     ethr =  3.54E-04,  avg # of iterations =  1.0

     negative rho (up, down):  1.306E-01 0.000E+00

     total cpu time spent up to now is      568.1 secs

     total energy              =   -7997.79188741 Ry
     estimated scf accuracy    <       4.47458825 Ry

     iteration # 75     ecut=    60.00 Ry     beta= 0.22
     Davidson diagonalization with overlap
     ethr =  3.54E-04,  avg # of iterations =  1.0

     negative rho (up, down):  1.213E-01 0.000E+00

     total cpu time spent up to now is      575.1 secs

     total energy              =   -7997.75759112 Ry
     estimated scf accuracy    <       5.48945018 Ry

     iteration # 76     ecut=    60.00 Ry     beta= 0.22
     Davidson diagonalization with overlap
     ethr =  3.54E-04,  avg # of iterations =  2.0

     negative rho (up, down):  1.619E-01 0.000E+00

     total cpu time spent up to now is      583.0 secs

     total energy              =   -7997.63353392 Ry
     estimated scf accuracy    <       5.06689232 Ry

     iteration # 77     ecut=    60.00 Ry     beta= 0.22
     Davidson diagonalization with overlap
     ethr =  3.54E-04,  avg # of iterations =  2.0

     negative rho (up, down):  1.357E-01 0.000E+00

     total cpu time spent up to now is      591.0 secs

     total energy              =   -7997.69855504 Ry
     estimated scf accuracy    <       4.88370140 Ry

     iteration # 78     ecut=    60.00 Ry     beta= 0.22
     Davidson diagonalization with overlap
     ethr =  3.54E-04,  avg # of iterations =  1.8

     negative rho (up, down):  1.631E-01 0.000E+00

     total cpu time spent up to now is      598.6 secs

     total energy              =   -7997.66956829 Ry
     estimated scf accuracy    <       3.00924397 Ry

     iteration # 79     ecut=    60.00 Ry     beta= 0.22
     Davidson diagonalization with overlap
     ethr =  3.54E-04,  avg # of iterations =  1.2

     negative rho (up, down):  1.583E-01 0.000E+00

     total cpu time spent up to now is      605.8 secs

     total energy              =   -7997.73251525 Ry
     estimated scf accuracy    <       2.86763650 Ry

     iteration # 80     ecut=    60.00 Ry     beta= 0.22
     Davidson diagonalization with overlap
     ethr =  3.54E-04,  avg # of iterations =  1.2

     negative rho (up, down):  1.581E-01 0.000E+00

     total cpu time spent up to now is      613.0 secs

     total energy              =   -7997.74152896 Ry
     estimated scf accuracy    <       2.91824081 Ry

     iteration # 81     ecut=    60.00 Ry     beta= 0.22
     Davidson diagonalization with overlap
     ethr =  3.54E-04,  avg # of iterations =  1.0

     negative rho (up, down):  1.436E-01 0.000E+00

     total cpu time spent up to now is      620.0 secs

     total energy              =   -7997.71858101 Ry
     estimated scf accuracy    <       2.90047882 Ry

     iteration # 82     ecut=    60.00 Ry     beta= 0.22
     Davidson diagonalization with overlap
     ethr =  3.54E-04,  avg # of iterations =  1.0

     negative rho (up, down):  1.394E-01 0.000E+00

     total cpu time spent up to now is      627.1 secs

     total energy              =   -7997.74250902 Ry
     estimated scf accuracy    <       1.58749664 Ry

     iteration # 83     ecut=    60.00 Ry     beta= 0.22
     Davidson diagonalization with overlap
     ethr =  3.54E-04,  avg # of iterations =  1.0

     negative rho (up, down):  1.365E-01 0.000E+00

     total cpu time spent up to now is      634.1 secs

     total energy              =   -7997.69141062 Ry
     estimated scf accuracy    <       3.39069979 Ry

     iteration # 84     ecut=    60.00 Ry     beta= 0.22
     Davidson diagonalization with overlap
     ethr =  3.54E-04,  avg # of iterations =  1.8

     negative rho (up, down):  1.135E-01 0.000E+00

     total cpu time spent up to now is      641.9 secs

     total energy              =   -7997.72398438 Ry
     estimated scf accuracy    <       1.09336171 Ry

     iteration # 85     ecut=    60.00 Ry     beta= 0.22
     Davidson diagonalization with overlap
     ethr =  2.97E-04,  avg # of iterations =  2.0

     negative rho (up, down):  1.140E-01 0.000E+00

     total cpu time spent up to now is      650.1 secs

     total energy              =   -7997.73673274 Ry
     estimated scf accuracy    <       3.48622629 Ry

     iteration # 86     ecut=    60.00 Ry     beta= 0.22
     Davidson diagonalization with overlap
     ethr =  2.97E-04,  avg # of iterations =  2.0

     negative rho (up, down):  1.019E-01 0.000E+00

     total cpu time spent up to now is      658.1 secs

     total energy              =   -7997.78139306 Ry
     estimated scf accuracy    <       2.63776864 Ry

     iteration # 87     ecut=    60.00 Ry     beta= 0.22
     Davidson diagonalization with overlap
     ethr =  2.97E-04,  avg # of iterations =  2.0

     negative rho (up, down):  1.071E-01 0.000E+00

     total cpu time spent up to now is      666.1 secs

     total energy              =   -7997.79714435 Ry
     estimated scf accuracy    <       3.17918331 Ry

     iteration # 88     ecut=    60.00 Ry     beta= 0.22
     Davidson diagonalization with overlap
     ethr =  2.97E-04,  avg # of iterations =  1.0

     negative rho (up, down):  1.114E-01 0.000E+00

     total cpu time spent up to now is      673.4 secs

     total energy              =   -7997.79278174 Ry
     estimated scf accuracy    <       3.21106726 Ry

     iteration # 89     ecut=    60.00 Ry     beta= 0.22
     Davidson diagonalization with overlap
     ethr =  2.97E-04,  avg # of iterations =  1.0

     negative rho (up, down):  1.121E-01 0.000E+00

     total cpu time spent up to now is      680.6 secs

     total energy              =   -7997.78206739 Ry
     estimated scf accuracy    <       3.63899460 Ry

     iteration # 90     ecut=    60.00 Ry     beta= 0.22
     Davidson diagonalization with overlap
     ethr =  2.97E-04,  avg # of iterations =  1.0

     negative rho (up, down):  1.161E-01 0.000E+00

     total cpu time spent up to now is      687.8 secs

     total energy              =   -7997.78679552 Ry
     estimated scf accuracy    <       3.17010844 Ry

     iteration # 91     ecut=    60.00 Ry     beta= 0.22
     Davidson diagonalization with overlap
     ethr =  2.97E-04,  avg # of iterations =  1.0

     negative rho (up, down):  1.119E-01 0.000E+00

     total cpu time spent up to now is      695.1 secs

     total energy              =   -7997.78222245 Ry
     estimated scf accuracy    <       3.34816375 Ry

     iteration # 92     ecut=    60.00 Ry     beta= 0.22
     Davidson diagonalization with overlap
     ethr =  2.97E-04,  avg # of iterations =  1.0

     negative rho (up, down):  1.171E-01 0.000E+00

     total cpu time spent up to now is      702.3 secs

     total energy              =   -7997.78439189 Ry
     estimated scf accuracy    <       2.99643961 Ry

     iteration # 93     ecut=    60.00 Ry     beta= 0.22
     Davidson diagonalization with overlap
     ethr =  2.97E-04,  avg # of iterations =  1.0

     negative rho (up, down):  1.122E-01 0.000E+00

     total cpu time spent up to now is      709.5 secs

     total energy              =   -7997.79169722 Ry
     estimated scf accuracy    <       3.27928566 Ry

     iteration # 94     ecut=    60.00 Ry     beta= 0.22
     Davidson diagonalization with overlap
     ethr =  2.97E-04,  avg # of iterations =  1.2

     negative rho (up, down):  1.009E-01 0.000E+00

     total cpu time spent up to now is      716.8 secs

     total energy              =   -7997.75688106 Ry
     estimated scf accuracy    <       3.59995824 Ry

     iteration # 95     ecut=    60.00 Ry     beta= 0.22
     Davidson diagonalization with overlap
     ethr =  2.97E-04,  avg # of iterations =  2.0

     negative rho (up, down):  1.050E-01 0.000E+00

     total cpu time spent up to now is      725.0 secs

     total energy              =   -7997.77590480 Ry
     estimated scf accuracy    <       3.04162451 Ry

     iteration # 96     ecut=    60.00 Ry     beta= 0.22
     Davidson diagonalization with overlap
     ethr =  2.97E-04,  avg # of iterations =  2.0

     negative rho (up, down):  1.009E-01 0.000E+00

     total cpu time spent up to now is      733.1 secs

     total energy              =   -7997.79058256 Ry
     estimated scf accuracy    <       4.12275592 Ry

     iteration # 97     ecut=    60.00 Ry     beta= 0.22
     Davidson diagonalization with overlap
     ethr =  2.97E-04,  avg # of iterations =  1.4

     negative rho (up, down):  1.014E-01 0.000E+00

     total cpu time spent up to now is      740.6 secs

     total energy              =   -7997.79822372 Ry
     estimated scf accuracy    <       3.34171235 Ry

     iteration # 98     ecut=    60.00 Ry     beta= 0.22
     Davidson diagonalization with overlap
     ethr =  2.97E-04,  avg # of iterations =  1.0

     negative rho (up, down):  9.619E-02 0.000E+00

     total cpu time spent up to now is      747.6 secs

     total energy              =   -7997.76379734 Ry
     estimated scf accuracy    <       3.26880968 Ry

     iteration # 99     ecut=    60.00 Ry     beta= 0.22
     Davidson diagonalization with overlap
     ethr =  2.97E-04,  avg # of iterations =  1.4

     negative rho (up, down):  9.997E-02 0.000E+00

     total cpu time spent up to now is      754.9 secs

     total energy              =   -7997.76449553 Ry
     estimated scf accuracy    <       2.18732881 Ry

     iteration #100     ecut=    60.00 Ry     beta= 0.22
     Davidson diagonalization with overlap
     ethr =  2.97E-04,  avg # of iterations =  1.0

     negative rho (up, down):  9.084E-02 0.000E+00

     total cpu time spent up to now is      761.9 secs

     total energy              =   -7997.78586992 Ry
     estimated scf accuracy    <       1.88661797 Ry

     iteration #101     ecut=    60.00 Ry     beta= 0.22
     Davidson diagonalization with overlap
     ethr =  2.97E-04,  avg # of iterations =  1.0

     negative rho (up, down):  9.336E-02 0.000E+00

     total cpu time spent up to now is      768.9 secs

     total energy              =   -7997.79249731 Ry
     estimated scf accuracy    <       2.52159139 Ry

     iteration #102     ecut=    60.00 Ry     beta= 0.22
     Davidson diagonalization with overlap
     ethr =  2.97E-04,  avg # of iterations =  1.0

     negative rho (up, down):  9.547E-02 0.000E+00

     total cpu time spent up to now is      775.9 secs

     total energy              =   -7997.80585064 Ry
     estimated scf accuracy    <       2.50117522 Ry

     iteration #103     ecut=    60.00 Ry     beta= 0.22
     Davidson diagonalization with overlap
     ethr =  2.97E-04,  avg # of iterations =  1.0

     negative rho (up, down):  9.245E-02 0.000E+00

     total cpu time spent up to now is      783.0 secs

     total energy              =   -7997.81208499 Ry
     estimated scf accuracy    <       3.10272130 Ry

     iteration #104     ecut=    60.00 Ry     beta= 0.22
     Davidson diagonalization with overlap
     ethr =  2.97E-04,  avg # of iterations =  1.0

     negative rho (up, down):  9.710E-02 0.000E+00

     total cpu time spent up to now is      790.3 secs

     total energy              =   -7997.82117378 Ry
     estimated scf accuracy    <       3.03988779 Ry

     iteration #105     ecut=    60.00 Ry     beta= 0.22
     Davidson diagonalization with overlap
     ethr =  2.97E-04,  avg # of iterations =  1.0

     negative rho (up, down):  9.988E-02 0.000E+00

     total cpu time spent up to now is      797.5 secs

     total energy              =   -7997.81497662 Ry
     estimated scf accuracy    <       3.43630986 Ry

     iteration #106     ecut=    60.00 Ry     beta= 0.22
     Davidson diagonalization with overlap
     ethr =  2.97E-04,  avg # of iterations =  1.0

     negative rho (up, down):  1.171E-01 0.000E+00

     total cpu time spent up to now is      804.7 secs

     total energy              =   -7997.77469117 Ry
     estimated scf accuracy    <       3.27723580 Ry

     iteration #107     ecut=    60.00 Ry     beta= 0.22
     Davidson diagonalization with overlap
     ethr =  2.97E-04,  avg # of iterations =  2.0

     negative rho (up, down):  9.341E-02 0.000E+00

     total cpu time spent up to now is      812.7 secs

     total energy              =   -7997.78233565 Ry
     estimated scf accuracy    <       3.04364455 Ry

     iteration #108     ecut=    60.00 Ry     beta= 0.22
     Davidson diagonalization with overlap
     ethr =  2.97E-04,  avg # of iterations =  2.0

     negative rho (up, down):  9.563E-02 0.000E+00

     total cpu time spent up to now is      820.7 secs

     total energy              =   -7997.81840480 Ry
     estimated scf accuracy    <       2.76910922 Ry

     iteration #109     ecut=    60.00 Ry     beta= 0.22
     Davidson diagonalization with overlap
     ethr =  2.97E-04,  avg # of iterations =  1.2

     negative rho (up, down):  8.045E-02 0.000E+00

     total cpu time spent up to now is      828.1 secs

     total energy              =   -7997.83842549 Ry
     estimated scf accuracy    <       3.70197913 Ry

     iteration #110     ecut=    60.00 Ry     beta= 0.22
     Davidson diagonalization with overlap
     ethr =  2.97E-04,  avg # of iterations =  2.0

     negative rho (up, down):  7.907E-02 0.000E+00

     total cpu time spent up to now is      836.1 secs

     total energy              =   -7997.78660997 Ry
     estimated scf accuracy    <       4.46554579 Ry

     iteration #111     ecut=    60.00 Ry     beta= 0.22
     Davidson diagonalization with overlap
     ethr =  2.97E-04,  avg # of iterations =  2.0

     negative rho (up, down):  9.887E-02 0.000E+00

     total cpu time spent up to now is      844.1 secs

     total energy              =   -7997.78849149 Ry
     estimated scf accuracy    <       3.03756120 Ry

     iteration #112     ecut=    60.00 Ry     beta= 0.22
     Davidson diagonalization with overlap
     ethr =  2.97E-04,  avg # of iterations =  1.0

     negative rho (up, down):  1.019E-01 0.000E+00

     total cpu time spent up to now is      851.4 secs

     total energy              =   -7997.77716475 Ry
     estimated scf accuracy    <       2.71820755 Ry

     iteration #113     ecut=    60.00 Ry     beta= 0.22
     Davidson diagonalization with overlap
     ethr =  2.97E-04,  avg # of iterations =  1.0

     negative rho (up, down):  9.840E-02 0.000E+00

     total cpu time spent up to now is      858.8 secs

     total energy              =   -7997.78475262 Ry
     estimated scf accuracy    <       2.02255421 Ry

     iteration #114     ecut=    60.00 Ry     beta= 0.22
     Davidson diagonalization with overlap
     ethr =  2.97E-04,  avg # of iterations =  1.0

     negative rho (up, down):  6.338E-02 0.000E+00

     total cpu time spent up to now is      866.3 secs

     total energy              =   -7997.80272584 Ry
     estimated scf accuracy    <       1.99010208 Ry

     iteration #115     ecut=    60.00 Ry     beta= 0.22
     Davidson diagonalization with overlap
     ethr =  2.97E-04,  avg # of iterations =  1.8

     negative rho (up, down):  7.285E-02 0.000E+00

     total cpu time spent up to now is      874.2 secs

     total energy              =   -7997.80686344 Ry
     estimated scf accuracy    <       2.04311727 Ry

     iteration #116     ecut=    60.00 Ry     beta= 0.22
     Davidson diagonalization with overlap
     ethr =  2.97E-04,  avg # of iterations =  1.6

     negative rho (up, down):  6.400E-02 0.000E+00

     total cpu time spent up to now is      881.9 secs

     total energy              =   -7997.79846676 Ry
     estimated scf accuracy    <       2.44641089 Ry

     iteration #117     ecut=    60.00 Ry     beta= 0.22
     Davidson diagonalization with overlap
     ethr =  2.97E-04,  avg # of iterations =  1.0

     negative rho (up, down):  3.807E-02 0.000E+00

     total cpu time spent up to now is      889.1 secs

     total energy              =   -7997.78327413 Ry
     estimated scf accuracy    <       1.26498846 Ry

     iteration #118     ecut=    60.00 Ry     beta= 0.22
     Davidson diagonalization with overlap
     ethr =  2.97E-04,  avg # of iterations =  2.0

     negative rho (up, down):  3.562E-02 0.000E+00

     total cpu time spent up to now is      897.4 secs

     total energy              =   -7997.79692812 Ry
     estimated scf accuracy    <       2.88207687 Ry

     iteration #119     ecut=    60.00 Ry     beta= 0.22
     Davidson diagonalization with overlap
     ethr =  2.97E-04,  avg # of iterations =  2.0

     negative rho (up, down):  3.521E-02 0.000E+00

     total cpu time spent up to now is      905.4 secs

     total energy              =   -7997.79229640 Ry
     estimated scf accuracy    <       1.16409042 Ry

     iteration #120     ecut=    60.00 Ry     beta= 0.22
     Davidson diagonalization with overlap
     ethr =  2.97E-04,  avg # of iterations =  1.2

     negative rho (up, down):  3.383E-02 0.000E+00

     total cpu time spent up to now is      912.8 secs

     total energy              =   -7997.80013242 Ry
     estimated scf accuracy    <       0.24651505 Ry

     iteration #121     ecut=    60.00 Ry     beta= 0.22
     Davidson diagonalization with overlap
     ethr =  6.70E-05,  avg # of iterations =  1.8

     negative rho (up, down):  3.961E-02 0.000E+00

     total cpu time spent up to now is      920.6 secs

     total energy              =   -7997.80224717 Ry
     estimated scf accuracy    <       0.20862430 Ry

     iteration #122     ecut=    60.00 Ry     beta= 0.22
     Davidson diagonalization with overlap
     ethr =  5.67E-05,  avg # of iterations =  2.0

     negative rho (up, down):  4.044E-02 0.000E+00

     total cpu time spent up to now is      928.7 secs

     total energy              =   -7997.80641899 Ry
     estimated scf accuracy    <       0.71995930 Ry

     iteration #123     ecut=    60.00 Ry     beta= 0.22
     Davidson diagonalization with overlap
     ethr =  5.67E-05,  avg # of iterations =  1.0

     negative rho (up, down):  4.006E-02 0.000E+00

     total cpu time spent up to now is      935.9 secs

     total energy              =   -7997.80238247 Ry
     estimated scf accuracy    <       0.52411560 Ry

     iteration #124     ecut=    60.00 Ry     beta= 0.22
     Davidson diagonalization with overlap
     ethr =  5.67E-05,  avg # of iterations =  1.8

     negative rho (up, down):  3.511E-02 0.000E+00

     total cpu time spent up to now is      943.6 secs

     total energy              =   -7997.81064702 Ry
     estimated scf accuracy    <       0.39575906 Ry

     iteration #125     ecut=    60.00 Ry     beta= 0.22
     Davidson diagonalization with overlap
     ethr =  5.67E-05,  avg # of iterations =  2.0

     negative rho (up, down):  3.888E-02 0.000E+00

     total cpu time spent up to now is      951.9 secs

     total energy              =   -7997.80211915 Ry
     estimated scf accuracy    <       0.97292574 Ry

     iteration #126     ecut=    60.00 Ry     beta= 0.22
     Davidson diagonalization with overlap
     ethr =  5.67E-05,  avg # of iterations =  2.0

     negative rho (up, down):  5.345E-02 0.000E+00

     total cpu time spent up to now is      960.1 secs

     total energy              =   -7997.75449209 Ry
     estimated scf accuracy    <       0.63873216 Ry

     iteration #127     ecut=    60.00 Ry     beta= 0.22
     Davidson diagonalization with overlap
     ethr =  5.67E-05,  avg # of iterations =  2.0

     negative rho (up, down):  5.988E-02 0.000E+00

     total cpu time spent up to now is      968.8 secs

     total energy              =   -7997.84855478 Ry
     estimated scf accuracy    <       1.76692598 Ry

     iteration #128     ecut=    60.00 Ry     beta= 0.22
     Davidson diagonalization with overlap
     ethr =  5.67E-05,  avg # of iterations =  2.0

     negative rho (up, down):  4.909E-02 0.000E+00

     total cpu time spent up to now is      977.1 secs

     total energy              =   -7997.74723304 Ry
     estimated scf accuracy    <       3.71580087 Ry

     iteration #129     ecut=    60.00 Ry     beta= 0.22
     Davidson diagonalization with overlap
     ethr =  5.67E-05,  avg # of iterations =  2.0

     negative rho (up, down):  3.946E-02 0.000E+00

     total cpu time spent up to now is      985.7 secs

     total energy              =   -7997.78520778 Ry
     estimated scf accuracy    <       0.32217794 Ry

     iteration #130     ecut=    60.00 Ry     beta= 0.22
     Davidson diagonalization with overlap
     ethr =  5.67E-05,  avg # of iterations =  2.0

     negative rho (up, down):  4.346E-02 0.000E+00

     total cpu time spent up to now is      994.0 secs

     total energy              =   -7997.78218807 Ry
     estimated scf accuracy    <       0.40857497 Ry

     iteration #131     ecut=    60.00 Ry     beta= 0.22
     Davidson diagonalization with overlap
     ethr =  5.67E-05,  avg # of iterations =  2.0

     negative rho (up, down):  4.358E-02 0.000E+00

     total cpu time spent up to now is     1002.3 secs

     total energy              =   -7997.79668268 Ry
     estimated scf accuracy    <       0.52731819 Ry

     iteration #132     ecut=    60.00 Ry     beta= 0.22
     Davidson diagonalization with overlap
     ethr =  5.67E-05,  avg # of iterations =  2.0

     negative rho (up, down):  4.404E-02 0.000E+00

     total cpu time spent up to now is     1010.1 secs

     total energy              =   -7997.79944588 Ry
     estimated scf accuracy    <       0.29624494 Ry

     iteration #133     ecut=    60.00 Ry     beta= 0.22
     Davidson diagonalization with overlap
     ethr =  5.67E-05,  avg # of iterations =  1.0

     negative rho (up, down):  4.502E-02 0.000E+00

     total cpu time spent up to now is     1017.2 secs

     total energy              =   -7997.80009862 Ry
     estimated scf accuracy    <       0.26228414 Ry

     iteration #134     ecut=    60.00 Ry     beta= 0.22
     Davidson diagonalization with overlap
     ethr =  5.67E-05,  avg # of iterations =  1.0

     negative rho (up, down):  4.493E-02 0.000E+00

     total cpu time spent up to now is     1024.4 secs

     total energy              =   -7997.80202522 Ry
     estimated scf accuracy    <       0.35537047 Ry

     iteration #135     ecut=    60.00 Ry     beta= 0.22
     Davidson diagonalization with overlap
     ethr =  5.67E-05,  avg # of iterations =  1.0

     negative rho (up, down):  4.534E-02 0.000E+00

     total cpu time spent up to now is     1031.7 secs

     total energy              =   -7997.80120929 Ry
     estimated scf accuracy    <       0.38342351 Ry

     iteration #136     ecut=    60.00 Ry     beta= 0.22
     Davidson diagonalization with overlap
     ethr =  5.67E-05,  avg # of iterations =  1.0

     negative rho (up, down):  5.257E-02 0.000E+00

     total cpu time spent up to now is     1038.9 secs

     total energy              =   -7997.79158157 Ry
     estimated scf accuracy    <       0.36182242 Ry

     iteration #137     ecut=    60.00 Ry     beta= 0.22
     Davidson diagonalization with overlap
     ethr =  5.67E-05,  avg # of iterations =  2.0

     negative rho (up, down):  5.029E-02 0.000E+00

     total cpu time spent up to now is     1047.2 secs

     total energy              =   -7997.79822391 Ry
     estimated scf accuracy    <       0.77653944 Ry

     iteration #138     ecut=    60.00 Ry     beta= 0.22
     Davidson diagonalization with overlap
     ethr =  5.67E-05,  avg # of iterations =  2.0

     negative rho (up, down):  4.945E-02 0.000E+00

     total cpu time spent up to now is     1055.1 secs

     total energy              =   -7997.80764301 Ry
     estimated scf accuracy    <       0.57453174 Ry

     iteration #139     ecut=    60.00 Ry     beta= 0.22
     Davidson diagonalization with overlap
     ethr =  5.67E-05,  avg # of iterations =  1.2

     negative rho (up, down):  4.956E-02 0.000E+00

     total cpu time spent up to now is     1062.5 secs

     total energy              =   -7997.82392447 Ry
     estimated scf accuracy    <       0.85572904 Ry

     iteration #140     ecut=    60.00 Ry     beta= 0.22
     Davidson diagonalization with overlap
     ethr =  5.67E-05,  avg # of iterations =  1.4

     negative rho (up, down):  4.200E-02 0.000E+00

     total cpu time spent up to now is     1070.0 secs

     total energy              =   -7997.81361769 Ry
     estimated scf accuracy    <       1.69788876 Ry

     iteration #141     ecut=    60.00 Ry     beta= 0.22
     Davidson diagonalization with overlap
     ethr =  5.67E-05,  avg # of iterations =  2.0

     negative rho (up, down):  4.213E-02 0.000E+00

     total cpu time spent up to now is     1078.3 secs

     total energy              =   -7997.84465966 Ry
     estimated scf accuracy    <       2.09821438 Ry

     iteration #142     ecut=    60.00 Ry     beta= 0.22
     Davidson diagonalization with overlap
     ethr =  5.67E-05,  avg # of iterations =  1.0

     negative rho (up, down):  4.147E-02 0.000E+00

     total cpu time spent up to now is     1085.5 secs

     total energy              =   -7997.77444199 Ry
     estimated scf accuracy    <       2.39829942 Ry

     iteration #143     ecut=    60.00 Ry     beta= 0.22
     Davidson diagonalization with overlap
     ethr =  5.67E-05,  avg # of iterations =  2.0

     negative rho (up, down):  3.979E-02 0.000E+00

     total cpu time spent up to now is     1094.0 secs

     total energy              =   -7997.81303871 Ry
     estimated scf accuracy    <       0.59274191 Ry

     iteration #144     ecut=    60.00 Ry     beta= 0.22
     Davidson diagonalization with overlap
     ethr =  5.67E-05,  avg # of iterations =  2.0

     negative rho (up, down):  4.211E-02 0.000E+00

     total cpu time spent up to now is     1101.9 secs

     total energy              =   -7997.78517272 Ry
     estimated scf accuracy    <       1.05406128 Ry

     iteration #145     ecut=    60.00 Ry     beta= 0.22
     Davidson diagonalization with overlap
     ethr =  5.67E-05,  avg # of iterations =  2.0

     negative rho (up, down):  4.286E-02 0.000E+00

     total cpu time spent up to now is     1110.2 secs

     total energy              =   -7997.81425370 Ry
     estimated scf accuracy    <       0.50311506 Ry

     iteration #146     ecut=    60.00 Ry     beta= 0.22
     Davidson diagonalization with overlap
     ethr =  5.67E-05,  avg # of iterations =  1.2

     negative rho (up, down):  4.098E-02 0.000E+00

     total cpu time spent up to now is     1117.6 secs

     total energy              =   -7997.81622762 Ry
     estimated scf accuracy    <       1.00087647 Ry

     iteration #147     ecut=    60.00 Ry     beta= 0.22
     Davidson diagonalization with overlap
     ethr =  5.67E-05,  avg # of iterations =  2.0

     negative rho (up, down):  3.959E-02 0.000E+00

     total cpu time spent up to now is     1125.6 secs

     total energy              =   -7997.82535669 Ry
     estimated scf accuracy    <       1.20907057 Ry

     iteration #148     ecut=    60.00 Ry     beta= 0.22
     Davidson diagonalization with overlap
     ethr =  5.67E-05,  avg # of iterations =  1.8

     negative rho (up, down):  3.897E-02 0.000E+00

     total cpu time spent up to now is     1133.5 secs

     total energy              =   -7997.83271323 Ry
     estimated scf accuracy    <       1.39645494 Ry

     iteration #149     ecut=    60.00 Ry     beta= 0.22
     Davidson diagonalization with overlap
     ethr =  5.67E-05,  avg # of iterations =  1.0

     negative rho (up, down):  4.113E-02 0.000E+00

     total cpu time spent up to now is     1140.8 secs

     total energy              =   -7997.82354748 Ry
     estimated scf accuracy    <       1.61187619 Ry

     iteration #150     ecut=    60.00 Ry     beta= 0.22
     Davidson diagonalization with overlap
     ethr =  5.67E-05,  avg # of iterations =  2.0

     negative rho (up, down):  4.305E-02 0.000E+00

     total cpu time spent up to now is     1149.0 secs

     total energy              =   -7997.77815621 Ry
     estimated scf accuracy    <       1.65881240 Ry

     iteration #151     ecut=    60.00 Ry     beta= 0.22
     Davidson diagonalization with overlap
     ethr =  5.67E-05,  avg # of iterations =  2.0

     negative rho (up, down):  4.034E-02 0.000E+00

     total cpu time spent up to now is     1157.5 secs

     total energy              =   -7997.80109218 Ry
     estimated scf accuracy    <       0.66709044 Ry

     iteration #152     ecut=    60.00 Ry     beta= 0.22
     Davidson diagonalization with overlap
     ethr =  5.67E-05,  avg # of iterations =  2.0

     negative rho (up, down):  3.908E-02 0.000E+00

     total cpu time spent up to now is     1165.7 secs

     total energy              =   -7997.81127622 Ry
     estimated scf accuracy    <       1.05172506 Ry

     iteration #153     ecut=    60.00 Ry     beta= 0.22
     Davidson diagonalization with overlap
     ethr =  5.67E-05,  avg # of iterations =  1.6

     negative rho (up, down):  4.143E-02 0.000E+00

     total cpu time spent up to now is     1173.5 secs

     total energy              =   -7997.78630912 Ry
     estimated scf accuracy    <       0.81511023 Ry

     iteration #154     ecut=    60.00 Ry     beta= 0.22
     Davidson diagonalization with overlap
     ethr =  5.67E-05,  avg # of iterations =  2.0

     negative rho (up, down):  4.451E-02 0.000E+00

     total cpu time spent up to now is     1181.8 secs

     total energy              =   -7997.79895440 Ry
     estimated scf accuracy    <       0.48259428 Ry

     iteration #155     ecut=    60.00 Ry     beta= 0.22
     Davidson diagonalization with overlap
     ethr =  5.67E-05,  avg # of iterations =  2.0

     negative rho (up, down):  4.298E-02 0.000E+00

     total cpu time spent up to now is     1189.9 secs

     total energy              =   -7997.79907192 Ry
     estimated scf accuracy    <       0.42384588 Ry

     iteration #156     ecut=    60.00 Ry     beta= 0.22
     Davidson diagonalization with overlap
     ethr =  5.67E-05,  avg # of iterations =  1.0

     negative rho (up, down):  4.265E-02 0.000E+00

     total cpu time spent up to now is     1197.0 secs

     total energy              =   -7997.80202215 Ry
     estimated scf accuracy    <       0.26544521 Ry

     iteration #157     ecut=    60.00 Ry     beta= 0.22
     Davidson diagonalization with overlap
     ethr =  5.67E-05,  avg # of iterations =  1.0

     negative rho (up, down):  4.191E-02 0.000E+00

     total cpu time spent up to now is     1204.2 secs

     total energy              =   -7997.79799036 Ry
     estimated scf accuracy    <       0.32348884 Ry

     iteration #158     ecut=    60.00 Ry     beta= 0.22
     Davidson diagonalization with overlap
     ethr =  5.67E-05,  avg # of iterations =  1.4

     negative rho (up, down):  4.145E-02 0.000E+00

     total cpu time spent up to now is     1211.7 secs

     total energy              =   -7997.79802487 Ry
     estimated scf accuracy    <       0.17538799 Ry

     iteration #159     ecut=    60.00 Ry     beta= 0.22
     Davidson diagonalization with overlap
     ethr =  4.77E-05,  avg # of iterations =  1.0

     negative rho (up, down):  4.146E-02 0.000E+00

     total cpu time spent up to now is     1218.9 secs

     total energy              =   -7997.80143093 Ry
     estimated scf accuracy    <       0.11545909 Ry

     iteration #160     ecut=    60.00 Ry     beta= 0.22
     Davidson diagonalization with overlap
     ethr =  3.14E-05,  avg # of iterations =  2.0

     negative rho (up, down):  3.901E-02 0.000E+00

     total cpu time spent up to now is     1227.0 secs

     total energy              =   -7997.77771888 Ry
     estimated scf accuracy    <       0.45836919 Ry

     iteration #161     ecut=    60.00 Ry     beta= 0.22
     Davidson diagonalization with overlap
     ethr =  3.14E-05,  avg # of iterations =  2.0

     negative rho (up, down):  3.876E-02 0.000E+00

     total cpu time spent up to now is     1235.7 secs

     total energy              =   -7997.82113921 Ry
     estimated scf accuracy    <       0.93834368 Ry

     iteration #162     ecut=    60.00 Ry     beta= 0.22
     Davidson diagonalization with overlap
     ethr =  3.14E-05,  avg # of iterations =  1.0

     negative rho (up, down):  3.787E-02 0.000E+00

     total cpu time spent up to now is     1243.0 secs

     total energy              =   -7997.81654794 Ry
     estimated scf accuracy    <       1.01096316 Ry

     iteration #163     ecut=    60.00 Ry     beta= 0.22
     Davidson diagonalization with overlap
     ethr =  3.14E-05,  avg # of iterations =  1.0

     negative rho (up, down):  3.862E-02 0.000E+00

     total cpu time spent up to now is     1250.2 secs

     total energy              =   -7997.81592665 Ry
     estimated scf accuracy    <       0.85889661 Ry

     iteration #164     ecut=    60.00 Ry     beta= 0.22
     Davidson diagonalization with overlap
     ethr =  3.14E-05,  avg # of iterations =  1.0

     negative rho (up, down):  4.311E-02 0.000E+00

     total cpu time spent up to now is     1257.4 secs

     total energy              =   -7997.79232963 Ry
     estimated scf accuracy    <       0.85202482 Ry

     iteration #165     ecut=    60.00 Ry     beta= 0.22
     Davidson diagonalization with overlap
     ethr =  3.14E-05,  avg # of iterations =  2.0

     negative rho (up, down):  4.232E-02 0.000E+00

     total cpu time spent up to now is     1265.7 secs

     total energy              =   -7997.80366380 Ry
     estimated scf accuracy    <       0.22486304 Ry

     iteration #166     ecut=    60.00 Ry     beta= 0.22
     Davidson diagonalization with overlap
     ethr =  3.14E-05,  avg # of iterations =  2.0

     negative rho (up, down):  4.416E-02 0.000E+00

     total cpu time spent up to now is     1273.7 secs

     total energy              =   -7997.79888470 Ry
     estimated scf accuracy    <       0.44923851 Ry

     iteration #167     ecut=    60.00 Ry     beta= 0.22
     Davidson diagonalization with overlap
     ethr =  3.14E-05,  avg # of iterations =  1.4

     negative rho (up, down):  4.713E-02 0.000E+00

     total cpu time spent up to now is     1281.2 secs

     total energy              =   -7997.79052278 Ry
     estimated scf accuracy    <       0.27807677 Ry

     iteration #168     ecut=    60.00 Ry     beta= 0.22
     Davidson diagonalization with overlap
     ethr =  3.14E-05,  avg # of iterations =  2.0

     negative rho (up, down):  4.668E-02 0.000E+00

     total cpu time spent up to now is     1289.3 secs

     total energy              =   -7997.79637770 Ry
     estimated scf accuracy    <       0.15205978 Ry

     iteration #169     ecut=    60.00 Ry     beta= 0.22
     Davidson diagonalization with overlap
     ethr =  3.14E-05,  avg # of iterations =  1.4

     negative rho (up, down):  4.775E-02 0.000E+00

     total cpu time spent up to now is     1296.8 secs

     total energy              =   -7997.79338804 Ry
     estimated scf accuracy    <       0.19959226 Ry

     iteration #170     ecut=    60.00 Ry     beta= 0.22
     Davidson diagonalization with overlap
     ethr =  3.14E-05,  avg # of iterations =  2.0

     negative rho (up, down):  4.862E-02 0.000E+00

     total cpu time spent up to now is     1304.8 secs

     total energy              =   -7997.79361026 Ry
     estimated scf accuracy    <       0.14426429 Ry

     iteration #171     ecut=    60.00 Ry     beta= 0.22
     Davidson diagonalization with overlap
     ethr =  3.14E-05,  avg # of iterations =  2.0

     negative rho (up, down):  4.712E-02 0.000E+00

     total cpu time spent up to now is     1313.2 secs

     total energy              =   -7997.79529791 Ry
     estimated scf accuracy    <       0.39520611 Ry

     iteration #172     ecut=    60.00 Ry     beta= 0.22
     Davidson diagonalization with overlap
     ethr =  3.14E-05,  avg # of iterations =  1.6

     negative rho (up, down):  4.727E-02 0.000E+00

     total cpu time spent up to now is     1320.9 secs

     total energy              =   -7997.79589934 Ry
     estimated scf accuracy    <       0.18737048 Ry

     iteration #173     ecut=    60.00 Ry     beta= 0.22
     Davidson diagonalization with overlap
     ethr =  3.14E-05,  avg # of iterations =  1.0

     negative rho (up, down):  4.724E-02 0.000E+00

     total cpu time spent up to now is     1328.2 secs

     total energy              =   -7997.79625306 Ry
     estimated scf accuracy    <       0.16550768 Ry

     iteration #174     ecut=    60.00 Ry     beta= 0.22
     Davidson diagonalization with overlap
     ethr =  3.14E-05,  avg # of iterations =  1.0

     negative rho (up, down):  4.735E-02 0.000E+00

     total cpu time spent up to now is     1335.4 secs

     total energy              =   -7997.79921065 Ry
     estimated scf accuracy    <       0.18231031 Ry

     iteration #175     ecut=    60.00 Ry     beta= 0.22
     Davidson diagonalization with overlap
     ethr =  3.14E-05,  avg # of iterations =  1.2

     negative rho (up, down):  4.669E-02 0.000E+00

     total cpu time spent up to now is     1342.8 secs

     total energy              =   -7997.79791095 Ry
     estimated scf accuracy    <       0.34375192 Ry

     iteration #176     ecut=    60.00 Ry     beta= 0.22
     Davidson diagonalization with overlap
     ethr =  3.14E-05,  avg # of iterations =  1.0

     negative rho (up, down):  4.681E-02 0.000E+00

     total cpu time spent up to now is     1350.0 secs

     total energy              =   -7997.79846787 Ry
     estimated scf accuracy    <       0.24055670 Ry

     iteration #177     ecut=    60.00 Ry     beta= 0.22
     Davidson diagonalization with overlap
     ethr =  3.14E-05,  avg # of iterations =  1.0

     negative rho (up, down):  3.729E-02 0.000E+00

     total cpu time spent up to now is     1357.2 secs

     total energy              =   -7997.78786995 Ry
     estimated scf accuracy    <       0.25519423 Ry

     iteration #178     ecut=    60.00 Ry     beta= 0.22
     Davidson diagonalization with overlap
     ethr =  3.14E-05,  avg # of iterations =  2.0

     negative rho (up, down):  4.050E-02 0.000E+00

     total cpu time spent up to now is     1365.9 secs

     total energy              =   -7997.80593459 Ry
     estimated scf accuracy    <       0.50242540 Ry

     iteration #179     ecut=    60.00 Ry     beta= 0.22
     Davidson diagonalization with overlap
     ethr =  3.14E-05,  avg # of iterations =  2.0

     negative rho (up, down):  4.123E-02 0.000E+00

     total cpu time spent up to now is     1373.9 secs

     total energy              =   -7997.81148922 Ry
     estimated scf accuracy    <       0.55975899 Ry

     iteration #180     ecut=    60.00 Ry     beta= 0.22
     Davidson diagonalization with overlap
     ethr =  3.14E-05,  avg # of iterations =  1.0

     negative rho (up, down):  3.953E-02 0.000E+00

     total cpu time spent up to now is     1381.2 secs

     total energy              =   -7997.79719685 Ry
     estimated scf accuracy    <       0.60170875 Ry

     iteration #181     ecut=    60.00 Ry     beta= 0.22
     Davidson diagonalization with overlap
     ethr =  3.14E-05,  avg # of iterations =  2.0

     negative rho (up, down):  4.678E-02 0.000E+00

     total cpu time spent up to now is     1389.5 secs

     total energy              =   -7997.77439831 Ry
     estimated scf accuracy    <       0.24447334 Ry

     iteration #182     ecut=    60.00 Ry     beta= 0.22
     Davidson diagonalization with overlap
     ethr =  3.14E-05,  avg # of iterations =  2.0

     negative rho (up, down):  3.930E-02 0.000E+00

     total cpu time spent up to now is     1398.1 secs

     total energy              =   -7997.78366446 Ry
     estimated scf accuracy    <       0.97985438 Ry

     iteration #183     ecut=    60.00 Ry     beta= 0.22
     Davidson diagonalization with overlap
     ethr =  3.14E-05,  avg # of iterations =  2.0

     negative rho (up, down):  4.157E-02 0.000E+00

     total cpu time spent up to now is     1406.5 secs

     total energy              =   -7997.79665493 Ry
     estimated scf accuracy    <       0.66731669 Ry

     iteration #184     ecut=    60.00 Ry     beta= 0.22
     Davidson diagonalization with overlap
     ethr =  3.14E-05,  avg # of iterations =  2.0

     negative rho (up, down):  4.617E-02 0.000E+00

     total cpu time spent up to now is     1414.7 secs

     total energy              =   -7997.79791709 Ry
     estimated scf accuracy    <       0.29792414 Ry

     iteration #185     ecut=    60.00 Ry     beta= 0.22
     Davidson diagonalization with overlap
     ethr =  3.14E-05,  avg # of iterations =  1.0

     negative rho (up, down):  4.757E-02 0.000E+00

     total cpu time spent up to now is     1421.8 secs

     total energy              =   -7997.79113256 Ry
     estimated scf accuracy    <       0.24153548 Ry

     iteration #186     ecut=    60.00 Ry     beta= 0.22
     Davidson diagonalization with overlap
     ethr =  3.14E-05,  avg # of iterations =  2.0

     negative rho (up, down):  4.655E-02 0.000E+00

     total cpu time spent up to now is     1429.9 secs

     total energy              =   -7997.79447868 Ry
     estimated scf accuracy    <       0.14898958 Ry

     iteration #187     ecut=    60.00 Ry     beta= 0.22
     Davidson diagonalization with overlap
     ethr =  3.14E-05,  avg # of iterations =  1.0

     negative rho (up, down):  4.661E-02 0.000E+00

     total cpu time spent up to now is     1437.1 secs

     total energy              =   -7997.79527937 Ry
     estimated scf accuracy    <       0.10967497 Ry

     iteration #188     ecut=    60.00 Ry     beta= 0.22
     Davidson diagonalization with overlap
     ethr =  2.98E-05,  avg # of iterations =  1.0

     negative rho (up, down):  4.709E-02 0.000E+00

     total cpu time spent up to now is     1444.3 secs

     total energy              =   -7997.79460690 Ry
     estimated scf accuracy    <       0.11135516 Ry

     iteration #189     ecut=    60.00 Ry     beta= 0.22
     Davidson diagonalization with overlap
     ethr =  2.98E-05,  avg # of iterations =  1.4

     negative rho (up, down):  4.617E-02 0.000E+00

     total cpu time spent up to now is     1451.8 secs

     total energy              =   -7997.79129804 Ry
     estimated scf accuracy    <       0.14590915 Ry

     iteration #190     ecut=    60.00 Ry     beta= 0.22
     Davidson diagonalization with overlap
     ethr =  2.98E-05,  avg # of iterations =  2.0

     negative rho (up, down):  4.653E-02 0.000E+00

     total cpu time spent up to now is     1460.2 secs

     total energy              =   -7997.80350710 Ry
     estimated scf accuracy    <       0.37309461 Ry

     iteration #191     ecut=    60.00 Ry     beta= 0.22
     Davidson diagonalization with overlap
     ethr =  2.98E-05,  avg # of iterations =  2.0

     negative rho (up, down):  4.530E-02 0.000E+00

     total cpu time spent up to now is     1468.2 secs

     total energy              =   -7997.79634042 Ry
     estimated scf accuracy    <       0.61294397 Ry

     iteration #192     ecut=    60.00 Ry     beta= 0.22
     Davidson diagonalization with overlap
     ethr =  2.98E-05,  avg # of iterations =  2.0

     negative rho (up, down):  4.321E-02 0.000E+00

     total cpu time spent up to now is     1476.2 secs

     total energy              =   -7997.80000078 Ry
     estimated scf accuracy    <       0.24634512 Ry

     iteration #193     ecut=    60.00 Ry     beta= 0.22
     Davidson diagonalization with overlap
     ethr =  2.98E-05,  avg # of iterations =  1.0

     negative rho (up, down):  4.474E-02 0.000E+00

     total cpu time spent up to now is     1483.5 secs

     total energy              =   -7997.79914833 Ry
     estimated scf accuracy    <       0.26660188 Ry

     iteration #194     ecut=    60.00 Ry     beta= 0.22
     Davidson diagonalization with overlap
     ethr =  2.98E-05,  avg # of iterations =  2.0

     negative rho (up, down):  4.078E-02 0.000E+00

     total cpu time spent up to now is     1491.5 secs

     total energy              =   -7997.76742359 Ry
     estimated scf accuracy    <       0.33584467 Ry

     iteration #195     ecut=    60.00 Ry     beta= 0.22
     Davidson diagonalization with overlap
     ethr =  2.98E-05,  avg # of iterations =  2.0

     negative rho (up, down):  4.093E-02 0.000E+00

     total cpu time spent up to now is     1500.3 secs

     total energy              =   -7997.77866179 Ry
     estimated scf accuracy    <       0.64303081 Ry

     iteration #196     ecut=    60.00 Ry     beta= 0.22
     Davidson diagonalization with overlap
     ethr =  2.98E-05,  avg # of iterations =  2.0

     negative rho (up, down):  4.237E-02 0.000E+00

     total cpu time spent up to now is     1508.6 secs

     total energy              =   -7997.79647120 Ry
     estimated scf accuracy    <       0.06825417 Ry

     iteration #197     ecut=    60.00 Ry     beta= 0.22
     Davidson diagonalization with overlap
     ethr =  1.85E-05,  avg # of iterations =  1.0

     negative rho (up, down):  4.198E-02 0.000E+00

     total cpu time spent up to now is     1515.6 secs

     total energy              =   -7997.79757620 Ry
     estimated scf accuracy    <       0.05451288 Ry

     iteration #198     ecut=    60.00 Ry     beta= 0.22
     Davidson diagonalization with overlap
     ethr =  1.48E-05,  avg # of iterations =  1.0

     negative rho (up, down):  4.230E-02 0.000E+00

     total cpu time spent up to now is     1522.7 secs

     total energy              =   -7997.79762423 Ry
     estimated scf accuracy    <       0.07507918 Ry

     iteration #199     ecut=    60.00 Ry     beta= 0.22
     Davidson diagonalization with overlap
     ethr =  1.48E-05,  avg # of iterations =  2.0

     negative rho (up, down):  4.315E-02 0.000E+00

     total cpu time spent up to now is     1530.5 secs

     total energy              =   -7997.79536594 Ry
     estimated scf accuracy    <       0.12889243 Ry

     iteration #200     ecut=    60.00 Ry     beta= 0.22
     Davidson diagonalization with overlap
     ethr =  1.48E-05,  avg # of iterations =  2.0

     negative rho (up, down):  4.307E-02 0.000E+00

     total cpu time spent up to now is     1538.2 secs

     total energy              =   -7997.79582738 Ry
     estimated scf accuracy    <       0.04354532 Ry

     iteration #201     ecut=    60.00 Ry     beta= 0.22
     Davidson diagonalization with overlap
     ethr =  1.18E-05,  avg # of iterations =  1.0

     negative rho (up, down):  4.411E-02 0.000E+00

     total cpu time spent up to now is     1545.3 secs

     total energy              =   -7997.79408542 Ry
     estimated scf accuracy    <       0.02160109 Ry

     iteration #202     ecut=    60.00 Ry     beta= 0.22
     Davidson diagonalization with overlap
     ethr =  5.87E-06,  avg # of iterations =  2.0

     negative rho (up, down):  4.341E-02 0.000E+00

     total cpu time spent up to now is     1553.4 secs

     total energy              =   -7997.79415360 Ry
     estimated scf accuracy    <       0.04275149 Ry

     iteration #203     ecut=    60.00 Ry     beta= 0.22
     Davidson diagonalization with overlap
     ethr =  5.87E-06,  avg # of iterations =  2.0

     negative rho (up, down):  4.341E-02 0.000E+00

     total cpu time spent up to now is     1561.5 secs

     total energy              =   -7997.79514541 Ry
     estimated scf accuracy    <       0.01179360 Ry

     iteration #204     ecut=    60.00 Ry     beta= 0.22
     Davidson diagonalization with overlap
     ethr =  3.20E-06,  avg # of iterations =  2.0

     negative rho (up, down):  4.448E-02 0.000E+00

     total cpu time spent up to now is     1569.5 secs

     total energy              =   -7997.79422984 Ry
     estimated scf accuracy    <       0.01710465 Ry

     iteration #205     ecut=    60.00 Ry     beta= 0.22
     Davidson diagonalization with overlap
     ethr =  3.20E-06,  avg # of iterations =  2.0

     negative rho (up, down):  4.465E-02 0.000E+00

     total cpu time spent up to now is     1577.7 secs

     total energy              =   -7997.79487114 Ry
     estimated scf accuracy    <       0.02131471 Ry

     iteration #206     ecut=    60.00 Ry     beta= 0.22
     Davidson diagonalization with overlap
     ethr =  3.20E-06,  avg # of iterations =  1.0

     negative rho (up, down):  4.451E-02 0.000E+00

     total cpu time spent up to now is     1584.7 secs

     total energy              =   -7997.79487241 Ry
     estimated scf accuracy    <       0.01670164 Ry

     iteration #207     ecut=    60.00 Ry     beta= 0.22
     Davidson diagonalization with overlap
     ethr =  3.20E-06,  avg # of iterations =  1.0

     negative rho (up, down):  4.445E-02 0.000E+00

     total cpu time spent up to now is     1591.7 secs

     total energy              =   -7997.79492679 Ry
     estimated scf accuracy    <       0.01154664 Ry

     iteration #208     ecut=    60.00 Ry     beta= 0.22
     Davidson diagonalization with overlap
     ethr =  3.14E-06,  avg # of iterations =  1.0

     negative rho (up, down):  4.440E-02 0.000E+00

     total cpu time spent up to now is     1598.7 secs

     total energy              =   -7997.79492254 Ry
     estimated scf accuracy    <       0.01164490 Ry

     iteration #209     ecut=    60.00 Ry     beta= 0.22
     Davidson diagonalization with overlap
     ethr =  3.14E-06,  avg # of iterations =  1.0

     negative rho (up, down):  4.442E-02 0.000E+00

     total cpu time spent up to now is     1605.8 secs

     total energy              =   -7997.79492538 Ry
     estimated scf accuracy    <       0.00889708 Ry

     iteration #210     ecut=    60.00 Ry     beta= 0.22
     Davidson diagonalization with overlap
     ethr =  2.42E-06,  avg # of iterations =  1.0

     negative rho (up, down):  4.443E-02 0.000E+00

     total cpu time spent up to now is     1612.8 secs

     total energy              =   -7997.79491641 Ry
     estimated scf accuracy    <       0.00932393 Ry

     iteration #211     ecut=    60.00 Ry     beta= 0.22
     Davidson diagonalization with overlap
     ethr =  2.42E-06,  avg # of iterations =  1.0

     negative rho (up, down):  4.437E-02 0.000E+00

     total cpu time spent up to now is     1619.8 secs

     total energy              =   -7997.79498467 Ry
     estimated scf accuracy    <       0.00899712 Ry

     iteration #212     ecut=    60.00 Ry     beta= 0.22
     Davidson diagonalization with overlap
     ethr =  2.42E-06,  avg # of iterations =  1.0

     negative rho (up, down):  4.449E-02 0.000E+00

     total cpu time spent up to now is     1626.9 secs

     total energy              =   -7997.79485771 Ry
     estimated scf accuracy    <       0.01023599 Ry

     iteration #213     ecut=    60.00 Ry     beta= 0.22
     Davidson diagonalization with overlap
     ethr =  2.42E-06,  avg # of iterations =  1.0

     negative rho (up, down):  4.443E-02 0.000E+00

     total cpu time spent up to now is     1633.9 secs

     total energy              =   -7997.79493222 Ry
     estimated scf accuracy    <       0.00847934 Ry

     iteration #214     ecut=    60.00 Ry     beta= 0.22
     Davidson diagonalization with overlap
     ethr =  2.30E-06,  avg # of iterations =  1.0

     negative rho (up, down):  4.439E-02 0.000E+00

     total cpu time spent up to now is     1641.2 secs

     total energy              =   -7997.79496755 Ry
     estimated scf accuracy    <       0.01129420 Ry

     iteration #215     ecut=    60.00 Ry     beta= 0.22
     Davidson diagonalization with overlap
     ethr =  2.30E-06,  avg # of iterations =  1.0

     negative rho (up, down):  4.412E-02 0.000E+00

     total cpu time spent up to now is     1648.5 secs

     total energy              =   -7997.79530179 Ry
     estimated scf accuracy    <       0.01027302 Ry

     iteration #216     ecut=    60.00 Ry     beta= 0.22
     Davidson diagonalization with overlap
     ethr =  2.30E-06,  avg # of iterations =  2.0

     negative rho (up, down):  4.416E-02 0.000E+00

     total cpu time spent up to now is     1656.7 secs

     total energy              =   -7997.79528547 Ry
     estimated scf accuracy    <       0.02370573 Ry

     iteration #217     ecut=    60.00 Ry     beta= 0.22
     Davidson diagonalization with overlap
     ethr =  2.30E-06,  avg # of iterations =  1.0

     negative rho (up, down):  4.405E-02 0.000E+00

     total cpu time spent up to now is     1664.1 secs

     total energy              =   -7997.79541401 Ry
     estimated scf accuracy    <       0.01883836 Ry

     iteration #218     ecut=    60.00 Ry     beta= 0.22
     Davidson diagonalization with overlap
     ethr =  2.30E-06,  avg # of iterations =  1.0

     negative rho (up, down):  4.398E-02 0.000E+00

     total cpu time spent up to now is     1671.1 secs

     total energy              =   -7997.79554180 Ry
     estimated scf accuracy    <       0.02179859 Ry

     iteration #219     ecut=    60.00 Ry     beta= 0.22
     Davidson diagonalization with overlap
     ethr =  2.30E-06,  avg # of iterations =  1.0

     negative rho (up, down):  4.392E-02 0.000E+00

     total cpu time spent up to now is     1678.1 secs

     total energy              =   -7997.79571331 Ry
     estimated scf accuracy    <       0.02626137 Ry

     iteration #220     ecut=    60.00 Ry     beta= 0.22
     Davidson diagonalization with overlap
     ethr =  2.30E-06,  avg # of iterations =  1.0

     negative rho (up, down):  4.390E-02 0.000E+00

     total cpu time spent up to now is     1685.1 secs

     total energy              =   -7997.79527575 Ry
     estimated scf accuracy    <       0.03317774 Ry

     iteration #221     ecut=    60.00 Ry     beta= 0.22
     Davidson diagonalization with overlap
     ethr =  2.30E-06,  avg # of iterations =  1.8

     negative rho (up, down):  4.402E-02 0.000E+00

     total cpu time spent up to now is     1692.7 secs

     total energy              =   -7997.79532420 Ry
     estimated scf accuracy    <       0.01713123 Ry

     iteration #222     ecut=    60.00 Ry     beta= 0.22
     Davidson diagonalization with overlap
     ethr =  2.30E-06,  avg # of iterations =  1.0

     negative rho (up, down):  4.433E-02 0.000E+00

     total cpu time spent up to now is     1699.7 secs

     total energy              =   -7997.79488367 Ry
     estimated scf accuracy    <       0.01704513 Ry

     iteration #223     ecut=    60.00 Ry     beta= 0.22
     Davidson diagonalization with overlap
     ethr =  2.30E-06,  avg # of iterations =  2.0

     negative rho (up, down):  4.472E-02 0.000E+00

     total cpu time spent up to now is     1707.5 secs

     total energy              =   -7997.79469252 Ry
     estimated scf accuracy    <       0.01404366 Ry

     iteration #224     ecut=    60.00 Ry     beta= 0.22
     Davidson diagonalization with overlap
     ethr =  2.30E-06,  avg # of iterations =  1.4

     negative rho (up, down):  4.419E-02 0.000E+00

     total cpu time spent up to now is     1714.8 secs

     total energy              =   -7997.79495988 Ry
     estimated scf accuracy    <       0.01048462 Ry

     iteration #225     ecut=    60.00 Ry     beta= 0.22
     Davidson diagonalization with overlap
     ethr =  2.30E-06,  avg # of iterations =  2.0

     negative rho (up, down):  4.321E-02 0.000E+00

     total cpu time spent up to now is     1722.6 secs

     total energy              =   -7997.79530296 Ry
     estimated scf accuracy    <       0.01214935 Ry

     iteration #226     ecut=    60.00 Ry     beta= 0.22
     Davidson diagonalization with overlap
     ethr =  2.30E-06,  avg # of iterations =  2.0

     negative rho (up, down):  4.237E-02 0.000E+00

     total cpu time spent up to now is     1730.4 secs

     total energy              =   -7997.79626541 Ry
     estimated scf accuracy    <       0.00427397 Ry

     iteration #227     ecut=    60.00 Ry     beta= 0.22
     Davidson diagonalization with overlap
     ethr =  1.16E-06,  avg # of iterations =  2.0

     negative rho (up, down):  4.318E-02 0.000E+00

     total cpu time spent up to now is     1738.3 secs

     total energy              =   -7997.79545619 Ry
     estimated scf accuracy    <       0.01898943 Ry

     iteration #228     ecut=    60.00 Ry     beta= 0.22
     Davidson diagonalization with overlap
     ethr =  1.16E-06,  avg # of iterations =  2.0

     negative rho (up, down):  4.356E-02 0.000E+00

     total cpu time spent up to now is     1746.6 secs

     total energy              =   -7997.79477681 Ry
     estimated scf accuracy    <       0.03882907 Ry

     iteration #229     ecut=    60.00 Ry     beta= 0.22
     Davidson diagonalization with overlap
     ethr =  1.16E-06,  avg # of iterations =  2.0

     negative rho (up, down):  4.412E-02 0.000E+00

     total cpu time spent up to now is     1754.8 secs

     total energy              =   -7997.79479391 Ry
     estimated scf accuracy    <       0.00231276 Ry

     iteration #230     ecut=    60.00 Ry     beta= 0.22
     Davidson diagonalization with overlap
     ethr =  6.28E-07,  avg # of iterations =  2.0

     negative rho (up, down):  4.443E-02 0.000E+00

     total cpu time spent up to now is     1763.2 secs

     total energy              =   -7997.79559637 Ry
     estimated scf accuracy    <       0.02223296 Ry

     iteration #231     ecut=    60.00 Ry     beta= 0.22
     Davidson diagonalization with overlap
     ethr =  6.28E-07,  avg # of iterations =  2.0

     negative rho (up, down):  4.472E-02 0.000E+00

     total cpu time spent up to now is     1771.0 secs

     total energy              =   -7997.79584849 Ry
     estimated scf accuracy    <       0.03820874 Ry

     iteration #232     ecut=    60.00 Ry     beta= 0.22
     Davidson diagonalization with overlap
     ethr =  6.28E-07,  avg # of iterations =  2.0

     negative rho (up, down):  4.503E-02 0.000E+00

     total cpu time spent up to now is     1778.8 secs

     total energy              =   -7997.79606362 Ry
     estimated scf accuracy    <       0.05533646 Ry

     iteration #233     ecut=    60.00 Ry     beta= 0.22
     Davidson diagonalization with overlap
     ethr =  6.28E-07,  avg # of iterations =  1.4

     negative rho (up, down):  4.549E-02 0.000E+00

     total cpu time spent up to now is     1786.3 secs

     total energy              =   -7997.79589549 Ry
     estimated scf accuracy    <       0.07232046 Ry

     iteration #234     ecut=    60.00 Ry     beta= 0.22
     Davidson diagonalization with overlap
     ethr =  6.28E-07,  avg # of iterations =  1.2

     negative rho (up, down):  4.529E-02 0.000E+00

     total cpu time spent up to now is     1793.5 secs

     total energy              =   -7997.79581213 Ry
     estimated scf accuracy    <       0.07623587 Ry

     iteration #235     ecut=    60.00 Ry     beta= 0.22
     Davidson diagonalization with overlap
     ethr =  6.28E-07,  avg # of iterations =  1.0

     negative rho (up, down):  4.535E-02 0.000E+00

     total cpu time spent up to now is     1800.5 secs

     total energy              =   -7997.79580582 Ry
     estimated scf accuracy    <       0.06922652 Ry

     iteration #236     ecut=    60.00 Ry     beta= 0.22
     Davidson diagonalization with overlap
     ethr =  6.28E-07,  avg # of iterations =  1.0

     negative rho (up, down):  4.534E-02 0.000E+00

     total cpu time spent up to now is     1807.6 secs

     total energy              =   -7997.79578833 Ry
     estimated scf accuracy    <       0.07071545 Ry

     iteration #237     ecut=    60.00 Ry     beta= 0.22
     Davidson diagonalization with overlap
     ethr =  6.28E-07,  avg # of iterations =  1.0

     negative rho (up, down):  4.532E-02 0.000E+00

     total cpu time spent up to now is     1814.6 secs

     total energy              =   -7997.79591009 Ry
     estimated scf accuracy    <       0.07061319 Ry

     iteration #238     ecut=    60.00 Ry     beta= 0.22
     Davidson diagonalization with overlap
     ethr =  6.28E-07,  avg # of iterations =  1.0

     negative rho (up, down):  4.535E-02 0.000E+00

     total cpu time spent up to now is     1821.6 secs

     total energy              =   -7997.79606271 Ry
     estimated scf accuracy    <       0.07598299 Ry

     iteration #239     ecut=    60.00 Ry     beta= 0.22
     Davidson diagonalization with overlap
     ethr =  6.28E-07,  avg # of iterations =  1.0

     negative rho (up, down):  4.541E-02 0.000E+00

     total cpu time spent up to now is     1828.6 secs

     total energy              =   -7997.79608326 Ry
     estimated scf accuracy    <       0.08404691 Ry

     iteration #240     ecut=    60.00 Ry     beta= 0.22
     Davidson diagonalization with overlap
     ethr =  6.28E-07,  avg # of iterations =  1.0

     negative rho (up, down):  4.511E-02 0.000E+00

     total cpu time spent up to now is     1835.7 secs

     total energy              =   -7997.79535653 Ry
     estimated scf accuracy    <       0.08666867 Ry

     iteration #241     ecut=    60.00 Ry     beta= 0.22
     Davidson diagonalization with overlap
     ethr =  6.28E-07,  avg # of iterations =  2.0

     negative rho (up, down):  4.540E-02 0.000E+00

     total cpu time spent up to now is     1843.7 secs

     total energy              =   -7997.79538210 Ry
     estimated scf accuracy    <       0.05342788 Ry

     iteration #242     ecut=    60.00 Ry     beta= 0.22
     Davidson diagonalization with overlap
     ethr =  6.28E-07,  avg # of iterations =  1.0

     negative rho (up, down):  4.543E-02 0.000E+00

     total cpu time spent up to now is     1850.7 secs

     total energy              =   -7997.79520998 Ry
     estimated scf accuracy    <       0.05643068 Ry

     iteration #243     ecut=    60.00 Ry     beta= 0.22
     Davidson diagonalization with overlap
     ethr =  6.28E-07,  avg # of iterations =  1.0

     negative rho (up, down):  4.576E-02 0.000E+00

     total cpu time spent up to now is     1857.7 secs

     total energy              =   -7997.79496404 Ry
     estimated scf accuracy    <       0.04988857 Ry

     iteration #244     ecut=    60.00 Ry     beta= 0.22
     Davidson diagonalization with overlap
     ethr =  6.28E-07,  avg # of iterations =  1.0

     negative rho (up, down):  4.582E-02 0.000E+00

     total cpu time spent up to now is     1864.7 secs

     total energy              =   -7997.79486757 Ry
     estimated scf accuracy    <       0.04681283 Ry

     iteration #245     ecut=    60.00 Ry     beta= 0.22
     Davidson diagonalization with overlap
     ethr =  6.28E-07,  avg # of iterations =  1.0

     negative rho (up, down):  4.567E-02 0.000E+00

     total cpu time spent up to now is     1871.8 secs

     total energy              =   -7997.79480419 Ry
     estimated scf accuracy    <       0.04357056 Ry

     iteration #246     ecut=    60.00 Ry     beta= 0.22
     Davidson diagonalization with overlap
     ethr =  6.28E-07,  avg # of iterations =  1.0

     negative rho (up, down):  4.598E-02 0.000E+00

     total cpu time spent up to now is     1878.8 secs

     total energy              =   -7997.79447686 Ry
     estimated scf accuracy    <       0.03745234 Ry

     iteration #247     ecut=    60.00 Ry     beta= 0.22
     Davidson diagonalization with overlap
     ethr =  6.28E-07,  avg # of iterations =  1.2

     negative rho (up, down):  4.675E-02 0.000E+00

     total cpu time spent up to now is     1885.9 secs

     total energy              =   -7997.79307260 Ry
     estimated scf accuracy    <       0.03032340 Ry

     iteration #248     ecut=    60.00 Ry     beta= 0.22
     Davidson diagonalization with overlap
     ethr =  6.28E-07,  avg # of iterations =  2.0

     negative rho (up, down):  4.628E-02 0.000E+00

     total cpu time spent up to now is     1894.2 secs

     total energy              =   -7997.79367176 Ry
     estimated scf accuracy    <       0.00303130 Ry

     iteration #249     ecut=    60.00 Ry     beta= 0.22
     Davidson diagonalization with overlap
     ethr =  6.28E-07,  avg # of iterations =  2.0

     negative rho (up, down):  4.652E-02 0.000E+00

     total cpu time spent up to now is     1902.0 secs

     total energy              =   -7997.79358451 Ry
     estimated scf accuracy    <       0.00392363 Ry

     iteration #250     ecut=    60.00 Ry     beta= 0.22
     Davidson diagonalization with overlap
     ethr =  6.28E-07,  avg # of iterations =  1.2

     negative rho (up, down):  4.683E-02 0.000E+00

     total cpu time spent up to now is     1909.2 secs

     total energy              =   -7997.79328738 Ry
     estimated scf accuracy    <       0.00232559 Ry

     iteration #251     ecut=    60.00 Ry     beta= 0.22
     Davidson diagonalization with overlap
     ethr =  6.28E-07,  avg # of iterations =  2.0

     negative rho (up, down):  4.678E-02 0.000E+00

     total cpu time spent up to now is     1917.1 secs

     total energy              =   -7997.79342911 Ry
     estimated scf accuracy    <       0.00027539 Ry

     iteration #252     ecut=    60.00 Ry     beta= 0.22
     Davidson diagonalization with overlap
     ethr =  7.48E-08,  avg # of iterations =  1.0

     negative rho (up, down):  4.667E-02 0.000E+00

     total cpu time spent up to now is     1924.1 secs

     total energy              =   -7997.79349288 Ry
     estimated scf accuracy    <       0.00034330 Ry

     iteration #253     ecut=    60.00 Ry     beta= 0.22
     Davidson diagonalization with overlap
     ethr =  7.48E-08,  avg # of iterations =  2.0

     negative rho (up, down):  4.668E-02 0.000E+00

     total cpu time spent up to now is     1932.0 secs

     total energy              =   -7997.79350230 Ry
     estimated scf accuracy    <       0.00002281 Ry

     iteration #254     ecut=    60.00 Ry     beta= 0.22
     Davidson diagonalization with overlap
     ethr =  6.20E-09,  avg # of iterations =  2.0

     negative rho (up, down):  4.663E-02 0.000E+00

     total cpu time spent up to now is     1939.8 secs

     total energy              =   -7997.79353456 Ry
     estimated scf accuracy    <       0.00001710 Ry

     iteration #255     ecut=    60.00 Ry     beta= 0.22
     Davidson diagonalization with overlap
     ethr =  4.65E-09,  avg # of iterations =  2.0

     negative rho (up, down):  4.667E-02 0.000E+00

     total cpu time spent up to now is     1947.9 secs

     total energy              =   -7997.79351374 Ry
     estimated scf accuracy    <       0.00004708 Ry

     iteration #256     ecut=    60.00 Ry     beta= 0.22
     Davidson diagonalization with overlap
     ethr =  4.65E-09,  avg # of iterations =  2.0

     negative rho (up, down):  4.692E-02 0.000E+00

     total cpu time spent up to now is     1956.0 secs

     End of self-consistent calculation

          k = 0.0000 0.0000 0.0000 ( 15925 PWs)   bands (ev):

   -89.3530 -89.3497 -89.3382 -89.3361 -89.3140 -89.3056 -89.2935 -89.2887
   -89.2857 -89.2815 -89.2810 -89.2655 -89.2597 -89.2561 -89.2561 -89.2525
   -61.4186 -61.4183 -61.4138 -61.4132 -61.3568 -61.3566 -61.3523 -61.3505
   -50.0311 -50.0167 -49.9949 -49.9613 -49.9094 -49.8673 -49.8506 -49.8286
   -49.7919 -49.7898 -49.7878 -49.7872 -49.7693 -49.7686 -49.7650 -49.7601
   -49.6892 -49.6866 -49.6823 -49.6788 -49.6513 -49.6450 -49.6418 -49.6415
   -49.6407 -49.6397 -49.6102 -49.6088 -49.5999 -49.5968 -49.5963 -49.5938
   -49.5920 -49.5886 -49.5878 -49.5873 -49.5871 -49.5823 -49.5817 -49.5673
   -49.5319 -49.5287 -49.5282 -49.5268 -49.5260 -49.5047 -49.4975 -49.4974
   -28.1734 -28.1729 -28.1685 -28.1683 -28.1670 -28.1668 -28.1637 -28.1630
   -28.1628 -28.1620 -28.1494 -28.1491 -28.1106 -28.1101 -28.1006 -28.1005
   -28.1003 -28.0998 -28.0961 -28.0954 -28.0941 -28.0938 -28.0879 -28.0867
     5.1291   5.7456   5.7945   7.2529   7.9436   9.1942   9.1954   9.2718
     9.8654   9.8877   9.9821  10.1145  10.2434  10.2516  10.2613  10.2952
    10.3033  10.3128  10.4196  10.4333  10.5004  10.5553  10.5696  10.5993
    10.6177  10.6276  10.7078  10.7199  10.7835  10.7918  11.1251  11.1300
    11.1599  11.1614  11.1691  11.1711  11.4064  11.4214  11.5888  11.6010
    11.6092  11.6459  11.6475  11.6572  11.8500  11.8608  12.1315  12.3331
    12.3509  12.3922  12.3981  12.4189  12.5654  12.5719  12.7104  12.7162
    12.8437  12.8484  12.9615  12.9693  12.9755  12.9761  12.9838  12.9846
    12.9917  12.9993  13.0062  13.0147  13.0158  13.0174  13.0207  13.0279
    13.0333  13.1001  13.1058  13.1076  13.1133  13.2227  13.2276  13.5728
    13.5790  13.8629  13.8691  14.0846  14.0857  14.1127  14.1129  14.4225
    14.5859  14.7596  14.8189  14.8325  14.8360  14.8445  14.8642  14.9765
    15.1886  15.2018  15.2708  15.2831  16.6320  16.6581  16.6621  16.6845
    17.1722  17.1962  17.5695  17.5953  18.2657  18.2853  18.3106  18.5382
    18.6237  18.8068  19.2144  19.2323  19.6281  19.6640  20.0107  20.2838
    20.3067  20.5709  20.7820  22.1838  22.3163

          k = 0.0008 0.3845-0.0004 ( 16007 PWs)   bands (ev):

   -89.3522 -89.3486 -89.3370 -89.3356 -89.3108 -89.3003 -89.2897 -89.2880
   -89.2866 -89.2857 -89.2798 -89.2719 -89.2627 -89.2608 -89.2562 -89.2529
   -61.4185 -61.4182 -61.4137 -61.4131 -61.3569 -61.3567 -61.3524 -61.3506
   -49.9954 -49.9840 -49.9629 -49.9219 -49.9175 -49.8660 -49.8529 -49.8302
   -49.8057 -49.8024 -49.7817 -49.7791 -49.7780 -49.7756 -49.7542 -49.7446
   -49.6936 -49.6917 -49.6858 -49.6777 -49.6493 -49.6464 -49.6419 -49.6405
   -49.6384 -49.6335 -49.6123 -49.6119 -49.6090 -49.6043 -49.5977 -49.5927
   -49.5905 -49.5898 -49.5862 -49.5845 -49.5828 -49.5775 -49.5756 -49.5720
   -49.5542 -49.5503 -49.5449 -49.5392 -49.5383 -49.5182 -49.5118 -49.5102
   -28.1741 -28.1737 -28.1693 -28.1690 -28.1664 -28.1661 -28.1640 -28.1635
   -28.1628 -28.1614 -28.1503 -28.1502 -28.1097 -28.1092 -28.1014 -28.1009
   -28.0998 -28.0998 -28.0971 -28.0951 -28.0947 -28.0932 -28.0871 -28.0859
     6.1365   6.7201   6.7720   8.1805   8.6718   8.8456   9.1202   9.1750
     9.6856   9.7266   9.8737   9.9906  10.0785  10.1725  10.2567  10.3505
    10.3936  10.4762  10.5159  10.5365  10.5391  10.5852  10.7375  10.7876
    10.8594  10.8779  10.9413  11.0068  11.0234  11.0348  11.0468  11.1656
    11.1699  11.2023  11.2215  11.2720  11.3014  11.3328  11.3825  11.4439
    11.5382  11.5663  11.5839  11.6057  11.6883  11.7737  11.8220  11.8462
    11.8570  11.9832  11.9875  12.0436  12.0581  12.1142  12.2055  12.2149
    12.2340  12.2973  12.3875  12.4118  12.4267  12.5271  12.5431  12.5677
    12.6277  12.6668  12.6699  12.7403  12.7472  12.7930  12.8288  12.8977
    12.9014  13.0034  13.0086  13.0180  13.0451  13.0526  13.0909  13.1041
    13.1569  13.1839  13.1915  13.3322  13.3521  13.4273  13.4997  13.6432
    13.9409  13.9927  14.3744  14.3877  14.6093  14.7058  14.8075  14.9725
    15.0473  15.0682  15.1554  15.3443  15.9893  16.4492  16.7746  16.7958
    18.1816  18.5621  18.6254  18.8177  19.5687  19.6776  19.8049  19.8894
    19.9267  20.0731  20.5844  21.0171  21.0331  21.1578  21.6205  21.7941
    21.9667  22.5010  22.8681  23.1357  23.1511

          k = 0.3337 0.1925-0.0003 ( 16009 PWs)   bands (ev):

   -89.3523 -89.3484 -89.3369 -89.3357 -89.3093 -89.3029 -89.2955 -89.2893
   -89.2817 -89.2810 -89.2797 -89.2681 -89.2637 -89.2629 -89.2563 -89.2552
   -61.4185 -61.4182 -61.4137 -61.4131 -61.3569 -61.3567 -61.3524 -61.3506
   -49.9947 -49.9836 -49.9616 -49.9217 -49.9159 -49.8653 -49.8519 -49.8303
   -49.8059 -49.8019 -49.7832 -49.7804 -49.7799 -49.7751 -49.7519 -49.7484
   -49.6961 -49.6891 -49.6845 -49.6798 -49.6479 -49.6460 -49.6415 -49.6410
   -49.6393 -49.6345 -49.6131 -49.6059 -49.6058 -49.6050 -49.6030 -49.5993
   -49.5964 -49.5936 -49.5904 -49.5834 -49.5782 -49.5751 -49.5729 -49.5598
   -49.5526 -49.5496 -49.5406 -49.5398 -49.5390 -49.5276 -49.5117 -49.5110
   -28.1742 -28.1738 -28.1686 -28.1679 -28.1674 -28.1668 -28.1645 -28.1628
   -28.1623 -28.1621 -28.1504 -28.1502 -28.1097 -28.1091 -28.1018 -28.1014
   -28.0995 -28.0992 -28.0972 -28.0953 -28.0947 -28.0930 -28.0871 -28.0860
     6.1400   6.7240   6.7752   8.1860   8.6739   8.8561   9.1303   9.1854
     9.6883   9.7293   9.8760   9.9931  10.0852  10.1750  10.2599  10.3479
    10.3950  10.4698  10.5195  10.5308  10.5411  10.5751  10.7244  10.7898
    10.8650  10.8721  10.9447  11.0108  11.0259  11.0287  11.0460  11.1660
    11.1725  11.2075  11.2243  11.2720  11.3024  11.3281  11.3815  11.4414
    11.5342  11.5694  11.5794  11.6086  11.6923  11.7735  11.8237  11.8446
    11.8551  11.9783  11.9897  12.0380  12.0588  12.1153  12.1991  12.2160
    12.2374  12.3054  12.3835  12.4098  12.4241  12.5355  12.5465  12.5645
    12.6282  12.6688  12.6765  12.7368  12.7481  12.7919  12.8342  12.8947
    12.9055  12.9991  13.0088  13.0159  13.0393  13.0518  13.0884  13.1038
    13.1541  13.1806  13.1895  13.3293  13.3497  13.4303  13.5038  13.6399
    13.9378  14.0021  14.3742  14.3811  14.5910  14.6929  14.7910  14.9581
    15.0299  15.0545  15.1326  15.3238  15.9939  16.4632  16.7661  16.7967
    18.1627  18.5487  18.6127  18.8180  19.5666  19.6725  19.7956  19.8830
    19.9071  20.0735  20.5914  21.0219  21.0282  21.1589  21.6114  21.8018
    21.9917  22.5028  22.8745  23.1203  23.1806

          k = 0.3345 0.5770-0.0006 ( 16027 PWs)   bands (ev):

   -89.3519 -89.3480 -89.3365 -89.3354 -89.3070 -89.2985 -89.2958 -89.2871
   -89.2858 -89.2842 -89.2719 -89.2711 -89.2710 -89.2629 -89.2563 -89.2558
   -61.4184 -61.4182 -61.4137 -61.4131 -61.3570 -61.3567 -61.3525 -61.3507
   -49.9612 -49.9596 -49.9455 -49.9442 -49.8620 -49.8573 -49.8548 -49.8490
   -49.8312 -49.8278 -49.7899 -49.7886 -49.7725 -49.7703 -49.7403 -49.7359
   -49.6956 -49.6899 -49.6866 -49.6829 -49.6484 -49.6472 -49.6443 -49.6395
   -49.6365 -49.6299 -49.6203 -49.6112 -49.6099 -49.6072 -49.6068 -49.5994
   -49.5921 -49.5900 -49.5791 -49.5745 -49.5734 -49.5717 -49.5700 -49.5657
   -49.5653 -49.5472 -49.5455 -49.5409 -49.5390 -49.5378 -49.5355 -49.5344
   -28.1743 -28.1739 -28.1698 -28.1697 -28.1660 -28.1658 -28.1652 -28.1643
   -28.1614 -28.1605 -28.1509 -28.1509 -28.1090 -28.1085 -28.1025 -28.1021
   -28.0994 -28.0991 -28.0972 -28.0957 -28.0942 -28.0925 -28.0868 -28.0856
     7.7765   7.7874   8.2429   8.3598   8.3688   8.5372   8.6607   8.6796
     8.9011   9.6872   9.6924   9.7319   9.7485   9.7835   9.8189  10.4055
    10.4092  10.4586  10.5893  10.5944  10.7537  10.7617  10.9128  10.9200
    10.9988  11.0057  11.0548  11.0673  11.0728  11.0773  11.1752  11.2306
    11.2335  11.2608  11.2624  11.2805  11.3087  11.3166  11.3404  11.3452
    11.3569  11.3639  11.4407  11.4516  11.5363  11.5415  11.5461  11.5512
    11.5582  11.7719  11.7829  11.7884  11.9162  12.0624  12.0671  12.0928
    12.0982  12.1466  12.3023  12.3101  12.3956  12.4385  12.4461  12.5009
    12.5272  12.5316  12.5747  12.6602  12.6685  12.7106  12.7162  12.7231
    12.7412  12.8013  12.8053  12.8194  12.8287  12.8756  12.8819  12.9809
    13.1475  13.1650  13.2641  13.2755  13.2783  13.3628  13.3670  13.4793
    13.5398  13.5954  13.5982  13.8564  13.9892  13.9987  14.0897  15.5079
    15.5164  15.5681  15.7581  15.7851  16.3921  18.2137  18.2330  18.4064
    18.6549  18.6692  19.2810  19.3450  19.3551  19.4354  19.4504  19.6853
    19.9327  20.3523  20.4159  20.4271  21.2131  21.2499  21.5963  21.6071
    21.7193  22.4218  23.7119  23.7470  23.9315

          k = 0.3329-0.1920 0.0001 ( 16011 PWs)   bands (ev):

   -89.3523 -89.3485 -89.3370 -89.3357 -89.3107 -89.3014 -89.2915 -89.2899
   -89.2849 -89.2846 -89.2799 -89.2650 -89.2626 -89.2615 -89.2573 -89.2563
   -61.4185 -61.4182 -61.4137 -61.4131 -61.3569 -61.3567 -61.3524 -61.3506
   -49.9962 -49.9850 -49.9626 -49.9212 -49.9180 -49.8647 -49.8538 -49.8303
   -49.8029 -49.7995 -49.7828 -49.7809 -49.7789 -49.7743 -49.7533 -49.7493
   -49.6932 -49.6898 -49.6856 -49.6804 -49.6468 -49.6453 -49.6424 -49.6420
   -49.6396 -49.6339 -49.6118 -49.6102 -49.6078 -49.6051 -49.6022 -49.5968
   -49.5948 -49.5909 -49.5872 -49.5820 -49.5780 -49.5766 -49.5736 -49.5711
   -49.5502 -49.5472 -49.5441 -49.5395 -49.5385 -49.5171 -49.5153 -49.5122
   -28.1742 -28.1736 -28.1689 -28.1683 -28.1670 -28.1665 -28.1642 -28.1635
   -28.1626 -28.1615 -28.1504 -28.1502 -28.1096 -28.1092 -28.1017 -28.1015
   -28.0997 -28.0991 -28.0966 -28.0953 -28.0949 -28.0933 -28.0871 -28.0859
     6.1345   6.7180   6.7706   8.1823   8.6707   8.8400   9.1208   9.1747
     9.6864   9.7267   9.8710   9.9882  10.0812  10.1709  10.2532  10.3523
    10.3906  10.4764  10.5134  10.5338  10.5387  10.5859  10.7387  10.7865
    10.8570  10.8807  10.9417  11.0033  11.0257  11.0348  11.0507  11.1647
    11.1740  11.2010  11.2149  11.2754  11.3029  11.3319  11.3865  11.4394
    11.5407  11.5672  11.5879  11.6097  11.6988  11.7739  11.8204  11.8451
    11.8532  11.9806  11.9838  12.0468  12.0545  12.1189  12.2044  12.2129
    12.2375  12.2946  12.3797  12.4139  12.4263  12.5269  12.5476  12.5701
    12.6287  12.6667  12.6711  12.7354  12.7512  12.7934  12.8269  12.8949
    12.9070  13.0033  13.0157  13.0201  13.0459  13.0541  13.0916  13.1034
    13.1590  13.1857  13.1931  13.3313  13.3515  13.4264  13.5012  13.6442
    13.9431  14.0022  14.3637  14.3862  14.6103  14.7097  14.8111  14.9744
    15.0494  15.0678  15.1588  15.3457  15.9708  16.4550  16.7800  16.7948
    18.1763  18.5705  18.6238  18.8176  19.5734  19.6732  19.8120  19.8880
    19.9296  20.0802  20.5814  21.0227  21.0292  21.1652  21.6088  21.7906
    21.9624  22.4997  22.8609  23.1346  23.1540

     the Fermi energy is    13.7134 ev

!    total energy              =   -7997.79334145 Ry
     total all-electron energy =    -51870.869211 Ry
     estimated scf accuracy    <       0.00000353 Ry
     smearing contrib. (-TS)   =       0.25521246 Ry
     internal energy E=F+TS    =   -7998.04855391 Ry

     The total energy is F=E-TS. E is the sum of the following terms:
     one-electron contribution =   -4421.51946467 Ry
     hartree contribution      =    2375.85756390 Ry
     xc contribution           =    -691.68252812 Ry
     ewald contribution        =   -3683.45684792 Ry
     one-center paw contrib.   =   -1577.24727710 Ry

     convergence has been achieved in 256 iterations

     negative rho (up, down):  4.692E-02 0.000E+00

     Forces acting on atoms (cartesian axes, Ry/au):

     atom    1 type  1   force =    -0.00199644    0.01099351    0.01521968
     atom    2 type  1   force =    -0.00264904    0.00978653    0.01289288
     atom    3 type  1   force =    -0.00180667    0.01227521    0.00038744
     atom    4 type  1   force =    -0.00423791    0.00845633    0.00091712
     atom    5 type  1   force =    -0.00108802    0.00874008    0.00541242
     atom    6 type  1   force =    -0.00171504    0.01365328    0.00668410
     atom    7 type  1   force =    -0.00421262    0.01183914    0.00674712
     atom    8 type  1   force =    -0.00196790    0.00980833    0.00703836
     atom    9 type  2   force =    -0.00120672    0.00816942    0.00783276
     atom   10 type  2   force =    -0.00077354    0.01109708    0.00967371
     atom   11 type  2   force =    -0.00276072    0.01050357    0.00354015
     atom   12 type  2   force =    -0.00327828    0.01116249    0.00393536
     atom   13 type  2   force =    -0.00280921   -0.00937560    0.00801254
     atom   14 type  2   force =     0.01246597   -0.00317973    0.00988214
     atom   15 type  2   force =    -0.00538993    0.03095594    0.00649112
     atom   16 type  2   force =    -0.02213836    0.01813344    0.00707040
     atom   17 type  2   force =     0.05909953   -0.20230831   -0.16480769
     atom   18 type  2   force =    -0.01576088    0.00082605    0.00298180
     atom   19 type  2   force =     0.01006921   -0.01207970    0.00790889
     atom   20 type  2   force =    -0.00301613    0.01411320    0.00764126
     atom   21 type  2   force =    -0.00159531    0.00786289    0.00866587
     atom   22 type  2   force =    -0.00059535    0.00804932    0.00862656
     atom   23 type  2   force =    -0.00100101    0.00793422    0.00934233
     atom   24 type  2   force =    -0.00163564    0.01258331    0.00790370
     The non-local contrib.  to forces
     atom    1 type  1   force =    -0.00091961    0.00308001    0.03538159
     atom    2 type  1   force =    -0.00602444   -0.00284797    0.02810197
     atom    3 type  1   force =    -0.00009372    0.00467195   -0.03028995
     atom    4 type  1   force =    -0.00465308   -0.00562153   -0.03293002
     atom    5 type  1   force =     0.00472303    0.00096591   -0.00439072
     atom    6 type  1   force =     0.00031662    0.01138890   -0.00192287
     atom    7 type  1   force =    -0.01046741    0.00738119   -0.00559374
     atom    8 type  1   force =     0.00546406    0.00036747   -0.00461717
     atom    9 type  2   force =    -0.01457779    0.02860869    0.00292133
     atom   10 type  2   force =    -0.00685093   -0.01175575    0.01141144
     atom   11 type  2   force =    -0.01362551   -0.00504239   -0.00293614
     atom   12 type  2   force =    -0.00764702   -0.02047565   -0.02091440
     atom   13 type  2   force =    -0.04208765   -0.11114074    0.00465636
     atom   14 type  2   force =     0.08410584   -0.02016456   -0.00552008
     atom   15 type  2   force =     0.02147824    0.07739592   -0.00190211
     atom   16 type  2   force =    -0.03877396    0.07612864    0.00160361
     atom   17 type  2   force =     0.71193215   -2.30540546   -2.07880458
     atom   18 type  2   force =    -0.07325639   -0.03592591    0.01430257
     atom   19 type  2   force =    -0.85907866    1.23937066    0.16735399
     atom   20 type  2   force =    -0.00469503   -0.00374446    0.00205052
     atom   21 type  2   force =     0.00422104    0.00152133    0.00313813
     atom   22 type  2   force =    -0.00545712    0.03310008    0.00648347
     atom   23 type  2   force =    -0.00057759    0.00757367   -0.00245072
     atom   24 type  2   force =    -0.00409199    0.01787092    0.00383609
     The ionic contribution  to forces
     atom    1 type  1   force =    -0.03499038    0.06195450    0.05516879
     atom    2 type  1   force =    -0.24678676   -0.10161310   -0.12762885
     atom    3 type  1   force =    -0.02706673    0.12181605    0.17210323
     atom    4 type  1   force =    -0.14766155   -0.16984051    0.07561823
     atom    5 type  1   force =     0.24007390    0.05261502   -0.37005545
     atom    6 type  1   force =     0.09938347    0.30936175   -0.26551765
     atom    7 type  1   force =    -0.24285370    0.17708255   -0.11538241
     atom    8 type  1   force =     0.21152236    0.04945549   -0.03659921
     atom    9 type  2   force =     0.01696257   -0.19025075    1.36183815
     atom   10 type  2   force =     0.20372385    0.01650939    1.43541178
     atom   11 type  2   force =    -0.43502132   -0.12994204   -1.60967720
     atom   12 type  2   force =    -0.04636238   -0.07942305   -1.78250442
     atom   13 type  2   force =    -0.20386316  -16.05991085    0.00137191
     atom   14 type  2   force =    13.61657444   -8.41940280   -0.24579745
     atom   15 type  2   force =    -0.38103901   16.20624059   -0.32801688
     atom   16 type  2   force =   -14.24329122    7.89756592   -0.46463683
     atom   17 type  2   force =    14.65799568    7.99762670   -0.23858150
     atom   18 type  2   force =   -13.41587892   -7.76622299   -0.36547435
     atom   19 type  2   force =    -0.25233179   -0.27274493    0.56136335
     atom   20 type  2   force =    -0.31300519    0.27669959    0.34846285
     atom   21 type  2   force =     0.52882797   -0.33109730    0.45643969
     atom   22 type  2   force =     0.20980141   -0.08791629    0.54641308
     atom   23 type  2   force =    -0.03501152    0.15148592    0.33209334
     atom   24 type  2   force =     0.24029796    0.28995115    0.60358782
     The local contribution  to forces
     atom    1 type  1   force =     0.03623538   -0.06399566   -0.08184604
     atom    2 type  1   force =     0.25237787    0.10426193    0.10545794
     atom    3 type  1   force =     0.02760638   -0.12415074   -0.14833325
     atom    4 type  1   force =     0.15031819    0.17389621   -0.04914805
     atom    5 type  1   force =    -0.24362677   -0.05482551    0.37305791
     atom    6 type  1   force =    -0.09919100   -0.31701116    0.26688191
     atom    7 type  1   force =     0.25128886   -0.18257680    0.12088958
     atom    8 type  1   force =    -0.21669302   -0.05000489    0.04113755
     atom    9 type  2   force =    -0.00238495    0.16149706   -1.35970450
     atom   10 type  2   force =    -0.19588764   -0.00437853   -1.44023100
     atom   11 type  2   force =     0.44747445    0.13490683    1.60603284
     atom   12 type  2   force =     0.05242804    0.10012223    1.79537980
     atom   13 type  2   force =     0.24302127   16.14881845   -0.00497823
     atom   14 type  2   force =   -13.68370768    8.42689715    0.25432017
     atom   15 type  2   force =     0.35762466  -16.26142742    0.32940348
     atom   16 type  2   force =    14.26297562   -7.96250142    0.46320891
     atom   17 type  2   force =   -15.25923539   -6.05901395    2.00299259
     atom   18 type  2   force =    13.47404444    7.79236956    0.34756071
     atom   19 type  2   force =     1.04346922   -0.87395334   -0.71168748
     atom   20 type  2   force =     0.31673302   -0.26861419   -0.34974649
     atom   21 type  2   force =    -0.53247164    0.32754533   -0.45780132
     atom   22 type  2   force =    -0.20291912    0.05422577   -0.55038173
     atom   23 type  2   force =     0.03708698   -0.16115128   -0.32729771
     atom   24 type  2   force =    -0.23591950   -0.30416996   -0.60581850
     The core correction contribution to forces
     atom    1 type  1   force =     0.00000323   -0.00001479   -0.00018742
     atom    2 type  1   force =     0.00002126    0.00001201   -0.00015090
     atom    3 type  1   force =    -0.00000187   -0.00002827    0.00016250
     atom    4 type  1   force =     0.00002681    0.00002808    0.00016937
     atom    5 type  1   force =    -0.00002200    0.00000365    0.00002285
     atom    6 type  1   force =    -0.00000203   -0.00005752    0.00000943
     atom    7 type  1   force =     0.00004433   -0.00003504    0.00001884
     atom    8 type  1   force =    -0.00001978   -0.00000024    0.00001593
     atom    9 type  2   force =     0.00089956   -0.00164362   -0.00378205
     atom   10 type  2   force =     0.00049219    0.00065877   -0.00422144
     atom   11 type  2   force =     0.00062363    0.00034978    0.00358087
     atom   12 type  2   force =     0.00044221    0.00111829    0.00455003
     atom   13 type  2   force =     0.00240307    0.00309056   -0.00028495
     atom   14 type  2   force =    -0.00220743   -0.00051663    0.00000125
     atom   15 type  2   force =    -0.00126679   -0.00121357    0.00010088
     atom   16 type  2   force =    -0.00046469   -0.00308393   -0.00037452
     atom   17 type  2   force =    -0.04641702    0.16062661    0.14280671
     atom   18 type  2   force =     0.00160240    0.00056103   -0.00048114
     atom   19 type  2   force =     0.08100520   -0.11579477   -0.01589233
     atom   20 type  2   force =     0.00007396   -0.00026504   -0.00020188
     atom   21 type  2   force =     0.00003467   -0.00012747   -0.00024341
     atom   22 type  2   force =     0.00032714   -0.00156638   -0.00046888
     atom   23 type  2   force =    -0.00018898    0.00000137   -0.00019775
     atom   24 type  2   force =     0.00030980   -0.00113276   -0.00021295
     The Hubbard contrib.    to forces
     atom    1 type  1   force =     0.00000000    0.00000000    0.00000000
     atom    2 type  1   force =     0.00000000    0.00000000    0.00000000
     atom    3 type  1   force =     0.00000000    0.00000000    0.00000000
     atom    4 type  1   force =     0.00000000    0.00000000    0.00000000
     atom    5 type  1   force =     0.00000000    0.00000000    0.00000000
     atom    6 type  1   force =     0.00000000    0.00000000    0.00000000
     atom    7 type  1   force =     0.00000000    0.00000000    0.00000000
     atom    8 type  1   force =     0.00000000    0.00000000    0.00000000
     atom    9 type  2   force =     0.00000000    0.00000000    0.00000000
     atom   10 type  2   force =     0.00000000    0.00000000    0.00000000
     atom   11 type  2   force =     0.00000000    0.00000000    0.00000000
     atom   12 type  2   force =     0.00000000    0.00000000    0.00000000
     atom   13 type  2   force =     0.00000000    0.00000000    0.00000000
     atom   14 type  2   force =     0.00000000    0.00000000    0.00000000
     atom   15 type  2   force =     0.00000000    0.00000000    0.00000000
     atom   16 type  2   force =     0.00000000    0.00000000    0.00000000
     atom   17 type  2   force =     0.00000000    0.00000000    0.00000000
     atom   18 type  2   force =     0.00000000    0.00000000    0.00000000
     atom   19 type  2   force =     0.00000000    0.00000000    0.00000000
     atom   20 type  2   force =     0.00000000    0.00000000    0.00000000
     atom   21 type  2   force =     0.00000000    0.00000000    0.00000000
     atom   22 type  2   force =     0.00000000    0.00000000    0.00000000
     atom   23 type  2   force =     0.00000000    0.00000000    0.00000000
     atom   24 type  2   force =     0.00000000    0.00000000    0.00000000
     The SCF correction term to forces
     atom    1 type  1   force =    -0.00008052   -0.00002326   -0.00027145
     atom    2 type  1   force =     0.00000757   -0.00001904    0.00013851
     atom    3 type  1   force =    -0.00000619   -0.00002649   -0.00022929
     atom    4 type  1   force =    -0.00002374    0.00000138    0.00023338
     atom    5 type  1   force =     0.00000835   -0.00001171   -0.00019639
     atom    6 type  1   force =     0.00002243   -0.00002140    0.00025906
     atom    7 type  1   force =     0.00001984   -0.00000548   -0.00015936
     atom    8 type  1   force =     0.00000302   -0.00000220    0.00012704
     atom    9 type  2   force =     0.00013842   -0.00003467   -0.00041439
     atom   10 type  2   force =    -0.00000648    0.00007049    0.00032871
     atom   11 type  2   force =     0.00003256    0.00023868   -0.00043444
     atom   12 type  2   force =     0.00010542   -0.00017204    0.00045013
     atom   13 type  2   force =    -0.00003820   -0.00022573    0.00027323
     atom   14 type  2   force =    -0.00005466    0.00001441   -0.00009596
     atom   15 type  2   force =     0.00005750   -0.00003229   -0.00006846
     atom   16 type  2   force =    -0.00033958    0.00003153    0.00029502
     atom   17 type  2   force =    -0.00293135   -0.00613492   -0.00019514
     atom   18 type  2   force =    -0.00002787    0.00005165    0.00009979
     atom   19 type  2   force =    -0.00075022    0.00104997   -0.00020285
     atom   20 type  2   force =     0.00012165    0.00004459    0.00010203
     atom   21 type  2   force =     0.00003719    0.00002829    0.00015856
     atom   22 type  2   force =    -0.00010312    0.00021343   -0.00039360
     atom   23 type  2   force =    -0.00006536    0.00003183    0.00022096
     atom   24 type  2   force =     0.00001264    0.00007125   -0.00046297

     Total force =     0.278541     Total SCF correction =     0.007073


     Computing stress (Cartesian axis) and pressure


     negative rho (up, down):  4.692E-02 0.000E+00
          total   stress  (Ry/bohr**3)                   (kbar)     P=       26.57
   0.00017545   0.00001922  -0.00000078           25.81        2.83       -0.11
   0.00001922   0.00013150  -0.00001335            2.83       19.34       -1.96
  -0.00000078  -0.00001335   0.00023500           -0.11       -1.96       34.57


     Writing all to output data dir ./C36/out_logs/C36_out_201/laves_C36.save/
 
     init_run     :      6.36s CPU      6.57s WALL (       1 calls)
     electrons    :   1949.45s CPU   1949.21s WALL (       1 calls)
     forces       :      1.74s CPU      1.74s WALL (       1 calls)
     stress       :      8.77s CPU      8.78s WALL (       1 calls)

     Called by init_run:
     wfcinit      :      1.88s CPU      2.00s WALL (       1 calls)
                                        2.00s GPU  (       1 calls)
     potinit      :      3.42s CPU      3.45s WALL (       1 calls)
     hinit0       :      0.89s CPU      0.91s WALL (       1 calls)

     Called by electrons:
     c_bands      :   1147.53s CPU   1147.59s WALL (     256 calls)
     sum_band     :    180.97s CPU    180.93s WALL (     256 calls)
     v_of_rho     :      6.57s CPU      6.60s WALL (     257 calls)
     newd         :     20.99s CPU     20.99s WALL (     257 calls)
                                       20.99s GPU  (     257 calls)
     PAW_pot      :    566.74s CPU    566.45s WALL (     257 calls)
     mix_rho      :     22.76s CPU     22.77s WALL (     256 calls)

     Called by c_bands:
     init_us_2    :      3.13s CPU      3.14s WALL (    2575 calls)
     init_us_2:gp :      3.10s CPU      3.11s WALL (    2575 calls)
     cegterg      :   1098.66s CPU   1098.70s WALL (    1280 calls)

     Called by *egterg:
     cdiaghg      :     76.77s CPU     77.37s WALL (    3176 calls)
                                       77.29s GPU  (    3176 calls)
     h_psi        :    517.39s CPU    517.61s WALL (    3181 calls)
                                      517.08s GPU  (    3181 calls)
     s_psi        :      2.45s CPU     97.83s WALL (    3181 calls)
                                       97.05s GPU  (    3181 calls)
     g_psi        :      0.01s CPU      1.72s WALL (    1896 calls)
                                        1.55s GPU  (    1896 calls)

     Called by h_psi:
     h_psi:calbec :      0.21s CPU    111.74s WALL (    3181 calls)
                                      111.71s GPU  (    3181 calls)
     vloc_psi     :    304.87s CPU    305.03s WALL (    3181 calls)
                                      304.93s GPU  (    3181 calls)
     add_vuspsi   :      3.32s CPU     98.57s WALL (    3181 calls)
                                       98.21s GPU  (    3181 calls)

     General routines
     calbec       :      0.23s CPU      0.24s WALL (    4486 calls)
     fft          :      3.22s CPU      4.79s WALL (    3364 calls)
                                        1.58s GPU  (    3107 calls)
     ffts         :      0.79s CPU      0.85s WALL (     513 calls)
                                        0.07s GPU  (     256 calls)
     fftw         :      0.72s CPU    318.36s WALL (   92534 calls)
                                      315.48s GPU  (   92534 calls)
     interpolate  :      4.58s CPU      4.57s WALL (     257 calls)
 
     Parallel routines
 
     PWSCF        :  32m46.66s CPU  32m46.77s WALL

 
   This run was terminated on:  23:21:48   9Apr2026            

=------------------------------------------------------------------------------=
   JOB DONE.
=------------------------------------------------------------------------------=
