
     Program PWSCF v.7.2 starts on  8Apr2026 at  5:57:20 

     This program is part of the open-source Quantum ESPRESSO suite
     for quantum simulation of materials; please cite
         "P. Giannozzi et al., J. Phys.:Condens. Matter 21 395502 (2009);
         "P. Giannozzi et al., J. Phys.:Condens. Matter 29 465901 (2017);
         "P. Giannozzi et al., J. Chem. Phys. 152 154105 (2020);
          URL http://www.quantum-espresso.org", 
     in publications or presentations arising from this work. More details at
     http://www.quantum-espresso.org/quote

     Parallel version (MPI), running on     1 processors

     MPI processes distributed on     1 nodes
     3615 MiB available memory on the printing compute node when the environment starts
 
     Reading input from C36/in/laves_097_0_scf.in
Warning: card &CELL ignored
Warning: card / ignored

     Current dimensions of program PWSCF are:
     Max number of different atomic species (ntypx) = 10
     Max number of k-points (npk) =  40000
     Max angular momentum in pseudopotentials (lmaxx) =  4
     file Mg.pbe-spnl-kjpaw_psl.1.0.0.UPF: wavefunction(s)  2P renormalized
     file Ni.pbe-spn-kjpaw_psl.1.0.0.UPF: wavefunction(s)  3P 3D renormalized
 
     Subspace diagonalization in iterative solution of the eigenvalue problem:
     a serial algorithm will be used

 
     G-vector sticks info
     --------------------
     sticks:   dense  smooth     PW     G-vecs:    dense   smooth      PW
     Sum        2649    1323    367               360653   127379   19005
 
     Using Slab Decomposition
 

     Title: 
     C36_MgNi2                                                                  


     bravais-lattice index     =            0
     lattice parameter (alat)  =       8.9631  a.u.
     unit-cell volume          =    2031.0316 (a.u.)^3
     number of atoms/cell      =           24
     number of atomic types    =            2
     number of electrons       =       368.00
     number of Kohn-Sham states=          221
     kinetic-energy cutoff     =      60.0000  Ry
     charge density cutoff     =     480.0000  Ry
     scf convergence threshold =      1.0E-05
     mixing beta               =       0.2200
     number of iterations used =           22  plain     mixing
     Exchange-correlation= SLA  PW   PBX  PBC
                           (   1   4   3   4   0   0   0)

     GPU acceleration is ACTIVE.


     celldm(1)=   8.963128  celldm(2)=   0.000000  celldm(3)=   0.000000
     celldm(4)=   0.000000  celldm(5)=   0.000000  celldm(6)=   0.000000

     crystal axes: (cart. coord. in units of alat)
               a(1) = (   0.999997  -0.001690  -0.001639 )  
               a(2) = (  -0.499671   0.862763   0.001262 )  
               a(3) = (   0.004875  -0.000471   3.272440 )  

     reciprocal axes: (cart. coord. in units 2 pi/alat)
               b(1) = (  1.000980  0.579722 -0.001408 )  
               b(2) = (  0.001961  1.160202  0.000164 )  
               b(3) = (  0.000501 -0.000157  0.305582 )  


     PseudoPot. # 1 for Mg read from file:
     ./pseudo/Mg.pbe-spnl-kjpaw_psl.1.0.0.UPF
     MD5 check sum: fda14e0d92a6a9a5ebed782e5a4b3067
     Pseudo is Projector augmented-wave + core cor, Zval = 10.0
     Generated using &quot;atomic&quot; code by A. Dal Corso  v.6.3
     Shape of augmentation charge: PSQ
     Using radial grid of 1129 points,  4 beta functions with: 
                l(1) =   0
                l(2) =   0
                l(3) =   1
                l(4) =   1
     Q(r) pseudized with 0 coefficients 


     PseudoPot. # 2 for Ni read from file:
     ./pseudo/Ni.pbe-spn-kjpaw_psl.1.0.0.UPF
     MD5 check sum: 6e86b733589c3ad8389697b807d86aa7
     Pseudo is Projector augmented-wave + core cor, Zval = 18.0
     Generated using &quot;atomic&quot; code by A. Dal Corso  v.6.3
     Shape of augmentation charge: PSQ
     Using radial grid of 1195 points,  6 beta functions with: 
                l(1) =   0
                l(2) =   0
                l(3) =   1
                l(4) =   1
                l(5) =   2
                l(6) =   2
     Q(r) pseudized with 0 coefficients 


     atomic species   valence    mass     pseudopotential
        Mg            10.00    24.30500     Mg( 1.00)
        Ni            18.00    58.69340     Ni( 1.00)

     No symmetry found



   Cartesian axes

     site n.     atom                  positions (alat units)
         1           Mg  tau(   1) = (  -0.4972829   0.8624411   1.3302087  )
         2           Mg  tau(   2) = (   0.0048723   0.0004899   2.9654360  )
         3           Mg  tau(   3) = (   0.4999660   0.8603360   1.9445792  )
         4           Mg  tau(   4) = (  -0.4963430   0.8616832   0.3083749  )
         5           Mg  tau(   5) = (   0.0042434   0.5763667   2.1457519  )
         6           Mg  tau(   6) = (   0.5010887   0.2872144   0.5095796  )
         7           Mg  tau(   7) = (   0.5010776   0.2858352   1.1270179  )
         8           Mg  tau(   8) = (   0.0029429   0.5733960   2.7629854  )
         9           Ni  tau(   9) = (   0.0017679   0.5744562   1.2270118  )
        10           Ni  tau(  10) = (   0.5038523   0.2867203   2.8633455  )
        11           Ni  tau(  11) = (   0.5036365   0.2855272   2.0438653  )
        12           Ni  tau(  12) = (  -0.0013426   0.5757224   0.4098905  )
        13           Ni  tau(  13) = (   0.0027360   0.2882149   0.8176731  )
        14           Ni  tau(  14) = (   0.7545065   0.1420609   2.4524923  )
        15           Ni  tau(  15) = (   0.5030486   0.5748008   2.4542456  )
        16           Ni  tau(  16) = (  -0.2481486   0.7185828   0.8192083  )
        17           Ni  tau(  17) = (   0.2511282   0.7180579   0.8184554  )
        18           Ni  tau(  18) = (   0.2548754   0.1427908   2.4520285  )
        19           Ni  tau(  19) = (   0.0040282   0.8604155   1.6357266  )
        20           Ni  tau(  20) = (   0.2520373   0.4286819   0.0004681  )
        21           Ni  tau(  21) = (   0.0047949   0.8606030   3.2702120  )
        22           Ni  tau(  22) = (   0.2527770   0.4324135   1.6360484  )
        23           Ni  tau(  23) = (   0.7546725   0.4297845   3.2706798  )
        24           Ni  tau(  24) = (  -0.2479463   0.4323851   1.6356024  )

     number of k points=     5  Marzari-Vanderbilt smearing, width (Ry)=  0.0500
                       cart. coord. in units 2pi/alat
        k(    1) = (   0.0000000   0.0000000   0.0000000), wk =   0.2222222
        k(    2) = (   0.0006537   0.3867341   0.0000546), wk =   0.4444444
        k(    3) = (   0.3336601   0.1932407  -0.0004693), wk =   0.4444444
        k(    4) = (   0.3343138   0.5799748  -0.0004147), wk =   0.4444444
        k(    5) = (   0.3330064  -0.1934934  -0.0005239), wk =   0.4444444

     Dense  grid:   360653 G-vectors     FFT dimensions: (  64,  64, 216)

     Smooth grid:   127379 G-vectors     FFT dimensions: (  45,  45, 150)

     Estimated max dynamical RAM per process >       2.02 GB

     Check: negative core charge=   -0.000009

     Initial potential from superposition of free atoms

     starting charge     367.9886, renormalised to     368.0000
     Starting wfcs are  200 randomized atomic wfcs +   21 random wfcs
     Checking if some PAW data can be deallocated... 

     total cpu time spent up to now is        6.4 secs

     Self-consistent Calculation

     iteration #  1     ecut=    60.00 Ry     beta= 0.22
     Davidson diagonalization with overlap
     ethr =  1.00E-02,  avg # of iterations =  5.2

     negative rho (up, down):  1.797E-02 0.000E+00

     total cpu time spent up to now is       16.1 secs

     total energy              =   -7998.39881709 Ry
     estimated scf accuracy    <      67.40352606 Ry

     iteration #  2     ecut=    60.00 Ry     beta= 0.22
     Davidson diagonalization with overlap
     ethr =  1.00E-02,  avg # of iterations =  2.0

     negative rho (up, down):  3.847E-04 0.000E+00

     total cpu time spent up to now is       23.6 secs

     total energy              =   -7997.36092954 Ry
     estimated scf accuracy    <     122.15864339 Ry

     iteration #  3     ecut=    60.00 Ry     beta= 0.22
     Davidson diagonalization with overlap
     ethr =  1.00E-02,  avg # of iterations =  2.0

     negative rho (up, down):  5.790E-05 0.000E+00

     total cpu time spent up to now is       31.1 secs

     total energy              =   -7985.58859330 Ry
     estimated scf accuracy    <      98.29089361 Ry

     iteration #  4     ecut=    60.00 Ry     beta= 0.22
     Davidson diagonalization with overlap
     ethr =  1.00E-02,  avg # of iterations =  3.8

     negative rho (up, down):  4.875E-03 0.000E+00

     total cpu time spent up to now is       39.9 secs

     total energy              =   -7974.67175918 Ry
     estimated scf accuracy    <    1251.21774800 Ry

     iteration #  5     ecut=    60.00 Ry     beta= 0.22
     Davidson diagonalization with overlap
     ethr =  1.00E-02,  avg # of iterations =  3.6

     negative rho (up, down):  1.661E-02 0.000E+00

     total cpu time spent up to now is       48.2 secs

     total energy              =   -7994.95746318 Ry
     estimated scf accuracy    <     173.81399131 Ry

     iteration #  6     ecut=    60.00 Ry     beta= 0.22
     Davidson diagonalization with overlap
     ethr =  1.00E-02,  avg # of iterations =  1.8

     negative rho (up, down):  3.249E-02 0.000E+00

     total cpu time spent up to now is       55.6 secs

     total energy              =   -7998.42410387 Ry
     estimated scf accuracy    <      71.71519981 Ry

     iteration #  7     ecut=    60.00 Ry     beta= 0.22
     Davidson diagonalization with overlap
     ethr =  1.00E-02,  avg # of iterations =  1.0

     negative rho (up, down):  3.654E-02 0.000E+00

     total cpu time spent up to now is       62.4 secs

     total energy              =   -7999.57509009 Ry
     estimated scf accuracy    <      80.43920914 Ry

     iteration #  8     ecut=    60.00 Ry     beta= 0.22
     Davidson diagonalization with overlap
     ethr =  1.00E-02,  avg # of iterations =  1.0

     negative rho (up, down):  3.553E-02 0.000E+00

     total cpu time spent up to now is       69.1 secs

     total energy              =   -7999.81589072 Ry
     estimated scf accuracy    <      53.30146902 Ry

     iteration #  9     ecut=    60.00 Ry     beta= 0.22
     Davidson diagonalization with overlap
     ethr =  1.00E-02,  avg # of iterations =  1.0

     negative rho (up, down):  3.523E-02 0.000E+00

     total cpu time spent up to now is       75.9 secs

     total energy              =   -7999.60887825 Ry
     estimated scf accuracy    <      53.19384520 Ry

     iteration # 10     ecut=    60.00 Ry     beta= 0.22
     Davidson diagonalization with overlap
     ethr =  1.00E-02,  avg # of iterations =  1.0

     negative rho (up, down):  4.038E-02 0.000E+00

     total cpu time spent up to now is       82.7 secs

     total energy              =   -7999.12156697 Ry
     estimated scf accuracy    <      45.85609747 Ry

     iteration # 11     ecut=    60.00 Ry     beta= 0.22
     Davidson diagonalization with overlap
     ethr =  1.00E-02,  avg # of iterations =  1.0

     negative rho (up, down):  4.704E-02 0.000E+00

     total cpu time spent up to now is       89.4 secs

     total energy              =   -7999.16642843 Ry
     estimated scf accuracy    <      48.30082598 Ry

     iteration # 12     ecut=    60.00 Ry     beta= 0.22
     Davidson diagonalization with overlap
     ethr =  1.00E-02,  avg # of iterations =  1.0

     negative rho (up, down):  6.711E-02 0.000E+00

     total cpu time spent up to now is       96.2 secs

     total energy              =   -7998.93252662 Ry
     estimated scf accuracy    <      41.17087273 Ry

     iteration # 13     ecut=    60.00 Ry     beta= 0.22
     Davidson diagonalization with overlap
     ethr =  1.00E-02,  avg # of iterations =  1.0

     negative rho (up, down):  1.132E-01 0.000E+00

     total cpu time spent up to now is      103.0 secs

     total energy              =   -7998.39828222 Ry
     estimated scf accuracy    <      41.34545109 Ry

     iteration # 14     ecut=    60.00 Ry     beta= 0.22
     Davidson diagonalization with overlap
     ethr =  1.00E-02,  avg # of iterations =  1.0

     negative rho (up, down):  8.452E-02 0.000E+00

     total cpu time spent up to now is      109.9 secs

     total energy              =   -7998.92457731 Ry
     estimated scf accuracy    <      46.36525875 Ry

     iteration # 15     ecut=    60.00 Ry     beta= 0.22
     Davidson diagonalization with overlap
     ethr =  1.00E-02,  avg # of iterations =  1.0

     negative rho (up, down):  2.447E-02 0.000E+00

     total cpu time spent up to now is      116.6 secs

     total energy              =   -7997.96357586 Ry
     estimated scf accuracy    <      46.99894798 Ry

     iteration # 16     ecut=    60.00 Ry     beta= 0.22
     Davidson diagonalization with overlap
     ethr =  1.00E-02,  avg # of iterations =  1.0

     negative rho (up, down):  2.500E-02 0.000E+00

     total cpu time spent up to now is      123.5 secs

     total energy              =   -7998.99538179 Ry
     estimated scf accuracy    <      44.54877311 Ry

     iteration # 17     ecut=    60.00 Ry     beta= 0.22
     Davidson diagonalization with overlap
     ethr =  1.00E-02,  avg # of iterations =  1.0

     negative rho (up, down):  2.423E-02 0.000E+00

     total cpu time spent up to now is      130.2 secs

     total energy              =   -7998.97946827 Ry
     estimated scf accuracy    <      41.87175071 Ry

     iteration # 18     ecut=    60.00 Ry     beta= 0.22
     Davidson diagonalization with overlap
     ethr =  1.00E-02,  avg # of iterations =  1.0

     negative rho (up, down):  1.968E-02 0.000E+00

     total cpu time spent up to now is      137.1 secs

     total energy              =   -7998.84032684 Ry
     estimated scf accuracy    <      42.36532923 Ry

     iteration # 19     ecut=    60.00 Ry     beta= 0.22
     Davidson diagonalization with overlap
     ethr =  1.00E-02,  avg # of iterations =  1.0

     negative rho (up, down):  1.988E-02 0.000E+00

     total cpu time spent up to now is      143.9 secs

     total energy              =   -7998.90740954 Ry
     estimated scf accuracy    <      39.64799174 Ry

     iteration # 20     ecut=    60.00 Ry     beta= 0.22
     Davidson diagonalization with overlap
     ethr =  1.00E-02,  avg # of iterations =  1.0

     negative rho (up, down):  2.020E-02 0.000E+00

     total cpu time spent up to now is      150.7 secs

     total energy              =   -7998.87953094 Ry
     estimated scf accuracy    <      37.17226651 Ry

     iteration # 21     ecut=    60.00 Ry     beta= 0.22
     Davidson diagonalization with overlap
     ethr =  1.00E-02,  avg # of iterations =  1.0

     negative rho (up, down):  1.811E-02 0.000E+00

     total cpu time spent up to now is      157.6 secs

     total energy              =   -7998.96019843 Ry
     estimated scf accuracy    <      37.15345010 Ry

     iteration # 22     ecut=    60.00 Ry     beta= 0.22
     Davidson diagonalization with overlap
     ethr =  1.00E-02,  avg # of iterations =  1.0

     negative rho (up, down):  1.909E-03 0.000E+00

     total cpu time spent up to now is      164.5 secs

     total energy              =   -7998.66643222 Ry
     estimated scf accuracy    <      46.97097061 Ry

     iteration # 23     ecut=    60.00 Ry     beta= 0.22
     Davidson diagonalization with overlap
     ethr =  1.00E-02,  avg # of iterations =  1.0

     negative rho (up, down):  1.950E-03 0.000E+00

     total cpu time spent up to now is      171.3 secs

     total energy              =   -7998.77050300 Ry
     estimated scf accuracy    <      35.94255165 Ry

     iteration # 24     ecut=    60.00 Ry     beta= 0.22
     Davidson diagonalization with overlap
     ethr =  9.77E-03,  avg # of iterations =  1.0

     negative rho (up, down):  1.208E-02 0.000E+00

     total cpu time spent up to now is      178.1 secs

     total energy              =   -7998.38030165 Ry
     estimated scf accuracy    <      29.82581142 Ry

     iteration # 25     ecut=    60.00 Ry     beta= 0.22
     Davidson diagonalization with overlap
     ethr =  8.10E-03,  avg # of iterations =  1.0

     negative rho (up, down):  3.319E-02 0.000E+00

     total cpu time spent up to now is      185.0 secs

     total energy              =   -7997.73329020 Ry
     estimated scf accuracy    <      22.38405263 Ry

     iteration # 26     ecut=    60.00 Ry     beta= 0.22
     Davidson diagonalization with overlap
     ethr =  6.08E-03,  avg # of iterations =  1.0

     negative rho (up, down):  1.010E-01 0.000E+00

     total cpu time spent up to now is      191.8 secs

     total energy              =   -7997.24577403 Ry
     estimated scf accuracy    <      14.94068484 Ry

     iteration # 27     ecut=    60.00 Ry     beta= 0.22
     Davidson diagonalization with overlap
     ethr =  4.06E-03,  avg # of iterations =  1.0

     negative rho (up, down):  4.999E-02 0.000E+00

     total cpu time spent up to now is      198.7 secs

     total energy              =   -7997.13792895 Ry
     estimated scf accuracy    <      31.94234159 Ry

     iteration # 28     ecut=    60.00 Ry     beta= 0.22
     Davidson diagonalization with overlap
     ethr =  4.06E-03,  avg # of iterations =  1.0

     negative rho (up, down):  5.251E-02 0.000E+00

     total cpu time spent up to now is      205.5 secs

     total energy              =   -7997.81373751 Ry
     estimated scf accuracy    <       4.98125882 Ry

     iteration # 29     ecut=    60.00 Ry     beta= 0.22
     Davidson diagonalization with overlap
     ethr =  1.35E-03,  avg # of iterations =  1.0

     negative rho (up, down):  4.559E-02 0.000E+00

     total cpu time spent up to now is      212.3 secs

     total energy              =   -7997.72671043 Ry
     estimated scf accuracy    <       6.79080470 Ry

     iteration # 30     ecut=    60.00 Ry     beta= 0.22
     Davidson diagonalization with overlap
     ethr =  1.35E-03,  avg # of iterations =  1.0

     negative rho (up, down):  4.984E-02 0.000E+00

     total cpu time spent up to now is      219.2 secs

     total energy              =   -7997.83077947 Ry
     estimated scf accuracy    <       3.70815569 Ry

     iteration # 31     ecut=    60.00 Ry     beta= 0.22
     Davidson diagonalization with overlap
     ethr =  1.01E-03,  avg # of iterations =  1.0

     negative rho (up, down):  4.136E-02 0.000E+00

     total cpu time spent up to now is      226.0 secs

     total energy              =   -7997.76180574 Ry
     estimated scf accuracy    <       3.78631604 Ry

     iteration # 32     ecut=    60.00 Ry     beta= 0.22
     Davidson diagonalization with overlap
     ethr =  1.01E-03,  avg # of iterations =  2.0

     negative rho (up, down):  4.746E-02 0.000E+00

     total cpu time spent up to now is      233.6 secs

     total energy              =   -7997.76746771 Ry
     estimated scf accuracy    <       2.24499118 Ry

     iteration # 33     ecut=    60.00 Ry     beta= 0.22
     Davidson diagonalization with overlap
     ethr =  6.10E-04,  avg # of iterations =  2.0

     negative rho (up, down):  4.464E-02 0.000E+00

     total cpu time spent up to now is      241.2 secs

     total energy              =   -7997.81432863 Ry
     estimated scf accuracy    <       4.37283611 Ry

     iteration # 34     ecut=    60.00 Ry     beta= 0.22
     Davidson diagonalization with overlap
     ethr =  6.10E-04,  avg # of iterations =  1.0

     negative rho (up, down):  4.250E-02 0.000E+00

     total cpu time spent up to now is      248.0 secs

     total energy              =   -7997.78535269 Ry
     estimated scf accuracy    <       3.54506847 Ry

     iteration # 35     ecut=    60.00 Ry     beta= 0.22
     Davidson diagonalization with overlap
     ethr =  6.10E-04,  avg # of iterations =  1.8

     negative rho (up, down):  3.310E-02 0.000E+00

     total cpu time spent up to now is      255.4 secs

     total energy              =   -7997.84455186 Ry
     estimated scf accuracy    <       2.12643064 Ry

     iteration # 36     ecut=    60.00 Ry     beta= 0.22
     Davidson diagonalization with overlap
     ethr =  5.78E-04,  avg # of iterations =  1.4

     negative rho (up, down):  8.117E-02 0.000E+00

     total cpu time spent up to now is      262.6 secs

     total energy              =   -7997.67485548 Ry
     estimated scf accuracy    <       6.19363686 Ry

     iteration # 37     ecut=    60.00 Ry     beta= 0.22
     Davidson diagonalization with overlap
     ethr =  5.78E-04,  avg # of iterations =  2.0

     negative rho (up, down):  5.219E-02 0.000E+00

     total cpu time spent up to now is      270.4 secs

     total energy              =   -7997.72559989 Ry
     estimated scf accuracy    <       8.32250346 Ry

     iteration # 38     ecut=    60.00 Ry     beta= 0.22
     Davidson diagonalization with overlap
     ethr =  5.78E-04,  avg # of iterations =  2.0

     negative rho (up, down):  3.505E-02 0.000E+00

     total cpu time spent up to now is      278.0 secs

     total energy              =   -7997.84986018 Ry
     estimated scf accuracy    <       3.35525140 Ry

     iteration # 39     ecut=    60.00 Ry     beta= 0.22
     Davidson diagonalization with overlap
     ethr =  5.78E-04,  avg # of iterations =  2.0

     negative rho (up, down):  3.910E-02 0.000E+00

     total cpu time spent up to now is      285.6 secs

     total energy              =   -7997.85074514 Ry
     estimated scf accuracy    <       7.51821330 Ry

     iteration # 40     ecut=    60.00 Ry     beta= 0.22
     Davidson diagonalization with overlap
     ethr =  5.78E-04,  avg # of iterations =  1.4

     negative rho (up, down):  3.604E-02 0.000E+00

     total cpu time spent up to now is      292.7 secs

     total energy              =   -7997.86807275 Ry
     estimated scf accuracy    <       5.31167763 Ry

     iteration # 41     ecut=    60.00 Ry     beta= 0.22
     Davidson diagonalization with overlap
     ethr =  5.78E-04,  avg # of iterations =  1.0

     negative rho (up, down):  5.080E-02 0.000E+00

     total cpu time spent up to now is      299.5 secs

     total energy              =   -7997.79414404 Ry
     estimated scf accuracy    <       4.70132494 Ry

     iteration # 42     ecut=    60.00 Ry     beta= 0.22
     Davidson diagonalization with overlap
     ethr =  5.78E-04,  avg # of iterations =  1.2

     negative rho (up, down):  5.740E-02 0.000E+00

     total cpu time spent up to now is      306.5 secs

     total energy              =   -7997.82738823 Ry
     estimated scf accuracy    <       5.19266645 Ry

     iteration # 43     ecut=    60.00 Ry     beta= 0.22
     Davidson diagonalization with overlap
     ethr =  5.78E-04,  avg # of iterations =  1.6

     negative rho (up, down):  6.411E-02 0.000E+00

     total cpu time spent up to now is      313.8 secs

     total energy              =   -7997.78535223 Ry
     estimated scf accuracy    <       4.17951999 Ry

     iteration # 44     ecut=    60.00 Ry     beta= 0.22
     Davidson diagonalization with overlap
     ethr =  5.78E-04,  avg # of iterations =  1.0

     negative rho (up, down):  8.391E-02 0.000E+00

     total cpu time spent up to now is      320.7 secs

     total energy              =   -7997.79219993 Ry
     estimated scf accuracy    <       4.62829473 Ry

     iteration # 45     ecut=    60.00 Ry     beta= 0.22
     Davidson diagonalization with overlap
     ethr =  5.78E-04,  avg # of iterations =  2.0

     negative rho (up, down):  1.138E-01 0.000E+00

     total cpu time spent up to now is      328.3 secs

     total energy              =   -7997.70137526 Ry
     estimated scf accuracy    <       6.53605149 Ry

     iteration # 46     ecut=    60.00 Ry     beta= 0.22
     Davidson diagonalization with overlap
     ethr =  5.78E-04,  avg # of iterations =  2.0

     negative rho (up, down):  1.218E-01 0.000E+00

     total cpu time spent up to now is      336.2 secs

     total energy              =   -7997.81071253 Ry
     estimated scf accuracy    <       6.73145627 Ry

     iteration # 47     ecut=    60.00 Ry     beta= 0.22
     Davidson diagonalization with overlap
     ethr =  5.78E-04,  avg # of iterations =  1.0

     negative rho (up, down):  6.159E-02 0.000E+00

     total cpu time spent up to now is      343.0 secs

     total energy              =   -7997.65628220 Ry
     estimated scf accuracy    <       6.06847279 Ry

     iteration # 48     ecut=    60.00 Ry     beta= 0.22
     Davidson diagonalization with overlap
     ethr =  5.78E-04,  avg # of iterations =  2.0

     negative rho (up, down):  6.066E-02 0.000E+00

     total cpu time spent up to now is      351.0 secs

     total energy              =   -7997.74742572 Ry
     estimated scf accuracy    <       5.72996935 Ry

     iteration # 49     ecut=    60.00 Ry     beta= 0.22
     Davidson diagonalization with overlap
     ethr =  5.78E-04,  avg # of iterations =  1.0

     negative rho (up, down):  5.741E-02 0.000E+00

     total cpu time spent up to now is      357.8 secs

     total energy              =   -7997.81538995 Ry
     estimated scf accuracy    <       3.22145161 Ry

     iteration # 50     ecut=    60.00 Ry     beta= 0.22
     Davidson diagonalization with overlap
     ethr =  5.78E-04,  avg # of iterations =  1.0

     negative rho (up, down):  5.570E-02 0.000E+00

     total cpu time spent up to now is      364.7 secs

     total energy              =   -7997.79658593 Ry
     estimated scf accuracy    <       3.08814056 Ry

     iteration # 51     ecut=    60.00 Ry     beta= 0.22
     Davidson diagonalization with overlap
     ethr =  5.78E-04,  avg # of iterations =  1.0

     negative rho (up, down):  6.224E-02 0.000E+00

     total cpu time spent up to now is      371.5 secs

     total energy              =   -7997.79550025 Ry
     estimated scf accuracy    <       2.40872029 Ry

     iteration # 52     ecut=    60.00 Ry     beta= 0.22
     Davidson diagonalization with overlap
     ethr =  5.78E-04,  avg # of iterations =  1.0

     negative rho (up, down):  7.742E-02 0.000E+00

     total cpu time spent up to now is      378.3 secs

     total energy              =   -7997.78854306 Ry
     estimated scf accuracy    <       3.16514732 Ry

     iteration # 53     ecut=    60.00 Ry     beta= 0.22
     Davidson diagonalization with overlap
     ethr =  5.78E-04,  avg # of iterations =  1.2

     negative rho (up, down):  9.393E-02 0.000E+00

     total cpu time spent up to now is      385.3 secs

     total energy              =   -7997.76448772 Ry
     estimated scf accuracy    <       3.78121204 Ry

     iteration # 54     ecut=    60.00 Ry     beta= 0.22
     Davidson diagonalization with overlap
     ethr =  5.78E-04,  avg # of iterations =  1.4

     negative rho (up, down):  9.225E-02 0.000E+00

     total cpu time spent up to now is      392.5 secs

     total energy              =   -7997.80824348 Ry
     estimated scf accuracy    <       3.85998492 Ry

     iteration # 55     ecut=    60.00 Ry     beta= 0.22
     Davidson diagonalization with overlap
     ethr =  5.78E-04,  avg # of iterations =  1.0

     negative rho (up, down):  9.316E-02 0.000E+00

     total cpu time spent up to now is      399.3 secs

     total energy              =   -7997.76691133 Ry
     estimated scf accuracy    <       4.58474517 Ry

     iteration # 56     ecut=    60.00 Ry     beta= 0.22
     Davidson diagonalization with overlap
     ethr =  5.78E-04,  avg # of iterations =  2.0

     negative rho (up, down):  1.002E-01 0.000E+00

     total cpu time spent up to now is      406.9 secs

     total energy              =   -7997.74320650 Ry
     estimated scf accuracy    <       6.42198893 Ry

     iteration # 57     ecut=    60.00 Ry     beta= 0.22
     Davidson diagonalization with overlap
     ethr =  5.78E-04,  avg # of iterations =  2.0

     negative rho (up, down):  1.077E-01 0.000E+00

     total cpu time spent up to now is      414.5 secs

     total energy              =   -7997.76725068 Ry
     estimated scf accuracy    <       4.77932235 Ry

     iteration # 58     ecut=    60.00 Ry     beta= 0.22
     Davidson diagonalization with overlap
     ethr =  5.78E-04,  avg # of iterations =  1.0

     negative rho (up, down):  1.105E-01 0.000E+00

     total cpu time spent up to now is      421.3 secs

     total energy              =   -7997.77879119 Ry
     estimated scf accuracy    <       3.25932807 Ry

     iteration # 59     ecut=    60.00 Ry     beta= 0.22
     Davidson diagonalization with overlap
     ethr =  5.78E-04,  avg # of iterations =  2.0

     negative rho (up, down):  8.967E-02 0.000E+00

     total cpu time spent up to now is      428.9 secs

     total energy              =   -7997.76054157 Ry
     estimated scf accuracy    <       5.97425400 Ry

     iteration # 60     ecut=    60.00 Ry     beta= 0.22
     Davidson diagonalization with overlap
     ethr =  5.78E-04,  avg # of iterations =  2.0

     negative rho (up, down):  9.240E-02 0.000E+00

     total cpu time spent up to now is      436.5 secs

     total energy              =   -7997.82386232 Ry
     estimated scf accuracy    <       4.39270645 Ry

     iteration # 61     ecut=    60.00 Ry     beta= 0.22
     Davidson diagonalization with overlap
     ethr =  5.78E-04,  avg # of iterations =  2.0

     negative rho (up, down):  1.018E-01 0.000E+00

     total cpu time spent up to now is      444.0 secs

     total energy              =   -7997.87474981 Ry
     estimated scf accuracy    <       6.25953020 Ry

     iteration # 62     ecut=    60.00 Ry     beta= 0.22
     Davidson diagonalization with overlap
     ethr =  5.78E-04,  avg # of iterations =  1.0

     negative rho (up, down):  9.046E-02 0.000E+00

     total cpu time spent up to now is      450.8 secs

     total energy              =   -7997.83306193 Ry
     estimated scf accuracy    <       8.18364582 Ry

     iteration # 63     ecut=    60.00 Ry     beta= 0.22
     Davidson diagonalization with overlap
     ethr =  5.78E-04,  avg # of iterations =  1.6

     negative rho (up, down):  9.327E-02 0.000E+00

     total cpu time spent up to now is      458.1 secs

     total energy              =   -7997.74056045 Ry
     estimated scf accuracy    <       6.09728988 Ry

     iteration # 64     ecut=    60.00 Ry     beta= 0.22
     Davidson diagonalization with overlap
     ethr =  5.78E-04,  avg # of iterations =  2.0

     negative rho (up, down):  7.147E-02 0.000E+00

     total cpu time spent up to now is      465.7 secs

     total energy              =   -7997.69175655 Ry
     estimated scf accuracy    <       5.16913993 Ry

     iteration # 65     ecut=    60.00 Ry     beta= 0.22
     Davidson diagonalization with overlap
     ethr =  5.78E-04,  avg # of iterations =  2.0

     negative rho (up, down):  5.953E-02 0.000E+00

     total cpu time spent up to now is      473.4 secs

     total energy              =   -7997.75309673 Ry
     estimated scf accuracy    <       4.58532746 Ry

     iteration # 66     ecut=    60.00 Ry     beta= 0.22
     Davidson diagonalization with overlap
     ethr =  5.78E-04,  avg # of iterations =  2.0

     negative rho (up, down):  5.138E-02 0.000E+00

     total cpu time spent up to now is      481.0 secs

     total energy              =   -7997.71889470 Ry
     estimated scf accuracy    <       2.36808601 Ry

     iteration # 67     ecut=    60.00 Ry     beta= 0.22
     Davidson diagonalization with overlap
     ethr =  5.78E-04,  avg # of iterations =  2.0

     negative rho (up, down):  5.661E-02 0.000E+00

     total cpu time spent up to now is      488.6 secs

     total energy              =   -7997.78069328 Ry
     estimated scf accuracy    <       2.71578338 Ry

     iteration # 68     ecut=    60.00 Ry     beta= 0.22
     Davidson diagonalization with overlap
     ethr =  5.78E-04,  avg # of iterations =  1.0

     negative rho (up, down):  6.164E-02 0.000E+00

     total cpu time spent up to now is      495.4 secs

     total energy              =   -7997.77684349 Ry
     estimated scf accuracy    <       3.05202949 Ry

     iteration # 69     ecut=    60.00 Ry     beta= 0.22
     Davidson diagonalization with overlap
     ethr =  5.78E-04,  avg # of iterations =  1.2

     negative rho (up, down):  6.667E-02 0.000E+00

     total cpu time spent up to now is      502.4 secs

     total energy              =   -7997.79076584 Ry
     estimated scf accuracy    <       2.07012331 Ry

     iteration # 70     ecut=    60.00 Ry     beta= 0.22
     Davidson diagonalization with overlap
     ethr =  5.63E-04,  avg # of iterations =  2.0

     negative rho (up, down):  6.451E-02 0.000E+00

     total cpu time spent up to now is      509.9 secs

     total energy              =   -7997.78007969 Ry
     estimated scf accuracy    <       4.51101823 Ry

     iteration # 71     ecut=    60.00 Ry     beta= 0.22
     Davidson diagonalization with overlap
     ethr =  5.63E-04,  avg # of iterations =  1.4

     negative rho (up, down):  6.747E-02 0.000E+00

     total cpu time spent up to now is      517.1 secs

     total energy              =   -7997.83518605 Ry
     estimated scf accuracy    <       2.31283309 Ry

     iteration # 72     ecut=    60.00 Ry     beta= 0.22
     Davidson diagonalization with overlap
     ethr =  5.63E-04,  avg # of iterations =  1.4

     negative rho (up, down):  5.601E-02 0.000E+00

     total cpu time spent up to now is      524.2 secs

     total energy              =   -7997.80681256 Ry
     estimated scf accuracy    <       5.07517237 Ry

     iteration # 73     ecut=    60.00 Ry     beta= 0.22
     Davidson diagonalization with overlap
     ethr =  5.63E-04,  avg # of iterations =  2.0

     negative rho (up, down):  5.787E-02 0.000E+00

     total cpu time spent up to now is      531.8 secs

     total energy              =   -7997.83933801 Ry
     estimated scf accuracy    <       6.27023801 Ry

     iteration # 74     ecut=    60.00 Ry     beta= 0.22
     Davidson diagonalization with overlap
     ethr =  5.63E-04,  avg # of iterations =  1.0

     negative rho (up, down):  6.437E-02 0.000E+00

     total cpu time spent up to now is      538.6 secs

     total energy              =   -7997.81210290 Ry
     estimated scf accuracy    <       5.06998889 Ry

     iteration # 75     ecut=    60.00 Ry     beta= 0.22
     Davidson diagonalization with overlap
     ethr =  5.63E-04,  avg # of iterations =  1.2

     negative rho (up, down):  7.101E-02 0.000E+00

     total cpu time spent up to now is      545.6 secs

     total energy              =   -7997.77553045 Ry
     estimated scf accuracy    <       3.45303275 Ry

     iteration # 76     ecut=    60.00 Ry     beta= 0.22
     Davidson diagonalization with overlap
     ethr =  5.63E-04,  avg # of iterations =  2.0

     negative rho (up, down):  6.397E-02 0.000E+00

     total cpu time spent up to now is      553.1 secs

     total energy              =   -7997.81237999 Ry
     estimated scf accuracy    <       3.02090055 Ry

     iteration # 77     ecut=    60.00 Ry     beta= 0.22
     Davidson diagonalization with overlap
     ethr =  5.63E-04,  avg # of iterations =  2.0

     negative rho (up, down):  8.257E-02 0.000E+00

     total cpu time spent up to now is      560.9 secs

     total energy              =   -7997.58084323 Ry
     estimated scf accuracy    <       7.02356201 Ry

     iteration # 78     ecut=    60.00 Ry     beta= 0.22
     Davidson diagonalization with overlap
     ethr =  5.63E-04,  avg # of iterations =  2.0

     negative rho (up, down):  7.408E-02 0.000E+00

     total cpu time spent up to now is      568.8 secs

     total energy              =   -7997.71958329 Ry
     estimated scf accuracy    <       1.33030783 Ry

     iteration # 79     ecut=    60.00 Ry     beta= 0.22
     Davidson diagonalization with overlap
     ethr =  3.61E-04,  avg # of iterations =  2.0

     negative rho (up, down):  7.063E-02 0.000E+00

     total cpu time spent up to now is      576.6 secs

     total energy              =   -7997.80465492 Ry
     estimated scf accuracy    <       3.23577536 Ry

     iteration # 80     ecut=    60.00 Ry     beta= 0.22
     Davidson diagonalization with overlap
     ethr =  3.61E-04,  avg # of iterations =  1.0

     negative rho (up, down):  7.989E-02 0.000E+00

     total cpu time spent up to now is      583.5 secs

     total energy              =   -7997.74070389 Ry
     estimated scf accuracy    <       3.33271661 Ry

     iteration # 81     ecut=    60.00 Ry     beta= 0.22
     Davidson diagonalization with overlap
     ethr =  3.61E-04,  avg # of iterations =  2.0

     negative rho (up, down):  8.691E-02 0.000E+00

     total cpu time spent up to now is      591.1 secs

     total energy              =   -7997.75331252 Ry
     estimated scf accuracy    <       1.68016546 Ry

     iteration # 82     ecut=    60.00 Ry     beta= 0.22
     Davidson diagonalization with overlap
     ethr =  3.61E-04,  avg # of iterations =  1.0

     negative rho (up, down):  8.066E-02 0.000E+00

     total cpu time spent up to now is      597.9 secs

     total energy              =   -7997.77490714 Ry
     estimated scf accuracy    <       1.50948597 Ry

     iteration # 83     ecut=    60.00 Ry     beta= 0.22
     Davidson diagonalization with overlap
     ethr =  3.61E-04,  avg # of iterations =  1.8

     negative rho (up, down):  7.483E-02 0.000E+00

     total cpu time spent up to now is      605.4 secs

     total energy              =   -7997.80233280 Ry
     estimated scf accuracy    <       2.27881765 Ry

     iteration # 84     ecut=    60.00 Ry     beta= 0.22
     Davidson diagonalization with overlap
     ethr =  3.61E-04,  avg # of iterations =  1.0

     negative rho (up, down):  6.890E-02 0.000E+00

     total cpu time spent up to now is      612.2 secs

     total energy              =   -7997.79693926 Ry
     estimated scf accuracy    <       2.86924065 Ry

     iteration # 85     ecut=    60.00 Ry     beta= 0.22
     Davidson diagonalization with overlap
     ethr =  3.61E-04,  avg # of iterations =  1.2

     negative rho (up, down):  6.739E-02 0.000E+00

     total cpu time spent up to now is      619.2 secs

     total energy              =   -7997.78313311 Ry
     estimated scf accuracy    <       2.00647776 Ry

     iteration # 86     ecut=    60.00 Ry     beta= 0.22
     Davidson diagonalization with overlap
     ethr =  3.61E-04,  avg # of iterations =  1.6

     negative rho (up, down):  6.765E-02 0.000E+00

     total cpu time spent up to now is      626.4 secs

     total energy              =   -7997.81531141 Ry
     estimated scf accuracy    <       1.94788268 Ry

     iteration # 87     ecut=    60.00 Ry     beta= 0.22
     Davidson diagonalization with overlap
     ethr =  3.61E-04,  avg # of iterations =  1.0

     negative rho (up, down):  6.619E-02 0.000E+00

     total cpu time spent up to now is      633.3 secs

     total energy              =   -7997.82617887 Ry
     estimated scf accuracy    <       2.12368371 Ry

     iteration # 88     ecut=    60.00 Ry     beta= 0.22
     Davidson diagonalization with overlap
     ethr =  3.61E-04,  avg # of iterations =  1.0

     negative rho (up, down):  6.465E-02 0.000E+00

     total cpu time spent up to now is      640.1 secs

     total energy              =   -7997.77105224 Ry
     estimated scf accuracy    <       2.78419077 Ry

     iteration # 89     ecut=    60.00 Ry     beta= 0.22
     Davidson diagonalization with overlap
     ethr =  3.61E-04,  avg # of iterations =  2.0

     negative rho (up, down):  7.017E-02 0.000E+00

     total cpu time spent up to now is      647.7 secs

     total energy              =   -7997.71239744 Ry
     estimated scf accuracy    <       2.19061330 Ry

     iteration # 90     ecut=    60.00 Ry     beta= 0.22
     Davidson diagonalization with overlap
     ethr =  3.61E-04,  avg # of iterations =  2.0

     negative rho (up, down):  7.202E-02 0.000E+00

     total cpu time spent up to now is      655.4 secs

     total energy              =   -7997.74726153 Ry
     estimated scf accuracy    <       4.86307244 Ry

     iteration # 91     ecut=    60.00 Ry     beta= 0.22
     Davidson diagonalization with overlap
     ethr =  3.61E-04,  avg # of iterations =  2.0

     negative rho (up, down):  7.113E-02 0.000E+00

     total cpu time spent up to now is      663.0 secs

     total energy              =   -7997.82112302 Ry
     estimated scf accuracy    <       4.94135374 Ry

     iteration # 92     ecut=    60.00 Ry     beta= 0.22
     Davidson diagonalization with overlap
     ethr =  3.61E-04,  avg # of iterations =  1.0

     negative rho (up, down):  7.036E-02 0.000E+00

     total cpu time spent up to now is      669.8 secs

     total energy              =   -7997.84553867 Ry
     estimated scf accuracy    <       4.13414897 Ry

     iteration # 93     ecut=    60.00 Ry     beta= 0.22
     Davidson diagonalization with overlap
     ethr =  3.61E-04,  avg # of iterations =  1.0

     negative rho (up, down):  7.230E-02 0.000E+00

     total cpu time spent up to now is      676.7 secs

     total energy              =   -7997.80368395 Ry
     estimated scf accuracy    <       4.10283314 Ry

     iteration # 94     ecut=    60.00 Ry     beta= 0.22
     Davidson diagonalization with overlap
     ethr =  3.61E-04,  avg # of iterations =  1.0

     negative rho (up, down):  7.463E-02 0.000E+00

     total cpu time spent up to now is      683.5 secs

     total energy              =   -7997.79719198 Ry
     estimated scf accuracy    <       4.18034387 Ry

     iteration # 95     ecut=    60.00 Ry     beta= 0.22
     Davidson diagonalization with overlap
     ethr =  3.61E-04,  avg # of iterations =  1.2

     negative rho (up, down):  7.589E-02 0.000E+00

     total cpu time spent up to now is      690.5 secs

     total energy              =   -7997.84073473 Ry
     estimated scf accuracy    <       3.85602710 Ry

     iteration # 96     ecut=    60.00 Ry     beta= 0.22
     Davidson diagonalization with overlap
     ethr =  3.61E-04,  avg # of iterations =  1.2

     negative rho (up, down):  7.535E-02 0.000E+00

     total cpu time spent up to now is      697.5 secs

     total energy              =   -7997.84853655 Ry
     estimated scf accuracy    <       4.45424453 Ry

     iteration # 97     ecut=    60.00 Ry     beta= 0.22
     Davidson diagonalization with overlap
     ethr =  3.61E-04,  avg # of iterations =  1.0

     negative rho (up, down):  7.509E-02 0.000E+00

     total cpu time spent up to now is      704.3 secs

     total energy              =   -7997.84538304 Ry
     estimated scf accuracy    <       4.60981430 Ry

     iteration # 98     ecut=    60.00 Ry     beta= 0.22
     Davidson diagonalization with overlap
     ethr =  3.61E-04,  avg # of iterations =  1.0

     negative rho (up, down):  7.336E-02 0.000E+00

     total cpu time spent up to now is      711.2 secs

     total energy              =   -7997.79717755 Ry
     estimated scf accuracy    <       5.26912997 Ry

     iteration # 99     ecut=    60.00 Ry     beta= 0.22
     Davidson diagonalization with overlap
     ethr =  3.61E-04,  avg # of iterations =  1.2

     negative rho (up, down):  7.481E-02 0.000E+00

     total cpu time spent up to now is      718.2 secs

     total energy              =   -7997.83329214 Ry
     estimated scf accuracy    <       3.84981473 Ry

     iteration #100     ecut=    60.00 Ry     beta= 0.22
     Davidson diagonalization with overlap
     ethr =  3.61E-04,  avg # of iterations =  1.0

     negative rho (up, down):  7.574E-02 0.000E+00

     total cpu time spent up to now is      725.0 secs

     total energy              =   -7997.83264387 Ry
     estimated scf accuracy    <       3.95250827 Ry

     iteration #101     ecut=    60.00 Ry     beta= 0.22
     Davidson diagonalization with overlap
     ethr =  3.61E-04,  avg # of iterations =  1.0

     negative rho (up, down):  7.378E-02 0.000E+00

     total cpu time spent up to now is      731.8 secs

     total energy              =   -7997.79384094 Ry
     estimated scf accuracy    <       5.01861578 Ry

     iteration #102     ecut=    60.00 Ry     beta= 0.22
     Davidson diagonalization with overlap
     ethr =  3.61E-04,  avg # of iterations =  1.0

     negative rho (up, down):  7.543E-02 0.000E+00

     total cpu time spent up to now is      738.7 secs

     total energy              =   -7997.80267246 Ry
     estimated scf accuracy    <       5.34838427 Ry

     iteration #103     ecut=    60.00 Ry     beta= 0.22
     Davidson diagonalization with overlap
     ethr =  3.61E-04,  avg # of iterations =  1.0

     negative rho (up, down):  7.582E-02 0.000E+00

     total cpu time spent up to now is      745.5 secs

     total energy              =   -7997.78109817 Ry
     estimated scf accuracy    <       4.58671445 Ry

     iteration #104     ecut=    60.00 Ry     beta= 0.22
     Davidson diagonalization with overlap
     ethr =  3.61E-04,  avg # of iterations =  1.6

     negative rho (up, down):  7.130E-02 0.000E+00

     total cpu time spent up to now is      752.8 secs

     total energy              =   -7997.76888584 Ry
     estimated scf accuracy    <       3.66018951 Ry

     iteration #105     ecut=    60.00 Ry     beta= 0.22
     Davidson diagonalization with overlap
     ethr =  3.61E-04,  avg # of iterations =  1.2

     negative rho (up, down):  6.602E-02 0.000E+00

     total cpu time spent up to now is      759.8 secs

     total energy              =   -7997.80303848 Ry
     estimated scf accuracy    <       2.62605794 Ry

     iteration #106     ecut=    60.00 Ry     beta= 0.22
     Davidson diagonalization with overlap
     ethr =  3.61E-04,  avg # of iterations =  1.0

     negative rho (up, down):  5.918E-02 0.000E+00

     total cpu time spent up to now is      766.6 secs

     total energy              =   -7997.72980829 Ry
     estimated scf accuracy    <       3.18175725 Ry

     iteration #107     ecut=    60.00 Ry     beta= 0.22
     Davidson diagonalization with overlap
     ethr =  3.61E-04,  avg # of iterations =  2.0

     negative rho (up, down):  5.341E-02 0.000E+00

     total cpu time spent up to now is      774.3 secs

     total energy              =   -7997.74202114 Ry
     estimated scf accuracy    <       1.53582090 Ry

     iteration #108     ecut=    60.00 Ry     beta= 0.22
     Davidson diagonalization with overlap
     ethr =  3.61E-04,  avg # of iterations =  1.8

     negative rho (up, down):  5.592E-02 0.000E+00

     total cpu time spent up to now is      781.8 secs

     total energy              =   -7997.72210529 Ry
     estimated scf accuracy    <       2.87756160 Ry

     iteration #109     ecut=    60.00 Ry     beta= 0.22
     Davidson diagonalization with overlap
     ethr =  3.61E-04,  avg # of iterations =  1.6

     negative rho (up, down):  5.217E-02 0.000E+00

     total cpu time spent up to now is      789.0 secs

     total energy              =   -7997.77608163 Ry
     estimated scf accuracy    <       1.35375492 Ry

     iteration #110     ecut=    60.00 Ry     beta= 0.22
     Davidson diagonalization with overlap
     ethr =  3.61E-04,  avg # of iterations =  1.0

     negative rho (up, down):  5.215E-02 0.000E+00

     total cpu time spent up to now is      795.8 secs

     total energy              =   -7997.75701826 Ry
     estimated scf accuracy    <       2.21264374 Ry

     iteration #111     ecut=    60.00 Ry     beta= 0.22
     Davidson diagonalization with overlap
     ethr =  3.61E-04,  avg # of iterations =  1.2

     negative rho (up, down):  5.113E-02 0.000E+00

     total cpu time spent up to now is      802.8 secs

     total energy              =   -7997.78387377 Ry
     estimated scf accuracy    <       0.77692543 Ry

     iteration #112     ecut=    60.00 Ry     beta= 0.22
     Davidson diagonalization with overlap
     ethr =  2.11E-04,  avg # of iterations =  2.0

     negative rho (up, down):  5.037E-02 0.000E+00

     total cpu time spent up to now is      810.4 secs

     total energy              =   -7997.80538745 Ry
     estimated scf accuracy    <       0.71584917 Ry

     iteration #113     ecut=    60.00 Ry     beta= 0.22
     Davidson diagonalization with overlap
     ethr =  1.95E-04,  avg # of iterations =  1.0

     negative rho (up, down):  5.028E-02 0.000E+00

     total cpu time spent up to now is      817.3 secs

     total energy              =   -7997.79866071 Ry
     estimated scf accuracy    <       1.13378640 Ry

     iteration #114     ecut=    60.00 Ry     beta= 0.22
     Davidson diagonalization with overlap
     ethr =  1.95E-04,  avg # of iterations =  1.2

     negative rho (up, down):  5.024E-02 0.000E+00

     total cpu time spent up to now is      824.2 secs

     total energy              =   -7997.79434324 Ry
     estimated scf accuracy    <       1.24098740 Ry

     iteration #115     ecut=    60.00 Ry     beta= 0.22
     Davidson diagonalization with overlap
     ethr =  1.95E-04,  avg # of iterations =  1.4

     negative rho (up, down):  4.823E-02 0.000E+00

     total cpu time spent up to now is      831.4 secs

     total energy              =   -7997.79372025 Ry
     estimated scf accuracy    <       0.53839642 Ry

     iteration #116     ecut=    60.00 Ry     beta= 0.22
     Davidson diagonalization with overlap
     ethr =  1.46E-04,  avg # of iterations =  1.8

     negative rho (up, down):  4.814E-02 0.000E+00

     total cpu time spent up to now is      838.8 secs

     total energy              =   -7997.76773284 Ry
     estimated scf accuracy    <       0.77318407 Ry

     iteration #117     ecut=    60.00 Ry     beta= 0.22
     Davidson diagonalization with overlap
     ethr =  1.46E-04,  avg # of iterations =  2.0

     negative rho (up, down):  4.702E-02 0.000E+00

     total cpu time spent up to now is      846.8 secs

     total energy              =   -7997.79578966 Ry
     estimated scf accuracy    <       1.32806279 Ry

     iteration #118     ecut=    60.00 Ry     beta= 0.22
     Davidson diagonalization with overlap
     ethr =  1.46E-04,  avg # of iterations =  1.0

     negative rho (up, down):  4.637E-02 0.000E+00

     total cpu time spent up to now is      853.6 secs

     total energy              =   -7997.79508707 Ry
     estimated scf accuracy    <       0.68704053 Ry

     iteration #119     ecut=    60.00 Ry     beta= 0.22
     Davidson diagonalization with overlap
     ethr =  1.46E-04,  avg # of iterations =  1.0

     negative rho (up, down):  4.536E-02 0.000E+00

     total cpu time spent up to now is      860.5 secs

     total energy              =   -7997.79242759 Ry
     estimated scf accuracy    <       0.36233862 Ry

     iteration #120     ecut=    60.00 Ry     beta= 0.22
     Davidson diagonalization with overlap
     ethr =  9.85E-05,  avg # of iterations =  1.6

     negative rho (up, down):  4.521E-02 0.000E+00

     total cpu time spent up to now is      867.7 secs

     total energy              =   -7997.79761217 Ry
     estimated scf accuracy    <       0.17330320 Ry

     iteration #121     ecut=    60.00 Ry     beta= 0.22
     Davidson diagonalization with overlap
     ethr =  4.71E-05,  avg # of iterations =  1.0

     negative rho (up, down):  4.345E-02 0.000E+00

     total cpu time spent up to now is      874.6 secs

     total energy              =   -7997.79666386 Ry
     estimated scf accuracy    <       0.40467269 Ry

     iteration #122     ecut=    60.00 Ry     beta= 0.22
     Davidson diagonalization with overlap
     ethr =  4.71E-05,  avg # of iterations =  2.0

     negative rho (up, down):  4.346E-02 0.000E+00

     total cpu time spent up to now is      882.1 secs

     total energy              =   -7997.80287768 Ry
     estimated scf accuracy    <       0.37617502 Ry

     iteration #123     ecut=    60.00 Ry     beta= 0.22
     Davidson diagonalization with overlap
     ethr =  4.71E-05,  avg # of iterations =  2.0

     negative rho (up, down):  4.464E-02 0.000E+00

     total cpu time spent up to now is      889.7 secs

     total energy              =   -7997.79469285 Ry
     estimated scf accuracy    <       0.49040584 Ry

     iteration #124     ecut=    60.00 Ry     beta= 0.22
     Davidson diagonalization with overlap
     ethr =  4.71E-05,  avg # of iterations =  2.0

     negative rho (up, down):  4.393E-02 0.000E+00

     total cpu time spent up to now is      897.5 secs

     total energy              =   -7997.80250155 Ry
     estimated scf accuracy    <       0.32595532 Ry

     iteration #125     ecut=    60.00 Ry     beta= 0.22
     Davidson diagonalization with overlap
     ethr =  4.71E-05,  avg # of iterations =  1.0

     negative rho (up, down):  4.353E-02 0.000E+00

     total cpu time spent up to now is      904.3 secs

     total energy              =   -7997.80100058 Ry
     estimated scf accuracy    <       0.29967228 Ry

     iteration #126     ecut=    60.00 Ry     beta= 0.22
     Davidson diagonalization with overlap
     ethr =  4.71E-05,  avg # of iterations =  2.0

     negative rho (up, down):  4.378E-02 0.000E+00

     total cpu time spent up to now is      911.9 secs

     total energy              =   -7997.80172554 Ry
     estimated scf accuracy    <       0.30764753 Ry

     iteration #127     ecut=    60.00 Ry     beta= 0.22
     Davidson diagonalization with overlap
     ethr =  4.71E-05,  avg # of iterations =  1.6

     negative rho (up, down):  4.389E-02 0.000E+00

     total cpu time spent up to now is      919.1 secs

     total energy              =   -7997.80712413 Ry
     estimated scf accuracy    <       0.31301980 Ry

     iteration #128     ecut=    60.00 Ry     beta= 0.22
     Davidson diagonalization with overlap
     ethr =  4.71E-05,  avg # of iterations =  1.0

     negative rho (up, down):  4.450E-02 0.000E+00

     total cpu time spent up to now is      925.9 secs

     total energy              =   -7997.79992736 Ry
     estimated scf accuracy    <       0.49727043 Ry

     iteration #129     ecut=    60.00 Ry     beta= 0.22
     Davidson diagonalization with overlap
     ethr =  4.71E-05,  avg # of iterations =  2.0

     negative rho (up, down):  4.467E-02 0.000E+00

     total cpu time spent up to now is      933.6 secs

     total energy              =   -7997.80212091 Ry
     estimated scf accuracy    <       0.40932646 Ry

     iteration #130     ecut=    60.00 Ry     beta= 0.22
     Davidson diagonalization with overlap
     ethr =  4.71E-05,  avg # of iterations =  1.0

     negative rho (up, down):  4.527E-02 0.000E+00

     total cpu time spent up to now is      940.4 secs

     total energy              =   -7997.80097591 Ry
     estimated scf accuracy    <       0.35109994 Ry

     iteration #131     ecut=    60.00 Ry     beta= 0.22
     Davidson diagonalization with overlap
     ethr =  4.71E-05,  avg # of iterations =  1.2

     negative rho (up, down):  4.562E-02 0.000E+00

     total cpu time spent up to now is      947.4 secs

     total energy              =   -7997.80266307 Ry
     estimated scf accuracy    <       0.29794864 Ry

     iteration #132     ecut=    60.00 Ry     beta= 0.22
     Davidson diagonalization with overlap
     ethr =  4.71E-05,  avg # of iterations =  1.0

     negative rho (up, down):  4.598E-02 0.000E+00

     total cpu time spent up to now is      954.3 secs

     total energy              =   -7997.80346277 Ry
     estimated scf accuracy    <       0.31980655 Ry

     iteration #133     ecut=    60.00 Ry     beta= 0.22
     Davidson diagonalization with overlap
     ethr =  4.71E-05,  avg # of iterations =  1.0

     negative rho (up, down):  4.609E-02 0.000E+00

     total cpu time spent up to now is      961.1 secs

     total energy              =   -7997.80393067 Ry
     estimated scf accuracy    <       0.36695774 Ry

     iteration #134     ecut=    60.00 Ry     beta= 0.22
     Davidson diagonalization with overlap
     ethr =  4.71E-05,  avg # of iterations =  1.0

     negative rho (up, down):  4.618E-02 0.000E+00

     total cpu time spent up to now is      967.9 secs

     total energy              =   -7997.80480095 Ry
     estimated scf accuracy    <       0.37713591 Ry

     iteration #135     ecut=    60.00 Ry     beta= 0.22
     Davidson diagonalization with overlap
     ethr =  4.71E-05,  avg # of iterations =  1.0

     negative rho (up, down):  4.600E-02 0.000E+00

     total cpu time spent up to now is      974.7 secs

     total energy              =   -7997.80541461 Ry
     estimated scf accuracy    <       0.41531287 Ry

     iteration #136     ecut=    60.00 Ry     beta= 0.22
     Davidson diagonalization with overlap
     ethr =  4.71E-05,  avg # of iterations =  1.0

     negative rho (up, down):  4.579E-02 0.000E+00

     total cpu time spent up to now is      981.6 secs

     total energy              =   -7997.80579073 Ry
     estimated scf accuracy    <       0.46911837 Ry

     iteration #137     ecut=    60.00 Ry     beta= 0.22
     Davidson diagonalization with overlap
     ethr =  4.71E-05,  avg # of iterations =  1.0

     negative rho (up, down):  4.643E-02 0.000E+00

     total cpu time spent up to now is      988.4 secs

     total energy              =   -7997.80649242 Ry
     estimated scf accuracy    <       0.47385342 Ry

     iteration #138     ecut=    60.00 Ry     beta= 0.22
     Davidson diagonalization with overlap
     ethr =  4.71E-05,  avg # of iterations =  1.2

     negative rho (up, down):  4.627E-02 0.000E+00

     total cpu time spent up to now is      995.4 secs

     total energy              =   -7997.80727644 Ry
     estimated scf accuracy    <       0.53974264 Ry

     iteration #139     ecut=    60.00 Ry     beta= 0.22
     Davidson diagonalization with overlap
     ethr =  4.71E-05,  avg # of iterations =  1.0

     negative rho (up, down):  4.621E-02 0.000E+00

     total cpu time spent up to now is     1002.3 secs

     total energy              =   -7997.80863562 Ry
     estimated scf accuracy    <       0.57477300 Ry

     iteration #140     ecut=    60.00 Ry     beta= 0.22
     Davidson diagonalization with overlap
     ethr =  4.71E-05,  avg # of iterations =  1.0

     negative rho (up, down):  4.663E-02 0.000E+00

     total cpu time spent up to now is     1009.1 secs

     total energy              =   -7997.80284347 Ry
     estimated scf accuracy    <       0.59613313 Ry

     iteration #141     ecut=    60.00 Ry     beta= 0.22
     Davidson diagonalization with overlap
     ethr =  4.71E-05,  avg # of iterations =  1.6

     negative rho (up, down):  4.672E-02 0.000E+00

     total cpu time spent up to now is     1016.4 secs

     total energy              =   -7997.80181083 Ry
     estimated scf accuracy    <       0.49485872 Ry

     iteration #142     ecut=    60.00 Ry     beta= 0.22
     Davidson diagonalization with overlap
     ethr =  4.71E-05,  avg # of iterations =  1.2

     negative rho (up, down):  4.684E-02 0.000E+00

     total cpu time spent up to now is     1023.4 secs

     total energy              =   -7997.80080456 Ry
     estimated scf accuracy    <       0.37832913 Ry

     iteration #143     ecut=    60.00 Ry     beta= 0.22
     Davidson diagonalization with overlap
     ethr =  4.71E-05,  avg # of iterations =  1.0

     negative rho (up, down):  4.624E-02 0.000E+00

     total cpu time spent up to now is     1030.2 secs

     total energy              =   -7997.80274781 Ry
     estimated scf accuracy    <       0.28573132 Ry

     iteration #144     ecut=    60.00 Ry     beta= 0.22
     Davidson diagonalization with overlap
     ethr =  4.71E-05,  avg # of iterations =  1.0

     negative rho (up, down):  4.679E-02 0.000E+00

     total cpu time spent up to now is     1037.1 secs

     total energy              =   -7997.79772299 Ry
     estimated scf accuracy    <       0.45417533 Ry

     iteration #145     ecut=    60.00 Ry     beta= 0.22
     Davidson diagonalization with overlap
     ethr =  4.71E-05,  avg # of iterations =  1.0

     negative rho (up, down):  4.666E-02 0.000E+00

     total cpu time spent up to now is     1043.9 secs

     total energy              =   -7997.79965006 Ry
     estimated scf accuracy    <       0.31485177 Ry

     iteration #146     ecut=    60.00 Ry     beta= 0.22
     Davidson diagonalization with overlap
     ethr =  4.71E-05,  avg # of iterations =  1.0

     negative rho (up, down):  4.660E-02 0.000E+00

     total cpu time spent up to now is     1050.7 secs

     total energy              =   -7997.80225630 Ry
     estimated scf accuracy    <       0.27695425 Ry

     iteration #147     ecut=    60.00 Ry     beta= 0.22
     Davidson diagonalization with overlap
     ethr =  4.71E-05,  avg # of iterations =  2.0

     negative rho (up, down):  4.643E-02 0.000E+00

     total cpu time spent up to now is     1058.3 secs

     total energy              =   -7997.80164651 Ry
     estimated scf accuracy    <       0.45612141 Ry

     iteration #148     ecut=    60.00 Ry     beta= 0.22
     Davidson diagonalization with overlap
     ethr =  4.71E-05,  avg # of iterations =  1.2

     negative rho (up, down):  4.575E-02 0.000E+00

     total cpu time spent up to now is     1065.3 secs

     total energy              =   -7997.80333545 Ry
     estimated scf accuracy    <       0.34668264 Ry

     iteration #149     ecut=    60.00 Ry     beta= 0.22
     Davidson diagonalization with overlap
     ethr =  4.71E-05,  avg # of iterations =  2.0

     negative rho (up, down):  4.361E-02 0.000E+00

     total cpu time spent up to now is     1073.1 secs

     total energy              =   -7997.79596378 Ry
     estimated scf accuracy    <       0.80442826 Ry

     iteration #150     ecut=    60.00 Ry     beta= 0.22
     Davidson diagonalization with overlap
     ethr =  4.71E-05,  avg # of iterations =  2.0

     negative rho (up, down):  4.415E-02 0.000E+00

     total cpu time spent up to now is     1080.9 secs

     total energy              =   -7997.78263620 Ry
     estimated scf accuracy    <       0.59804583 Ry

     iteration #151     ecut=    60.00 Ry     beta= 0.22
     Davidson diagonalization with overlap
     ethr =  4.71E-05,  avg # of iterations =  2.0

     negative rho (up, down):  4.656E-02 0.000E+00

     total cpu time spent up to now is     1088.5 secs

     total energy              =   -7997.77243744 Ry
     estimated scf accuracy    <       0.69837257 Ry

     iteration #152     ecut=    60.00 Ry     beta= 0.22
     Davidson diagonalization with overlap
     ethr =  4.71E-05,  avg # of iterations =  2.0

     negative rho (up, down):  4.508E-02 0.000E+00

     total cpu time spent up to now is     1096.7 secs

     total energy              =   -7997.78558655 Ry
     estimated scf accuracy    <       0.67162643 Ry

     iteration #153     ecut=    60.00 Ry     beta= 0.22
     Davidson diagonalization with overlap
     ethr =  4.71E-05,  avg # of iterations =  2.0

     negative rho (up, down):  4.468E-02 0.000E+00

     total cpu time spent up to now is     1104.4 secs

     total energy              =   -7997.79556502 Ry
     estimated scf accuracy    <       0.36075724 Ry

     iteration #154     ecut=    60.00 Ry     beta= 0.22
     Davidson diagonalization with overlap
     ethr =  4.71E-05,  avg # of iterations =  2.0

     negative rho (up, down):  4.564E-02 0.000E+00

     total cpu time spent up to now is     1112.0 secs

     total energy              =   -7997.79312719 Ry
     estimated scf accuracy    <       0.31756930 Ry

     iteration #155     ecut=    60.00 Ry     beta= 0.22
     Davidson diagonalization with overlap
     ethr =  4.71E-05,  avg # of iterations =  1.2

     negative rho (up, down):  4.617E-02 0.000E+00

     total cpu time spent up to now is     1119.0 secs

     total energy              =   -7997.80049484 Ry
     estimated scf accuracy    <       0.21310790 Ry

     iteration #156     ecut=    60.00 Ry     beta= 0.22
     Davidson diagonalization with overlap
     ethr =  4.71E-05,  avg # of iterations =  2.0

     negative rho (up, down):  4.671E-02 0.000E+00

     total cpu time spent up to now is     1126.6 secs

     total energy              =   -7997.80222480 Ry
     estimated scf accuracy    <       0.40586793 Ry

     iteration #157     ecut=    60.00 Ry     beta= 0.22
     Davidson diagonalization with overlap
     ethr =  4.71E-05,  avg # of iterations =  1.0

     negative rho (up, down):  4.640E-02 0.000E+00

     total cpu time spent up to now is     1133.4 secs

     total energy              =   -7997.79512703 Ry
     estimated scf accuracy    <       0.32927738 Ry

     iteration #158     ecut=    60.00 Ry     beta= 0.22
     Davidson diagonalization with overlap
     ethr =  4.71E-05,  avg # of iterations =  2.0

     negative rho (up, down):  4.652E-02 0.000E+00

     total cpu time spent up to now is     1141.0 secs

     total energy              =   -7997.79505821 Ry
     estimated scf accuracy    <       0.18124044 Ry

     iteration #159     ecut=    60.00 Ry     beta= 0.22
     Davidson diagonalization with overlap
     ethr =  4.71E-05,  avg # of iterations =  1.4

     negative rho (up, down):  4.808E-02 0.000E+00

     total cpu time spent up to now is     1148.1 secs

     total energy              =   -7997.79483759 Ry
     estimated scf accuracy    <       0.24187844 Ry

     iteration #160     ecut=    60.00 Ry     beta= 0.22
     Davidson diagonalization with overlap
     ethr =  4.71E-05,  avg # of iterations =  1.8

     negative rho (up, down):  4.692E-02 0.000E+00

     total cpu time spent up to now is     1155.5 secs

     total energy              =   -7997.79475785 Ry
     estimated scf accuracy    <       0.18937147 Ry

     iteration #161     ecut=    60.00 Ry     beta= 0.22
     Davidson diagonalization with overlap
     ethr =  4.71E-05,  avg # of iterations =  2.0

     negative rho (up, down):  4.661E-02 0.000E+00

     total cpu time spent up to now is     1163.0 secs

     total energy              =   -7997.79638359 Ry
     estimated scf accuracy    <       0.06209416 Ry

     iteration #162     ecut=    60.00 Ry     beta= 0.22
     Davidson diagonalization with overlap
     ethr =  1.69E-05,  avg # of iterations =  1.4

     negative rho (up, down):  4.623E-02 0.000E+00

     total cpu time spent up to now is     1170.0 secs

     total energy              =   -7997.79766553 Ry
     estimated scf accuracy    <       0.08971969 Ry

     iteration #163     ecut=    60.00 Ry     beta= 0.22
     Davidson diagonalization with overlap
     ethr =  1.69E-05,  avg # of iterations =  1.2

     negative rho (up, down):  4.704E-02 0.000E+00

     total cpu time spent up to now is     1177.0 secs

     total energy              =   -7997.79726634 Ry
     estimated scf accuracy    <       0.05662269 Ry

     iteration #164     ecut=    60.00 Ry     beta= 0.22
     Davidson diagonalization with overlap
     ethr =  1.54E-05,  avg # of iterations =  1.4

     negative rho (up, down):  4.705E-02 0.000E+00

     total cpu time spent up to now is     1184.1 secs

     total energy              =   -7997.79719802 Ry
     estimated scf accuracy    <       0.07083248 Ry

     iteration #165     ecut=    60.00 Ry     beta= 0.22
     Davidson diagonalization with overlap
     ethr =  1.54E-05,  avg # of iterations =  1.2

     negative rho (up, down):  4.701E-02 0.000E+00

     total cpu time spent up to now is     1191.2 secs

     total energy              =   -7997.79748319 Ry
     estimated scf accuracy    <       0.03793965 Ry

     iteration #166     ecut=    60.00 Ry     beta= 0.22
     Davidson diagonalization with overlap
     ethr =  1.03E-05,  avg # of iterations =  1.2

     negative rho (up, down):  4.708E-02 0.000E+00

     total cpu time spent up to now is     1198.1 secs

     total energy              =   -7997.79753958 Ry
     estimated scf accuracy    <       0.03288183 Ry

     iteration #167     ecut=    60.00 Ry     beta= 0.22
     Davidson diagonalization with overlap
     ethr =  8.94E-06,  avg # of iterations =  1.2

     negative rho (up, down):  4.695E-02 0.000E+00

     total cpu time spent up to now is     1205.1 secs

     total energy              =   -7997.79749221 Ry
     estimated scf accuracy    <       0.03166715 Ry

     iteration #168     ecut=    60.00 Ry     beta= 0.22
     Davidson diagonalization with overlap
     ethr =  8.61E-06,  avg # of iterations =  1.2

     negative rho (up, down):  4.691E-02 0.000E+00

     total cpu time spent up to now is     1212.1 secs

     total energy              =   -7997.79768860 Ry
     estimated scf accuracy    <       0.02573972 Ry

     iteration #169     ecut=    60.00 Ry     beta= 0.22
     Davidson diagonalization with overlap
     ethr =  6.99E-06,  avg # of iterations =  2.6

     negative rho (up, down):  4.694E-02 0.000E+00

     total cpu time spent up to now is     1219.4 secs

     total energy              =   -7997.79765660 Ry
     estimated scf accuracy    <       0.02629978 Ry

     iteration #170     ecut=    60.00 Ry     beta= 0.22
     Davidson diagonalization with overlap
     ethr =  6.99E-06,  avg # of iterations =  1.0

     negative rho (up, down):  4.678E-02 0.000E+00

     total cpu time spent up to now is     1226.2 secs

     total energy              =   -7997.79787227 Ry
     estimated scf accuracy    <       0.02436548 Ry

     iteration #171     ecut=    60.00 Ry     beta= 0.22
     Davidson diagonalization with overlap
     ethr =  6.62E-06,  avg # of iterations =  1.0

     negative rho (up, down):  4.680E-02 0.000E+00

     total cpu time spent up to now is     1233.0 secs

     total energy              =   -7997.79803219 Ry
     estimated scf accuracy    <       0.03369131 Ry

     iteration #172     ecut=    60.00 Ry     beta= 0.22
     Davidson diagonalization with overlap
     ethr =  6.62E-06,  avg # of iterations =  1.0

     negative rho (up, down):  4.676E-02 0.000E+00

     total cpu time spent up to now is     1239.8 secs

     total energy              =   -7997.79811246 Ry
     estimated scf accuracy    <       0.03724494 Ry

     iteration #173     ecut=    60.00 Ry     beta= 0.22
     Davidson diagonalization with overlap
     ethr =  6.62E-06,  avg # of iterations =  1.0

     negative rho (up, down):  4.675E-02 0.000E+00

     total cpu time spent up to now is     1246.7 secs

     total energy              =   -7997.79815064 Ry
     estimated scf accuracy    <       0.03929521 Ry

     iteration #174     ecut=    60.00 Ry     beta= 0.22
     Davidson diagonalization with overlap
     ethr =  6.62E-06,  avg # of iterations =  1.0

     negative rho (up, down):  4.672E-02 0.000E+00

     total cpu time spent up to now is     1253.5 secs

     total energy              =   -7997.79824619 Ry
     estimated scf accuracy    <       0.04085140 Ry

     iteration #175     ecut=    60.00 Ry     beta= 0.22
     Davidson diagonalization with overlap
     ethr =  6.62E-06,  avg # of iterations =  1.0

     negative rho (up, down):  4.677E-02 0.000E+00

     total cpu time spent up to now is     1260.3 secs

     total energy              =   -7997.79824472 Ry
     estimated scf accuracy    <       0.04359818 Ry

     iteration #176     ecut=    60.00 Ry     beta= 0.22
     Davidson diagonalization with overlap
     ethr =  6.62E-06,  avg # of iterations =  1.0

     negative rho (up, down):  4.676E-02 0.000E+00

     total cpu time spent up to now is     1267.2 secs

     total energy              =   -7997.79819236 Ry
     estimated scf accuracy    <       0.04512396 Ry

     iteration #177     ecut=    60.00 Ry     beta= 0.22
     Davidson diagonalization with overlap
     ethr =  6.62E-06,  avg # of iterations =  1.0

     negative rho (up, down):  4.676E-02 0.000E+00

     total cpu time spent up to now is     1274.0 secs

     total energy              =   -7997.79836339 Ry
     estimated scf accuracy    <       0.04262195 Ry

     iteration #178     ecut=    60.00 Ry     beta= 0.22
     Davidson diagonalization with overlap
     ethr =  6.62E-06,  avg # of iterations =  1.0

     negative rho (up, down):  4.726E-02 0.000E+00

     total cpu time spent up to now is     1280.8 secs

     total energy              =   -7997.79561879 Ry
     estimated scf accuracy    <       0.05108647 Ry

     iteration #179     ecut=    60.00 Ry     beta= 0.22
     Davidson diagonalization with overlap
     ethr =  6.62E-06,  avg # of iterations =  2.0

     negative rho (up, down):  4.710E-02 0.000E+00

     total cpu time spent up to now is     1288.7 secs

     total energy              =   -7997.79698583 Ry
     estimated scf accuracy    <       0.02736105 Ry

     iteration #180     ecut=    60.00 Ry     beta= 0.22
     Davidson diagonalization with overlap
     ethr =  6.62E-06,  avg # of iterations =  1.2

     negative rho (up, down):  4.691E-02 0.000E+00

     total cpu time spent up to now is     1295.7 secs

     total energy              =   -7997.79706326 Ry
     estimated scf accuracy    <       0.01447756 Ry

     iteration #181     ecut=    60.00 Ry     beta= 0.22
     Davidson diagonalization with overlap
     ethr =  3.93E-06,  avg # of iterations =  1.0

     negative rho (up, down):  4.688E-02 0.000E+00

     total cpu time spent up to now is     1302.5 secs

     total energy              =   -7997.79723891 Ry
     estimated scf accuracy    <       0.00426304 Ry

     iteration #182     ecut=    60.00 Ry     beta= 0.22
     Davidson diagonalization with overlap
     ethr =  1.16E-06,  avg # of iterations =  1.0

     negative rho (up, down):  4.700E-02 0.000E+00

     total cpu time spent up to now is     1309.4 secs

     total energy              =   -7997.79719389 Ry
     estimated scf accuracy    <       0.00194154 Ry

     iteration #183     ecut=    60.00 Ry     beta= 0.22
     Davidson diagonalization with overlap
     ethr =  5.28E-07,  avg # of iterations =  2.0

     negative rho (up, down):  4.710E-02 0.000E+00

     total cpu time spent up to now is     1316.9 secs

     total energy              =   -7997.79709408 Ry
     estimated scf accuracy    <       0.00110656 Ry

     iteration #184     ecut=    60.00 Ry     beta= 0.22
     Davidson diagonalization with overlap
     ethr =  3.01E-07,  avg # of iterations =  2.0

     negative rho (up, down):  4.699E-02 0.000E+00

     total cpu time spent up to now is     1324.8 secs

     total energy              =   -7997.79719553 Ry
     estimated scf accuracy    <       0.00167803 Ry

     iteration #185     ecut=    60.00 Ry     beta= 0.22
     Davidson diagonalization with overlap
     ethr =  3.01E-07,  avg # of iterations =  2.0

     negative rho (up, down):  4.698E-02 0.000E+00

     total cpu time spent up to now is     1332.4 secs

     total energy              =   -7997.79724323 Ry
     estimated scf accuracy    <       0.00020570 Ry

     iteration #186     ecut=    60.00 Ry     beta= 0.22
     Davidson diagonalization with overlap
     ethr =  5.59E-08,  avg # of iterations =  1.0

     negative rho (up, down):  4.704E-02 0.000E+00

     total cpu time spent up to now is     1339.2 secs

     total energy              =   -7997.79720490 Ry
     estimated scf accuracy    <       0.00017663 Ry

     iteration #187     ecut=    60.00 Ry     beta= 0.22
     Davidson diagonalization with overlap
     ethr =  4.80E-08,  avg # of iterations =  2.0

     negative rho (up, down):  4.697E-02 0.000E+00

     total cpu time spent up to now is     1346.8 secs

     total energy              =   -7997.79723788 Ry
     estimated scf accuracy    <       0.00014200 Ry

     iteration #188     ecut=    60.00 Ry     beta= 0.22
     Davidson diagonalization with overlap
     ethr =  3.86E-08,  avg # of iterations =  2.0

     negative rho (up, down):  4.699E-02 0.000E+00

     total cpu time spent up to now is     1354.7 secs

     total energy              =   -7997.79723098 Ry
     estimated scf accuracy    <       0.00041463 Ry

     iteration #189     ecut=    60.00 Ry     beta= 0.22
     Davidson diagonalization with overlap
     ethr =  3.86E-08,  avg # of iterations =  1.2

     negative rho (up, down):  4.698E-02 0.000E+00

     total cpu time spent up to now is     1361.7 secs

     total energy              =   -7997.79723498 Ry
     estimated scf accuracy    <       0.00027200 Ry

     iteration #190     ecut=    60.00 Ry     beta= 0.22
     Davidson diagonalization with overlap
     ethr =  3.86E-08,  avg # of iterations =  1.0

     negative rho (up, down):  4.700E-02 0.000E+00

     total cpu time spent up to now is     1368.5 secs

     total energy              =   -7997.79721812 Ry
     estimated scf accuracy    <       0.00016045 Ry

     iteration #191     ecut=    60.00 Ry     beta= 0.22
     Davidson diagonalization with overlap
     ethr =  3.86E-08,  avg # of iterations =  1.8

     negative rho (up, down):  4.700E-02 0.000E+00

     total cpu time spent up to now is     1375.9 secs

     total energy              =   -7997.79721714 Ry
     estimated scf accuracy    <       0.00009843 Ry

     iteration #192     ecut=    60.00 Ry     beta= 0.22
     Davidson diagonalization with overlap
     ethr =  2.67E-08,  avg # of iterations =  1.6

     negative rho (up, down):  4.701E-02 0.000E+00

     total cpu time spent up to now is     1383.2 secs

     total energy              =   -7997.79721411 Ry
     estimated scf accuracy    <       0.00009302 Ry

     iteration #193     ecut=    60.00 Ry     beta= 0.22
     Davidson diagonalization with overlap
     ethr =  2.53E-08,  avg # of iterations =  1.0

     negative rho (up, down):  4.702E-02 0.000E+00

     total cpu time spent up to now is     1390.0 secs

     total energy              =   -7997.79720517 Ry
     estimated scf accuracy    <       0.00008329 Ry

     iteration #194     ecut=    60.00 Ry     beta= 0.22
     Davidson diagonalization with overlap
     ethr =  2.26E-08,  avg # of iterations =  1.0

     negative rho (up, down):  4.702E-02 0.000E+00

     total cpu time spent up to now is     1396.9 secs

     total energy              =   -7997.79720702 Ry
     estimated scf accuracy    <       0.00001280 Ry

     iteration #195     ecut=    60.00 Ry     beta= 0.22
     Davidson diagonalization with overlap
     ethr =  3.48E-09,  avg # of iterations =  1.0

     negative rho (up, down):  4.692E-02 0.000E+00

     total cpu time spent up to now is     1403.6 secs

     End of self-consistent calculation

          k = 0.0000 0.0000 0.0000 ( 15829 PWs)   bands (ev):

   -89.2845 -89.2786 -89.2729 -89.2706 -89.2416 -89.2358 -89.2273 -89.2206
   -89.2142 -89.2092 -89.2090 -89.1966 -89.1930 -89.1864 -89.1860 -89.1852
   -61.3328 -61.3326 -61.3309 -61.3303 -61.2797 -61.2757 -61.2727 -61.2712
   -49.9668 -49.9554 -49.9220 -49.8886 -49.8432 -49.8007 -49.7825 -49.7612
   -49.7270 -49.7251 -49.7231 -49.7218 -49.6977 -49.6960 -49.6867 -49.6685
   -49.6161 -49.6148 -49.6124 -49.6109 -49.5790 -49.5766 -49.5747 -49.5732
   -49.5718 -49.5708 -49.5419 -49.5397 -49.5288 -49.5286 -49.5279 -49.5254
   -49.5218 -49.5193 -49.5188 -49.5155 -49.5146 -49.5132 -49.5122 -49.5020
   -49.4633 -49.4618 -49.4599 -49.4590 -49.4512 -49.4478 -49.4307 -49.4300
   -28.0879 -28.0876 -28.0837 -28.0835 -28.0831 -28.0821 -28.0807 -28.0805
   -28.0800 -28.0800 -28.0653 -28.0650 -28.0335 -28.0307 -28.0231 -28.0220
   -28.0193 -28.0186 -28.0165 -28.0154 -28.0149 -28.0140 -28.0082 -28.0075
     5.1783   5.8068   5.8346   7.3067   7.9986   9.2371   9.2489   9.3317
     9.9194   9.9510  10.0449  10.1819  10.2904  10.3042  10.3191  10.3425
    10.3497  10.3679  10.4862  10.5017  10.5543  10.6107  10.6316  10.6569
    10.6721  10.6877  10.7735  10.7863  10.8395  10.8528  11.1772  11.1869
    11.2215  11.2241  11.2278  11.2376  11.4702  11.4857  11.6309  11.6550
    11.6656  11.7141  11.7156  11.7243  11.9089  11.9229  12.1908  12.4008
    12.4052  12.4543  12.4645  12.4944  12.6346  12.6422  12.7831  12.7912
    12.9139  12.9271  13.0404  13.0436  13.0450  13.0466  13.0523  13.0535
    13.0580  13.0733  13.0824  13.0876  13.0887  13.0910  13.0955  13.1006
    13.1140  13.1685  13.1756  13.1766  13.1841  13.2905  13.3012  13.6347
    13.6475  13.9427  13.9488  14.1696  14.1703  14.1912  14.1917  14.4884
    14.6675  14.8578  14.8891  14.8996  14.9126  14.9252  14.9505  15.0625
    15.2763  15.3021  15.3467  15.3684  16.7080  16.7285  16.7338  16.7781
    17.2585  17.3072  17.6577  17.7047  18.3602  18.3808  18.4025  18.6341
    18.7242  18.9138  19.2921  19.3281  19.7288  19.7543  20.1345  20.3587
    20.3963  20.6808  20.8924  22.2648  22.4378

          k = 0.0007 0.3867 0.0001 ( 15942 PWs)   bands (ev):

   -89.2836 -89.2773 -89.2719 -89.2707 -89.2357 -89.2303 -89.2225 -89.2210
   -89.2152 -89.2136 -89.2096 -89.2032 -89.1998 -89.1869 -89.1866 -89.1863
   -61.3328 -61.3325 -61.3308 -61.3302 -61.2799 -61.2759 -61.2728 -61.2713
   -49.9291 -49.9201 -49.8903 -49.8568 -49.8423 -49.7929 -49.7862 -49.7584
   -49.7416 -49.7380 -49.7132 -49.7128 -49.7116 -49.7016 -49.6804 -49.6535
   -49.6222 -49.6197 -49.6146 -49.6089 -49.5799 -49.5781 -49.5746 -49.5711
   -49.5680 -49.5619 -49.5437 -49.5381 -49.5342 -49.5331 -49.5290 -49.5272
   -49.5247 -49.5215 -49.5205 -49.5168 -49.5138 -49.5121 -49.5086 -49.5077
   -49.4849 -49.4832 -49.4728 -49.4717 -49.4673 -49.4632 -49.4440 -49.4425
   -28.0889 -28.0887 -28.0839 -28.0835 -28.0827 -28.0823 -28.0814 -28.0812
   -28.0797 -28.0794 -28.0663 -28.0661 -28.0323 -28.0297 -28.0242 -28.0213
   -28.0203 -28.0181 -28.0174 -28.0161 -28.0149 -28.0132 -28.0074 -28.0066
     6.1938   6.7886   6.8212   8.2464   8.7332   8.9203   9.2020   9.2387
     9.7495   9.7809   9.9408  10.0532  10.1442  10.2345  10.3217  10.4070
    10.4538  10.5271  10.5739  10.5830  10.5967  10.6440  10.7847  10.8419
    10.9273  10.9314  11.0079  11.0736  11.0907  11.0939  11.1018  11.2281
    11.2324  11.2716  11.2852  11.3331  11.3537  11.3882  11.4484  11.4966
    11.5937  11.6312  11.6380  11.6655  11.7478  11.8441  11.8922  11.8977
    11.9160  12.0408  12.0569  12.1038  12.1249  12.1774  12.2623  12.2923
    12.2998  12.3788  12.4475  12.4810  12.4961  12.6056  12.6215  12.6267
    12.6987  12.7422  12.7464  12.8078  12.8216  12.8635  12.9012  12.9639
    12.9760  13.0674  13.0789  13.0881  13.1111  13.1224  13.1599  13.1782
    13.2259  13.2501  13.2647  13.4008  13.4260  13.5075  13.5793  13.7069
    14.0158  14.0883  14.4372  14.4663  14.6706  14.7798  14.8592  15.0345
    15.1033  15.1322  15.2139  15.3946  16.0562  16.5499  16.8501  16.8892
    18.2493  18.6401  18.6978  18.9134  19.6615  19.7656  19.8793  19.9850
    20.0047  20.1625  20.6910  21.1193  21.1391  21.2537  21.6924  21.9117
    22.1115  22.6230  22.9898  23.2069  23.2933

          k = 0.3337 0.1932-0.0005 ( 15952 PWs)   bands (ev):

   -89.2837 -89.2774 -89.2720 -89.2707 -89.2369 -89.2316 -89.2240 -89.2185
   -89.2150 -89.2128 -89.2113 -89.1985 -89.1975 -89.1903 -89.1875 -89.1869
   -61.3328 -61.3325 -61.3308 -61.3302 -61.2799 -61.2759 -61.2728 -61.2713
   -49.9309 -49.9217 -49.8914 -49.8563 -49.8451 -49.7928 -49.7879 -49.7593
   -49.7366 -49.7353 -49.7168 -49.7125 -49.7105 -49.7012 -49.6804 -49.6534
   -49.6212 -49.6188 -49.6154 -49.6099 -49.5804 -49.5773 -49.5739 -49.5716
   -49.5693 -49.5621 -49.5420 -49.5382 -49.5368 -49.5346 -49.5329 -49.5310
   -49.5272 -49.5252 -49.5148 -49.5143 -49.5091 -49.5082 -49.5059 -49.5039
   -49.4839 -49.4808 -49.4717 -49.4706 -49.4692 -49.4643 -49.4473 -49.4447
   -28.0889 -28.0887 -28.0843 -28.0840 -28.0823 -28.0817 -28.0811 -28.0809
   -28.0800 -28.0796 -28.0664 -28.0661 -28.0324 -28.0296 -28.0243 -28.0212
   -28.0206 -28.0179 -28.0177 -28.0155 -28.0146 -28.0138 -28.0073 -28.0066
     6.1875   6.7822   6.8148   8.2389   8.7274   8.9049   9.1895   9.2271
     9.7434   9.7788   9.9348  10.0428  10.1414  10.2309  10.3189  10.4126
    10.4530  10.5307  10.5712  10.5856  10.5928  10.6514  10.7994  10.8386
    10.9156  10.9395  11.0024  11.0691  11.0852  11.0995  11.1068  11.2274
    11.2313  11.2645  11.2768  11.3384  11.3550  11.3938  11.4449  11.5064
    11.6021  11.6289  11.6466  11.6659  11.7384  11.8471  11.8897  11.9082
    11.9180  12.0455  12.0552  12.1083  12.1236  12.1796  12.2721  12.2827
    12.2967  12.3668  12.4552  12.4865  12.5006  12.5932  12.6189  12.6347
    12.6999  12.7350  12.7423  12.8109  12.8199  12.8675  12.8966  12.9694
    12.9745  13.0733  13.0846  13.0863  13.1180  13.1272  13.1630  13.1786
    13.2324  13.2556  13.2675  13.4004  13.4259  13.5043  13.5772  13.7076
    14.0217  14.0803  14.4361  14.4758  14.6958  14.8007  14.8825  15.0568
    15.1274  15.1534  15.2396  15.4205  16.0450  16.5346  16.8707  16.8830
    18.2709  18.6590  18.7110  18.9105  19.6620  19.7752  19.8974  19.9862
    20.0334  20.1675  20.6754  21.1166  21.1432  21.2605  21.7044  21.9028
    22.0717  22.6205  22.9717  23.2327  23.2453

          k = 0.3343 0.5800-0.0004 ( 15954 PWs)   bands (ev):

   -89.2833 -89.2767 -89.2715 -89.2708 -89.2317 -89.2289 -89.2243 -89.2204
   -89.2146 -89.2114 -89.2093 -89.2033 -89.2018 -89.1898 -89.1885 -89.1882
   -61.3327 -61.3325 -61.3308 -61.3302 -61.2799 -61.2759 -61.2729 -61.2713
   -49.8963 -49.8927 -49.8823 -49.8791 -49.7940 -49.7881 -49.7847 -49.7682
   -49.7610 -49.7587 -49.7214 -49.7127 -49.7072 -49.7046 -49.6677 -49.6445
   -49.6223 -49.6174 -49.6160 -49.6144 -49.5797 -49.5788 -49.5770 -49.5714
   -49.5634 -49.5570 -49.5470 -49.5440 -49.5406 -49.5371 -49.5362 -49.5337
   -49.5274 -49.5248 -49.5100 -49.5068 -49.5041 -49.5018 -49.4981 -49.4942
   -49.4927 -49.4890 -49.4795 -49.4775 -49.4742 -49.4732 -49.4696 -49.4685
   -28.0890 -28.0888 -28.0853 -28.0852 -28.0832 -28.0826 -28.0810 -28.0805
   -28.0787 -28.0780 -28.0670 -28.0670 -28.0316 -28.0289 -28.0250 -28.0211
   -28.0208 -28.0192 -28.0165 -28.0162 -28.0144 -28.0128 -28.0070 -28.0063
     7.8191   7.8446   8.3136   8.4093   8.4223   8.6207   8.7272   8.7404
     8.9501   9.7445   9.7529   9.7954   9.8076   9.8444   9.8701  10.4729
    10.4792  10.5152  10.6521  10.6652  10.8043  10.8146  10.9755  10.9838
    11.0485  11.0618  11.1152  11.1187  11.1240  11.1343  11.2241  11.2936
    11.2995  11.3159  11.3286  11.3378  11.3696  11.3803  11.3970  11.4093
    11.4169  11.4259  11.5094  11.5118  11.5923  11.6019  11.6101  11.6146
    11.6176  11.8341  11.8456  11.8544  11.9843  12.1251  12.1332  12.1573
    12.1622  12.2211  12.3789  12.3884  12.4806  12.5119  12.5186  12.5731
    12.5836  12.5920  12.6499  12.7189  12.7349  12.7780  12.7852  12.7866
    12.8211  12.8664  12.8754  12.8892  12.8968  12.9471  12.9508  13.0569
    13.2204  13.2410  13.3385  13.3503  13.3565  13.4307  13.4373  13.5537
    13.6150  13.6740  13.6786  13.9424  14.0597  14.0691  14.1731  15.5869
    15.5985  15.6650  15.8179  15.8500  16.4901  18.3004  18.3375  18.5107
    18.7272  18.7518  19.3662  19.4462  19.4802  19.5285  19.5401  19.7942
    20.0105  20.4533  20.5021  20.5229  21.3020  21.3561  21.7103  21.7297
    21.8221  22.5429  23.8099  23.8562  24.0181

          k = 0.3330-0.1935-0.0005 ( 15947 PWs)   bands (ev):

   -89.2838 -89.2775 -89.2720 -89.2707 -89.2374 -89.2335 -89.2242 -89.2167
   -89.2154 -89.2133 -89.2089 -89.1964 -89.1932 -89.1914 -89.1912 -89.1889
   -61.3328 -61.3325 -61.3308 -61.3302 -61.2799 -61.2759 -61.2728 -61.2713
   -49.9324 -49.9231 -49.8930 -49.8556 -49.8488 -49.7954 -49.7886 -49.7607
   -49.7341 -49.7301 -49.7166 -49.7162 -49.7082 -49.6814 -49.6744 -49.6708
   -49.6207 -49.6182 -49.6159 -49.6106 -49.5808 -49.5781 -49.5728 -49.5710
   -49.5696 -49.5626 -49.5409 -49.5382 -49.5375 -49.5359 -49.5303 -49.5290
   -49.5275 -49.5250 -49.5174 -49.5128 -49.5110 -49.5097 -49.5063 -49.5038
   -49.4837 -49.4803 -49.4715 -49.4704 -49.4695 -49.4669 -49.4468 -49.4443
   -28.0887 -28.0884 -28.0847 -28.0842 -28.0828 -28.0817 -28.0812 -28.0810
   -28.0795 -28.0791 -28.0664 -28.0662 -28.0325 -28.0297 -28.0232 -28.0223
   -28.0200 -28.0183 -28.0168 -28.0156 -28.0155 -28.0137 -28.0074 -28.0066
     6.1854   6.7803   6.8130   8.2371   8.7288   8.8953   9.1849   9.2169
     9.7445   9.7775   9.9358  10.0463  10.1364  10.2312  10.3157  10.4128
    10.4471  10.5376  10.5674  10.5865  10.5946  10.6616  10.8098  10.8380
    10.9176  10.9422  11.0020  11.0642  11.0828  11.0994  11.1105  11.2260
    11.2325  11.2572  11.2718  11.3407  11.3547  11.3929  11.4495  11.5054
    11.6001  11.6269  11.6502  11.6694  11.7468  11.8438  11.8796  11.9055
    11.9083  12.0404  12.0510  12.1081  12.1215  12.1834  12.2719  12.2827
    12.2925  12.3655  12.4560  12.4867  12.4991  12.5954  12.6166  12.6333
    12.6985  12.7355  12.7369  12.8125  12.8182  12.8723  12.8988  12.9688
    12.9773  13.0776  13.0864  13.0876  13.1179  13.1343  13.1654  13.1766
    13.2343  13.2593  13.2690  13.4031  13.4293  13.5010  13.5745  13.7158
    14.0261  14.0769  14.4276  14.4792  14.7039  14.8045  14.8987  15.0654
    15.1362  15.1622  15.2531  15.4309  16.0354  16.5293  16.8731  16.8862
    18.2805  18.6735  18.7223  18.9117  19.6668  19.7675  19.9090  19.9870
    20.0452  20.1713  20.6798  21.1154  21.1425  21.2588  21.6962  21.8925
    22.0627  22.6174  22.9668  23.2260  23.2490

     the Fermi energy is    13.7885 ev

!    total energy              =   -7997.79724079 Ry
     total all-electron energy =    -51870.873111 Ry
     estimated scf accuracy    <       0.00000881 Ry
     smearing contrib. (-TS)   =       0.25468936 Ry
     internal energy E=F+TS    =   -7998.05193016 Ry

     The total energy is F=E-TS. E is the sum of the following terms:
     one-electron contribution =   -4412.71511848 Ry
     hartree contribution      =    2372.70882017 Ry
     xc contribution           =    -692.00618981 Ry
     ewald contribution        =   -3688.76452119 Ry
     one-center paw contrib.   =   -1577.27492085 Ry

     convergence has been achieved in 195 iterations

     negative rho (up, down):  4.692E-02 0.000E+00

     Forces acting on atoms (cartesian axes, Ry/au):

     atom    1 type  1   force =     0.00929991   -0.00506482    0.00474642
     atom    2 type  1   force =     0.00726257   -0.00695298    0.00509021
     atom    3 type  1   force =     0.01345502   -0.00405766   -0.00644334
     atom    4 type  1   force =     0.00477631   -0.00314767   -0.00390760
     atom    5 type  1   force =     0.00615866   -0.00770771    0.00218124
     atom    6 type  1   force =     0.00898298   -0.00717514    0.00136795
     atom    7 type  1   force =     0.00911498   -0.00472770   -0.00280184
     atom    8 type  1   force =     0.01006017   -0.00414539   -0.00093597
     atom    9 type  2   force =     0.00926542   -0.00615543    0.00103709
     atom   10 type  2   force =     0.00928469   -0.00642337   -0.00435041
     atom   11 type  2   force =     0.00838551   -0.00353871    0.00021911
     atom   12 type  2   force =     0.01282436   -0.00677230   -0.00417241
     atom   13 type  2   force =     0.03695131   -0.05974121   -0.03080313
     atom   14 type  2   force =     0.02401635   -0.01328339    0.00251366
     atom   15 type  2   force =     0.01039082    0.01109749   -0.00074057
     atom   16 type  2   force =    -0.28349631    0.15477798    0.09800490
     atom   17 type  2   force =     0.02976185    0.00662395   -0.00045522
     atom   18 type  2   force =    -0.00998556   -0.01469939    0.00421076
     atom   19 type  2   force =     0.03923115    0.01639440   -0.07646514
     atom   20 type  2   force =     0.00200179   -0.00063053    0.00176292
     atom   21 type  2   force =     0.01162502   -0.00749976    0.00497838
     atom   22 type  2   force =     0.01011460   -0.01140005    0.00065103
     atom   23 type  2   force =     0.01160503   -0.00767657    0.00229319
     atom   24 type  2   force =     0.00891335   -0.00809403    0.00201877
     The non-local contrib.  to forces
     atom    1 type  1   force =     0.00244883    0.00201788    0.02199455
     atom    2 type  1   force =    -0.00380344    0.00125605    0.02441333
     atom    3 type  1   force =     0.01609500    0.00642792   -0.03613947
     atom    4 type  1   force =    -0.01617541    0.00445919   -0.02480865
     atom    5 type  1   force =    -0.00356748   -0.01033126    0.00327758
     atom    6 type  1   force =    -0.00274947   -0.00045625    0.00051310
     atom    7 type  1   force =     0.00115491    0.00448775   -0.01047249
     atom    8 type  1   force =     0.00623629   -0.00028385   -0.00630155
     atom    9 type  2   force =    -0.00656216   -0.00102383    0.01605829
     atom   10 type  2   force =    -0.00311649    0.00848853    0.01392650
     atom   11 type  2   force =     0.01134137   -0.00158742    0.00182713
     atom   12 type  2   force =    -0.06074558    0.03410902   -0.00192429
     atom   13 type  2   force =     0.62718040   -1.61344291   -1.04260857
     atom   14 type  2   force =     0.07503827   -0.03694468   -0.00185364
     atom   15 type  2   force =    -0.01508697    0.08152305    0.00299129
     atom   16 type  2   force =    -2.47113448    1.37757078    1.24332627
     atom   17 type  2   force =     0.00795746    0.02912071    0.00297901
     atom   18 type  2   force =    -0.05164231   -0.04496503   -0.00367664
     atom   19 type  2   force =    -0.76753223   -0.25889407    1.48237540
     atom   20 type  2   force =    -0.00215731   -0.00437686    0.01062383
     atom   21 type  2   force =    -0.00404052   -0.00194733   -0.00601323
     atom   22 type  2   force =     0.00000858    0.00304008    0.00084694
     atom   23 type  2   force =     0.00055969    0.00429043    0.00029617
     atom   24 type  2   force =    -0.00884631   -0.01831754   -0.00305811
     The ionic contribution  to forces
     atom    1 type  1   force =     0.04711918    0.11917607   -0.40460145
     atom    2 type  1   force =    -0.21178063    0.07617497   -0.44886490
     atom    3 type  1   force =     0.50017356    0.29107172    0.17751206
     atom    4 type  1   force =    -0.53515520    0.12202125    0.36152370
     atom    5 type  1   force =    -0.18859526   -0.43552770    0.26134350
     atom    6 type  1   force =     0.01716492   -0.00789682   -0.05445249
     atom    7 type  1   force =     0.07983648    0.14166589   -0.37809371
     atom    8 type  1   force =     0.18932063   -0.05908566   -0.21320883
     atom    9 type  2   force =    -0.02170683   -0.24750298    0.85511149
     atom   10 type  2   force =    -0.03929037    0.02439177    0.14127749
     atom   11 type  2   force =    -0.01412609    0.16868434   -0.95458678
     atom   12 type  2   force =     0.27991299    0.10120744   -1.79453332
     atom   13 type  2   force =    -0.03010998  -16.61582366   -0.35236420
     atom   14 type  2   force =    13.71657544   -7.39258041    0.46393987
     atom   15 type  2   force =     0.08050678   15.43893464    0.21228145
     atom   16 type  2   force =   -14.36112388    8.09580050   -0.08569286
     atom   17 type  2   force =    14.36851309    8.36012803   -0.46498901
     atom   18 type  2   force =   -13.89729162   -7.85151474    0.28509170
     atom   19 type  2   force =    -0.38837370    1.03898564    0.29468846
     atom   20 type  2   force =    -0.92507410    0.56875499    0.86078876
     atom   21 type  2   force =     0.69627063   -0.54124485    0.26190740
     atom   22 type  2   force =     0.20452174   -0.85797737    0.34167195
     atom   23 type  2   force =     0.57315734   -0.29158330    0.34046379
     atom   24 type  2   force =    -0.14044512   -0.24625977    0.29378594
     The local contribution  to forces
     atom    1 type  1   force =    -0.04877033   -0.12069677    0.38746452
     atom    2 type  1   force =     0.21431424   -0.07878150    0.42937464
     atom    3 type  1   force =    -0.51129643   -0.29595918   -0.15093133
     atom    4 type  1   force =     0.54745555   -0.12384879   -0.34039387
     atom    5 type  1   force =     0.18971260    0.44369641   -0.26547981
     atom    6 type  1   force =    -0.01402200    0.00692833    0.05555246
     atom    7 type  1   force =    -0.08034583   -0.14510309    0.38619939
     atom    8 type  1   force =    -0.19399024    0.06078473    0.21766771
     atom    9 type  2   force =     0.02843246    0.24809443   -0.86406691
     atom   10 type  2   force =     0.04295657   -0.03270968   -0.15539767
     atom   11 type  2   force =     0.00297267   -0.16509967    0.94417518
     atom   12 type  2   force =    -0.21833123   -0.13518750    1.78992439
     atom   13 type  2   force =    -0.51601280   18.03940860    1.27546898
     atom   14 type  2   force =   -13.77409889    7.42144160   -0.46264516
     atom   15 type  2   force =    -0.06465417  -15.50176748   -0.21906197
     atom   16 type  2   force =    16.37320162   -9.21892997   -0.96870995
     atom   17 type  2   force =   -14.35756370   -8.37680953    0.46282504
     atom   18 type  2   force =    13.92999777    7.88641515   -0.28043114
     atom   19 type  2   force =     1.11405133   -0.78351680   -1.71600030
     atom   20 type  2   force =     0.92046684   -0.55933001   -0.86842425
     atom   21 type  2   force =    -0.68937348    0.54137173   -0.24969055
     atom   22 type  2   force =    -0.20320270    0.84966428   -0.34428767
     atom   23 type  2   force =    -0.57055029    0.28547417   -0.33725665
     atom   24 type  2   force =     0.14935535    0.26108146   -0.29132085
     The core correction contribution to forces
     atom    1 type  1   force =    -0.00001149   -0.00000788   -0.00011959
     atom    2 type  1   force =     0.00001947    0.00000210   -0.00013510
     atom    3 type  1   force =    -0.00008010   -0.00002879    0.00018887
     atom    4 type  1   force =     0.00007547   -0.00002823    0.00012859
     atom    5 type  1   force =     0.00002258    0.00004349   -0.00001234
     atom    6 type  1   force =     0.00001062    0.00000992   -0.00000514
     atom    7 type  1   force =    -0.00000839   -0.00001894    0.00004856
     atom    8 type  1   force =    -0.00002786   -0.00000558    0.00002863
     atom    9 type  2   force =     0.00032101   -0.00006875   -0.00436312
     atom   10 type  2   force =     0.00009400   -0.00047065   -0.00445204
     atom   11 type  2   force =    -0.00064163    0.00008632    0.00339821
     atom   12 type  2   force =     0.00348275   -0.00190090    0.00349795
     atom   13 type  2   force =    -0.05395135    0.13471059    0.08954471
     atom   14 type  2   force =    -0.00158956    0.00062470    0.00015278
     atom   15 type  2   force =     0.00090040   -0.00164472   -0.00008923
     atom   16 type  2   force =     0.16733113   -0.09420490   -0.08971995
     atom   17 type  2   force =     0.00234427    0.00011883   -0.00009510
     atom   18 type  2   force =     0.00021275    0.00089830   -0.00000010
     atom   19 type  2   force =     0.07387690    0.02541645   -0.14277559
     atom   20 type  2   force =     0.00016782    0.00004641   -0.00008509
     atom   21 type  2   force =     0.00025045   -0.00018933   -0.00015461
     atom   22 type  2   force =    -0.00002912    0.00008735    0.00015598
     atom   23 type  2   force =    -0.00004751   -0.00011777   -0.00014519
     atom   24 type  2   force =     0.00032325    0.00121590    0.00002326
     The Hubbard contrib.    to forces
     atom    1 type  1   force =     0.00000000    0.00000000    0.00000000
     atom    2 type  1   force =     0.00000000    0.00000000    0.00000000
     atom    3 type  1   force =     0.00000000    0.00000000    0.00000000
     atom    4 type  1   force =     0.00000000    0.00000000    0.00000000
     atom    5 type  1   force =     0.00000000    0.00000000    0.00000000
     atom    6 type  1   force =     0.00000000    0.00000000    0.00000000
     atom    7 type  1   force =     0.00000000    0.00000000    0.00000000
     atom    8 type  1   force =     0.00000000    0.00000000    0.00000000
     atom    9 type  2   force =     0.00000000    0.00000000    0.00000000
     atom   10 type  2   force =     0.00000000    0.00000000    0.00000000
     atom   11 type  2   force =     0.00000000    0.00000000    0.00000000
     atom   12 type  2   force =     0.00000000    0.00000000    0.00000000
     atom   13 type  2   force =     0.00000000    0.00000000    0.00000000
     atom   14 type  2   force =     0.00000000    0.00000000    0.00000000
     atom   15 type  2   force =     0.00000000    0.00000000    0.00000000
     atom   16 type  2   force =     0.00000000    0.00000000    0.00000000
     atom   17 type  2   force =     0.00000000    0.00000000    0.00000000
     atom   18 type  2   force =     0.00000000    0.00000000    0.00000000
     atom   19 type  2   force =     0.00000000    0.00000000    0.00000000
     atom   20 type  2   force =     0.00000000    0.00000000    0.00000000
     atom   21 type  2   force =     0.00000000    0.00000000    0.00000000
     atom   22 type  2   force =     0.00000000    0.00000000    0.00000000
     atom   23 type  2   force =     0.00000000    0.00000000    0.00000000
     atom   24 type  2   force =     0.00000000    0.00000000    0.00000000
     The SCF correction term to forces
     atom    1 type  1   force =    -0.00002917    0.00009484   -0.00076075
     atom    2 type  1   force =    -0.00002996    0.00004437   -0.00046690
     atom    3 type  1   force =     0.00002009    0.00007964    0.00215739
     atom    4 type  1   force =     0.00003300   -0.00010210   -0.00112651
     atom    5 type  1   force =     0.00004333    0.00006031    0.00228318
     atom    6 type  1   force =     0.00003601   -0.00011136   -0.00100912
     atom    7 type  1   force =    -0.00006508   -0.00011034   -0.00125273
     atom    8 type  1   force =    -0.00002154    0.00009394    0.00010893
     atom    9 type  2   force =     0.00023806   -0.00000534   -0.00247179
     atom   10 type  2   force =     0.00009809   -0.00047437   -0.00047383
     atom   11 type  2   force =     0.00029630    0.00002669    0.00463625
     atom   12 type  2   force =    -0.00003745    0.00064862   -0.00190628
     atom   13 type  2   force =     0.00130215    0.00105514   -0.00161318
     atom   14 type  2   force =    -0.00045179   -0.00017562    0.00215067
     atom   15 type  2   force =     0.00018189   -0.00029903    0.00236875
     atom   16 type  2   force =    -0.00031360    0.00019054   -0.00196775
     atom   17 type  2   force =    -0.00003216   -0.00028513   -0.00194430
     atom   18 type  2   force =     0.00019495    0.00011591    0.00245781
     atom   19 type  2   force =    -0.00133405    0.00005214    0.00447776
     atom   20 type  2   force =     0.00005564   -0.00007610   -0.00190947
     atom   21 type  2   force =    -0.00002495    0.00015899   -0.00183976
     atom   22 type  2   force =     0.00027321   -0.00056542    0.00149471
     atom   23 type  2   force =    -0.00005709   -0.00009113   -0.00183406
     atom   24 type  2   force =    -0.00001670   -0.00016511    0.00181939

     Total force =     0.363493     Total SCF correction =     0.010728


     Computing stress (Cartesian axis) and pressure


     negative rho (up, down):  4.692E-02 0.000E+00
          total   stress  (Ry/bohr**3)                   (kbar)     P=       33.99
   0.00016030   0.00002518   0.00001259           23.58        3.70        1.85
   0.00002518   0.00024051  -0.00001241            3.70       35.38       -1.82
   0.00001259  -0.00001241   0.00029241            1.85       -1.82       43.02


     Writing all to output data dir ./C36/out_logs/C36_out_97/laves_C36.save/
 
     init_run     :      5.95s CPU      6.17s WALL (       1 calls)
     electrons    :   1396.86s CPU   1397.24s WALL (       1 calls)
     forces       :      1.62s CPU      1.62s WALL (       1 calls)
     stress       :      8.29s CPU      8.29s WALL (       1 calls)

     Called by init_run:
     wfcinit      :      1.73s CPU      1.83s WALL (       1 calls)
                                        1.83s GPU  (       1 calls)
     potinit      :      3.15s CPU      3.18s WALL (       1 calls)
     hinit0       :      0.92s CPU      0.96s WALL (       1 calls)

     Called by electrons:
     c_bands      :    814.79s CPU    815.04s WALL (     195 calls)
     sum_band     :    132.18s CPU    132.22s WALL (     195 calls)
     v_of_rho     :      4.80s CPU      4.84s WALL (     196 calls)
     newd         :     15.12s CPU     15.14s WALL (     196 calls)
                                       15.13s GPU  (     196 calls)
     PAW_pot      :    411.25s CPU    411.27s WALL (     196 calls)
     mix_rho      :     16.27s CPU     16.32s WALL (     195 calls)

     Called by c_bands:
     init_us_2    :      2.32s CPU      2.33s WALL (    1965 calls)
     init_us_2:gp :      2.30s CPU      2.31s WALL (    1965 calls)
     cegterg      :    778.44s CPU    778.64s WALL (     975 calls)

     Called by *egterg:
     cdiaghg      :     54.73s CPU     55.22s WALL (    2367 calls)
                                       55.20s GPU  (    2367 calls)
     h_psi        :    371.14s CPU    371.33s WALL (    2372 calls)
                                      370.97s GPU  (    2372 calls)
     s_psi        :      1.71s CPU     69.90s WALL (    2372 calls)
                                       69.33s GPU  (    2372 calls)
     g_psi        :      0.01s CPU      1.13s WALL (    1392 calls)
                                        1.11s GPU  (    1392 calls)

     Called by h_psi:
     h_psi:calbec :      0.12s CPU     80.66s WALL (    2372 calls)
                                       80.64s GPU  (    2372 calls)
     vloc_psi     :    218.86s CPU    219.02s WALL (    2372 calls)
                                      218.98s GPU  (    2372 calls)
     add_vuspsi   :      2.25s CPU     70.31s WALL (    2372 calls)
                                       70.19s GPU  (    2372 calls)

     General routines
     calbec       :      0.13s CPU      0.14s WALL (    3372 calls)
     fft          :      2.31s CPU      3.52s WALL (    2571 calls)
                                        1.21s GPU  (    2375 calls)
     ffts         :      0.58s CPU      0.63s WALL (     391 calls)
                                        0.05s GPU  (     195 calls)
     fftw         :      0.49s CPU    235.40s WALL (   69780 calls)
                                      234.47s GPU  (   69780 calls)
     interpolate  :      3.31s CPU      3.32s WALL (     196 calls)
 
     Parallel routines
 
     PWSCF        :  23m33.04s CPU  23m33.75s WALL

 
   This run was terminated on:   6:20:54   8Apr2026            

=------------------------------------------------------------------------------=
   JOB DONE.
=------------------------------------------------------------------------------=
