
     Program PWSCF v.7.2 starts on  9Apr2026 at  2:46: 6 

     This program is part of the open-source Quantum ESPRESSO suite
     for quantum simulation of materials; please cite
         "P. Giannozzi et al., J. Phys.:Condens. Matter 21 395502 (2009);
         "P. Giannozzi et al., J. Phys.:Condens. Matter 29 465901 (2017);
         "P. Giannozzi et al., J. Chem. Phys. 152 154105 (2020);
          URL http://www.quantum-espresso.org", 
     in publications or presentations arising from this work. More details at
     http://www.quantum-espresso.org/quote

     Parallel version (MPI), running on     1 processors

     MPI processes distributed on     1 nodes
     1565 MiB available memory on the printing compute node when the environment starts
 
     Reading input from C36/in/laves_150_0_scf.in
Warning: card &CELL ignored
Warning: card / ignored

     Current dimensions of program PWSCF are:
     Max number of different atomic species (ntypx) = 10
     Max number of k-points (npk) =  40000
     Max angular momentum in pseudopotentials (lmaxx) =  4
     file Mg.pbe-spnl-kjpaw_psl.1.0.0.UPF: wavefunction(s)  2P renormalized
     file Ni.pbe-spn-kjpaw_psl.1.0.0.UPF: wavefunction(s)  3P 3D renormalized
 
     Subspace diagonalization in iterative solution of the eigenvalue problem:
     a serial algorithm will be used

 
     G-vector sticks info
     --------------------
     sticks:   dense  smooth     PW     G-vecs:    dense   smooth      PW
     Sum        2651    1333    367               361069   127647   18981
 
     Using Slab Decomposition
 

     Title: 
     C36_MgNi2                                                                  


     bravais-lattice index     =            0
     lattice parameter (alat)  =       8.9477  a.u.
     unit-cell volume          =    2033.5087 (a.u.)^3
     number of atoms/cell      =           23
     number of atomic types    =            2
     number of electrons       =       350.00
     number of Kohn-Sham states=          210
     kinetic-energy cutoff     =      60.0000  Ry
     charge density cutoff     =     480.0000  Ry
     scf convergence threshold =      1.0E-05
     mixing beta               =       0.2200
     number of iterations used =           22  plain     mixing
     Exchange-correlation= SLA  PW   PBX  PBC
                           (   1   4   3   4   0   0   0)

     GPU acceleration is ACTIVE.


     celldm(1)=   8.947659  celldm(2)=   0.000000  celldm(3)=   0.000000
     celldm(4)=   0.000000  celldm(5)=   0.000000  celldm(6)=   0.000000

     crystal axes: (cart. coord. in units of alat)
               a(1) = (   1.000000  -0.000650  -0.000423 )  
               a(2) = (  -0.499613   0.865503  -0.000485 )  
               a(3) = (   0.000766   0.000701   3.281046 )  

     reciprocal axes: (cart. coord. in units 2 pi/alat)
               b(1) = (  1.000376  0.577468 -0.000357 )  
               b(2) = (  0.000752  1.155832 -0.000247 )  
               b(3) = (  0.000129  0.000245  0.304781 )  


     PseudoPot. # 1 for Mg read from file:
     ./pseudo/Mg.pbe-spnl-kjpaw_psl.1.0.0.UPF
     MD5 check sum: fda14e0d92a6a9a5ebed782e5a4b3067
     Pseudo is Projector augmented-wave + core cor, Zval = 10.0
     Generated using &quot;atomic&quot; code by A. Dal Corso  v.6.3
     Shape of augmentation charge: PSQ
     Using radial grid of 1129 points,  4 beta functions with: 
                l(1) =   0
                l(2) =   0
                l(3) =   1
                l(4) =   1
     Q(r) pseudized with 0 coefficients 


     PseudoPot. # 2 for Ni read from file:
     ./pseudo/Ni.pbe-spn-kjpaw_psl.1.0.0.UPF
     MD5 check sum: 6e86b733589c3ad8389697b807d86aa7
     Pseudo is Projector augmented-wave + core cor, Zval = 18.0
     Generated using &quot;atomic&quot; code by A. Dal Corso  v.6.3
     Shape of augmentation charge: PSQ
     Using radial grid of 1195 points,  6 beta functions with: 
                l(1) =   0
                l(2) =   0
                l(3) =   1
                l(4) =   1
                l(5) =   2
                l(6) =   2
     Q(r) pseudized with 0 coefficients 


     atomic species   valence    mass     pseudopotential
        Mg            10.00    24.30500     Mg( 1.00)
        Ni            18.00    58.69340     Ni( 1.00)

     No symmetry found



   Cartesian axes

     site n.     atom                  positions (alat units)
         1           Mg  tau(   1) = (   0.0013842   0.0016899   1.3316766  )
         2           Mg  tau(   2) = (   0.5011485   0.8636379   2.9715641  )
         3           Mg  tau(   3) = (   0.0010297   0.0006783   1.9482716  )
         4           Mg  tau(   4) = (   0.0020903   0.0011507   0.3096240  )
         5           Mg  tau(   5) = (   0.0021519   0.5779010   2.1507493  )
         6           Mg  tau(   6) = (   0.5002844   0.2877573   0.5096151  )
         7           Mg  tau(   7) = (   0.5013120   0.2871176   1.1303138  )
         8           Mg  tau(   8) = (   0.0006245   0.5750485   2.7689376  )
         9           Ni  tau(   9) = (   0.0025942   0.5792032   1.2308409  )
        10           Ni  tau(  10) = (   0.5014306   0.2900853   2.8701916  )
        11           Ni  tau(  11) = (   0.5006780   0.2885097   2.0506926  )
        12           Ni  tau(  12) = (   0.0013207   0.5761258   0.4101983  )
        13           Ni  tau(  13) = (   0.7481504   0.1444484   2.4609889  )
        14           Ni  tau(  14) = (   0.4991490   0.5774086   2.4601586  )
        15           Ni  tau(  15) = (  -0.2491708   0.7232823   0.8175771  )
        16           Ni  tau(  16) = (   0.2491918   0.7215046   0.8214623  )
        17           Ni  tau(  17) = (   0.2499270   0.1438350   2.4586476  )
        18           Ni  tau(  18) = (   0.5017664   0.0010696   1.6397131  )
        19           Ni  tau(  19) = (   0.2506124   0.4341694   3.2804735  )
        20           Ni  tau(  20) = (   0.0022559   0.8656852   3.2800313  )
        21           Ni  tau(  21) = (   0.2507607   0.4318639   1.6396827  )
        22           Ni  tau(  22) = (   0.7493631   0.4327356  -0.0006162  )
        23           Ni  tau(  23) = (  -0.2485570   0.4342515   1.6410110  )

     number of k points=     5  Marzari-Vanderbilt smearing, width (Ry)=  0.0500
                       cart. coord. in units 2pi/alat
        k(    1) = (   0.0000000   0.0000000   0.0000000), wk =   0.2222222
        k(    2) = (   0.0002506   0.3852772  -0.0000824), wk =   0.4444444
        k(    3) = (   0.3334586   0.1924894  -0.0001190), wk =   0.4444444
        k(    4) = (   0.3337092   0.5777666  -0.0002015), wk =   0.4444444
        k(    5) = (   0.3332080  -0.1927878  -0.0000366), wk =   0.4444444

     Dense  grid:   361069 G-vectors     FFT dimensions: (  64,  64, 216)

     Smooth grid:   127647 G-vectors     FFT dimensions: (  45,  45, 150)

     Estimated max dynamical RAM per process >       1.98 GB

     Check: negative core charge=   -0.000009

     Initial potential from superposition of free atoms

     starting charge     349.9889, renormalised to     350.0000
     Starting wfcs are  190 randomized atomic wfcs +   20 random wfcs
     Checking if some PAW data can be deallocated... 

     total cpu time spent up to now is        6.2 secs

     Self-consistent Calculation

     iteration #  1     ecut=    60.00 Ry     beta= 0.22
     Davidson diagonalization with overlap
     ethr =  1.00E-02,  avg # of iterations =  5.8

     negative rho (up, down):  1.854E-02 0.000E+00

     total cpu time spent up to now is       15.7 secs

     total energy              =   -7568.51244066 Ry
     estimated scf accuracy    <      64.85571257 Ry

     iteration #  2     ecut=    60.00 Ry     beta= 0.22
     Davidson diagonalization with overlap
     ethr =  1.00E-02,  avg # of iterations =  2.0

     negative rho (up, down):  3.195E-02 0.000E+00

     total cpu time spent up to now is       22.8 secs

     total energy              =   -7570.50666931 Ry
     estimated scf accuracy    <     228.76476182 Ry

     iteration #  3     ecut=    60.00 Ry     beta= 0.22
     Davidson diagonalization with overlap
     ethr =  1.00E-02,  avg # of iterations =  1.0

     negative rho (up, down):  9.003E-04 0.000E+00

     total cpu time spent up to now is       29.3 secs

     total energy              =   -7568.65608459 Ry
     estimated scf accuracy    <     140.64046476 Ry

     iteration #  4     ecut=    60.00 Ry     beta= 0.22
     Davidson diagonalization with overlap
     ethr =  1.00E-02,  avg # of iterations =  2.0

     negative rho (up, down):  5.831E-04 0.000E+00

     total cpu time spent up to now is       36.7 secs

     total energy              =   -7559.50526026 Ry
     estimated scf accuracy    <     116.15824794 Ry

     iteration #  5     ecut=    60.00 Ry     beta= 0.22
     Davidson diagonalization with overlap
     ethr =  1.00E-02,  avg # of iterations =  3.0

     negative rho (up, down):  2.372E-03 0.000E+00

     total cpu time spent up to now is       44.7 secs

     total energy              =   -7552.75161137 Ry
     estimated scf accuracy    <     633.21660210 Ry

     iteration #  6     ecut=    60.00 Ry     beta= 0.22
     Davidson diagonalization with overlap
     ethr =  1.00E-02,  avg # of iterations =  2.8

     negative rho (up, down):  1.892E-02 0.000E+00

     total cpu time spent up to now is       52.2 secs

     total energy              =   -7562.84883876 Ry
     estimated scf accuracy    <     307.55255738 Ry

     iteration #  7     ecut=    60.00 Ry     beta= 0.22
     Davidson diagonalization with overlap
     ethr =  1.00E-02,  avg # of iterations =  1.2

     negative rho (up, down):  3.022E-02 0.000E+00

     total cpu time spent up to now is       58.8 secs

     total energy              =   -7569.65139550 Ry
     estimated scf accuracy    <      98.29559332 Ry

     iteration #  8     ecut=    60.00 Ry     beta= 0.22
     Davidson diagonalization with overlap
     ethr =  1.00E-02,  avg # of iterations =  1.0

     negative rho (up, down):  3.572E-02 0.000E+00

     total cpu time spent up to now is       65.3 secs

     total energy              =   -7570.16185973 Ry
     estimated scf accuracy    <      50.80844789 Ry

     iteration #  9     ecut=    60.00 Ry     beta= 0.22
     Davidson diagonalization with overlap
     ethr =  1.00E-02,  avg # of iterations =  1.0

     negative rho (up, down):  2.168E-02 0.000E+00

     total cpu time spent up to now is       71.8 secs

     total energy              =   -7569.98426893 Ry
     estimated scf accuracy    <      54.89601460 Ry

     iteration # 10     ecut=    60.00 Ry     beta= 0.22
     Davidson diagonalization with overlap
     ethr =  1.00E-02,  avg # of iterations =  1.0

     negative rho (up, down):  1.632E-02 0.000E+00

     total cpu time spent up to now is       78.3 secs

     total energy              =   -7569.69735621 Ry
     estimated scf accuracy    <      46.85412472 Ry

     iteration # 11     ecut=    60.00 Ry     beta= 0.22
     Davidson diagonalization with overlap
     ethr =  1.00E-02,  avg # of iterations =  1.0

     negative rho (up, down):  3.734E-02 0.000E+00

     total cpu time spent up to now is       84.8 secs

     total energy              =   -7568.63433512 Ry
     estimated scf accuracy    <      72.23052491 Ry

     iteration # 12     ecut=    60.00 Ry     beta= 0.22
     Davidson diagonalization with overlap
     ethr =  1.00E-02,  avg # of iterations =  1.4

     negative rho (up, down):  3.242E-02 0.000E+00

     total cpu time spent up to now is       91.6 secs

     total energy              =   -7570.34729396 Ry
     estimated scf accuracy    <      72.25641284 Ry

     iteration # 13     ecut=    60.00 Ry     beta= 0.22
     Davidson diagonalization with overlap
     ethr =  1.00E-02,  avg # of iterations =  1.0

     negative rho (up, down):  7.313E-03 0.000E+00

     total cpu time spent up to now is       98.1 secs

     total energy              =   -7568.95113072 Ry
     estimated scf accuracy    <      83.70541366 Ry

     iteration # 14     ecut=    60.00 Ry     beta= 0.22
     Davidson diagonalization with overlap
     ethr =  1.00E-02,  avg # of iterations =  1.0

     negative rho (up, down):  1.935E-02 0.000E+00

     total cpu time spent up to now is      104.6 secs

     total energy              =   -7569.11211918 Ry
     estimated scf accuracy    <      47.54568191 Ry

     iteration # 15     ecut=    60.00 Ry     beta= 0.22
     Davidson diagonalization with overlap
     ethr =  1.00E-02,  avg # of iterations =  1.0

     negative rho (up, down):  3.150E-02 0.000E+00

     total cpu time spent up to now is      111.1 secs

     total energy              =   -7569.32068584 Ry
     estimated scf accuracy    <      44.25530912 Ry

     iteration # 16     ecut=    60.00 Ry     beta= 0.22
     Davidson diagonalization with overlap
     ethr =  1.00E-02,  avg # of iterations =  1.0

     negative rho (up, down):  3.875E-02 0.000E+00

     total cpu time spent up to now is      117.7 secs

     total energy              =   -7569.75946079 Ry
     estimated scf accuracy    <      45.54706782 Ry

     iteration # 17     ecut=    60.00 Ry     beta= 0.22
     Davidson diagonalization with overlap
     ethr =  1.00E-02,  avg # of iterations =  1.0

     negative rho (up, down):  3.681E-02 0.000E+00

     total cpu time spent up to now is      124.2 secs

     total energy              =   -7569.96156339 Ry
     estimated scf accuracy    <      62.33276546 Ry

     iteration # 18     ecut=    60.00 Ry     beta= 0.22
     Davidson diagonalization with overlap
     ethr =  1.00E-02,  avg # of iterations =  1.0

     negative rho (up, down):  2.511E-02 0.000E+00

     total cpu time spent up to now is      130.7 secs

     total energy              =   -7569.69606034 Ry
     estimated scf accuracy    <      58.08217117 Ry

     iteration # 19     ecut=    60.00 Ry     beta= 0.22
     Davidson diagonalization with overlap
     ethr =  1.00E-02,  avg # of iterations =  1.0

     negative rho (up, down):  1.244E-02 0.000E+00

     total cpu time spent up to now is      137.3 secs

     total energy              =   -7569.33989358 Ry
     estimated scf accuracy    <      48.86763217 Ry

     iteration # 20     ecut=    60.00 Ry     beta= 0.22
     Davidson diagonalization with overlap
     ethr =  1.00E-02,  avg # of iterations =  1.0

     negative rho (up, down):  1.061E-02 0.000E+00

     total cpu time spent up to now is      143.8 secs

     total energy              =   -7569.32196716 Ry
     estimated scf accuracy    <      34.45508115 Ry

     iteration # 21     ecut=    60.00 Ry     beta= 0.22
     Davidson diagonalization with overlap
     ethr =  9.84E-03,  avg # of iterations =  1.0

     negative rho (up, down):  7.631E-03 0.000E+00

     total cpu time spent up to now is      150.3 secs

     total energy              =   -7568.95144002 Ry
     estimated scf accuracy    <      29.80900990 Ry

     iteration # 22     ecut=    60.00 Ry     beta= 0.22
     Davidson diagonalization with overlap
     ethr =  8.52E-03,  avg # of iterations =  1.0

     negative rho (up, down):  1.022E-02 0.000E+00

     total cpu time spent up to now is      156.9 secs

     total energy              =   -7568.65601738 Ry
     estimated scf accuracy    <      15.38396830 Ry

     iteration # 23     ecut=    60.00 Ry     beta= 0.22
     Davidson diagonalization with overlap
     ethr =  4.40E-03,  avg # of iterations =  1.0

     negative rho (up, down):  8.921E-03 0.000E+00

     total cpu time spent up to now is      163.5 secs

     total energy              =   -7568.76375711 Ry
     estimated scf accuracy    <       9.62809920 Ry

     iteration # 24     ecut=    60.00 Ry     beta= 0.22
     Davidson diagonalization with overlap
     ethr =  2.75E-03,  avg # of iterations =  1.0

     negative rho (up, down):  1.146E-02 0.000E+00

     total cpu time spent up to now is      170.0 secs

     total energy              =   -7568.83620776 Ry
     estimated scf accuracy    <       8.76618248 Ry

     iteration # 25     ecut=    60.00 Ry     beta= 0.22
     Davidson diagonalization with overlap
     ethr =  2.50E-03,  avg # of iterations =  1.0

     negative rho (up, down):  7.568E-03 0.000E+00

     total cpu time spent up to now is      176.6 secs

     total energy              =   -7568.65101953 Ry
     estimated scf accuracy    <      11.49380640 Ry

     iteration # 26     ecut=    60.00 Ry     beta= 0.22
     Davidson diagonalization with overlap
     ethr =  2.50E-03,  avg # of iterations =  1.4

     negative rho (up, down):  5.815E-03 0.000E+00

     total cpu time spent up to now is      183.4 secs

     total energy              =   -7568.67476902 Ry
     estimated scf accuracy    <      11.20311853 Ry

     iteration # 27     ecut=    60.00 Ry     beta= 0.22
     Davidson diagonalization with overlap
     ethr =  2.50E-03,  avg # of iterations =  1.0

     negative rho (up, down):  1.033E-02 0.000E+00

     total cpu time spent up to now is      190.0 secs

     total energy              =   -7568.67581909 Ry
     estimated scf accuracy    <       6.16430030 Ry

     iteration # 28     ecut=    60.00 Ry     beta= 0.22
     Davidson diagonalization with overlap
     ethr =  1.76E-03,  avg # of iterations =  2.0

     negative rho (up, down):  1.039E-02 0.000E+00

     total cpu time spent up to now is      197.3 secs

     total energy              =   -7568.75350085 Ry
     estimated scf accuracy    <       9.80977298 Ry

     iteration # 29     ecut=    60.00 Ry     beta= 0.22
     Davidson diagonalization with overlap
     ethr =  1.76E-03,  avg # of iterations =  1.0

     negative rho (up, down):  7.384E-03 0.000E+00

     total cpu time spent up to now is      203.8 secs

     total energy              =   -7568.62803256 Ry
     estimated scf accuracy    <       8.47364359 Ry

     iteration # 30     ecut=    60.00 Ry     beta= 0.22
     Davidson diagonalization with overlap
     ethr =  1.76E-03,  avg # of iterations =  1.6

     negative rho (up, down):  7.472E-03 0.000E+00

     total cpu time spent up to now is      210.8 secs

     total energy              =   -7568.73195591 Ry
     estimated scf accuracy    <       5.82081390 Ry

     iteration # 31     ecut=    60.00 Ry     beta= 0.22
     Davidson diagonalization with overlap
     ethr =  1.66E-03,  avg # of iterations =  1.0

     negative rho (up, down):  7.188E-03 0.000E+00

     total cpu time spent up to now is      217.3 secs

     total energy              =   -7568.67089492 Ry
     estimated scf accuracy    <       5.51962915 Ry

     iteration # 32     ecut=    60.00 Ry     beta= 0.22
     Davidson diagonalization with overlap
     ethr =  1.58E-03,  avg # of iterations =  1.0

     negative rho (up, down):  7.210E-03 0.000E+00

     total cpu time spent up to now is      223.9 secs

     total energy              =   -7568.70242307 Ry
     estimated scf accuracy    <       6.32067994 Ry

     iteration # 33     ecut=    60.00 Ry     beta= 0.22
     Davidson diagonalization with overlap
     ethr =  1.58E-03,  avg # of iterations =  1.0

     negative rho (up, down):  8.792E-03 0.000E+00

     total cpu time spent up to now is      230.5 secs

     total energy              =   -7568.72483199 Ry
     estimated scf accuracy    <       5.77838557 Ry

     iteration # 34     ecut=    60.00 Ry     beta= 0.22
     Davidson diagonalization with overlap
     ethr =  1.58E-03,  avg # of iterations =  1.0

     negative rho (up, down):  6.537E-03 0.000E+00

     total cpu time spent up to now is      237.0 secs

     total energy              =   -7568.56808775 Ry
     estimated scf accuracy    <       6.43439496 Ry

     iteration # 35     ecut=    60.00 Ry     beta= 0.22
     Davidson diagonalization with overlap
     ethr =  1.58E-03,  avg # of iterations =  1.6

     negative rho (up, down):  6.211E-03 0.000E+00

     total cpu time spent up to now is      244.0 secs

     total energy              =   -7567.91900386 Ry
     estimated scf accuracy    <      33.16460857 Ry

     iteration # 36     ecut=    60.00 Ry     beta= 0.22
     Davidson diagonalization with overlap
     ethr =  1.58E-03,  avg # of iterations =  1.0

     negative rho (up, down):  6.292E-03 0.000E+00

     total cpu time spent up to now is      250.6 secs

     total energy              =   -7568.45528573 Ry
     estimated scf accuracy    <       7.63893308 Ry

     iteration # 37     ecut=    60.00 Ry     beta= 0.22
     Davidson diagonalization with overlap
     ethr =  1.58E-03,  avg # of iterations =  1.0

     negative rho (up, down):  8.239E-03 0.000E+00

     total cpu time spent up to now is      257.1 secs

     total energy              =   -7568.55332728 Ry
     estimated scf accuracy    <       5.54863269 Ry

     iteration # 38     ecut=    60.00 Ry     beta= 0.22
     Davidson diagonalization with overlap
     ethr =  1.58E-03,  avg # of iterations =  1.0

     negative rho (up, down):  1.160E-02 0.000E+00

     total cpu time spent up to now is      263.7 secs

     total energy              =   -7568.59824808 Ry
     estimated scf accuracy    <       4.16343438 Ry

     iteration # 39     ecut=    60.00 Ry     beta= 0.22
     Davidson diagonalization with overlap
     ethr =  1.19E-03,  avg # of iterations =  1.0

     negative rho (up, down):  1.290E-02 0.000E+00

     total cpu time spent up to now is      270.2 secs

     total energy              =   -7568.60317653 Ry
     estimated scf accuracy    <       3.56151979 Ry

     iteration # 40     ecut=    60.00 Ry     beta= 0.22
     Davidson diagonalization with overlap
     ethr =  1.02E-03,  avg # of iterations =  1.0

     negative rho (up, down):  1.014E-02 0.000E+00

     total cpu time spent up to now is      276.8 secs

     total energy              =   -7568.62284515 Ry
     estimated scf accuracy    <       2.47089867 Ry

     iteration # 41     ecut=    60.00 Ry     beta= 0.22
     Davidson diagonalization with overlap
     ethr =  7.06E-04,  avg # of iterations =  2.0

     negative rho (up, down):  1.223E-02 0.000E+00

     total cpu time spent up to now is      284.0 secs

     total energy              =   -7568.59718607 Ry
     estimated scf accuracy    <       7.28205707 Ry

     iteration # 42     ecut=    60.00 Ry     beta= 0.22
     Davidson diagonalization with overlap
     ethr =  7.06E-04,  avg # of iterations =  2.0

     negative rho (up, down):  1.651E-02 0.000E+00

     total cpu time spent up to now is      291.3 secs

     total energy              =   -7568.58520404 Ry
     estimated scf accuracy    <       6.76601685 Ry

     iteration # 43     ecut=    60.00 Ry     beta= 0.22
     Davidson diagonalization with overlap
     ethr =  7.06E-04,  avg # of iterations =  2.0

     negative rho (up, down):  1.701E-02 0.000E+00

     total cpu time spent up to now is      298.5 secs

     total energy              =   -7568.61402914 Ry
     estimated scf accuracy    <       7.28478057 Ry

     iteration # 44     ecut=    60.00 Ry     beta= 0.22
     Davidson diagonalization with overlap
     ethr =  7.06E-04,  avg # of iterations =  1.0

     negative rho (up, down):  2.445E-02 0.000E+00

     total cpu time spent up to now is      305.1 secs

     total energy              =   -7568.62847056 Ry
     estimated scf accuracy    <       5.07767513 Ry

     iteration # 45     ecut=    60.00 Ry     beta= 0.22
     Davidson diagonalization with overlap
     ethr =  7.06E-04,  avg # of iterations =  1.0

     negative rho (up, down):  2.400E-02 0.000E+00

     total cpu time spent up to now is      311.7 secs

     total energy              =   -7568.59943356 Ry
     estimated scf accuracy    <       4.81038932 Ry

     iteration # 46     ecut=    60.00 Ry     beta= 0.22
     Davidson diagonalization with overlap
     ethr =  7.06E-04,  avg # of iterations =  1.0

     negative rho (up, down):  2.927E-02 0.000E+00

     total cpu time spent up to now is      318.2 secs

     total energy              =   -7568.48296130 Ry
     estimated scf accuracy    <       5.29684873 Ry

     iteration # 47     ecut=    60.00 Ry     beta= 0.22
     Davidson diagonalization with overlap
     ethr =  7.06E-04,  avg # of iterations =  1.2

     negative rho (up, down):  1.721E-02 0.000E+00

     total cpu time spent up to now is      324.9 secs

     total energy              =   -7568.56150377 Ry
     estimated scf accuracy    <       2.03747364 Ry

     iteration # 48     ecut=    60.00 Ry     beta= 0.22
     Davidson diagonalization with overlap
     ethr =  5.82E-04,  avg # of iterations =  1.6

     negative rho (up, down):  2.291E-02 0.000E+00

     total cpu time spent up to now is      331.9 secs

     total energy              =   -7568.54827932 Ry
     estimated scf accuracy    <       2.95477548 Ry

     iteration # 49     ecut=    60.00 Ry     beta= 0.22
     Davidson diagonalization with overlap
     ethr =  5.82E-04,  avg # of iterations =  1.0

     negative rho (up, down):  1.919E-02 0.000E+00

     total cpu time spent up to now is      338.5 secs

     total energy              =   -7568.57593800 Ry
     estimated scf accuracy    <       2.29098391 Ry

     iteration # 50     ecut=    60.00 Ry     beta= 0.22
     Davidson diagonalization with overlap
     ethr =  5.82E-04,  avg # of iterations =  1.0

     negative rho (up, down):  2.001E-02 0.000E+00

     total cpu time spent up to now is      345.0 secs

     total energy              =   -7568.57957908 Ry
     estimated scf accuracy    <       2.07305212 Ry

     iteration # 51     ecut=    60.00 Ry     beta= 0.22
     Davidson diagonalization with overlap
     ethr =  5.82E-04,  avg # of iterations =  1.0

     negative rho (up, down):  1.497E-02 0.000E+00

     total cpu time spent up to now is      351.6 secs

     total energy              =   -7568.57086743 Ry
     estimated scf accuracy    <       1.35284605 Ry

     iteration # 52     ecut=    60.00 Ry     beta= 0.22
     Davidson diagonalization with overlap
     ethr =  3.87E-04,  avg # of iterations =  1.0

     negative rho (up, down):  1.761E-02 0.000E+00

     total cpu time spent up to now is      358.1 secs

     total energy              =   -7568.54967844 Ry
     estimated scf accuracy    <       1.64957644 Ry

     iteration # 53     ecut=    60.00 Ry     beta= 0.22
     Davidson diagonalization with overlap
     ethr =  3.87E-04,  avg # of iterations =  1.0

     negative rho (up, down):  1.753E-02 0.000E+00

     total cpu time spent up to now is      364.7 secs

     total energy              =   -7568.56808962 Ry
     estimated scf accuracy    <       1.50933639 Ry

     iteration # 54     ecut=    60.00 Ry     beta= 0.22
     Davidson diagonalization with overlap
     ethr =  3.87E-04,  avg # of iterations =  1.0

     negative rho (up, down):  1.655E-02 0.000E+00

     total cpu time spent up to now is      371.2 secs

     total energy              =   -7568.58186109 Ry
     estimated scf accuracy    <       1.04263358 Ry

     iteration # 55     ecut=    60.00 Ry     beta= 0.22
     Davidson diagonalization with overlap
     ethr =  2.98E-04,  avg # of iterations =  1.0

     negative rho (up, down):  1.520E-02 0.000E+00

     total cpu time spent up to now is      377.8 secs

     total energy              =   -7568.58369332 Ry
     estimated scf accuracy    <       0.83959092 Ry

     iteration # 56     ecut=    60.00 Ry     beta= 0.22
     Davidson diagonalization with overlap
     ethr =  2.40E-04,  avg # of iterations =  1.0

     negative rho (up, down):  1.540E-02 0.000E+00

     total cpu time spent up to now is      384.4 secs

     total energy              =   -7568.58016418 Ry
     estimated scf accuracy    <       0.81669902 Ry

     iteration # 57     ecut=    60.00 Ry     beta= 0.22
     Davidson diagonalization with overlap
     ethr =  2.33E-04,  avg # of iterations =  1.0

     negative rho (up, down):  1.496E-02 0.000E+00

     total cpu time spent up to now is      390.9 secs

     total energy              =   -7568.58022690 Ry
     estimated scf accuracy    <       0.91020652 Ry

     iteration # 58     ecut=    60.00 Ry     beta= 0.22
     Davidson diagonalization with overlap
     ethr =  2.33E-04,  avg # of iterations =  1.0

     negative rho (up, down):  1.551E-02 0.000E+00

     total cpu time spent up to now is      397.5 secs

     total energy              =   -7568.57917882 Ry
     estimated scf accuracy    <       0.64614908 Ry

     iteration # 59     ecut=    60.00 Ry     beta= 0.22
     Davidson diagonalization with overlap
     ethr =  1.85E-04,  avg # of iterations =  1.2

     negative rho (up, down):  1.591E-02 0.000E+00

     total cpu time spent up to now is      404.2 secs

     total energy              =   -7568.58123727 Ry
     estimated scf accuracy    <       0.81105147 Ry

     iteration # 60     ecut=    60.00 Ry     beta= 0.22
     Davidson diagonalization with overlap
     ethr =  1.85E-04,  avg # of iterations =  1.0

     negative rho (up, down):  1.772E-02 0.000E+00

     total cpu time spent up to now is      410.7 secs

     total energy              =   -7568.57266241 Ry
     estimated scf accuracy    <       1.90344469 Ry

     iteration # 61     ecut=    60.00 Ry     beta= 0.22
     Davidson diagonalization with overlap
     ethr =  1.85E-04,  avg # of iterations =  1.0

     negative rho (up, down):  1.930E-02 0.000E+00

     total cpu time spent up to now is      417.3 secs

     total energy              =   -7568.57274308 Ry
     estimated scf accuracy    <       1.44406663 Ry

     iteration # 62     ecut=    60.00 Ry     beta= 0.22
     Davidson diagonalization with overlap
     ethr =  1.85E-04,  avg # of iterations =  1.4

     negative rho (up, down):  2.084E-02 0.000E+00

     total cpu time spent up to now is      424.1 secs

     total energy              =   -7568.57964922 Ry
     estimated scf accuracy    <       1.05770473 Ry

     iteration # 63     ecut=    60.00 Ry     beta= 0.22
     Davidson diagonalization with overlap
     ethr =  1.85E-04,  avg # of iterations =  1.2

     negative rho (up, down):  1.857E-02 0.000E+00

     total cpu time spent up to now is      430.8 secs

     total energy              =   -7568.59047475 Ry
     estimated scf accuracy    <       1.04532645 Ry

     iteration # 64     ecut=    60.00 Ry     beta= 0.22
     Davidson diagonalization with overlap
     ethr =  1.85E-04,  avg # of iterations =  2.0

     negative rho (up, down):  1.858E-02 0.000E+00

     total cpu time spent up to now is      438.1 secs

     total energy              =   -7568.58387638 Ry
     estimated scf accuracy    <       1.56303875 Ry

     iteration # 65     ecut=    60.00 Ry     beta= 0.22
     Davidson diagonalization with overlap
     ethr =  1.85E-04,  avg # of iterations =  1.8

     negative rho (up, down):  1.866E-02 0.000E+00

     total cpu time spent up to now is      445.2 secs

     total energy              =   -7568.59167431 Ry
     estimated scf accuracy    <       0.96617201 Ry

     iteration # 66     ecut=    60.00 Ry     beta= 0.22
     Davidson diagonalization with overlap
     ethr =  1.85E-04,  avg # of iterations =  1.8

     negative rho (up, down):  1.894E-02 0.000E+00

     total cpu time spent up to now is      452.4 secs

     total energy              =   -7568.59342548 Ry
     estimated scf accuracy    <       1.37130959 Ry

     iteration # 67     ecut=    60.00 Ry     beta= 0.22
     Davidson diagonalization with overlap
     ethr =  1.85E-04,  avg # of iterations =  2.0

     negative rho (up, down):  1.930E-02 0.000E+00

     total cpu time spent up to now is      459.6 secs

     total energy              =   -7568.58825186 Ry
     estimated scf accuracy    <       2.74778869 Ry

     iteration # 68     ecut=    60.00 Ry     beta= 0.22
     Davidson diagonalization with overlap
     ethr =  1.85E-04,  avg # of iterations =  1.0

     negative rho (up, down):  1.863E-02 0.000E+00

     total cpu time spent up to now is      466.2 secs

     total energy              =   -7568.53740403 Ry
     estimated scf accuracy    <       1.94386288 Ry

     iteration # 69     ecut=    60.00 Ry     beta= 0.22
     Davidson diagonalization with overlap
     ethr =  1.85E-04,  avg # of iterations =  2.0

     negative rho (up, down):  2.066E-02 0.000E+00

     total cpu time spent up to now is      473.7 secs

     total energy              =   -7568.58592376 Ry
     estimated scf accuracy    <       1.61082655 Ry

     iteration # 70     ecut=    60.00 Ry     beta= 0.22
     Davidson diagonalization with overlap
     ethr =  1.85E-04,  avg # of iterations =  1.2

     negative rho (up, down):  2.154E-02 0.000E+00

     total cpu time spent up to now is      480.4 secs

     total energy              =   -7568.61406678 Ry
     estimated scf accuracy    <       1.79661718 Ry

     iteration # 71     ecut=    60.00 Ry     beta= 0.22
     Davidson diagonalization with overlap
     ethr =  1.85E-04,  avg # of iterations =  1.0

     negative rho (up, down):  2.210E-02 0.000E+00

     total cpu time spent up to now is      487.0 secs

     total energy              =   -7568.58543988 Ry
     estimated scf accuracy    <       2.04825699 Ry

     iteration # 72     ecut=    60.00 Ry     beta= 0.22
     Davidson diagonalization with overlap
     ethr =  1.85E-04,  avg # of iterations =  2.0

     negative rho (up, down):  2.240E-02 0.000E+00

     total cpu time spent up to now is      494.2 secs

     total energy              =   -7568.58155471 Ry
     estimated scf accuracy    <       1.37011239 Ry

     iteration # 73     ecut=    60.00 Ry     beta= 0.22
     Davidson diagonalization with overlap
     ethr =  1.85E-04,  avg # of iterations =  1.0

     negative rho (up, down):  2.378E-02 0.000E+00

     total cpu time spent up to now is      500.8 secs

     total energy              =   -7568.56370000 Ry
     estimated scf accuracy    <       0.95372405 Ry

     iteration # 74     ecut=    60.00 Ry     beta= 0.22
     Davidson diagonalization with overlap
     ethr =  1.85E-04,  avg # of iterations =  2.0

     negative rho (up, down):  2.125E-02 0.000E+00

     total cpu time spent up to now is      508.1 secs

     total energy              =   -7568.56743869 Ry
     estimated scf accuracy    <       0.88518011 Ry

     iteration # 75     ecut=    60.00 Ry     beta= 0.22
     Davidson diagonalization with overlap
     ethr =  1.85E-04,  avg # of iterations =  1.2

     negative rho (up, down):  2.626E-02 0.000E+00

     total cpu time spent up to now is      514.8 secs

     total energy              =   -7568.57594369 Ry
     estimated scf accuracy    <       1.01089138 Ry

     iteration # 76     ecut=    60.00 Ry     beta= 0.22
     Davidson diagonalization with overlap
     ethr =  1.85E-04,  avg # of iterations =  1.0

     negative rho (up, down):  2.904E-02 0.000E+00

     total cpu time spent up to now is      521.3 secs

     total energy              =   -7568.57782958 Ry
     estimated scf accuracy    <       0.81003785 Ry

     iteration # 77     ecut=    60.00 Ry     beta= 0.22
     Davidson diagonalization with overlap
     ethr =  1.85E-04,  avg # of iterations =  1.0

     negative rho (up, down):  2.881E-02 0.000E+00

     total cpu time spent up to now is      527.9 secs

     total energy              =   -7568.57895232 Ry
     estimated scf accuracy    <       0.71699541 Ry

     iteration # 78     ecut=    60.00 Ry     beta= 0.22
     Davidson diagonalization with overlap
     ethr =  1.85E-04,  avg # of iterations =  1.0

     negative rho (up, down):  2.819E-02 0.000E+00

     total cpu time spent up to now is      534.5 secs

     total energy              =   -7568.58139715 Ry
     estimated scf accuracy    <       0.63009775 Ry

     iteration # 79     ecut=    60.00 Ry     beta= 0.22
     Davidson diagonalization with overlap
     ethr =  1.80E-04,  avg # of iterations =  1.0

     negative rho (up, down):  2.474E-02 0.000E+00

     total cpu time spent up to now is      541.0 secs

     total energy              =   -7568.57386539 Ry
     estimated scf accuracy    <       0.64672886 Ry

     iteration # 80     ecut=    60.00 Ry     beta= 0.22
     Davidson diagonalization with overlap
     ethr =  1.80E-04,  avg # of iterations =  1.2

     negative rho (up, down):  2.632E-02 0.000E+00

     total cpu time spent up to now is      547.7 secs

     total energy              =   -7568.57497405 Ry
     estimated scf accuracy    <       0.39342991 Ry

     iteration # 81     ecut=    60.00 Ry     beta= 0.22
     Davidson diagonalization with overlap
     ethr =  1.12E-04,  avg # of iterations =  1.0

     negative rho (up, down):  2.642E-02 0.000E+00

     total cpu time spent up to now is      554.3 secs

     total energy              =   -7568.57369760 Ry
     estimated scf accuracy    <       0.27752025 Ry

     iteration # 82     ecut=    60.00 Ry     beta= 0.22
     Davidson diagonalization with overlap
     ethr =  7.93E-05,  avg # of iterations =  2.0

     negative rho (up, down):  2.475E-02 0.000E+00

     total cpu time spent up to now is      561.6 secs

     total energy              =   -7568.57601645 Ry
     estimated scf accuracy    <       0.48118587 Ry

     iteration # 83     ecut=    60.00 Ry     beta= 0.22
     Davidson diagonalization with overlap
     ethr =  7.93E-05,  avg # of iterations =  1.6

     negative rho (up, down):  2.747E-02 0.000E+00

     total cpu time spent up to now is      568.5 secs

     total energy              =   -7568.57350374 Ry
     estimated scf accuracy    <       0.37575305 Ry

     iteration # 84     ecut=    60.00 Ry     beta= 0.22
     Davidson diagonalization with overlap
     ethr =  7.93E-05,  avg # of iterations =  1.0

     negative rho (up, down):  2.651E-02 0.000E+00

     total cpu time spent up to now is      575.1 secs

     total energy              =   -7568.57332062 Ry
     estimated scf accuracy    <       0.29121655 Ry

     iteration # 85     ecut=    60.00 Ry     beta= 0.22
     Davidson diagonalization with overlap
     ethr =  7.93E-05,  avg # of iterations =  1.0

     negative rho (up, down):  2.644E-02 0.000E+00

     total cpu time spent up to now is      581.7 secs

     total energy              =   -7568.57537387 Ry
     estimated scf accuracy    <       0.25323075 Ry

     iteration # 86     ecut=    60.00 Ry     beta= 0.22
     Davidson diagonalization with overlap
     ethr =  7.24E-05,  avg # of iterations =  1.0

     negative rho (up, down):  2.705E-02 0.000E+00

     total cpu time spent up to now is      588.2 secs

     total energy              =   -7568.57352717 Ry
     estimated scf accuracy    <       0.23295603 Ry

     iteration # 87     ecut=    60.00 Ry     beta= 0.22
     Davidson diagonalization with overlap
     ethr =  6.66E-05,  avg # of iterations =  1.2

     negative rho (up, down):  2.706E-02 0.000E+00

     total cpu time spent up to now is      594.9 secs

     total energy              =   -7568.57494841 Ry
     estimated scf accuracy    <       0.23557973 Ry

     iteration # 88     ecut=    60.00 Ry     beta= 0.22
     Davidson diagonalization with overlap
     ethr =  6.66E-05,  avg # of iterations =  1.0

     negative rho (up, down):  2.695E-02 0.000E+00

     total cpu time spent up to now is      601.5 secs

     total energy              =   -7568.57654942 Ry
     estimated scf accuracy    <       0.29009329 Ry

     iteration # 89     ecut=    60.00 Ry     beta= 0.22
     Davidson diagonalization with overlap
     ethr =  6.66E-05,  avg # of iterations =  1.0

     negative rho (up, down):  2.616E-02 0.000E+00

     total cpu time spent up to now is      608.0 secs

     total energy              =   -7568.57895973 Ry
     estimated scf accuracy    <       0.36276630 Ry

     iteration # 90     ecut=    60.00 Ry     beta= 0.22
     Davidson diagonalization with overlap
     ethr =  6.66E-05,  avg # of iterations =  1.0

     negative rho (up, down):  2.575E-02 0.000E+00

     total cpu time spent up to now is      614.6 secs

     total energy              =   -7568.57838477 Ry
     estimated scf accuracy    <       0.38884771 Ry

     iteration # 91     ecut=    60.00 Ry     beta= 0.22
     Davidson diagonalization with overlap
     ethr =  6.66E-05,  avg # of iterations =  1.0

     negative rho (up, down):  2.534E-02 0.000E+00

     total cpu time spent up to now is      621.2 secs

     total energy              =   -7568.57669298 Ry
     estimated scf accuracy    <       0.38905321 Ry

     iteration # 92     ecut=    60.00 Ry     beta= 0.22
     Davidson diagonalization with overlap
     ethr =  6.66E-05,  avg # of iterations =  1.0

     negative rho (up, down):  2.731E-02 0.000E+00

     total cpu time spent up to now is      627.7 secs

     total energy              =   -7568.57391023 Ry
     estimated scf accuracy    <       0.31882417 Ry

     iteration # 93     ecut=    60.00 Ry     beta= 0.22
     Davidson diagonalization with overlap
     ethr =  6.66E-05,  avg # of iterations =  1.0

     negative rho (up, down):  2.669E-02 0.000E+00

     total cpu time spent up to now is      634.3 secs

     total energy              =   -7568.57560862 Ry
     estimated scf accuracy    <       0.30716705 Ry

     iteration # 94     ecut=    60.00 Ry     beta= 0.22
     Davidson diagonalization with overlap
     ethr =  6.66E-05,  avg # of iterations =  1.2

     negative rho (up, down):  2.572E-02 0.000E+00

     total cpu time spent up to now is      641.0 secs

     total energy              =   -7568.58019538 Ry
     estimated scf accuracy    <       0.33949396 Ry

     iteration # 95     ecut=    60.00 Ry     beta= 0.22
     Davidson diagonalization with overlap
     ethr =  6.66E-05,  avg # of iterations =  1.0

     negative rho (up, down):  2.634E-02 0.000E+00

     total cpu time spent up to now is      647.6 secs

     total energy              =   -7568.57844856 Ry
     estimated scf accuracy    <       0.44417036 Ry

     iteration # 96     ecut=    60.00 Ry     beta= 0.22
     Davidson diagonalization with overlap
     ethr =  6.66E-05,  avg # of iterations =  1.0

     negative rho (up, down):  2.993E-02 0.000E+00

     total cpu time spent up to now is      654.1 secs

     total energy              =   -7568.56874939 Ry
     estimated scf accuracy    <       0.39072105 Ry

     iteration # 97     ecut=    60.00 Ry     beta= 0.22
     Davidson diagonalization with overlap
     ethr =  6.66E-05,  avg # of iterations =  1.2

     negative rho (up, down):  2.772E-02 0.000E+00

     total cpu time spent up to now is      660.8 secs

     total energy              =   -7568.57148853 Ry
     estimated scf accuracy    <       0.28198743 Ry

     iteration # 98     ecut=    60.00 Ry     beta= 0.22
     Davidson diagonalization with overlap
     ethr =  6.66E-05,  avg # of iterations =  1.0

     negative rho (up, down):  2.650E-02 0.000E+00

     total cpu time spent up to now is      667.4 secs

     total energy              =   -7568.57921831 Ry
     estimated scf accuracy    <       0.26184803 Ry

     iteration # 99     ecut=    60.00 Ry     beta= 0.22
     Davidson diagonalization with overlap
     ethr =  6.66E-05,  avg # of iterations =  1.2

     negative rho (up, down):  3.460E-02 0.000E+00

     total cpu time spent up to now is      674.1 secs

     total energy              =   -7568.57785610 Ry
     estimated scf accuracy    <       0.46885740 Ry

     iteration #100     ecut=    60.00 Ry     beta= 0.22
     Davidson diagonalization with overlap
     ethr =  6.66E-05,  avg # of iterations =  1.6

     negative rho (up, down):  2.856E-02 0.000E+00

     total cpu time spent up to now is      681.1 secs

     total energy              =   -7568.58491435 Ry
     estimated scf accuracy    <       0.91511839 Ry

     iteration #101     ecut=    60.00 Ry     beta= 0.22
     Davidson diagonalization with overlap
     ethr =  6.66E-05,  avg # of iterations =  2.0

     negative rho (up, down):  2.927E-02 0.000E+00

     total cpu time spent up to now is      688.6 secs

     total energy              =   -7568.55770029 Ry
     estimated scf accuracy    <       1.58759594 Ry

     iteration #102     ecut=    60.00 Ry     beta= 0.22
     Davidson diagonalization with overlap
     ethr =  6.66E-05,  avg # of iterations =  2.0

     negative rho (up, down):  2.818E-02 0.000E+00

     total cpu time spent up to now is      696.2 secs

     total energy              =   -7568.56955974 Ry
     estimated scf accuracy    <       0.42536838 Ry

     iteration #103     ecut=    60.00 Ry     beta= 0.22
     Davidson diagonalization with overlap
     ethr =  6.66E-05,  avg # of iterations =  1.6

     negative rho (up, down):  2.862E-02 0.000E+00

     total cpu time spent up to now is      703.2 secs

     total energy              =   -7568.57367169 Ry
     estimated scf accuracy    <       0.46864812 Ry

     iteration #104     ecut=    60.00 Ry     beta= 0.22
     Davidson diagonalization with overlap
     ethr =  6.66E-05,  avg # of iterations =  1.0

     negative rho (up, down):  2.797E-02 0.000E+00

     total cpu time spent up to now is      709.7 secs

     total energy              =   -7568.57618089 Ry
     estimated scf accuracy    <       0.34587261 Ry

     iteration #105     ecut=    60.00 Ry     beta= 0.22
     Davidson diagonalization with overlap
     ethr =  6.66E-05,  avg # of iterations =  1.0

     negative rho (up, down):  2.899E-02 0.000E+00

     total cpu time spent up to now is      716.3 secs

     total energy              =   -7568.57429129 Ry
     estimated scf accuracy    <       0.28538183 Ry

     iteration #106     ecut=    60.00 Ry     beta= 0.22
     Davidson diagonalization with overlap
     ethr =  6.66E-05,  avg # of iterations =  1.0

     negative rho (up, down):  2.587E-02 0.000E+00

     total cpu time spent up to now is      722.9 secs

     total energy              =   -7568.57511009 Ry
     estimated scf accuracy    <       0.33848777 Ry

     iteration #107     ecut=    60.00 Ry     beta= 0.22
     Davidson diagonalization with overlap
     ethr =  6.66E-05,  avg # of iterations =  1.0

     negative rho (up, down):  2.899E-02 0.000E+00

     total cpu time spent up to now is      729.4 secs

     total energy              =   -7568.57363388 Ry
     estimated scf accuracy    <       0.22337359 Ry

     iteration #108     ecut=    60.00 Ry     beta= 0.22
     Davidson diagonalization with overlap
     ethr =  6.38E-05,  avg # of iterations =  1.0

     negative rho (up, down):  2.928E-02 0.000E+00

     total cpu time spent up to now is      736.0 secs

     total energy              =   -7568.57376262 Ry
     estimated scf accuracy    <       0.20181360 Ry

     iteration #109     ecut=    60.00 Ry     beta= 0.22
     Davidson diagonalization with overlap
     ethr =  5.77E-05,  avg # of iterations =  1.0

     negative rho (up, down):  2.695E-02 0.000E+00

     total cpu time spent up to now is      742.5 secs

     total energy              =   -7568.57603011 Ry
     estimated scf accuracy    <       0.21293150 Ry

     iteration #110     ecut=    60.00 Ry     beta= 0.22
     Davidson diagonalization with overlap
     ethr =  5.77E-05,  avg # of iterations =  1.0

     negative rho (up, down):  2.766E-02 0.000E+00

     total cpu time spent up to now is      749.1 secs

     total energy              =   -7568.57993365 Ry
     estimated scf accuracy    <       0.27215190 Ry

     iteration #111     ecut=    60.00 Ry     beta= 0.22
     Davidson diagonalization with overlap
     ethr =  5.77E-05,  avg # of iterations =  1.6

     negative rho (up, down):  2.468E-02 0.000E+00

     total cpu time spent up to now is      756.0 secs

     total energy              =   -7568.58303604 Ry
     estimated scf accuracy    <       0.48299171 Ry

     iteration #112     ecut=    60.00 Ry     beta= 0.22
     Davidson diagonalization with overlap
     ethr =  5.77E-05,  avg # of iterations =  1.0

     negative rho (up, down):  2.636E-02 0.000E+00

     total cpu time spent up to now is      762.6 secs

     total energy              =   -7568.57815507 Ry
     estimated scf accuracy    <       0.38371033 Ry

     iteration #113     ecut=    60.00 Ry     beta= 0.22
     Davidson diagonalization with overlap
     ethr =  5.77E-05,  avg # of iterations =  1.6

     negative rho (up, down):  2.731E-02 0.000E+00

     total cpu time spent up to now is      769.6 secs

     total energy              =   -7568.58015115 Ry
     estimated scf accuracy    <       0.34241719 Ry

     iteration #114     ecut=    60.00 Ry     beta= 0.22
     Davidson diagonalization with overlap
     ethr =  5.77E-05,  avg # of iterations =  1.0

     negative rho (up, down):  2.639E-02 0.000E+00

     total cpu time spent up to now is      776.1 secs

     total energy              =   -7568.57891525 Ry
     estimated scf accuracy    <       0.40600391 Ry

     iteration #115     ecut=    60.00 Ry     beta= 0.22
     Davidson diagonalization with overlap
     ethr =  5.77E-05,  avg # of iterations =  1.0

     negative rho (up, down):  2.458E-02 0.000E+00

     total cpu time spent up to now is      782.7 secs

     total energy              =   -7568.58205623 Ry
     estimated scf accuracy    <       0.28164635 Ry

     iteration #116     ecut=    60.00 Ry     beta= 0.22
     Davidson diagonalization with overlap
     ethr =  5.77E-05,  avg # of iterations =  1.0

     negative rho (up, down):  2.464E-02 0.000E+00

     total cpu time spent up to now is      789.2 secs

     total energy              =   -7568.58591386 Ry
     estimated scf accuracy    <       0.34658081 Ry

     iteration #117     ecut=    60.00 Ry     beta= 0.22
     Davidson diagonalization with overlap
     ethr =  5.77E-05,  avg # of iterations =  1.8

     negative rho (up, down):  2.599E-02 0.000E+00

     total cpu time spent up to now is      796.3 secs

     total energy              =   -7568.57386570 Ry
     estimated scf accuracy    <       0.59109774 Ry

     iteration #118     ecut=    60.00 Ry     beta= 0.22
     Davidson diagonalization with overlap
     ethr =  5.77E-05,  avg # of iterations =  2.0

     negative rho (up, down):  3.108E-02 0.000E+00

     total cpu time spent up to now is      803.6 secs

     total energy              =   -7568.56761998 Ry
     estimated scf accuracy    <       0.24182191 Ry

     iteration #119     ecut=    60.00 Ry     beta= 0.22
     Davidson diagonalization with overlap
     ethr =  5.77E-05,  avg # of iterations =  2.0

     negative rho (up, down):  2.300E-02 0.000E+00

     total cpu time spent up to now is      811.1 secs

     total energy              =   -7568.57916374 Ry
     estimated scf accuracy    <       0.55306806 Ry

     iteration #120     ecut=    60.00 Ry     beta= 0.22
     Davidson diagonalization with overlap
     ethr =  5.77E-05,  avg # of iterations =  2.0

     negative rho (up, down):  2.431E-02 0.000E+00

     total cpu time spent up to now is      818.3 secs

     total energy              =   -7568.58132097 Ry
     estimated scf accuracy    <       0.34404690 Ry

     iteration #121     ecut=    60.00 Ry     beta= 0.22
     Davidson diagonalization with overlap
     ethr =  5.77E-05,  avg # of iterations =  1.0

     negative rho (up, down):  2.517E-02 0.000E+00

     total cpu time spent up to now is      824.9 secs

     total energy              =   -7568.57727892 Ry
     estimated scf accuracy    <       0.31480076 Ry

     iteration #122     ecut=    60.00 Ry     beta= 0.22
     Davidson diagonalization with overlap
     ethr =  5.77E-05,  avg # of iterations =  1.2

     negative rho (up, down):  2.622E-02 0.000E+00

     total cpu time spent up to now is      831.6 secs

     total energy              =   -7568.57902150 Ry
     estimated scf accuracy    <       0.24566729 Ry

     iteration #123     ecut=    60.00 Ry     beta= 0.22
     Davidson diagonalization with overlap
     ethr =  5.77E-05,  avg # of iterations =  1.0

     negative rho (up, down):  3.131E-02 0.000E+00

     total cpu time spent up to now is      838.2 secs

     total energy              =   -7568.57020935 Ry
     estimated scf accuracy    <       0.31560058 Ry

     iteration #124     ecut=    60.00 Ry     beta= 0.22
     Davidson diagonalization with overlap
     ethr =  5.77E-05,  avg # of iterations =  1.6

     negative rho (up, down):  2.805E-02 0.000E+00

     total cpu time spent up to now is      845.2 secs

     total energy              =   -7568.57620794 Ry
     estimated scf accuracy    <       0.24306218 Ry

     iteration #125     ecut=    60.00 Ry     beta= 0.22
     Davidson diagonalization with overlap
     ethr =  5.77E-05,  avg # of iterations =  1.8

     negative rho (up, down):  2.952E-02 0.000E+00

     total cpu time spent up to now is      852.3 secs

     total energy              =   -7568.57099156 Ry
     estimated scf accuracy    <       0.35272879 Ry

     iteration #126     ecut=    60.00 Ry     beta= 0.22
     Davidson diagonalization with overlap
     ethr =  5.77E-05,  avg # of iterations =  2.0

     negative rho (up, down):  2.831E-02 0.000E+00

     total cpu time spent up to now is      859.5 secs

     total energy              =   -7568.57618349 Ry
     estimated scf accuracy    <       0.27528593 Ry

     iteration #127     ecut=    60.00 Ry     beta= 0.22
     Davidson diagonalization with overlap
     ethr =  5.77E-05,  avg # of iterations =  1.6

     negative rho (up, down):  2.858E-02 0.000E+00

     total cpu time spent up to now is      866.5 secs

     total energy              =   -7568.57806534 Ry
     estimated scf accuracy    <       0.31677375 Ry

     iteration #128     ecut=    60.00 Ry     beta= 0.22
     Davidson diagonalization with overlap
     ethr =  5.77E-05,  avg # of iterations =  1.0

     negative rho (up, down):  2.666E-02 0.000E+00

     total cpu time spent up to now is      873.1 secs

     total energy              =   -7568.57977792 Ry
     estimated scf accuracy    <       0.30386356 Ry

     iteration #129     ecut=    60.00 Ry     beta= 0.22
     Davidson diagonalization with overlap
     ethr =  5.77E-05,  avg # of iterations =  1.0

     negative rho (up, down):  2.684E-02 0.000E+00

     total cpu time spent up to now is      879.6 secs

     total energy              =   -7568.58012579 Ry
     estimated scf accuracy    <       0.30870244 Ry

     iteration #130     ecut=    60.00 Ry     beta= 0.22
     Davidson diagonalization with overlap
     ethr =  5.77E-05,  avg # of iterations =  1.0

     negative rho (up, down):  2.564E-02 0.000E+00

     total cpu time spent up to now is      886.2 secs

     total energy              =   -7568.58176439 Ry
     estimated scf accuracy    <       0.31337344 Ry

     iteration #131     ecut=    60.00 Ry     beta= 0.22
     Davidson diagonalization with overlap
     ethr =  5.77E-05,  avg # of iterations =  1.0

     negative rho (up, down):  2.398E-02 0.000E+00

     total cpu time spent up to now is      892.7 secs

     total energy              =   -7568.58356681 Ry
     estimated scf accuracy    <       0.33649654 Ry

     iteration #132     ecut=    60.00 Ry     beta= 0.22
     Davidson diagonalization with overlap
     ethr =  5.77E-05,  avg # of iterations =  1.0

     negative rho (up, down):  2.294E-02 0.000E+00

     total cpu time spent up to now is      899.3 secs

     total energy              =   -7568.58433574 Ry
     estimated scf accuracy    <       0.33830252 Ry

     iteration #133     ecut=    60.00 Ry     beta= 0.22
     Davidson diagonalization with overlap
     ethr =  5.77E-05,  avg # of iterations =  1.0

     negative rho (up, down):  2.107E-02 0.000E+00

     total cpu time spent up to now is      905.9 secs

     total energy              =   -7568.58167125 Ry
     estimated scf accuracy    <       0.31977172 Ry

     iteration #134     ecut=    60.00 Ry     beta= 0.22
     Davidson diagonalization with overlap
     ethr =  5.77E-05,  avg # of iterations =  1.2

     negative rho (up, down):  1.952E-02 0.000E+00

     total cpu time spent up to now is      912.6 secs

     total energy              =   -7568.58758766 Ry
     estimated scf accuracy    <       0.16388965 Ry

     iteration #135     ecut=    60.00 Ry     beta= 0.22
     Davidson diagonalization with overlap
     ethr =  4.68E-05,  avg # of iterations =  1.2

     negative rho (up, down):  2.007E-02 0.000E+00

     total cpu time spent up to now is      919.3 secs

     total energy              =   -7568.58439960 Ry
     estimated scf accuracy    <       0.34911336 Ry

     iteration #136     ecut=    60.00 Ry     beta= 0.22
     Davidson diagonalization with overlap
     ethr =  4.68E-05,  avg # of iterations =  1.2

     negative rho (up, down):  1.745E-02 0.000E+00

     total cpu time spent up to now is      926.0 secs

     total energy              =   -7568.59332385 Ry
     estimated scf accuracy    <       0.20200862 Ry

     iteration #137     ecut=    60.00 Ry     beta= 0.22
     Davidson diagonalization with overlap
     ethr =  4.68E-05,  avg # of iterations =  2.0

     negative rho (up, down):  2.175E-02 0.000E+00

     total cpu time spent up to now is      933.3 secs

     total energy              =   -7568.57680114 Ry
     estimated scf accuracy    <       0.73278884 Ry

     iteration #138     ecut=    60.00 Ry     beta= 0.22
     Davidson diagonalization with overlap
     ethr =  4.68E-05,  avg # of iterations =  2.0

     negative rho (up, down):  2.373E-02 0.000E+00

     total cpu time spent up to now is      940.7 secs

     total energy              =   -7568.58443861 Ry
     estimated scf accuracy    <       0.18483692 Ry

     iteration #139     ecut=    60.00 Ry     beta= 0.22
     Davidson diagonalization with overlap
     ethr =  4.68E-05,  avg # of iterations =  2.0

     negative rho (up, down):  2.372E-02 0.000E+00

     total cpu time spent up to now is      947.9 secs

     total energy              =   -7568.58794485 Ry
     estimated scf accuracy    <       0.47563550 Ry

     iteration #140     ecut=    60.00 Ry     beta= 0.22
     Davidson diagonalization with overlap
     ethr =  4.68E-05,  avg # of iterations =  1.0

     negative rho (up, down):  2.492E-02 0.000E+00

     total cpu time spent up to now is      954.5 secs

     total energy              =   -7568.58831858 Ry
     estimated scf accuracy    <       0.49122387 Ry

     iteration #141     ecut=    60.00 Ry     beta= 0.22
     Davidson diagonalization with overlap
     ethr =  4.68E-05,  avg # of iterations =  1.0

     negative rho (up, down):  2.316E-02 0.000E+00

     total cpu time spent up to now is      961.1 secs

     total energy              =   -7568.58942336 Ry
     estimated scf accuracy    <       0.58426734 Ry

     iteration #142     ecut=    60.00 Ry     beta= 0.22
     Davidson diagonalization with overlap
     ethr =  4.68E-05,  avg # of iterations =  1.0

     negative rho (up, down):  2.975E-02 0.000E+00

     total cpu time spent up to now is      967.6 secs

     total energy              =   -7568.57400301 Ry
     estimated scf accuracy    <       0.55986138 Ry

     iteration #143     ecut=    60.00 Ry     beta= 0.22
     Davidson diagonalization with overlap
     ethr =  4.68E-05,  avg # of iterations =  2.0

     negative rho (up, down):  2.836E-02 0.000E+00

     total cpu time spent up to now is      974.9 secs

     total energy              =   -7568.57754585 Ry
     estimated scf accuracy    <       0.31241450 Ry

     iteration #144     ecut=    60.00 Ry     beta= 0.22
     Davidson diagonalization with overlap
     ethr =  4.68E-05,  avg # of iterations =  1.2

     negative rho (up, down):  2.575E-02 0.000E+00

     total cpu time spent up to now is      981.6 secs

     total energy              =   -7568.57928138 Ry
     estimated scf accuracy    <       0.28424269 Ry

     iteration #145     ecut=    60.00 Ry     beta= 0.22
     Davidson diagonalization with overlap
     ethr =  4.68E-05,  avg # of iterations =  1.8

     negative rho (up, down):  2.594E-02 0.000E+00

     total cpu time spent up to now is      988.7 secs

     total energy              =   -7568.58116597 Ry
     estimated scf accuracy    <       0.30931368 Ry

     iteration #146     ecut=    60.00 Ry     beta= 0.22
     Davidson diagonalization with overlap
     ethr =  4.68E-05,  avg # of iterations =  1.0

     negative rho (up, down):  2.548E-02 0.000E+00

     total cpu time spent up to now is      995.3 secs

     total energy              =   -7568.57810426 Ry
     estimated scf accuracy    <       0.27857025 Ry

     iteration #147     ecut=    60.00 Ry     beta= 0.22
     Davidson diagonalization with overlap
     ethr =  4.68E-05,  avg # of iterations =  1.2

     negative rho (up, down):  2.532E-02 0.000E+00

     total cpu time spent up to now is     1002.0 secs

     total energy              =   -7568.57886627 Ry
     estimated scf accuracy    <       0.15522856 Ry

     iteration #148     ecut=    60.00 Ry     beta= 0.22
     Davidson diagonalization with overlap
     ethr =  4.44E-05,  avg # of iterations =  1.0

     negative rho (up, down):  2.499E-02 0.000E+00

     total cpu time spent up to now is     1008.5 secs

     total energy              =   -7568.57860976 Ry
     estimated scf accuracy    <       0.12830941 Ry

     iteration #149     ecut=    60.00 Ry     beta= 0.22
     Davidson diagonalization with overlap
     ethr =  3.67E-05,  avg # of iterations =  1.2

     negative rho (up, down):  2.515E-02 0.000E+00

     total cpu time spent up to now is     1015.2 secs

     total energy              =   -7568.57989815 Ry
     estimated scf accuracy    <       0.12923015 Ry

     iteration #150     ecut=    60.00 Ry     beta= 0.22
     Davidson diagonalization with overlap
     ethr =  3.67E-05,  avg # of iterations =  1.0

     negative rho (up, down):  2.622E-02 0.000E+00

     total cpu time spent up to now is     1021.8 secs

     total energy              =   -7568.58169230 Ry
     estimated scf accuracy    <       0.16298261 Ry

     iteration #151     ecut=    60.00 Ry     beta= 0.22
     Davidson diagonalization with overlap
     ethr =  3.67E-05,  avg # of iterations =  1.0

     negative rho (up, down):  2.513E-02 0.000E+00

     total cpu time spent up to now is     1028.4 secs

     total energy              =   -7568.57992652 Ry
     estimated scf accuracy    <       0.29784709 Ry

     iteration #152     ecut=    60.00 Ry     beta= 0.22
     Davidson diagonalization with overlap
     ethr =  3.67E-05,  avg # of iterations =  1.0

     negative rho (up, down):  2.618E-02 0.000E+00

     total cpu time spent up to now is     1034.9 secs

     total energy              =   -7568.58231902 Ry
     estimated scf accuracy    <       0.17087219 Ry

     iteration #153     ecut=    60.00 Ry     beta= 0.22
     Davidson diagonalization with overlap
     ethr =  3.67E-05,  avg # of iterations =  1.0

     negative rho (up, down):  2.659E-02 0.000E+00

     total cpu time spent up to now is     1041.5 secs

     total energy              =   -7568.58325811 Ry
     estimated scf accuracy    <       0.33231178 Ry

     iteration #154     ecut=    60.00 Ry     beta= 0.22
     Davidson diagonalization with overlap
     ethr =  3.67E-05,  avg # of iterations =  1.0

     negative rho (up, down):  2.613E-02 0.000E+00

     total cpu time spent up to now is     1048.1 secs

     total energy              =   -7568.58305289 Ry
     estimated scf accuracy    <       0.37005724 Ry

     iteration #155     ecut=    60.00 Ry     beta= 0.22
     Davidson diagonalization with overlap
     ethr =  3.67E-05,  avg # of iterations =  1.0

     negative rho (up, down):  2.560E-02 0.000E+00

     total cpu time spent up to now is     1054.6 secs

     total energy              =   -7568.58234183 Ry
     estimated scf accuracy    <       0.34544285 Ry

     iteration #156     ecut=    60.00 Ry     beta= 0.22
     Davidson diagonalization with overlap
     ethr =  3.67E-05,  avg # of iterations =  1.0

     negative rho (up, down):  2.547E-02 0.000E+00

     total cpu time spent up to now is     1061.2 secs

     total energy              =   -7568.58124915 Ry
     estimated scf accuracy    <       0.29150579 Ry

     iteration #157     ecut=    60.00 Ry     beta= 0.22
     Davidson diagonalization with overlap
     ethr =  3.67E-05,  avg # of iterations =  1.0

     negative rho (up, down):  2.550E-02 0.000E+00

     total cpu time spent up to now is     1067.8 secs

     total energy              =   -7568.58160657 Ry
     estimated scf accuracy    <       0.23794803 Ry

     iteration #158     ecut=    60.00 Ry     beta= 0.22
     Davidson diagonalization with overlap
     ethr =  3.67E-05,  avg # of iterations =  1.2

     negative rho (up, down):  2.588E-02 0.000E+00

     total cpu time spent up to now is     1074.5 secs

     total energy              =   -7568.57891839 Ry
     estimated scf accuracy    <       0.28610860 Ry

     iteration #159     ecut=    60.00 Ry     beta= 0.22
     Davidson diagonalization with overlap
     ethr =  3.67E-05,  avg # of iterations =  1.6

     negative rho (up, down):  2.609E-02 0.000E+00

     total cpu time spent up to now is     1081.5 secs

     total energy              =   -7568.58289080 Ry
     estimated scf accuracy    <       0.21887027 Ry

     iteration #160     ecut=    60.00 Ry     beta= 0.22
     Davidson diagonalization with overlap
     ethr =  3.67E-05,  avg # of iterations =  1.2

     negative rho (up, down):  2.517E-02 0.000E+00

     total cpu time spent up to now is     1088.2 secs

     total energy              =   -7568.57939948 Ry
     estimated scf accuracy    <       0.37322280 Ry

     iteration #161     ecut=    60.00 Ry     beta= 0.22
     Davidson diagonalization with overlap
     ethr =  3.67E-05,  avg # of iterations =  1.2

     negative rho (up, down):  2.602E-02 0.000E+00

     total cpu time spent up to now is     1094.8 secs

     total energy              =   -7568.58280753 Ry
     estimated scf accuracy    <       0.18947702 Ry

     iteration #162     ecut=    60.00 Ry     beta= 0.22
     Davidson diagonalization with overlap
     ethr =  3.67E-05,  avg # of iterations =  2.0

     negative rho (up, down):  2.469E-02 0.000E+00

     total cpu time spent up to now is     1102.1 secs

     total energy              =   -7568.58004021 Ry
     estimated scf accuracy    <       0.44875296 Ry

     iteration #163     ecut=    60.00 Ry     beta= 0.22
     Davidson diagonalization with overlap
     ethr =  3.67E-05,  avg # of iterations =  1.4

     negative rho (up, down):  2.471E-02 0.000E+00

     total cpu time spent up to now is     1109.0 secs

     total energy              =   -7568.58130018 Ry
     estimated scf accuracy    <       0.20399826 Ry

     iteration #164     ecut=    60.00 Ry     beta= 0.22
     Davidson diagonalization with overlap
     ethr =  3.67E-05,  avg # of iterations =  1.0

     negative rho (up, down):  2.469E-02 0.000E+00

     total cpu time spent up to now is     1115.5 secs

     total energy              =   -7568.58164173 Ry
     estimated scf accuracy    <       0.21922452 Ry

     iteration #165     ecut=    60.00 Ry     beta= 0.22
     Davidson diagonalization with overlap
     ethr =  3.67E-05,  avg # of iterations =  1.0

     negative rho (up, down):  2.475E-02 0.000E+00

     total cpu time spent up to now is     1122.1 secs

     total energy              =   -7568.58109542 Ry
     estimated scf accuracy    <       0.21259184 Ry

     iteration #166     ecut=    60.00 Ry     beta= 0.22
     Davidson diagonalization with overlap
     ethr =  3.67E-05,  avg # of iterations =  1.0

     negative rho (up, down):  2.441E-02 0.000E+00

     total cpu time spent up to now is     1128.6 secs

     total energy              =   -7568.57956702 Ry
     estimated scf accuracy    <       0.19746605 Ry

     iteration #167     ecut=    60.00 Ry     beta= 0.22
     Davidson diagonalization with overlap
     ethr =  3.67E-05,  avg # of iterations =  1.0

     negative rho (up, down):  2.430E-02 0.000E+00

     total cpu time spent up to now is     1135.2 secs

     total energy              =   -7568.57893293 Ry
     estimated scf accuracy    <       0.11723713 Ry

     iteration #168     ecut=    60.00 Ry     beta= 0.22
     Davidson diagonalization with overlap
     ethr =  3.35E-05,  avg # of iterations =  1.0

     negative rho (up, down):  2.473E-02 0.000E+00

     total cpu time spent up to now is     1141.8 secs

     total energy              =   -7568.57837846 Ry
     estimated scf accuracy    <       0.07669754 Ry

     iteration #169     ecut=    60.00 Ry     beta= 0.22
     Davidson diagonalization with overlap
     ethr =  2.19E-05,  avg # of iterations =  1.0

     negative rho (up, down):  2.477E-02 0.000E+00

     total cpu time spent up to now is     1148.4 secs

     total energy              =   -7568.57858499 Ry
     estimated scf accuracy    <       0.07038483 Ry

     iteration #170     ecut=    60.00 Ry     beta= 0.22
     Davidson diagonalization with overlap
     ethr =  2.01E-05,  avg # of iterations =  1.0

     negative rho (up, down):  2.471E-02 0.000E+00

     total cpu time spent up to now is     1154.9 secs

     total energy              =   -7568.57874032 Ry
     estimated scf accuracy    <       0.06842588 Ry

     iteration #171     ecut=    60.00 Ry     beta= 0.22
     Davidson diagonalization with overlap
     ethr =  1.96E-05,  avg # of iterations =  1.0

     negative rho (up, down):  2.484E-02 0.000E+00

     total cpu time spent up to now is     1161.4 secs

     total energy              =   -7568.57752821 Ry
     estimated scf accuracy    <       0.07127635 Ry

     iteration #172     ecut=    60.00 Ry     beta= 0.22
     Davidson diagonalization with overlap
     ethr =  1.96E-05,  avg # of iterations =  1.0

     negative rho (up, down):  2.541E-02 0.000E+00

     total cpu time spent up to now is     1168.0 secs

     total energy              =   -7568.57821576 Ry
     estimated scf accuracy    <       0.03575709 Ry

     iteration #173     ecut=    60.00 Ry     beta= 0.22
     Davidson diagonalization with overlap
     ethr =  1.02E-05,  avg # of iterations =  1.2

     negative rho (up, down):  2.598E-02 0.000E+00

     total cpu time spent up to now is     1174.7 secs

     total energy              =   -7568.57842530 Ry
     estimated scf accuracy    <       0.08672102 Ry

     iteration #174     ecut=    60.00 Ry     beta= 0.22
     Davidson diagonalization with overlap
     ethr =  1.02E-05,  avg # of iterations =  1.0

     negative rho (up, down):  2.538E-02 0.000E+00

     total cpu time spent up to now is     1181.3 secs

     total energy              =   -7568.57801628 Ry
     estimated scf accuracy    <       0.11555154 Ry

     iteration #175     ecut=    60.00 Ry     beta= 0.22
     Davidson diagonalization with overlap
     ethr =  1.02E-05,  avg # of iterations =  1.0

     negative rho (up, down):  2.534E-02 0.000E+00

     total cpu time spent up to now is     1187.8 secs

     total energy              =   -7568.57814062 Ry
     estimated scf accuracy    <       0.07011348 Ry

     iteration #176     ecut=    60.00 Ry     beta= 0.22
     Davidson diagonalization with overlap
     ethr =  1.02E-05,  avg # of iterations =  1.0

     negative rho (up, down):  2.542E-02 0.000E+00

     total cpu time spent up to now is     1194.4 secs

     total energy              =   -7568.57807956 Ry
     estimated scf accuracy    <       0.06765387 Ry

     iteration #177     ecut=    60.00 Ry     beta= 0.22
     Davidson diagonalization with overlap
     ethr =  1.02E-05,  avg # of iterations =  1.0

     negative rho (up, down):  2.597E-02 0.000E+00

     total cpu time spent up to now is     1201.0 secs

     total energy              =   -7568.57800049 Ry
     estimated scf accuracy    <       0.06804912 Ry

     iteration #178     ecut=    60.00 Ry     beta= 0.22
     Davidson diagonalization with overlap
     ethr =  1.02E-05,  avg # of iterations =  1.0

     negative rho (up, down):  2.620E-02 0.000E+00

     total cpu time spent up to now is     1207.5 secs

     total energy              =   -7568.57785491 Ry
     estimated scf accuracy    <       0.08991514 Ry

     iteration #179     ecut=    60.00 Ry     beta= 0.22
     Davidson diagonalization with overlap
     ethr =  1.02E-05,  avg # of iterations =  1.0

     negative rho (up, down):  2.654E-02 0.000E+00

     total cpu time spent up to now is     1214.1 secs

     total energy              =   -7568.57740363 Ry
     estimated scf accuracy    <       0.09183588 Ry

     iteration #180     ecut=    60.00 Ry     beta= 0.22
     Davidson diagonalization with overlap
     ethr =  1.02E-05,  avg # of iterations =  1.0

     negative rho (up, down):  2.662E-02 0.000E+00

     total cpu time spent up to now is     1220.6 secs

     total energy              =   -7568.57744794 Ry
     estimated scf accuracy    <       0.08502548 Ry

     iteration #181     ecut=    60.00 Ry     beta= 0.22
     Davidson diagonalization with overlap
     ethr =  1.02E-05,  avg # of iterations =  1.0

     negative rho (up, down):  2.638E-02 0.000E+00

     total cpu time spent up to now is     1227.2 secs

     total energy              =   -7568.57764723 Ry
     estimated scf accuracy    <       0.08882925 Ry

     iteration #182     ecut=    60.00 Ry     beta= 0.22
     Davidson diagonalization with overlap
     ethr =  1.02E-05,  avg # of iterations =  1.0

     negative rho (up, down):  2.678E-02 0.000E+00

     total cpu time spent up to now is     1233.8 secs

     total energy              =   -7568.57733695 Ry
     estimated scf accuracy    <       0.08967084 Ry

     iteration #183     ecut=    60.00 Ry     beta= 0.22
     Davidson diagonalization with overlap
     ethr =  1.02E-05,  avg # of iterations =  1.0

     negative rho (up, down):  2.642E-02 0.000E+00

     total cpu time spent up to now is     1240.3 secs

     total energy              =   -7568.57752750 Ry
     estimated scf accuracy    <       0.08958629 Ry

     iteration #184     ecut=    60.00 Ry     beta= 0.22
     Davidson diagonalization with overlap
     ethr =  1.02E-05,  avg # of iterations =  1.0

     negative rho (up, down):  2.659E-02 0.000E+00

     total cpu time spent up to now is     1246.9 secs

     total energy              =   -7568.57738518 Ry
     estimated scf accuracy    <       0.08565387 Ry

     iteration #185     ecut=    60.00 Ry     beta= 0.22
     Davidson diagonalization with overlap
     ethr =  1.02E-05,  avg # of iterations =  1.0

     negative rho (up, down):  2.635E-02 0.000E+00

     total cpu time spent up to now is     1253.5 secs

     total energy              =   -7568.57769000 Ry
     estimated scf accuracy    <       0.08544764 Ry

     iteration #186     ecut=    60.00 Ry     beta= 0.22
     Davidson diagonalization with overlap
     ethr =  1.02E-05,  avg # of iterations =  1.0

     negative rho (up, down):  2.598E-02 0.000E+00

     total cpu time spent up to now is     1260.0 secs

     total energy              =   -7568.57748334 Ry
     estimated scf accuracy    <       0.09105247 Ry

     iteration #187     ecut=    60.00 Ry     beta= 0.22
     Davidson diagonalization with overlap
     ethr =  1.02E-05,  avg # of iterations =  1.0

     negative rho (up, down):  2.563E-02 0.000E+00

     total cpu time spent up to now is     1266.6 secs

     total energy              =   -7568.57807471 Ry
     estimated scf accuracy    <       0.06725426 Ry

     iteration #188     ecut=    60.00 Ry     beta= 0.22
     Davidson diagonalization with overlap
     ethr =  1.02E-05,  avg # of iterations =  1.0

     negative rho (up, down):  2.434E-02 0.000E+00

     total cpu time spent up to now is     1273.2 secs

     total energy              =   -7568.57809664 Ry
     estimated scf accuracy    <       0.07654945 Ry

     iteration #189     ecut=    60.00 Ry     beta= 0.22
     Davidson diagonalization with overlap
     ethr =  1.02E-05,  avg # of iterations =  1.2

     negative rho (up, down):  2.505E-02 0.000E+00

     total cpu time spent up to now is     1279.8 secs

     total energy              =   -7568.57761946 Ry
     estimated scf accuracy    <       0.03274914 Ry

     iteration #190     ecut=    60.00 Ry     beta= 0.22
     Davidson diagonalization with overlap
     ethr =  9.36E-06,  avg # of iterations =  1.0

     negative rho (up, down):  2.544E-02 0.000E+00

     total cpu time spent up to now is     1286.4 secs

     total energy              =   -7568.57764241 Ry
     estimated scf accuracy    <       0.03054125 Ry

     iteration #191     ecut=    60.00 Ry     beta= 0.22
     Davidson diagonalization with overlap
     ethr =  8.73E-06,  avg # of iterations =  1.0

     negative rho (up, down):  2.518E-02 0.000E+00

     total cpu time spent up to now is     1293.0 secs

     total energy              =   -7568.57763646 Ry
     estimated scf accuracy    <       0.04795130 Ry

     iteration #192     ecut=    60.00 Ry     beta= 0.22
     Davidson diagonalization with overlap
     ethr =  8.73E-06,  avg # of iterations =  1.0

     negative rho (up, down):  2.722E-02 0.000E+00

     total cpu time spent up to now is     1299.5 secs

     total energy              =   -7568.57678921 Ry
     estimated scf accuracy    <       0.03578381 Ry

     iteration #193     ecut=    60.00 Ry     beta= 0.22
     Davidson diagonalization with overlap
     ethr =  8.73E-06,  avg # of iterations =  1.2

     negative rho (up, down):  2.586E-02 0.000E+00

     total cpu time spent up to now is     1306.2 secs

     total energy              =   -7568.57781631 Ry
     estimated scf accuracy    <       0.08645618 Ry

     iteration #194     ecut=    60.00 Ry     beta= 0.22
     Davidson diagonalization with overlap
     ethr =  8.73E-06,  avg # of iterations =  1.0

     negative rho (up, down):  2.560E-02 0.000E+00

     total cpu time spent up to now is     1312.8 secs

     total energy              =   -7568.57747257 Ry
     estimated scf accuracy    <       0.07293237 Ry

     iteration #195     ecut=    60.00 Ry     beta= 0.22
     Davidson diagonalization with overlap
     ethr =  8.73E-06,  avg # of iterations =  1.0

     negative rho (up, down):  2.940E-02 0.000E+00

     total cpu time spent up to now is     1319.4 secs

     total energy              =   -7568.57493614 Ry
     estimated scf accuracy    <       0.04876768 Ry

     iteration #196     ecut=    60.00 Ry     beta= 0.22
     Davidson diagonalization with overlap
     ethr =  8.73E-06,  avg # of iterations =  1.0

     negative rho (up, down):  2.648E-02 0.000E+00

     total cpu time spent up to now is     1325.9 secs

     total energy              =   -7568.57563276 Ry
     estimated scf accuracy    <       0.07390625 Ry

     iteration #197     ecut=    60.00 Ry     beta= 0.22
     Davidson diagonalization with overlap
     ethr =  8.73E-06,  avg # of iterations =  1.4

     negative rho (up, down):  2.470E-02 0.000E+00

     total cpu time spent up to now is     1332.8 secs

     total energy              =   -7568.57574042 Ry
     estimated scf accuracy    <       0.01518516 Ry

     iteration #198     ecut=    60.00 Ry     beta= 0.22
     Davidson diagonalization with overlap
     ethr =  4.34E-06,  avg # of iterations =  2.0

     negative rho (up, down):  2.516E-02 0.000E+00

     total cpu time spent up to now is     1340.6 secs

     total energy              =   -7568.57481071 Ry
     estimated scf accuracy    <       0.13052340 Ry

     iteration #199     ecut=    60.00 Ry     beta= 0.22
     Davidson diagonalization with overlap
     ethr =  4.34E-06,  avg # of iterations =  2.0

     negative rho (up, down):  2.517E-02 0.000E+00

     total cpu time spent up to now is     1348.3 secs

     total energy              =   -7568.57706571 Ry
     estimated scf accuracy    <       0.00558275 Ry

     iteration #200     ecut=    60.00 Ry     beta= 0.22
     Davidson diagonalization with overlap
     ethr =  1.60E-06,  avg # of iterations =  1.0

     negative rho (up, down):  2.498E-02 0.000E+00

     total cpu time spent up to now is     1354.9 secs

     total energy              =   -7568.57727701 Ry
     estimated scf accuracy    <       0.00530519 Ry

     iteration #201     ecut=    60.00 Ry     beta= 0.22
     Davidson diagonalization with overlap
     ethr =  1.52E-06,  avg # of iterations =  1.0

     negative rho (up, down):  2.466E-02 0.000E+00

     total cpu time spent up to now is     1361.5 secs

     total energy              =   -7568.57774141 Ry
     estimated scf accuracy    <       0.00761596 Ry

     iteration #202     ecut=    60.00 Ry     beta= 0.22
     Davidson diagonalization with overlap
     ethr =  1.52E-06,  avg # of iterations =  2.0

     negative rho (up, down):  2.462E-02 0.000E+00

     total cpu time spent up to now is     1368.9 secs

     total energy              =   -7568.57722629 Ry
     estimated scf accuracy    <       0.02742038 Ry

     iteration #203     ecut=    60.00 Ry     beta= 0.22
     Davidson diagonalization with overlap
     ethr =  1.52E-06,  avg # of iterations =  2.0

     negative rho (up, down):  2.445E-02 0.000E+00

     total cpu time spent up to now is     1376.5 secs

     total energy              =   -7568.57765402 Ry
     estimated scf accuracy    <       0.01006110 Ry

     iteration #204     ecut=    60.00 Ry     beta= 0.22
     Davidson diagonalization with overlap
     ethr =  1.52E-06,  avg # of iterations =  1.2

     negative rho (up, down):  2.433E-02 0.000E+00

     total cpu time spent up to now is     1383.2 secs

     total energy              =   -7568.57779863 Ry
     estimated scf accuracy    <       0.00373617 Ry

     iteration #205     ecut=    60.00 Ry     beta= 0.22
     Davidson diagonalization with overlap
     ethr =  1.07E-06,  avg # of iterations =  1.2

     negative rho (up, down):  2.423E-02 0.000E+00

     total cpu time spent up to now is     1389.9 secs

     total energy              =   -7568.57787366 Ry
     estimated scf accuracy    <       0.00360442 Ry

     iteration #206     ecut=    60.00 Ry     beta= 0.22
     Davidson diagonalization with overlap
     ethr =  1.03E-06,  avg # of iterations =  1.0

     negative rho (up, down):  2.431E-02 0.000E+00

     total cpu time spent up to now is     1396.5 secs

     total energy              =   -7568.57782276 Ry
     estimated scf accuracy    <       0.00205852 Ry

     iteration #207     ecut=    60.00 Ry     beta= 0.22
     Davidson diagonalization with overlap
     ethr =  5.88E-07,  avg # of iterations =  2.0

     negative rho (up, down):  2.419E-02 0.000E+00

     total cpu time spent up to now is     1403.7 secs

     total energy              =   -7568.57784580 Ry
     estimated scf accuracy    <       0.00441637 Ry

     iteration #208     ecut=    60.00 Ry     beta= 0.22
     Davidson diagonalization with overlap
     ethr =  5.88E-07,  avg # of iterations =  2.0

     negative rho (up, down):  2.395E-02 0.000E+00

     total cpu time spent up to now is     1411.0 secs

     total energy              =   -7568.57807469 Ry
     estimated scf accuracy    <       0.00081208 Ry

     iteration #209     ecut=    60.00 Ry     beta= 0.22
     Davidson diagonalization with overlap
     ethr =  2.32E-07,  avg # of iterations =  2.0

     negative rho (up, down):  2.379E-02 0.000E+00

     total cpu time spent up to now is     1418.4 secs

     total energy              =   -7568.57826037 Ry
     estimated scf accuracy    <       0.00171905 Ry

     iteration #210     ecut=    60.00 Ry     beta= 0.22
     Davidson diagonalization with overlap
     ethr =  2.32E-07,  avg # of iterations =  2.0

     negative rho (up, down):  2.371E-02 0.000E+00

     total cpu time spent up to now is     1425.7 secs

     total energy              =   -7568.57828148 Ry
     estimated scf accuracy    <       0.00327535 Ry

     iteration #211     ecut=    60.00 Ry     beta= 0.22
     Davidson diagonalization with overlap
     ethr =  2.32E-07,  avg # of iterations =  2.0

     negative rho (up, down):  2.372E-02 0.000E+00

     total cpu time spent up to now is     1432.9 secs

     total energy              =   -7568.57822949 Ry
     estimated scf accuracy    <       0.00126781 Ry

     iteration #212     ecut=    60.00 Ry     beta= 0.22
     Davidson diagonalization with overlap
     ethr =  2.32E-07,  avg # of iterations =  2.0

     negative rho (up, down):  2.350E-02 0.000E+00

     total cpu time spent up to now is     1440.4 secs

     total energy              =   -7568.57842332 Ry
     estimated scf accuracy    <       0.00028085 Ry

     iteration #213     ecut=    60.00 Ry     beta= 0.22
     Davidson diagonalization with overlap
     ethr =  8.02E-08,  avg # of iterations =  2.0

     negative rho (up, down):  2.365E-02 0.000E+00

     total cpu time spent up to now is     1448.2 secs

     total energy              =   -7568.57790063 Ry
     estimated scf accuracy    <       0.00639894 Ry

     iteration #214     ecut=    60.00 Ry     beta= 0.22
     Davidson diagonalization with overlap
     ethr =  8.02E-08,  avg # of iterations =  2.2

     negative rho (up, down):  2.367E-02 0.000E+00

     total cpu time spent up to now is     1456.1 secs

     total energy              =   -7568.57845041 Ry
     estimated scf accuracy    <       0.00705220 Ry

     iteration #215     ecut=    60.00 Ry     beta= 0.22
     Davidson diagonalization with overlap
     ethr =  8.02E-08,  avg # of iterations =  1.0

     negative rho (up, down):  2.367E-02 0.000E+00

     total cpu time spent up to now is     1462.7 secs

     total energy              =   -7568.57843602 Ry
     estimated scf accuracy    <       0.00644123 Ry

     iteration #216     ecut=    60.00 Ry     beta= 0.22
     Davidson diagonalization with overlap
     ethr =  8.02E-08,  avg # of iterations =  1.6

     negative rho (up, down):  2.363E-02 0.000E+00

     total cpu time spent up to now is     1469.7 secs

     total energy              =   -7568.57837740 Ry
     estimated scf accuracy    <       0.00566099 Ry

     iteration #217     ecut=    60.00 Ry     beta= 0.22
     Davidson diagonalization with overlap
     ethr =  8.02E-08,  avg # of iterations =  2.0

     negative rho (up, down):  2.356E-02 0.000E+00

     total cpu time spent up to now is     1477.2 secs

     total energy              =   -7568.57840116 Ry
     estimated scf accuracy    <       0.00208470 Ry

     iteration #218     ecut=    60.00 Ry     beta= 0.22
     Davidson diagonalization with overlap
     ethr =  8.02E-08,  avg # of iterations =  2.0

     negative rho (up, down):  2.352E-02 0.000E+00

     total cpu time spent up to now is     1484.7 secs

     total energy              =   -7568.57843535 Ry
     estimated scf accuracy    <       0.00030687 Ry

     iteration #219     ecut=    60.00 Ry     beta= 0.22
     Davidson diagonalization with overlap
     ethr =  8.02E-08,  avg # of iterations =  2.0

     negative rho (up, down):  2.354E-02 0.000E+00

     total cpu time spent up to now is     1492.1 secs

     total energy              =   -7568.57842485 Ry
     estimated scf accuracy    <       0.00003824 Ry

     iteration #220     ecut=    60.00 Ry     beta= 0.22
     Davidson diagonalization with overlap
     ethr =  1.09E-08,  avg # of iterations =  2.0

     negative rho (up, down):  2.354E-02 0.000E+00

     total cpu time spent up to now is     1499.7 secs

     total energy              =   -7568.57842350 Ry
     estimated scf accuracy    <       0.00002610 Ry

     iteration #221     ecut=    60.00 Ry     beta= 0.22
     Davidson diagonalization with overlap
     ethr =  7.46E-09,  avg # of iterations =  2.0

     negative rho (up, down):  2.356E-02 0.000E+00

     total cpu time spent up to now is     1507.0 secs

     total energy              =   -7568.57841170 Ry
     estimated scf accuracy    <       0.00010984 Ry

     iteration #222     ecut=    60.00 Ry     beta= 0.22
     Davidson diagonalization with overlap
     ethr =  7.46E-09,  avg # of iterations =  1.0

     negative rho (up, down):  2.355E-02 0.000E+00

     total cpu time spent up to now is     1513.5 secs

     total energy              =   -7568.57841427 Ry
     estimated scf accuracy    <       0.00008517 Ry

     iteration #223     ecut=    60.00 Ry     beta= 0.22
     Davidson diagonalization with overlap
     ethr =  7.46E-09,  avg # of iterations =  2.0

     negative rho (up, down):  2.354E-02 0.000E+00

     total cpu time spent up to now is     1521.0 secs

     End of self-consistent calculation

          k = 0.0000 0.0000 0.0000 ( 15865 PWs)   bands (ev):

   -90.1137 -90.1089 -90.0711 -90.0613 -90.0516 -90.0439 -90.0381 -90.0212
   -90.0174 -90.0045 -90.0018 -89.9870 -89.9796 -89.7938 -89.7685 -62.1827
   -62.1764 -62.1583 -62.1560 -62.1293 -62.1255 -62.0963 -62.0963 -50.7844
   -50.7695 -50.7317 -50.6535 -50.6080 -50.5699 -50.5644 -50.5536 -50.5465
   -50.5361 -50.5312 -50.5249 -50.5230 -50.4510 -50.4425 -50.4132 -50.4119
   -50.4072 -50.4035 -50.3762 -50.3700 -50.3656 -50.3609 -50.3599 -50.3539
   -50.3476 -50.3448 -50.3405 -50.3367 -50.3360 -50.3273 -50.2919 -50.2864
   -50.2821 -50.2809 -50.2806 -50.2587 -50.2456 -50.2356 -50.2272 -50.2240
   -50.2155 -50.1963 -49.9687 -49.9473 -28.9451 -28.9383 -28.9344 -28.9202
   -28.9150 -28.9130 -28.9119 -28.9088 -28.9079 -28.9060 -28.9054 -28.8904
   -28.8855 -28.8809 -28.8711 -28.8677 -28.8647 -28.8611 -28.8400 -28.8397
   -28.8396 -28.8393 -28.8379 -28.8374   4.4833   5.0504   5.4276   6.9146
     7.2997   8.4553   8.4830   8.9276   9.1765   9.3405   9.4581   9.5250
     9.5300   9.5307   9.5670   9.5712   9.5854   9.7481   9.7498   9.8286
     9.8781   9.8845   9.9466  10.0387  10.0751  10.3107  10.3301  10.3504
    10.3555  10.3867  10.4165  10.4208  10.4606  10.5370  10.6522  10.8350
    10.8935  10.9098  10.9293  10.9830  11.0541  11.0934  11.1423  11.1978
    11.5131  11.5198  11.6657  11.7700  11.7822  11.8564  11.8755  11.8834
    11.9972  12.0214  12.0623  12.1600  12.2168  12.2183  12.2363  12.2512
    12.2540  12.2548  12.2576  12.2586  12.2750  12.3059  12.3372  12.3383
    12.3512  12.3705  12.3879  12.3916  12.3950  12.5290  12.6848  12.8034
    12.8833  13.0159  13.1697  13.3405  13.3594  13.3625  13.8768  13.8986
    14.0941  14.1148  14.1269  14.1905  14.2151  14.2540  14.4973  14.5208
    14.5654  15.4271  15.5352  15.8806  15.9211  15.9618  16.2476  16.4544
    16.5023  16.9795  17.0346  17.4972  17.5455  17.6597  17.8461  17.9140
    18.0704  18.5790  18.7156  18.9213  19.1809  19.3538  19.7810  19.8460
    19.8556  20.1327

          k = 0.0003 0.3853-0.0001 ( 15972 PWs)   bands (ev):

   -90.1126 -90.1087 -90.0654 -90.0567 -90.0495 -90.0455 -90.0395 -90.0267
   -90.0239 -90.0049 -90.0023 -89.9870 -89.9796 -89.7939 -89.7687 -62.1826
   -62.1763 -62.1582 -62.1559 -62.1294 -62.1256 -62.0964 -62.0964 -50.7482
   -50.7346 -50.6886 -50.6562 -50.6254 -50.5870 -50.5782 -50.5485 -50.5432
   -50.5380 -50.5243 -50.5198 -50.5090 -50.4575 -50.4417 -50.4174 -50.4118
   -50.4018 -50.3974 -50.3777 -50.3656 -50.3629 -50.3617 -50.3541 -50.3528
   -50.3491 -50.3469 -50.3430 -50.3378 -50.3366 -50.3292 -50.3135 -50.3105
   -50.2972 -50.2922 -50.2903 -50.2692 -50.2581 -50.2360 -50.2274 -50.2242
   -50.2157 -50.1963 -49.9689 -49.9474 -28.9460 -28.9392 -28.9352 -28.9189
   -28.9145 -28.9140 -28.9123 -28.9088 -28.9079 -28.9065 -28.9051 -28.8914
   -28.8860 -28.8813 -28.8704 -28.8670 -28.8649 -28.8614 -28.8415 -28.8410
   -28.8388 -28.8386 -28.8369 -28.8363   5.4888   6.0376   6.3641   7.7208
     8.0428   8.1926   8.4683   8.7429   9.0566   9.1128   9.3117   9.3179
     9.4712   9.5817   9.6041   9.6394   9.7411   9.7884   9.8719   9.8764
     9.9193  10.1183  10.1704  10.1934  10.2147  10.2808  10.3213  10.3368
    10.3839  10.4367  10.4533  10.5032  10.5729  10.5838  10.6157  10.6693
    10.7235  10.8020  10.8521  10.8800  11.0147  11.0230  11.0270  11.0764
    11.1215  11.1347  11.1548  11.2457  11.3815  11.4268  11.4777  11.4995
    11.5499  11.6550  11.6720  11.7583  11.7816  11.8233  11.8340  11.8430
    11.9322  11.9369  12.0047  12.0476  12.0896  12.1029  12.1467  12.2129
    12.2602  12.2725  12.2998  12.3237  12.3296  12.3553  12.3739  12.4251
    12.4585  12.5457  12.6129  12.6209  12.7060  12.7655  12.8741  13.1966
    13.2180  13.5801  13.6094  13.7485  14.0472  14.0673  14.1939  14.2534
    14.4113  14.4954  14.5592  15.2262  15.7809  16.3346  16.3959  17.6224
    17.8403  18.1117  18.2660  18.8375  18.9578  19.2181  19.2305  19.2405
    19.3681  19.8803  20.3316  20.4629  20.4699  21.1161  21.1935  21.4069
    21.9070  22.2724

          k = 0.3335 0.1925-0.0001 ( 15974 PWs)   bands (ev):

   -90.1127 -90.1087 -90.0665 -90.0588 -90.0475 -90.0444 -90.0434 -90.0193
   -90.0192 -90.0103 -90.0053 -89.9867 -89.9795 -89.7898 -89.7729 -62.1826
   -62.1763 -62.1582 -62.1559 -62.1294 -62.1256 -62.0964 -62.0964 -50.7506
   -50.7369 -50.6905 -50.6542 -50.6194 -50.5780 -50.5739 -50.5483 -50.5439
   -50.5391 -50.5286 -50.5226 -50.5099 -50.4513 -50.4483 -50.4129 -50.4059
   -50.3993 -50.3760 -50.3710 -50.3679 -50.3673 -50.3653 -50.3613 -50.3571
   -50.3503 -50.3468 -50.3421 -50.3399 -50.3248 -50.3220 -50.3040 -50.3021
   -50.3000 -50.2953 -50.2936 -50.2759 -50.2706 -50.2575 -50.2346 -50.2244
   -50.2146 -50.1992 -49.9650 -49.9512 -28.9451 -28.9383 -28.9352 -28.9206
   -28.9160 -28.9139 -28.9124 -28.9095 -28.9072 -28.9065 -28.9051 -28.8914
   -28.8847 -28.8801 -28.8713 -28.8681 -28.8644 -28.8606 -28.8412 -28.8408
   -28.8390 -28.8387 -28.8369 -28.8365   5.4904   6.0354   6.3963   7.8168
     8.0396   8.1791   8.4640   8.6707   9.0465   9.1099   9.3308   9.4419
     9.4898   9.5097   9.6549   9.7425   9.7603   9.8024   9.8632   9.8993
     9.9342  10.1446  10.1473  10.2029  10.2330  10.3132  10.3376  10.3871
    10.4164  10.4338  10.5043  10.5363  10.5767  10.5911  10.6439  10.7514
    10.7671  10.8231  10.8458  10.9250  10.9267  10.9744  11.0299  11.0592
    11.1453  11.1745  11.2106  11.2824  11.3410  11.4242  11.4352  11.4731
    11.4987  11.6042  11.6338  11.6647  11.7229  11.7599  11.8194  11.8351
    11.8636  11.8776  11.9623  11.9837  12.0423  12.0793  12.0917  12.1168
    12.1576  12.2192  12.2478  12.2635  12.3136  12.3490  12.3682  12.4051
    12.4129  12.4335  12.5218  12.5431  12.7370  12.7444  12.8848  13.0742
    13.2233  13.6972  13.7304  13.9283  14.0080  14.0662  14.2037  14.2797
    14.3416  14.7202  15.1099  15.4831  15.8422  16.0242  16.1485  17.4090
    17.9219  18.0319  18.1262  18.9157  19.0389  19.0563  19.3578  19.4158
    19.4301  19.9650  20.3892  20.4195  20.4846  21.0299  21.1840  21.3636
    21.9030  22.2019

          k = 0.3337 0.5778-0.0002 ( 15988 PWs)   bands (ev):

   -90.1121 -90.1086 -90.0597 -90.0564 -90.0543 -90.0442 -90.0405 -90.0237
   -90.0222 -90.0090 -90.0059 -89.9867 -89.9794 -89.7898 -89.7729 -62.1825
   -62.1763 -62.1582 -62.1558 -62.1294 -62.1257 -62.0965 -62.0964 -50.7246
   -50.7131 -50.6624 -50.6548 -50.6185 -50.6119 -50.5912 -50.5542 -50.5426
   -50.5394 -50.5229 -50.5163 -50.4967 -50.4552 -50.4469 -50.4153 -50.4056
   -50.3935 -50.3768 -50.3739 -50.3714 -50.3676 -50.3631 -50.3613 -50.3564
   -50.3525 -50.3443 -50.3368 -50.3277 -50.3234 -50.3225 -50.3218 -50.3043
   -50.3015 -50.2977 -50.2963 -50.2929 -50.2775 -50.2706 -50.2348 -50.2246
   -50.2146 -50.1992 -49.9651 -49.9512 -28.9456 -28.9388 -28.9357 -28.9198
   -28.9154 -28.9141 -28.9130 -28.9104 -28.9078 -28.9065 -28.9038 -28.8921
   -28.8849 -28.8802 -28.8712 -28.8678 -28.8642 -28.8606 -28.8420 -28.8415
   -28.8383 -28.8379 -28.8367 -28.8362   7.0293   7.3486   7.5844   7.6127
     7.6873   8.0483   8.1706   8.1880   8.4006   9.0328   9.0878   9.1553
     9.1835   9.2264   9.5688   9.6447   9.8883   9.9328   9.9438   9.9862
    10.0385  10.1141  10.2550  10.2637  10.2878  10.3069  10.3948  10.4025
    10.4742  10.4935  10.5104  10.5424  10.5541  10.5596  10.5889  10.5954
    10.6631  10.7172  10.7368  10.7478  10.7881  10.7949  10.8651  10.9818
    11.0127  11.0359  11.0893  11.1546  11.2892  11.2974  11.3345  11.3839
    11.3964  11.4161  11.4815  11.5995  11.6034  11.6839  11.6932  11.7635
    11.7765  11.8229  11.9001  11.9121  11.9158  11.9631  11.9712  11.9777
    12.0282  12.0389  12.0768  12.0968  12.1258  12.1926  12.2695  12.3663
    12.3987  12.4291  12.5298  12.5431  12.5616  12.6136  12.7336  12.7838
    12.8146  12.9005  13.0600  13.1977  13.3250  13.3838  14.7686  14.7970
    14.8316  14.9335  15.3522  15.7499  17.4983  17.6639  17.7922  17.9113
    18.0381  18.6652  18.6789  18.6894  18.7798  18.8576  19.1448  19.4523
    19.6545  19.7613  19.7925  20.5115  20.6013  21.0104  21.0328  21.1524
    21.8209  23.0363

          k = 0.3332-0.1928-0.0000 ( 15973 PWs)   bands (ev):

   -90.1126 -90.1087 -90.0652 -90.0585 -90.0505 -90.0480 -90.0389 -90.0211
   -90.0163 -90.0089 -90.0074 -89.9868 -89.9795 -89.7898 -89.7729 -62.1826
   -62.1763 -62.1582 -62.1559 -62.1294 -62.1256 -62.0964 -62.0964 -50.7502
   -50.7374 -50.6904 -50.6546 -50.6196 -50.5803 -50.5726 -50.5479 -50.5440
   -50.5404 -50.5294 -50.5219 -50.5070 -50.4557 -50.4438 -50.4135 -50.4052
   -50.3986 -50.3758 -50.3736 -50.3679 -50.3646 -50.3632 -50.3622 -50.3573
   -50.3515 -50.3470 -50.3460 -50.3396 -50.3254 -50.3210 -50.3059 -50.3013
   -50.2981 -50.2936 -50.2858 -50.2736 -50.2706 -50.2676 -50.2346 -50.2244
   -50.2145 -50.1992 -49.9650 -49.9512 -28.9451 -28.9382 -28.9353 -28.9206
   -28.9161 -28.9138 -28.9124 -28.9095 -28.9075 -28.9068 -28.9047 -28.8915
   -28.8847 -28.8801 -28.8714 -28.8679 -28.8643 -28.8608 -28.8412 -28.8407
   -28.8392 -28.8389 -28.8369 -28.8365   5.4904   6.0353   6.3968   7.8165
     8.0406   8.1777   8.4616   8.6683   9.0466   9.1090   9.3333   9.4425
     9.4924   9.5119   9.6559   9.7436   9.7587   9.8058   9.8648   9.9052
     9.9347  10.1449  10.1491  10.2033  10.2306  10.3102  10.3352  10.3850
    10.4204  10.4342  10.5009  10.5293  10.5726  10.5971  10.6430  10.7498
    10.7684  10.8200  10.8345  10.9239  10.9328  10.9740  11.0312  11.0557
    11.1442  11.1717  11.2042  11.2825  11.3374  11.4248  11.4415  11.4672
    11.4991  11.6069  11.6328  11.6746  11.7126  11.7602  11.8211  11.8316
    11.8643  11.8790  11.9631  11.9878  12.0391  12.0829  12.0929  12.1105
    12.1581  12.2177  12.2491  12.2678  12.3178  12.3519  12.3694  12.4043
    12.4145  12.4329  12.5206  12.5432  12.7371  12.7428  12.8839  13.0778
    13.2221  13.6960  13.7316  13.9273  14.0122  14.0674  14.2025  14.2836
    14.3416  14.7204  15.1171  15.4881  15.8427  16.0243  16.1478  17.4127
    17.9236  18.0368  18.1276  18.9154  19.0382  19.0554  19.3611  19.4140
    19.4245  19.9636  20.3827  20.4226  20.4884  21.0308  21.1799  21.3630
    21.9022  22.2051

     the Fermi energy is    12.9580 ev

!    total energy              =   -7568.57841898 Ry
     total all-electron energy =    -48829.222181 Ry
     estimated scf accuracy    <       0.00000026 Ry
     smearing contrib. (-TS)   =       0.24361281 Ry
     internal energy E=F+TS    =   -7568.82203179 Ry

     The total energy is F=E-TS. E is the sum of the following terms:
     one-electron contribution =   -4494.79398894 Ry
     hartree contribution      =    2393.26939565 Ry
     xc contribution           =    -656.80059257 Ry
     ewald contribution        =   -3324.44385436 Ry
     one-center paw contrib.   =   -1486.05299157 Ry

     convergence has been achieved in 223 iterations

     negative rho (up, down):  2.354E-02 0.000E+00

     Forces acting on atoms (cartesian axes, Ry/au):

     atom    1 type  1   force =    -0.00065575   -0.00721525    0.00246489
     atom    2 type  1   force =    -0.00126289   -0.00389363    0.00643417
     atom    3 type  1   force =    -0.00084369   -0.00436857   -0.00495708
     atom    4 type  1   force =    -0.00338560   -0.00812940   -0.00282524
     atom    5 type  1   force =    -0.00234751   -0.00484861    0.00123507
     atom    6 type  1   force =     0.00024065    0.00000605    0.00858609
     atom    7 type  1   force =    -0.00020245    0.00170761   -0.00833136
     atom    8 type  1   force =    -0.00072297   -0.00213298   -0.00024235
     atom    9 type  2   force =    -0.00319356    0.00249167   -0.02098778
     atom   10 type  2   force =    -0.00282236   -0.00892926    0.00153680
     atom   11 type  2   force =    -0.00023970   -0.00518155   -0.00269162
     atom   12 type  2   force =    -0.00114117    0.00471754    0.01843025
     atom   13 type  2   force =     0.02076857   -0.01530770   -0.00098441
     atom   14 type  2   force =    -0.00003185    0.01681384   -0.00025832
     atom   15 type  2   force =    -0.02090353   -0.00858358    0.00426494
     atom   16 type  2   force =     0.02116071   -0.00799862   -0.00244506
     atom   17 type  2   force =    -0.02002121   -0.01396621    0.00387076
     atom   18 type  2   force =    -0.00108692   -0.00791028   -0.00020021
     atom   19 type  2   force =     0.01798087    0.09550352   -0.00606350
     atom   20 type  2   force =    -0.00258000   -0.00606645    0.00245229
     atom   21 type  2   force =     0.00030248   -0.00334931    0.00016406
     atom   22 type  2   force =     0.00221823   -0.00717289    0.00171659
     atom   23 type  2   force =    -0.00123033   -0.00618591   -0.00116898
     The non-local contrib.  to forces
     atom    1 type  1   force =     0.00135658    0.03443766    0.00948257
     atom    2 type  1   force =     0.00077975    0.01206579    0.02668629
     atom    3 type  1   force =    -0.00253773    0.00134652   -0.02573971
     atom    4 type  1   force =    -0.00927595    0.03119778   -0.01345902
     atom    5 type  1   force =    -0.00721428   -0.00272994    0.00413742
     atom    6 type  1   force =     0.00388540   -0.01166956    0.02702059
     atom    7 type  1   force =     0.00242367   -0.00261320   -0.02877389
     atom    8 type  1   force =    -0.00164206    0.01036000   -0.00277827
     atom    9 type  2   force =     0.02073839   -0.09859040   -0.01368104
     atom   10 type  2   force =    -0.00169188    0.05623917    0.01119249
     atom   11 type  2   force =    -0.00324703    0.01570413   -0.00428342
     atom   12 type  2   force =    -0.00230455   -0.13268410    0.02103554
     atom   13 type  2   force =     0.04892955   -0.03277073    0.00508453
     atom   14 type  2   force =    -0.02200946    0.06874537    0.00485899
     atom   15 type  2   force =    -0.12083324    0.18791646   -0.01110403
     atom   16 type  2   force =     0.11351474    0.17091067    0.00867680
     atom   17 type  2   force =    -0.06897535   -0.04340397   -0.00617992
     atom   18 type  2   force =    -0.00250344    0.02238284    0.03500859
     atom   19 type  2   force =     0.06521555    2.43303031    0.67202839
     atom   20 type  2   force =    -0.03001511    0.05649033   -0.02915843
     atom   21 type  2   force =    -0.01280311    0.00633495   -0.01998163
     atom   22 type  2   force =     0.01159742    0.01904696    0.02413499
     atom   23 type  2   force =    -0.00093739    0.01135363   -0.02159979
     The ionic contribution  to forces
     atom    1 type  1   force =     0.04228843    2.56681231  -23.55842134
     atom    2 type  1   force =     0.12361955    0.40508358    9.92697176
     atom    3 type  1   force =    -0.06793536    0.00012955   -9.81038514
     atom    4 type  1   force =    -0.21275616    2.67990784   23.27824191
     atom    5 type  1   force =    -0.20880035   -0.15769919   -5.98119858
     atom    6 type  1   force =     0.11400429    0.20351905   20.26203946
     atom    7 type  1   force =     0.10685468    0.47622424  -20.51906709
     atom    8 type  1   force =    -0.02382985    0.19512435    6.16764184
     atom    9 type  2   force =    -0.50347332  -10.42870912  -45.40917190
     atom   10 type  2   force =    -0.25580695   -0.29634106   15.97093728
     atom   11 type  2   force =     0.19078625    0.13287018  -15.93293972
     atom   12 type  2   force =     0.16206615  -10.32660106   44.73001253
     atom   13 type  2   force =    14.42339506   -8.14677818    0.28347563
     atom   14 type  2   force =    -0.03940959   16.14119236    0.12887156
     atom   15 type  2   force =   -14.33773697    7.83956434    0.49777102
     atom   16 type  2   force =    14.46785639    7.83116738   -0.55105611
     atom   17 type  2   force =   -14.17971794   -8.07529850    0.38274355
     atom   18 type  2   force =     0.19336246   -0.12767615  -28.80361801
     atom   19 type  2   force =    -0.40729957   -0.65396671   29.39824761
     atom   20 type  2   force =    -0.08525537    0.27259861   28.81493894
     atom   21 type  2   force =    -0.40551841   -0.23636529  -29.51812826
     atom   22 type  2   force =     0.64024525   -0.19684344   29.73617681
     atom   23 type  2   force =     0.26306132   -0.09791507  -29.49408377
     The local contribution  to forces
     atom    1 type  1   force =    -0.04355570   -2.60408164   23.55101082
     atom    2 type  1   force =    -0.12492658   -0.41670560   -9.94741773
     atom    3 type  1   force =     0.07035475   -0.00154618    9.83057066
     atom    4 type  1   force =     0.21933806   -2.71487203  -23.26805208
     atom    5 type  1   force =     0.21437142    0.15986608    5.97786132
     atom    6 type  1   force =    -0.11689423   -0.18757016  -20.28068838
     atom    7 type  1   force =    -0.10873016   -0.46759397   20.53895562
     atom    8 type  1   force =     0.02548179   -0.20327214   -6.16548435
     atom    9 type  2   force =     0.48176572   10.53308150   45.40670510
     atom   10 type  2   force =     0.25538646    0.23861153  -15.97653086
     atom   11 type  2   force =    -0.18724713   -0.14864936   15.93010121
     atom   12 type  2   force =    -0.16039137   10.46516729  -44.73787042
     atom   13 type  2   force =   -14.45096903    8.16836825   -0.28989566
     atom   14 type  2   force =     0.06078189  -16.18809086   -0.13415164
     atom   15 type  2   force =    14.43688972   -8.02573153   -0.48312958
     atom   16 type  2   force =   -14.55826691   -8.00062525    0.53995773
     atom   17 type  2   force =    14.22827776    8.10816771   -0.37332742
     atom   18 type  2   force =    -0.19167365    0.10301822   28.77152050
     atom   19 type  2   force =     0.36597555   -1.48920139  -30.02279931
     atom   20 type  2   force =     0.11165610   -0.32762622  -28.78696838
     atom   21 type  2   force =     0.41872361    0.23139796   29.53686649
     atom   22 type  2   force =    -0.64819368    0.17539775  -29.75790377
     atom   23 type  2   force =    -0.26274039    0.08482680   29.51282006
     The core correction contribution to forces
     atom    1 type  1   force =    -0.00000537   -0.00009241   -0.00010959
     atom    2 type  1   force =    -0.00000002   -0.00004785   -0.00014703
     atom    3 type  1   force =     0.00000992   -0.00000788    0.00013795
     atom    4 type  1   force =     0.00004667   -0.00007654    0.00012864
     atom    5 type  1   force =     0.00003243    0.00001030   -0.00001633
     atom    6 type  1   force =    -0.00001767    0.00002428   -0.00008304
     atom    7 type  1   force =    -0.00001068   -0.00001716    0.00009154
     atom    8 type  1   force =     0.00000674   -0.00004659    0.00000957
     atom    9 type  2   force =    -0.00149972    0.00102294   -0.00542046
     atom   10 type  2   force =     0.00004286   -0.00313032   -0.00435803
     atom   11 type  2   force =     0.00023639   -0.00080202    0.00392247
     atom   12 type  2   force =     0.00023547    0.00314455    0.00504776
     atom   13 type  2   force =     0.00013766    0.00018312   -0.00010703
     atom   14 type  2   force =     0.00131912   -0.00074585   -0.00030632
     atom   15 type  2   force =     0.00153527   -0.00604593    0.00042192
     atom   16 type  2   force =    -0.00120768   -0.00513714   -0.00028622
     atom   17 type  2   force =     0.00114644    0.00086853    0.00017204
     atom   18 type  2   force =     0.00046321   -0.00133876   -0.00365064
     atom   19 type  2   force =    -0.00510028   -0.18994667   -0.05393778
     atom   20 type  2   force =     0.00176724   -0.00316425    0.00333997
     atom   21 type  2   force =     0.00064836   -0.00042383    0.00085552
     atom   22 type  2   force =    -0.00076894   -0.00038149   -0.00097586
     atom   23 type  2   force =     0.00011422   -0.00014615    0.00115895
     The Hubbard contrib.    to forces
     atom    1 type  1   force =     0.00000000    0.00000000    0.00000000
     atom    2 type  1   force =     0.00000000    0.00000000    0.00000000
     atom    3 type  1   force =     0.00000000    0.00000000    0.00000000
     atom    4 type  1   force =     0.00000000    0.00000000    0.00000000
     atom    5 type  1   force =     0.00000000    0.00000000    0.00000000
     atom    6 type  1   force =     0.00000000    0.00000000    0.00000000
     atom    7 type  1   force =     0.00000000    0.00000000    0.00000000
     atom    8 type  1   force =     0.00000000    0.00000000    0.00000000
     atom    9 type  2   force =     0.00000000    0.00000000    0.00000000
     atom   10 type  2   force =     0.00000000    0.00000000    0.00000000
     atom   11 type  2   force =     0.00000000    0.00000000    0.00000000
     atom   12 type  2   force =     0.00000000    0.00000000    0.00000000
     atom   13 type  2   force =     0.00000000    0.00000000    0.00000000
     atom   14 type  2   force =     0.00000000    0.00000000    0.00000000
     atom   15 type  2   force =     0.00000000    0.00000000    0.00000000
     atom   16 type  2   force =     0.00000000    0.00000000    0.00000000
     atom   17 type  2   force =     0.00000000    0.00000000    0.00000000
     atom   18 type  2   force =     0.00000000    0.00000000    0.00000000
     atom   19 type  2   force =     0.00000000    0.00000000    0.00000000
     atom   20 type  2   force =     0.00000000    0.00000000    0.00000000
     atom   21 type  2   force =     0.00000000    0.00000000    0.00000000
     atom   22 type  2   force =     0.00000000    0.00000000    0.00000000
     atom   23 type  2   force =     0.00000000    0.00000000    0.00000000
     The SCF correction term to forces
     atom    1 type  1   force =    -0.00000142    0.00000370    0.00010438
     atom    2 type  1   force =     0.00000267    0.00000533   -0.00005716
     atom    3 type  1   force =     0.00000299    0.00000431    0.00006110
     atom    4 type  1   force =     0.00000005    0.00000843   -0.00008274
     atom    5 type  1   force =     0.00000153   -0.00000097    0.00005320
     atom    6 type  1   force =     0.00000112   -0.00000267   -0.00010059
     atom    7 type  1   force =    -0.00000172    0.00000259    0.00006440
     atom    8 type  1   force =    -0.00000133   -0.00000372   -0.00002919
     atom    9 type  2   force =     0.00001363   -0.00001838    0.00018248
     atom   10 type  2   force =    -0.00001460   -0.00001370   -0.00010213
     atom   11 type  2   force =    -0.00002992   -0.00000960    0.00010978
     atom   12 type  2   force =    -0.00000860   -0.00001425   -0.00019322
     atom   13 type  2   force =     0.00001358   -0.00001527    0.00006007
     atom   14 type  2   force =     0.00002446    0.00000771    0.00007103
     atom   15 type  2   force =    -0.00002004    0.00000796   -0.00009244
     atom   16 type  2   force =     0.00000242   -0.00001940   -0.00013531
     atom   17 type  2   force =    -0.00001386   -0.00000509    0.00006445
     atom   18 type  2   force =     0.00000275   -0.00000155    0.00014130
     atom   19 type  2   force =    -0.00007211   -0.00011714   -0.00000046
     atom   20 type  2   force =     0.00000540   -0.00007005   -0.00009785
     atom   21 type  2   force =    -0.00000972    0.00000178    0.00015390
     atom   22 type  2   force =     0.00007644   -0.00009778   -0.00011363
     atom   23 type  2   force =     0.00001017   -0.00001024    0.00013751

     Total force =     0.116986     Total SCF correction =     0.000552


     Computing stress (Cartesian axis) and pressure


     negative rho (up, down):  2.354E-02 0.000E+00
          total   stress  (Ry/bohr**3)                   (kbar)     P=       16.38
   0.00010229  -0.00000053  -0.00000242           15.05       -0.08       -0.36
  -0.00000053   0.00008092   0.00000461           -0.08       11.90        0.68
  -0.00000242   0.00000461   0.00015076           -0.36        0.68       22.18


     Writing all to output data dir ./C36/out_logs/C36_out_150/laves_C36.save/
 
     init_run     :      5.78s CPU      5.96s WALL (       1 calls)
     electrons    :   1514.42s CPU   1514.82s WALL (       1 calls)
     forces       :      1.60s CPU      1.60s WALL (       1 calls)
     stress       :      7.52s CPU      7.53s WALL (       1 calls)

     Called by init_run:
     wfcinit      :      1.70s CPU      1.78s WALL (       1 calls)
                                        1.78s GPU  (       1 calls)
     potinit      :      3.08s CPU      3.11s WALL (       1 calls)
     hinit0       :      0.84s CPU      0.86s WALL (       1 calls)

     Called by electrons:
     c_bands      :    885.31s CPU    885.60s WALL (     223 calls)
     sum_band     :    145.98s CPU    146.02s WALL (     223 calls)
     v_of_rho     :      5.43s CPU      5.46s WALL (     224 calls)
     newd         :     17.29s CPU     17.30s WALL (     224 calls)
                                       17.30s GPU  (     224 calls)
     PAW_pot      :    438.73s CPU    438.73s WALL (     224 calls)
     mix_rho      :     18.64s CPU     18.68s WALL (     223 calls)

     Called by c_bands:
     init_us_2    :      2.54s CPU      2.55s WALL (    2245 calls)
     init_us_2:gp :      2.52s CPU      2.53s WALL (    2245 calls)
     cegterg      :    846.14s CPU    846.39s WALL (    1115 calls)

     Called by *egterg:
     cdiaghg      :     57.82s CPU     58.30s WALL (    2571 calls)
                                       58.28s GPU  (    2571 calls)
     h_psi        :    405.92s CPU    406.15s WALL (    2576 calls)
                                      405.76s GPU  (    2576 calls)
     s_psi        :      1.82s CPU     76.37s WALL (    2576 calls)
                                       75.75s GPU  (    2576 calls)
     g_psi        :      0.01s CPU      1.43s WALL (    1456 calls)
                                        1.42s GPU  (    1456 calls)

     Called by h_psi:
     h_psi:calbec :      0.12s CPU     91.84s WALL (    2576 calls)
                                       91.83s GPU  (    2576 calls)
     vloc_psi     :    236.16s CPU    236.32s WALL (    2576 calls)
                                      236.29s GPU  (    2576 calls)
     add_vuspsi   :      2.08s CPU     76.62s WALL (    2576 calls)
                                       76.52s GPU  (    2576 calls)

     General routines
     calbec       :      0.13s CPU      0.14s WALL (    3716 calls)
     fft          :      2.57s CPU      3.93s WALL (    2935 calls)
                                        1.37s GPU  (    2711 calls)
     ffts         :      0.66s CPU      0.71s WALL (     447 calls)
                                        0.06s GPU  (     223 calls)
     fftw         :      0.55s CPU    254.56s WALL (   79456 calls)
                                      253.60s GPU  (   79456 calls)
     interpolate  :      3.69s CPU      3.69s WALL (     224 calls)
 
     Parallel routines
 
     PWSCF        :  25m29.64s CPU  25m30.32s WALL

 
   This run was terminated on:   3:11:36   9Apr2026            

=------------------------------------------------------------------------------=
   JOB DONE.
=------------------------------------------------------------------------------=
