
     Program PWSCF v.7.2 starts on  3Apr2026 at  6:13:37 

     This program is part of the open-source Quantum ESPRESSO suite
     for quantum simulation of materials; please cite
         "P. Giannozzi et al., J. Phys.:Condens. Matter 21 395502 (2009);
         "P. Giannozzi et al., J. Phys.:Condens. Matter 29 465901 (2017);
         "P. Giannozzi et al., J. Chem. Phys. 152 154105 (2020);
          URL http://www.quantum-espresso.org", 
     in publications or presentations arising from this work. More details at
     http://www.quantum-espresso.org/quote

     Parallel version (MPI), running on     1 processors

     MPI processes distributed on     1 nodes
     2004 MiB available memory on the printing compute node when the environment starts
 
     Reading input from C36/in/laves_007_relax.in
Warning: card &CELL ignored
Warning: card / ignored

     Current dimensions of program PWSCF are:
     Max number of different atomic species (ntypx) = 10
     Max number of k-points (npk) =  40000
     Max angular momentum in pseudopotentials (lmaxx) =  4
     file Mg.pbe-spnl-kjpaw_psl.1.0.0.UPF: wavefunction(s)  2P renormalized
     file Ni.pbe-spn-kjpaw_psl.1.0.0.UPF: wavefunction(s)  3P 3D renormalized
 
     Subspace diagonalization in iterative solution of the eigenvalue problem:
     a serial algorithm will be used

 
     G-vector sticks info
     --------------------
     sticks:   dense  smooth     PW     G-vecs:    dense   smooth      PW
     Sum        2633    1767    493               360299   196267   28657
 
     Using Slab Decomposition
 

     Title: 
     C36_MgNi2                                                                  


     bravais-lattice index     =            0
     lattice parameter (alat)  =       8.9935  a.u.
     unit-cell volume          =    2029.6222 (a.u.)^3
     number of atoms/cell      =           24
     number of atomic types    =            2
     number of electrons       =       368.00
     number of Kohn-Sham states=          221
     kinetic-energy cutoff     =      80.0000  Ry
     charge density cutoff     =     480.0000  Ry
     scf convergence threshold =      1.0E-05
     mixing beta               =       0.2000
     number of iterations used =           12  plain     mixing
     energy convergence thresh.=      1.0E-05
     force convergence thresh. =      1.0E-04
     Exchange-correlation= SLA  PW   PBX  PBC
                           (   1   4   3   4   0   0   0)
     nstep                     =           12


     GPU acceleration is ACTIVE.


     celldm(1)=   8.993537  celldm(2)=   0.000000  celldm(3)=   0.000000
     celldm(4)=   0.000000  celldm(5)=   0.000000  celldm(6)=   0.000000

     crystal axes: (cart. coord. in units of alat)
               a(1) = (   0.999996  -0.002578   0.001475 )  
               a(2) = (  -0.502564   0.855554   0.001727 )  
               a(3) = (   0.011332   0.007422   3.266190 )  

     reciprocal axes: (cart. coord. in units 2 pi/alat)
               b(1) = (  1.001528  0.588321 -0.004812 )  
               b(2) = (  0.003021  1.170614 -0.002671 )  
               b(3) = ( -0.000454 -0.000885  0.306171 )  


     PseudoPot. # 1 for Mg read from file:
     ./pseudo/Mg.pbe-spnl-kjpaw_psl.1.0.0.UPF
     MD5 check sum: fda14e0d92a6a9a5ebed782e5a4b3067
     Pseudo is Projector augmented-wave + core cor, Zval = 10.0
     Generated using &quot;atomic&quot; code by A. Dal Corso  v.6.3
     Shape of augmentation charge: PSQ
     Using radial grid of 1129 points,  4 beta functions with: 
                l(1) =   0
                l(2) =   0
                l(3) =   1
                l(4) =   1
     Q(r) pseudized with 0 coefficients 


     PseudoPot. # 2 for Ni read from file:
     ./pseudo/Ni.pbe-spn-kjpaw_psl.1.0.0.UPF
     MD5 check sum: 6e86b733589c3ad8389697b807d86aa7
     Pseudo is Projector augmented-wave + core cor, Zval = 18.0
     Generated using &quot;atomic&quot; code by A. Dal Corso  v.6.3
     Shape of augmentation charge: PSQ
     Using radial grid of 1195 points,  6 beta functions with: 
                l(1) =   0
                l(2) =   0
                l(3) =   1
                l(4) =   1
                l(5) =   2
                l(6) =   2
     Q(r) pseudized with 0 coefficients 


     atomic species   valence    mass     pseudopotential
        Mg            10.00    24.30500     Mg( 1.00)
        Ni            18.00    58.69340     Ni( 1.00)

     No symmetry found



   Cartesian axes

     site n.     atom                  positions (alat units)
         1           Mg  tau(   1) = (   0.5008906   0.8548623   1.3301464  )
         2           Mg  tau(   2) = (   0.5047862   0.8589935   2.9608263  )
         3           Mg  tau(   3) = (   0.0104449   0.0082109   1.9398231  )
         4           Mg  tau(   4) = (  -0.4978713   0.8536627   0.3064217  )
         5           Mg  tau(   5) = (   0.0097814   0.5734632   2.1447574  )
         6           Mg  tau(   6) = (   0.4995040   0.2842196   0.5094880  )
         7           Mg  tau(   7) = (   0.5025806   0.2870536   1.1268883  )
         8           Mg  tau(   8) = (   0.0051083   0.5733772   2.7570720  )
         9           Ni  tau(   9) = (   0.0008433   0.5734095   1.2243914  )
        10           Ni  tau(  10) = (   0.5046532   0.2927842   2.8567403  )
        11           Ni  tau(  11) = (   0.5051840   0.2875665   2.0417950  )
        12           Ni  tau(  12) = (  -0.0014561   0.5701305   0.4072004  )
        13           Ni  tau(  13) = (   0.0014757   0.2882660   0.8150902  )
        14           Ni  tau(  14) = (   0.7589938   0.1448487   2.4497307  )
        15           Ni  tau(  15) = (   0.5106093   0.5745070   2.4540663  )
        16           Ni  tau(  16) = (  -0.2492848   0.7169495   0.8204254  )
        17           Ni  tau(  17) = (   0.2502698   0.7142156   0.8178170  )
        18           Ni  tau(  18) = (   0.2587588   0.1473044   2.4502273  )
        19           Ni  tau(  19) = (   0.5065477   0.0058308   1.6337949  )
        20           Ni  tau(  20) = (   0.2608245   0.4342644   3.2660691  )
        21           Ni  tau(  21) = (   0.5069254   0.0069145   3.2648528  )
        22           Ni  tau(  22) = (   0.2534244   0.4317511   1.6343402  )
        23           Ni  tau(  23) = (   0.7483222   0.4224530   0.0023600  )
        24           Ni  tau(  24) = (  -0.2444544   0.4302146   1.6340417  )

     number of k points=     5  Marzari-Vanderbilt smearing, width (Ry)=  0.0300
                       cart. coord. in units 2pi/alat
        k(    1) = (   0.0000000   0.0000000   0.0000000), wk =   0.2222222
        k(    2) = (   0.0010071   0.3902047  -0.0008902), wk =   0.4444444
        k(    3) = (   0.3338426   0.1961069  -0.0016038), wk =   0.4444444
        k(    4) = (   0.3348497   0.5863116  -0.0024940), wk =   0.4444444
        k(    5) = (   0.3328356  -0.1940978  -0.0007137), wk =   0.4444444

     Dense  grid:   360299 G-vectors     FFT dimensions: (  64,  64, 216)

     Smooth grid:   196267 G-vectors     FFT dimensions: (  54,  54, 180)

     Estimated max dynamical RAM per process >       2.12 GB

     Atomic positions and unit cell read from directory:
     ./C36/out_logs/C36_out_7/laves_C36.save/
 

     Check: negative core charge=   -0.000009

     The initial density is read from file :
     ./C36/out_logs/C36_out_7/laves_C36.save/charge-density


     negative rho (up, down):  9.588E-01 0.000E+00
     Starting wfcs from file
     Checking if some PAW data can be deallocated... 

     total cpu time spent up to now is        3.5 secs

     Self-consistent Calculation

     iteration #  1     ecut=    80.00 Ry     beta= 0.20
     Davidson diagonalization with overlap
     ethr =  1.00E-05,  avg # of iterations =  4.8

     negative rho (up, down):  9.198E-01 0.000E+00

     total cpu time spent up to now is       18.3 secs

     total energy              =   -7997.03773074 Ry
     estimated scf accuracy    <       2.35877542 Ry

     iteration #  2     ecut=    80.00 Ry     beta= 0.20
     Davidson diagonalization with overlap
     ethr =  6.41E-04,  avg # of iterations =  4.0

     negative rho (up, down):  9.173E-01 0.000E+00

     total cpu time spent up to now is       30.2 secs

     total energy              =   -7995.49377917 Ry
     estimated scf accuracy    <     126.72106003 Ry

     iteration #  3     ecut=    80.00 Ry     beta= 0.20
     Davidson diagonalization with overlap
     ethr =  6.41E-04,  avg # of iterations =  3.0

     negative rho (up, down):  9.120E-01 0.000E+00

     total cpu time spent up to now is       40.9 secs

     total energy              =   -7997.34221782 Ry
     estimated scf accuracy    <       8.84122831 Ry

     iteration #  4     ecut=    80.00 Ry     beta= 0.20
     Davidson diagonalization with overlap
     ethr =  6.41E-04,  avg # of iterations =  1.6

     negative rho (up, down):  9.104E-01 0.000E+00

     total cpu time spent up to now is       50.6 secs

     total energy              =   -7997.44182719 Ry
     estimated scf accuracy    <       7.88257831 Ry

     iteration #  5     ecut=    80.00 Ry     beta= 0.20
     Davidson diagonalization with overlap
     ethr =  6.41E-04,  avg # of iterations =  1.0

     negative rho (up, down):  9.221E-01 0.000E+00

     total cpu time spent up to now is       59.7 secs

     total energy              =   -7997.39123030 Ry
     estimated scf accuracy    <       6.15043625 Ry

     iteration #  6     ecut=    80.00 Ry     beta= 0.20
     Davidson diagonalization with overlap
     ethr =  6.41E-04,  avg # of iterations =  1.0

     negative rho (up, down):  9.277E-01 0.000E+00

     total cpu time spent up to now is       68.8 secs

     total energy              =   -7997.37737999 Ry
     estimated scf accuracy    <       8.10225233 Ry

     iteration #  7     ecut=    80.00 Ry     beta= 0.20
     Davidson diagonalization with overlap
     ethr =  6.41E-04,  avg # of iterations =  1.2

     negative rho (up, down):  9.337E-01 0.000E+00

     total cpu time spent up to now is       78.1 secs

     total energy              =   -7997.42484442 Ry
     estimated scf accuracy    <       5.45589133 Ry

     iteration #  8     ecut=    80.00 Ry     beta= 0.20
     Davidson diagonalization with overlap
     ethr =  6.41E-04,  avg # of iterations =  1.0

     negative rho (up, down):  9.466E-01 0.000E+00

     total cpu time spent up to now is       87.2 secs

     total energy              =   -7997.30680999 Ry
     estimated scf accuracy    <       6.65907723 Ry

     iteration #  9     ecut=    80.00 Ry     beta= 0.20
     Davidson diagonalization with overlap
     ethr =  6.41E-04,  avg # of iterations =  2.0

     negative rho (up, down):  9.525E-01 0.000E+00

     total cpu time spent up to now is       97.5 secs

     total energy              =   -7997.34655494 Ry
     estimated scf accuracy    <       5.32961365 Ry

     iteration # 10     ecut=    80.00 Ry     beta= 0.20
     Davidson diagonalization with overlap
     ethr =  6.41E-04,  avg # of iterations =  1.0

     negative rho (up, down):  9.537E-01 0.000E+00

     total cpu time spent up to now is      106.6 secs

     total energy              =   -7997.32700154 Ry
     estimated scf accuracy    <       4.12345514 Ry

     iteration # 11     ecut=    80.00 Ry     beta= 0.20
     Davidson diagonalization with overlap
     ethr =  6.41E-04,  avg # of iterations =  1.2

     negative rho (up, down):  9.613E-01 0.000E+00

     total cpu time spent up to now is      116.0 secs

     total energy              =   -7997.35242951 Ry
     estimated scf accuracy    <       4.48694441 Ry

     iteration # 12     ecut=    80.00 Ry     beta= 0.20
     Davidson diagonalization with overlap
     ethr =  6.41E-04,  avg # of iterations =  1.0

     negative rho (up, down):  9.671E-01 0.000E+00

     total cpu time spent up to now is      125.1 secs

     total energy              =   -7997.35826734 Ry
     estimated scf accuracy    <       5.30146183 Ry

     iteration # 13     ecut=    80.00 Ry     beta= 0.20
     Davidson diagonalization with overlap
     ethr =  6.41E-04,  avg # of iterations =  1.0

     negative rho (up, down):  9.640E-01 0.000E+00

     total cpu time spent up to now is      134.2 secs

     total energy              =   -7997.37761178 Ry
     estimated scf accuracy    <       5.18251479 Ry

     iteration # 14     ecut=    80.00 Ry     beta= 0.20
     Davidson diagonalization with overlap
     ethr =  6.41E-04,  avg # of iterations =  1.0

     negative rho (up, down):  9.600E-01 0.000E+00

     total cpu time spent up to now is      143.3 secs

     total energy              =   -7997.24795487 Ry
     estimated scf accuracy    <       5.63242573 Ry

     iteration # 15     ecut=    80.00 Ry     beta= 0.20
     Davidson diagonalization with overlap
     ethr =  6.41E-04,  avg # of iterations =  2.0

     negative rho (up, down):  1.012E+00 0.000E+00

     total cpu time spent up to now is      154.4 secs

     total energy              =   -7997.17823684 Ry
     estimated scf accuracy    <      17.79588535 Ry

     iteration # 16     ecut=    80.00 Ry     beta= 0.20
     Davidson diagonalization with overlap
     ethr =  6.41E-04,  avg # of iterations =  2.0

     negative rho (up, down):  9.863E-01 0.000E+00

     total cpu time spent up to now is      165.4 secs

     total energy              =   -7997.12320894 Ry
     estimated scf accuracy    <      29.94544470 Ry

     iteration # 17     ecut=    80.00 Ry     beta= 0.20
     Davidson diagonalization with overlap
     ethr =  6.41E-04,  avg # of iterations =  1.2

     negative rho (up, down):  8.707E-01 0.000E+00

     total cpu time spent up to now is      174.7 secs

     total energy              =   -7997.09060731 Ry
     estimated scf accuracy    <      17.54136092 Ry

     iteration # 18     ecut=    80.00 Ry     beta= 0.20
     Davidson diagonalization with overlap
     ethr =  6.41E-04,  avg # of iterations =  2.0

     negative rho (up, down):  8.823E-01 0.000E+00

     total cpu time spent up to now is      185.9 secs

     total energy              =   -7997.43610145 Ry
     estimated scf accuracy    <      11.29674451 Ry

     iteration # 19     ecut=    80.00 Ry     beta= 0.20
     Davidson diagonalization with overlap
     ethr =  6.41E-04,  avg # of iterations =  2.0

     negative rho (up, down):  8.744E-01 0.000E+00

     total cpu time spent up to now is      196.3 secs

     total energy              =   -7997.42942279 Ry
     estimated scf accuracy    <      10.15740426 Ry

     iteration # 20     ecut=    80.00 Ry     beta= 0.20
     Davidson diagonalization with overlap
     ethr =  6.41E-04,  avg # of iterations =  2.0

     negative rho (up, down):  8.766E-01 0.000E+00

     total cpu time spent up to now is      206.5 secs

     total energy              =   -7997.54900072 Ry
     estimated scf accuracy    <      12.24735857 Ry

     iteration # 21     ecut=    80.00 Ry     beta= 0.20
     Davidson diagonalization with overlap
     ethr =  6.41E-04,  avg # of iterations =  1.0

     negative rho (up, down):  8.752E-01 0.000E+00

     total cpu time spent up to now is      215.7 secs

     total energy              =   -7997.50291043 Ry
     estimated scf accuracy    <      11.88291759 Ry

     iteration # 22     ecut=    80.00 Ry     beta= 0.20
     Davidson diagonalization with overlap
     ethr =  6.41E-04,  avg # of iterations =  2.0

     negative rho (up, down):  9.111E-01 0.000E+00

     total cpu time spent up to now is      225.8 secs

     total energy              =   -7997.12265413 Ry
     estimated scf accuracy    <      15.72406356 Ry

     iteration # 23     ecut=    80.00 Ry     beta= 0.20
     Davidson diagonalization with overlap
     ethr =  6.41E-04,  avg # of iterations =  2.0

     negative rho (up, down):  8.992E-01 0.000E+00

     total cpu time spent up to now is      236.5 secs

     total energy              =   -7997.34048410 Ry
     estimated scf accuracy    <       7.67960495 Ry

     iteration # 24     ecut=    80.00 Ry     beta= 0.20
     Davidson diagonalization with overlap
     ethr =  6.41E-04,  avg # of iterations =  2.0

     negative rho (up, down):  8.818E-01 0.000E+00

     total cpu time spent up to now is      247.2 secs

     total energy              =   -7997.30408697 Ry
     estimated scf accuracy    <       7.58193118 Ry

     iteration # 25     ecut=    80.00 Ry     beta= 0.20
     Davidson diagonalization with overlap
     ethr =  6.41E-04,  avg # of iterations =  2.0

     negative rho (up, down):  8.850E-01 0.000E+00

     total cpu time spent up to now is      258.0 secs

     total energy              =   -7997.30955980 Ry
     estimated scf accuracy    <       7.44823220 Ry

     iteration # 26     ecut=    80.00 Ry     beta= 0.20
     Davidson diagonalization with overlap
     ethr =  6.41E-04,  avg # of iterations =  2.0

     negative rho (up, down):  8.716E-01 0.000E+00

     total cpu time spent up to now is      268.7 secs

     total energy              =   -7997.32071317 Ry
     estimated scf accuracy    <       6.53176718 Ry

     iteration # 27     ecut=    80.00 Ry     beta= 0.20
     Davidson diagonalization with overlap
     ethr =  6.41E-04,  avg # of iterations =  2.0

     negative rho (up, down):  8.458E-01 0.000E+00

     total cpu time spent up to now is      279.5 secs

     total energy              =   -7997.36615765 Ry
     estimated scf accuracy    <       6.47463732 Ry

     iteration # 28     ecut=    80.00 Ry     beta= 0.20
     Davidson diagonalization with overlap
     ethr =  6.41E-04,  avg # of iterations =  2.0

     negative rho (up, down):  8.539E-01 0.000E+00

     total cpu time spent up to now is      289.7 secs

     total energy              =   -7997.39591447 Ry
     estimated scf accuracy    <       4.31130124 Ry

     iteration # 29     ecut=    80.00 Ry     beta= 0.20
     Davidson diagonalization with overlap
     ethr =  6.41E-04,  avg # of iterations =  2.0

     negative rho (up, down):  8.450E-01 0.000E+00

     total cpu time spent up to now is      299.9 secs

     total energy              =   -7997.37510803 Ry
     estimated scf accuracy    <       5.25490217 Ry

     iteration # 30     ecut=    80.00 Ry     beta= 0.20
     Davidson diagonalization with overlap
     ethr =  6.41E-04,  avg # of iterations =  1.2

     negative rho (up, down):  8.542E-01 0.000E+00

     total cpu time spent up to now is      309.2 secs

     total energy              =   -7997.35551760 Ry
     estimated scf accuracy    <       6.17412539 Ry

     iteration # 31     ecut=    80.00 Ry     beta= 0.20
     Davidson diagonalization with overlap
     ethr =  6.41E-04,  avg # of iterations =  1.0

     negative rho (up, down):  8.530E-01 0.000E+00

     total cpu time spent up to now is      318.3 secs

     total energy              =   -7997.42760303 Ry
     estimated scf accuracy    <       3.67569832 Ry

     iteration # 32     ecut=    80.00 Ry     beta= 0.20
     Davidson diagonalization with overlap
     ethr =  6.41E-04,  avg # of iterations =  1.6

     negative rho (up, down):  8.558E-01 0.000E+00

     total cpu time spent up to now is      328.2 secs

     total energy              =   -7997.27433675 Ry
     estimated scf accuracy    <       3.87117878 Ry

     iteration # 33     ecut=    80.00 Ry     beta= 0.20
     Davidson diagonalization with overlap
     ethr =  6.41E-04,  avg # of iterations =  2.0

     negative rho (up, down):  8.277E-01 0.000E+00

     total cpu time spent up to now is      339.1 secs

     total energy              =   -7997.13921037 Ry
     estimated scf accuracy    <      15.29825993 Ry

     iteration # 34     ecut=    80.00 Ry     beta= 0.20
     Davidson diagonalization with overlap
     ethr =  6.41E-04,  avg # of iterations =  2.0

     negative rho (up, down):  8.249E-01 0.000E+00

     total cpu time spent up to now is      349.3 secs

     total energy              =   -7997.22102594 Ry
     estimated scf accuracy    <       5.97502401 Ry

     iteration # 35     ecut=    80.00 Ry     beta= 0.20
     Davidson diagonalization with overlap
     ethr =  6.41E-04,  avg # of iterations =  2.0

     negative rho (up, down):  8.335E-01 0.000E+00

     total cpu time spent up to now is      360.0 secs

     total energy              =   -7997.25375384 Ry
     estimated scf accuracy    <       5.44157583 Ry

     iteration # 36     ecut=    80.00 Ry     beta= 0.20
     Davidson diagonalization with overlap
     ethr =  6.41E-04,  avg # of iterations =  2.0

     negative rho (up, down):  8.262E-01 0.000E+00

     total cpu time spent up to now is      370.6 secs

     total energy              =   -7996.92097862 Ry
     estimated scf accuracy    <      35.51258536 Ry

     iteration # 37     ecut=    80.00 Ry     beta= 0.20
     Davidson diagonalization with overlap
     ethr =  6.41E-04,  avg # of iterations =  1.2

     negative rho (up, down):  8.226E-01 0.000E+00

     total cpu time spent up to now is      379.9 secs

     total energy              =   -7997.40478095 Ry
     estimated scf accuracy    <       1.96789249 Ry

     iteration # 38     ecut=    80.00 Ry     beta= 0.20
     Davidson diagonalization with overlap
     ethr =  5.35E-04,  avg # of iterations =  1.2

     negative rho (up, down):  7.990E-01 0.000E+00

     total cpu time spent up to now is      389.3 secs

     total energy              =   -7997.36652866 Ry
     estimated scf accuracy    <       2.31517772 Ry

     iteration # 39     ecut=    80.00 Ry     beta= 0.20
     Davidson diagonalization with overlap
     ethr =  5.35E-04,  avg # of iterations =  2.0

     negative rho (up, down):  8.131E-01 0.000E+00

     total cpu time spent up to now is      400.3 secs

     total energy              =   -7997.29604239 Ry
     estimated scf accuracy    <       7.37371602 Ry

     iteration # 40     ecut=    80.00 Ry     beta= 0.20
     Davidson diagonalization with overlap
     ethr =  5.35E-04,  avg # of iterations =  2.0

     negative rho (up, down):  8.123E-01 0.000E+00

     total cpu time spent up to now is      410.9 secs

     total energy              =   -7997.43373173 Ry
     estimated scf accuracy    <       1.80098956 Ry

     iteration # 41     ecut=    80.00 Ry     beta= 0.20
     Davidson diagonalization with overlap
     ethr =  4.89E-04,  avg # of iterations =  1.2

     negative rho (up, down):  8.230E-01 0.000E+00

     total cpu time spent up to now is      420.3 secs

     total energy              =   -7997.39082183 Ry
     estimated scf accuracy    <       1.83539915 Ry

     iteration # 42     ecut=    80.00 Ry     beta= 0.20
     Davidson diagonalization with overlap
     ethr =  4.89E-04,  avg # of iterations =  2.0

     negative rho (up, down):  8.195E-01 0.000E+00

     total cpu time spent up to now is      430.5 secs

     total energy              =   -7997.42806440 Ry
     estimated scf accuracy    <       1.31159047 Ry

     iteration # 43     ecut=    80.00 Ry     beta= 0.20
     Davidson diagonalization with overlap
     ethr =  3.56E-04,  avg # of iterations =  1.0

     negative rho (up, down):  8.087E-01 0.000E+00

     total cpu time spent up to now is      439.7 secs

     total energy              =   -7997.43536161 Ry
     estimated scf accuracy    <       1.02833186 Ry

     iteration # 44     ecut=    80.00 Ry     beta= 0.20
     Davidson diagonalization with overlap
     ethr =  2.79E-04,  avg # of iterations =  2.0

     negative rho (up, down):  8.225E-01 0.000E+00

     total cpu time spent up to now is      450.0 secs

     total energy              =   -7997.34614660 Ry
     estimated scf accuracy    <       4.34248427 Ry

     iteration # 45     ecut=    80.00 Ry     beta= 0.20
     Davidson diagonalization with overlap
     ethr =  2.79E-04,  avg # of iterations =  2.0

     negative rho (up, down):  8.166E-01 0.000E+00

     total cpu time spent up to now is      461.0 secs

     total energy              =   -7997.34481823 Ry
     estimated scf accuracy    <       2.96674522 Ry

     iteration # 46     ecut=    80.00 Ry     beta= 0.20
     Davidson diagonalization with overlap
     ethr =  2.79E-04,  avg # of iterations =  2.0

     negative rho (up, down):  7.975E-01 0.000E+00

     total cpu time spent up to now is      471.9 secs

     total energy              =   -7997.36650195 Ry
     estimated scf accuracy    <       1.49871587 Ry

     iteration # 47     ecut=    80.00 Ry     beta= 0.20
     Davidson diagonalization with overlap
     ethr =  2.79E-04,  avg # of iterations =  2.0

     negative rho (up, down):  7.951E-01 0.000E+00

     total cpu time spent up to now is      482.9 secs

     total energy              =   -7997.10270091 Ry
     estimated scf accuracy    <      19.18537507 Ry

     iteration # 48     ecut=    80.00 Ry     beta= 0.20
     Davidson diagonalization with overlap
     ethr =  2.79E-04,  avg # of iterations =  2.0

     negative rho (up, down):  7.899E-01 0.000E+00

     total cpu time spent up to now is      493.4 secs

     total energy              =   -7997.37944942 Ry
     estimated scf accuracy    <       3.34722358 Ry

     iteration # 49     ecut=    80.00 Ry     beta= 0.20
     Davidson diagonalization with overlap
     ethr =  2.79E-04,  avg # of iterations =  2.0

     negative rho (up, down):  7.884E-01 0.000E+00

     total cpu time spent up to now is      503.7 secs

     total energy              =   -7997.40165152 Ry
     estimated scf accuracy    <       1.33533963 Ry

     iteration # 50     ecut=    80.00 Ry     beta= 0.20
     Davidson diagonalization with overlap
     ethr =  2.79E-04,  avg # of iterations =  2.0

     negative rho (up, down):  7.877E-01 0.000E+00

     total cpu time spent up to now is      514.4 secs

     total energy              =   -7997.38912490 Ry
     estimated scf accuracy    <       4.54953413 Ry

     iteration # 51     ecut=    80.00 Ry     beta= 0.20
     Davidson diagonalization with overlap
     ethr =  2.79E-04,  avg # of iterations =  1.0

     negative rho (up, down):  7.853E-01 0.000E+00

     total cpu time spent up to now is      523.5 secs

     total energy              =   -7997.42867340 Ry
     estimated scf accuracy    <       0.86713510 Ry

     iteration # 52     ecut=    80.00 Ry     beta= 0.20
     Davidson diagonalization with overlap
     ethr =  2.36E-04,  avg # of iterations =  1.0

     negative rho (up, down):  7.801E-01 0.000E+00

     total cpu time spent up to now is      532.7 secs

     total energy              =   -7997.43136067 Ry
     estimated scf accuracy    <       0.28993742 Ry

     iteration # 53     ecut=    80.00 Ry     beta= 0.20
     Davidson diagonalization with overlap
     ethr =  7.88E-05,  avg # of iterations =  2.0

     negative rho (up, down):  7.806E-01 0.000E+00

     total cpu time spent up to now is      543.6 secs

     total energy              =   -7997.42359094 Ry
     estimated scf accuracy    <       0.75453273 Ry

     iteration # 54     ecut=    80.00 Ry     beta= 0.20
     Davidson diagonalization with overlap
     ethr =  7.88E-05,  avg # of iterations =  2.0

     negative rho (up, down):  7.819E-01 0.000E+00

     total cpu time spent up to now is      554.3 secs

     total energy              =   -7997.43356968 Ry
     estimated scf accuracy    <       0.19426266 Ry

     iteration # 55     ecut=    80.00 Ry     beta= 0.20
     Davidson diagonalization with overlap
     ethr =  5.28E-05,  avg # of iterations =  2.0

     negative rho (up, down):  7.808E-01 0.000E+00

     total cpu time spent up to now is      564.7 secs

     total energy              =   -7997.43334807 Ry
     estimated scf accuracy    <       0.18604193 Ry

     iteration # 56     ecut=    80.00 Ry     beta= 0.20
     Davidson diagonalization with overlap
     ethr =  5.06E-05,  avg # of iterations =  2.0

     negative rho (up, down):  7.804E-01 0.000E+00

     total cpu time spent up to now is      575.2 secs

     total energy              =   -7997.43667670 Ry
     estimated scf accuracy    <       0.11214163 Ry

     iteration # 57     ecut=    80.00 Ry     beta= 0.20
     Davidson diagonalization with overlap
     ethr =  3.05E-05,  avg # of iterations =  2.0

     negative rho (up, down):  7.799E-01 0.000E+00

     total cpu time spent up to now is      585.4 secs

     total energy              =   -7997.43917792 Ry
     estimated scf accuracy    <       0.02172107 Ry

     iteration # 58     ecut=    80.00 Ry     beta= 0.20
     Davidson diagonalization with overlap
     ethr =  5.90E-06,  avg # of iterations =  2.0

     negative rho (up, down):  7.796E-01 0.000E+00

     total cpu time spent up to now is      595.8 secs

     total energy              =   -7997.43969177 Ry
     estimated scf accuracy    <       0.01455020 Ry

     iteration # 59     ecut=    80.00 Ry     beta= 0.20
     Davidson diagonalization with overlap
     ethr =  3.95E-06,  avg # of iterations =  2.0

     negative rho (up, down):  7.790E-01 0.000E+00

     total cpu time spent up to now is      606.2 secs

     total energy              =   -7997.44015650 Ry
     estimated scf accuracy    <       0.01271455 Ry

     iteration # 60     ecut=    80.00 Ry     beta= 0.20
     Davidson diagonalization with overlap
     ethr =  3.46E-06,  avg # of iterations =  2.0

     negative rho (up, down):  7.791E-01 0.000E+00

     total cpu time spent up to now is      616.9 secs

     total energy              =   -7997.44035532 Ry
     estimated scf accuracy    <       0.01273384 Ry

     iteration # 61     ecut=    80.00 Ry     beta= 0.20
     Davidson diagonalization with overlap
     ethr =  3.46E-06,  avg # of iterations =  2.0

     negative rho (up, down):  7.784E-01 0.000E+00

     total cpu time spent up to now is      627.2 secs

     total energy              =   -7997.44097593 Ry
     estimated scf accuracy    <       0.00747209 Ry

     iteration # 62     ecut=    80.00 Ry     beta= 0.20
     Davidson diagonalization with overlap
     ethr =  2.03E-06,  avg # of iterations =  2.0

     negative rho (up, down):  7.773E-01 0.000E+00

     total cpu time spent up to now is      637.8 secs

     total energy              =   -7997.44120265 Ry
     estimated scf accuracy    <       0.02101011 Ry

     iteration # 63     ecut=    80.00 Ry     beta= 0.20
     Davidson diagonalization with overlap
     ethr =  2.03E-06,  avg # of iterations =  2.0

     negative rho (up, down):  7.782E-01 0.000E+00

     total cpu time spent up to now is      649.0 secs

     total energy              =   -7997.43959839 Ry
     estimated scf accuracy    <       0.06444840 Ry

     iteration # 64     ecut=    80.00 Ry     beta= 0.20
     Davidson diagonalization with overlap
     ethr =  2.03E-06,  avg # of iterations =  2.0

     negative rho (up, down):  7.774E-01 0.000E+00

     total cpu time spent up to now is      660.1 secs

     total energy              =   -7997.44109600 Ry
     estimated scf accuracy    <       0.06200953 Ry

     iteration # 65     ecut=    80.00 Ry     beta= 0.20
     Davidson diagonalization with overlap
     ethr =  2.03E-06,  avg # of iterations =  2.0

     negative rho (up, down):  7.767E-01 0.000E+00

     total cpu time spent up to now is      670.4 secs

     total energy              =   -7997.44253602 Ry
     estimated scf accuracy    <       0.00381612 Ry

     iteration # 66     ecut=    80.00 Ry     beta= 0.20
     Davidson diagonalization with overlap
     ethr =  1.04E-06,  avg # of iterations =  1.8

     negative rho (up, down):  7.769E-01 0.000E+00

     total cpu time spent up to now is      680.3 secs

     total energy              =   -7997.44249631 Ry
     estimated scf accuracy    <       0.00129048 Ry

     iteration # 67     ecut=    80.00 Ry     beta= 0.20
     Davidson diagonalization with overlap
     ethr =  3.51E-07,  avg # of iterations =  2.0

     negative rho (up, down):  7.772E-01 0.000E+00

     total cpu time spent up to now is      690.7 secs

     total energy              =   -7997.44217999 Ry
     estimated scf accuracy    <       0.00166102 Ry

     iteration # 68     ecut=    80.00 Ry     beta= 0.20
     Davidson diagonalization with overlap
     ethr =  3.51E-07,  avg # of iterations =  2.0

     negative rho (up, down):  7.772E-01 0.000E+00

     total cpu time spent up to now is      701.7 secs

     total energy              =   -7997.44223723 Ry
     estimated scf accuracy    <       0.00468520 Ry

     iteration # 69     ecut=    80.00 Ry     beta= 0.20
     Davidson diagonalization with overlap
     ethr =  3.51E-07,  avg # of iterations =  2.0

     negative rho (up, down):  7.770E-01 0.000E+00

     total cpu time spent up to now is      712.8 secs

     total energy              =   -7997.44237899 Ry
     estimated scf accuracy    <       0.00228101 Ry

     iteration # 70     ecut=    80.00 Ry     beta= 0.20
     Davidson diagonalization with overlap
     ethr =  3.51E-07,  avg # of iterations =  2.0

     negative rho (up, down):  7.770E-01 0.000E+00

     total cpu time spent up to now is      723.3 secs

     total energy              =   -7997.44243848 Ry
     estimated scf accuracy    <       0.00014300 Ry

     iteration # 71     ecut=    80.00 Ry     beta= 0.20
     Davidson diagonalization with overlap
     ethr =  3.89E-08,  avg # of iterations =  2.0

     negative rho (up, down):  7.770E-01 0.000E+00

     total cpu time spent up to now is      733.9 secs

     total energy              =   -7997.44241677 Ry
     estimated scf accuracy    <       0.00026460 Ry

     iteration # 72     ecut=    80.00 Ry     beta= 0.20
     Davidson diagonalization with overlap
     ethr =  3.89E-08,  avg # of iterations =  2.0

     negative rho (up, down):  7.770E-01 0.000E+00

     total cpu time spent up to now is      744.9 secs

     total energy              =   -7997.44238250 Ry
     estimated scf accuracy    <       0.00073173 Ry

     iteration # 73     ecut=    80.00 Ry     beta= 0.20
     Davidson diagonalization with overlap
     ethr =  3.89E-08,  avg # of iterations =  2.0

     negative rho (up, down):  7.771E-01 0.000E+00

     total cpu time spent up to now is      756.1 secs

     total energy              =   -7997.44233854 Ry
     estimated scf accuracy    <       0.00040524 Ry

     iteration # 74     ecut=    80.00 Ry     beta= 0.20
     Davidson diagonalization with overlap
     ethr =  3.89E-08,  avg # of iterations =  2.0

     negative rho (up, down):  7.771E-01 0.000E+00

     total cpu time spent up to now is      767.1 secs

     total energy              =   -7997.44236168 Ry
     estimated scf accuracy    <       0.00022767 Ry

     iteration # 75     ecut=    80.00 Ry     beta= 0.20
     Davidson diagonalization with overlap
     ethr =  3.89E-08,  avg # of iterations =  2.0

     negative rho (up, down):  7.771E-01 0.000E+00

     total cpu time spent up to now is      777.3 secs

     total energy              =   -7997.44233779 Ry
     estimated scf accuracy    <       0.00006456 Ry

     iteration # 76     ecut=    80.00 Ry     beta= 0.20
     Davidson diagonalization with overlap
     ethr =  1.75E-08,  avg # of iterations =  2.0

     negative rho (up, down):  7.772E-01 0.000E+00

     total cpu time spent up to now is      787.5 secs

     total energy              =   -7997.44230598 Ry
     estimated scf accuracy    <       0.00004690 Ry

     iteration # 77     ecut=    80.00 Ry     beta= 0.20
     Davidson diagonalization with overlap
     ethr =  1.27E-08,  avg # of iterations =  2.0

     negative rho (up, down):  7.771E-01 0.000E+00

     total cpu time spent up to now is      798.5 secs

     total energy              =   -7997.44232985 Ry
     estimated scf accuracy    <       0.00040101 Ry

     iteration # 78     ecut=    80.00 Ry     beta= 0.20
     Davidson diagonalization with overlap
     ethr =  1.27E-08,  avg # of iterations =  2.0

     negative rho (up, down):  7.771E-01 0.000E+00

     total cpu time spent up to now is      809.7 secs

     total energy              =   -7997.44231614 Ry
     estimated scf accuracy    <       0.00007431 Ry

     iteration # 79     ecut=    80.00 Ry     beta= 0.20
     Davidson diagonalization with overlap
     ethr =  1.27E-08,  avg # of iterations =  1.4

     negative rho (up, down):  7.772E-01 0.000E+00

     total cpu time spent up to now is      819.2 secs

     total energy              =   -7997.44228882 Ry
     estimated scf accuracy    <       0.00003040 Ry

     iteration # 80     ecut=    80.00 Ry     beta= 0.20
     Davidson diagonalization with overlap
     ethr =  8.26E-09,  avg # of iterations =  1.4

     negative rho (up, down):  7.772E-01 0.000E+00

     total cpu time spent up to now is      828.8 secs

     total energy              =   -7997.44229782 Ry
     estimated scf accuracy    <       0.00002196 Ry

     iteration # 81     ecut=    80.00 Ry     beta= 0.20
     Davidson diagonalization with overlap
     ethr =  5.97E-09,  avg # of iterations =  2.0

     negative rho (up, down):  7.772E-01 0.000E+00

     total cpu time spent up to now is      839.0 secs

     total energy              =   -7997.44228392 Ry
     estimated scf accuracy    <       0.00001176 Ry

     iteration # 82     ecut=    80.00 Ry     beta= 0.20
     Davidson diagonalization with overlap
     ethr =  3.20E-09,  avg # of iterations =  2.0

     negative rho (up, down):  7.772E-01 0.000E+00

     total cpu time spent up to now is      849.7 secs

     total energy              =   -7997.44225769 Ry
     estimated scf accuracy    <       0.00001761 Ry

     iteration # 83     ecut=    80.00 Ry     beta= 0.20
     Davidson diagonalization with overlap
     ethr =  3.20E-09,  avg # of iterations =  2.0

     negative rho (up, down):  7.772E-01 0.000E+00

     total cpu time spent up to now is      860.7 secs

     total energy              =   -7997.44226297 Ry
     estimated scf accuracy    <       0.00003916 Ry

     iteration # 84     ecut=    80.00 Ry     beta= 0.20
     Davidson diagonalization with overlap
     ethr =  3.20E-09,  avg # of iterations =  2.0

     negative rho (up, down):  7.779E-01 0.000E+00

     total cpu time spent up to now is      871.7 secs

     End of self-consistent calculation

          k = 0.0000 0.0000 0.0000 ( 24523 PWs)   bands (ev):

   -89.2773 -89.2530 -89.2308 -89.2120 -89.1591 -89.1579 -89.1514 -89.1463
   -89.1275 -89.1260 -89.1238 -89.1181 -89.1097 -89.1030 -89.0887 -89.0885
   -61.3714 -61.3575 -61.3525 -61.3459 -61.3050 -61.2947 -61.2937 -61.2929
   -49.8702 -49.8598 -49.8194 -49.7820 -49.7631 -49.7116 -49.6954 -49.6612
   -49.6459 -49.6392 -49.6383 -49.6292 -49.6030 -49.6001 -49.5917 -49.5888
   -49.5797 -49.5782 -49.5609 -49.5512 -49.5454 -49.5443 -49.5358 -49.5305
   -49.5096 -49.4988 -49.4865 -49.4817 -49.4770 -49.4756 -49.4708 -49.4660
   -49.4652 -49.4589 -49.4547 -49.4493 -49.4455 -49.4443 -49.4393 -49.4241
   -49.4031 -49.3960 -49.3950 -49.3930 -49.3887 -49.3701 -49.3611 -49.3090
   -28.1358 -28.1338 -28.1307 -28.1207 -28.1184 -28.1176 -28.1163 -28.1120
   -28.1098 -28.1075 -28.1072 -28.0935 -28.0686 -28.0626 -28.0620 -28.0601
   -28.0511 -28.0499 -28.0495 -28.0490 -28.0483 -28.0474 -28.0426 -28.0392
     5.1854   5.8058   5.8466   7.3149   7.9897   9.2846   9.3017   9.3808
     9.9638   9.9694  10.1030  10.1873  10.3217  10.3373  10.3723  10.3805
    10.3964  10.4235  10.5165  10.5628  10.6114  10.6403  10.6649  10.6800
    10.6974  10.7253  10.7800  10.8291  10.8472  10.8765  11.2096  11.2231
    11.2444  11.2452  11.2596  11.2672  11.4834  11.5213  11.6709  11.6872
    11.7090  11.7286  11.7466  11.7557  11.9437  11.9882  12.2280  12.4067
    12.4478  12.4603  12.4785  12.5217  12.6409  12.6738  12.8148  12.8407
    12.9247  12.9729  13.0341  13.0662  13.0832  13.0901  13.0975  13.1098
    13.1192  13.1229  13.1290  13.1348  13.1379  13.1474  13.1686  13.1730
    13.1938  13.2121  13.2291  13.2465  13.2673  13.3647  13.3859  13.7035
    13.7228  13.9703  13.9921  14.2307  14.2568  14.2576  14.2693  14.4799
    14.7075  14.8527  14.8887  14.9014  14.9528  14.9938  15.0657  15.0980
    15.2832  15.3459  15.3518  15.4234  16.6740  16.7368  16.7743  16.8386
    17.2575  17.3767  17.6436  17.7359  18.3460  18.3837  18.4335  18.6726
    18.7510  18.9523  19.2841  19.3905  19.7033  19.7736  20.1612  20.3418
    20.4763  20.6948  20.9254  22.2520  22.4295

          k = 0.0010 0.3902-0.0009 ( 24520 PWs)   bands (ev):

   -89.2772 -89.2528 -89.2306 -89.2116 -89.1569 -89.1506 -89.1474 -89.1405
   -89.1334 -89.1254 -89.1253 -89.1184 -89.1155 -89.1072 -89.0916 -89.0888
   -61.3713 -61.3574 -61.3524 -61.3458 -61.3051 -61.2948 -61.2938 -61.2930
   -49.8371 -49.8285 -49.7951 -49.7695 -49.7344 -49.6994 -49.6851 -49.6607
   -49.6483 -49.6405 -49.6343 -49.6209 -49.6091 -49.5917 -49.5872 -49.5849
   -49.5807 -49.5698 -49.5612 -49.5545 -49.5506 -49.5407 -49.5349 -49.5258
   -49.5006 -49.4955 -49.4867 -49.4827 -49.4768 -49.4752 -49.4724 -49.4703
   -49.4644 -49.4632 -49.4594 -49.4549 -49.4512 -49.4499 -49.4474 -49.4324
   -49.4256 -49.4242 -49.4130 -49.4122 -49.4113 -49.3887 -49.3659 -49.3236
   -28.1367 -28.1329 -28.1317 -28.1204 -28.1190 -28.1183 -28.1161 -28.1127
   -28.1090 -28.1086 -28.1081 -28.0946 -28.0676 -28.0629 -28.0615 -28.0593
   -28.0521 -28.0506 -28.0500 -28.0488 -28.0473 -28.0465 -28.0418 -28.0384
     6.2125   6.8000   6.8441   8.2684   8.7333   8.9673   9.2453   9.2876
     9.7939   9.8259   9.9779  10.0824  10.1810  10.2734  10.3493  10.4271
    10.4989  10.5541  10.6023  10.6322  10.6481  10.6732  10.7881  10.8943
    10.9407  10.9679  11.0479  11.1042  11.1135  11.1204  11.1252  11.2497
    11.2564  11.3178  11.3266  11.3651  11.4176  11.4229  11.4885  11.5460
    11.6153  11.6554  11.6851  11.7069  11.8047  11.8775  11.9277  11.9452
    11.9749  12.0930  12.1182  12.1304  12.1709  12.2208  12.2917  12.3444
    12.3579  12.4252  12.4840  12.5093  12.5430  12.6345  12.6606  12.6717
    12.7325  12.7710  12.7758  12.8326  12.8696  12.8854  12.9516  12.9840
    13.0413  13.0944  13.1120  13.1243  13.1522  13.1705  13.1948  13.2163
    13.2812  13.3047  13.3222  13.4613  13.4724  13.5412  13.6394  13.7691
    14.0498  14.1233  14.4657  14.5062  14.6537  14.7811  14.8500  15.0573
    15.1097  15.1562  15.2080  15.3827  16.1181  16.5876  16.8554  16.9091
    18.2240  18.6245  18.6726  18.8954  19.6636  19.7928  19.8668  19.9560
    20.0041  20.1877  20.7058  21.1351  21.1626  21.2773  21.7097  21.9281
    22.1840  22.6535  23.0098  23.1595  23.3388

          k = 0.3338 0.1961-0.0016 ( 24536 PWs)   bands (ev):

   -89.2772 -89.2528 -89.2306 -89.2116 -89.1548 -89.1520 -89.1490 -89.1403
   -89.1303 -89.1297 -89.1271 -89.1218 -89.1123 -89.1008 -89.0935 -89.0895
   -61.3713 -61.3575 -61.3525 -61.3458 -61.3051 -61.2948 -61.2938 -61.2930
   -49.8403 -49.8314 -49.7945 -49.7684 -49.7361 -49.6985 -49.6899 -49.6597
   -49.6453 -49.6377 -49.6360 -49.6231 -49.6094 -49.5992 -49.5865 -49.5817
   -49.5773 -49.5707 -49.5664 -49.5521 -49.5473 -49.5428 -49.5386 -49.5234
   -49.5020 -49.4949 -49.4834 -49.4795 -49.4780 -49.4778 -49.4761 -49.4742
   -49.4692 -49.4648 -49.4624 -49.4538 -49.4529 -49.4504 -49.4444 -49.4295
   -49.4265 -49.4206 -49.4115 -49.4101 -49.3974 -49.3850 -49.3788 -49.3140
   -28.1361 -28.1343 -28.1306 -28.1209 -28.1183 -28.1180 -28.1169 -28.1120
   -28.1103 -28.1083 -28.1071 -28.0946 -28.0678 -28.0619 -28.0615 -28.0601
   -28.0518 -28.0500 -28.0497 -28.0490 -28.0480 -28.0472 -28.0417 -28.0384
     6.1963   6.7825   6.8307   8.2523   8.7263   8.9156   9.2112   9.2475
     9.7860   9.8193   9.9707  10.0726  10.1733  10.2676  10.3341  10.4441
    10.4880  10.5642  10.6058  10.6342  10.6433  10.6959  10.8329  10.8874
    10.9486  10.9638  11.0442  11.0839  11.1134  11.1262  11.1320  11.2475
    11.2663  11.2860  11.3156  11.3709  11.4165  11.4243  11.5016  11.5415
    11.6330  11.6695  11.6782  11.7111  11.8082  11.8585  11.9206  11.9487
    11.9718  12.0886  12.1103  12.1409  12.1633  12.2232  12.3002  12.3234
    12.3513  12.4076  12.4735  12.5194  12.5472  12.6262  12.6456  12.6805
    12.7333  12.7585  12.7668  12.8353  12.8643  12.8992  12.9370  13.0098
    13.0333  13.1143  13.1194  13.1425  13.1717  13.1918  13.2119  13.2184
    13.3061  13.3231  13.3412  13.4608  13.4803  13.5335  13.6306  13.7792
    14.0582  14.1057  14.4890  14.4998  14.7224  14.8245  14.9186  15.1135
    15.1818  15.2058  15.2855  15.4431  16.0745  16.5599  16.8742  16.9166
    18.2813  18.6688  18.7133  18.9002  19.6287  19.8358  19.9259  19.9847
    20.0541  20.1876  20.6957  21.1211  21.1795  21.2942  21.7022  21.9030
    22.1020  22.6510  22.9822  23.2230  23.2832

          k = 0.3348 0.5863-0.0025 ( 24482 PWs)   bands (ev):

   -89.2771 -89.2527 -89.2305 -89.2114 -89.1541 -89.1472 -89.1437 -89.1402
   -89.1338 -89.1287 -89.1278 -89.1254 -89.1127 -89.1041 -89.0924 -89.0912
   -61.3712 -61.3574 -61.3524 -61.3457 -61.3051 -61.2949 -61.2938 -61.2931
   -49.8190 -49.8068 -49.7972 -49.7714 -49.6924 -49.6826 -49.6744 -49.6702
   -49.6619 -49.6561 -49.6297 -49.6238 -49.6145 -49.6045 -49.5889 -49.5797
   -49.5750 -49.5686 -49.5651 -49.5521 -49.5478 -49.5323 -49.5281 -49.5191
   -49.4958 -49.4949 -49.4933 -49.4897 -49.4852 -49.4800 -49.4717 -49.4688
   -49.4681 -49.4644 -49.4585 -49.4566 -49.4530 -49.4449 -49.4400 -49.4382
   -49.4330 -49.4242 -49.4186 -49.4162 -49.4118 -49.4080 -49.3913 -49.3238
   -28.1367 -28.1345 -28.1302 -28.1217 -28.1185 -28.1175 -28.1171 -28.1117
   -28.1110 -28.1088 -28.1062 -28.0955 -28.0669 -28.0631 -28.0609 -28.0592
   -28.0522 -28.0514 -28.0509 -28.0476 -28.0468 -28.0466 -28.0415 -28.0381
     7.8437   7.8773   8.3030   8.4168   8.4528   8.6114   8.7377   8.7634
     8.9567   9.7507   9.7660   9.8066   9.8315   9.8760   9.8927  10.5077
    10.5318  10.5391  10.6697  10.6915  10.8514  10.8703  11.0094  11.0251
    11.0892  11.1192  11.1440  11.1688  11.1822  11.2078  11.2776  11.3174
    11.3347  11.3399  11.3692  11.3910  11.4190  11.4388  11.4480  11.4673
    11.4771  11.4914  11.5290  11.5488  11.6222  11.6378  11.6544  11.6602
    11.6683  11.8570  11.8622  11.8823  11.9926  12.1504  12.1625  12.1742
    12.1913  12.2425  12.3926  12.4269  12.4903  12.5451  12.5641  12.5901
    12.6298  12.6498  12.6693  12.7828  12.7985  12.8115  12.8305  12.8421
    12.8753  12.9110  12.9189  12.9257  12.9689  12.9890  12.9978  13.0957
    13.2447  13.2793  13.3890  13.3982  13.4095  13.4907  13.5016  13.6236
    13.6810  13.7293  13.7404  13.9499  14.1005  14.1327  14.2093  15.5789
    15.6184  15.6765  15.8478  15.9271  16.4912  18.2770  18.3877  18.5414
    18.7247  18.7975  19.3504  19.4707  19.5182  19.5525  19.5818  19.7835
    20.0314  20.4767  20.5013  20.5412  21.2659  21.4164  21.7091  21.7553
    21.8540  22.5746  23.7645  23.8928  24.0085

          k = 0.3328-0.1941-0.0007 ( 24539 PWs)   bands (ev):

   -89.2772 -89.2528 -89.2306 -89.2116 -89.1560 -89.1516 -89.1491 -89.1394
   -89.1339 -89.1277 -89.1249 -89.1239 -89.1100 -89.1015 -89.0927 -89.0901
   -61.3713 -61.3575 -61.3525 -61.3458 -61.3051 -61.2948 -61.2938 -61.2930
   -49.8414 -49.8343 -49.7964 -49.7692 -49.7434 -49.7026 -49.6934 -49.6664
   -49.6429 -49.6330 -49.6304 -49.6244 -49.6072 -49.5905 -49.5874 -49.5807
   -49.5775 -49.5691 -49.5639 -49.5529 -49.5489 -49.5418 -49.5359 -49.5248
   -49.5023 -49.4954 -49.4873 -49.4808 -49.4745 -49.4742 -49.4727 -49.4692
   -49.4671 -49.4656 -49.4605 -49.4566 -49.4549 -49.4524 -49.4437 -49.4347
   -49.4306 -49.4179 -49.4149 -49.4049 -49.3983 -49.3807 -49.3779 -49.3179
   -28.1364 -28.1345 -28.1301 -28.1214 -28.1184 -28.1178 -28.1170 -28.1114
   -28.1105 -28.1080 -28.1067 -28.0948 -28.0676 -28.0621 -28.0618 -28.0602
   -28.0513 -28.0502 -28.0500 -28.0488 -28.0481 -28.0475 -28.0417 -28.0383
     6.1880   6.7769   6.8193   8.2383   8.7200   8.8910   9.1862   9.2215
     9.7798   9.8163   9.9677  10.0573  10.1592  10.2652  10.3329  10.4468
    10.4855  10.5829  10.6102  10.6337  10.6425  10.7130  10.8568  10.8880
    10.9275  10.9787  11.0304  11.0911  11.1044  11.1339  11.1411  11.2465
    11.2624  11.2790  11.3108  11.3698  11.4067  11.4361  11.4914  11.5532
    11.6432  11.6654  11.6799  11.7085  11.7836  11.8592  11.9061  11.9602
    11.9831  12.0974  12.1187  12.1396  12.1654  12.2197  12.2888  12.3282
    12.3582  12.3784  12.4975  12.5328  12.5427  12.5953  12.6471  12.6826
    12.7334  12.7354  12.7571  12.8476  12.8530  12.9053  12.9325  13.0176
    13.0272  13.0995  13.1369  13.1570  13.1803  13.2023  13.2095  13.2327
    13.3094  13.3359  13.3446  13.4688  13.4894  13.5244  13.6184  13.7859
    14.0647  14.0896  14.4956  14.5170  14.7635  14.8595  14.9620  15.1583
    15.2154  15.2510  15.3293  15.4967  16.0763  16.5186  16.8574  16.9462
    18.3294  18.6963  18.7401  18.8886  19.6729  19.8082  19.9514  20.0177
    20.0892  20.2136  20.6687  21.1126  21.1854  21.2858  21.7561  21.8860
    22.0313  22.6456  22.9563  23.1907  23.2808

     the Fermi energy is    13.8183 ev

!    total energy              =   -7997.44178481 Ry
     total all-electron energy =    -51870.517655 Ry
     estimated scf accuracy    <       0.00000771 Ry
     smearing contrib. (-TS)   =       0.09800885 Ry
     internal energy E=F+TS    =   -7997.53979366 Ry

     The total energy is F=E-TS. E is the sum of the following terms:
     one-electron contribution =   -4411.71864411 Ry
     hartree contribution      =    2380.60709986 Ry
     xc contribution           =    -696.81089350 Ry
     ewald contribution        =   -3689.74886416 Ry
     one-center paw contrib.   =   -1579.86849174 Ry

     convergence has been achieved in  84 iterations

     negative rho (up, down):  7.779E-01 0.000E+00

     Forces acting on atoms (cartesian axes, Ry/au):

     atom    1 type  1   force =    -0.01256033   -0.00947594    0.03924951
     atom    2 type  1   force =    -0.01235214   -0.00780959    0.04546667
     atom    3 type  1   force =    -0.01583811   -0.02038939    0.03390780
     atom    4 type  1   force =    -0.02057787   -0.00471507    0.03103852
     atom    5 type  1   force =    -0.01877963   -0.00772741    0.03715571
     atom    6 type  1   force =    -0.01218818   -0.00914079    0.03737626
     atom    7 type  1   force =    -0.01281454   -0.01054887    0.03273031
     atom    8 type  1   force =    -0.01650041   -0.00364149    0.03825806
     atom    9 type  2   force =    -0.01013006   -0.01071906    0.04583872
     atom   10 type  2   force =     0.11131895   -0.04804785    0.28460951
     atom   11 type  2   force =    -0.08443842   -0.17193035    0.07430347
     atom   12 type  2   force =    -0.18263637    0.24674075   -0.09677558
     atom   13 type  2   force =    -0.01467271   -0.02826954    0.03742226
     atom   14 type  2   force =    -0.08394493   -0.04473853   -0.07429005
     atom   15 type  2   force =     0.84862639   -0.04100442   -0.65680273
     atom   16 type  2   force =    -0.02969023   -0.00282065    0.02900880
     atom   17 type  2   force =     0.00123933   -0.00001933    0.03207606
     atom   18 type  2   force =    -0.02904595   -0.01563634    0.03730992
     atom   19 type  2   force =    -0.01432521   -0.02173048    0.03331082
     atom   20 type  2   force =    -0.02071998   -0.00601072    0.03553714
     atom   21 type  2   force =    -0.00860007   -0.01378356    0.03350845
     atom   22 type  2   force =    -0.09810976    0.13833823   -0.05094859
     atom   23 type  2   force =    -0.01403192   -0.00696245    0.02991276
     atom   24 type  2   force =    -0.24922783    0.10004285   -0.08920383
     The non-local contrib.  to forces
     atom    1 type  1   force =     0.00810524   -0.00296164    0.02474329
     atom    2 type  1   force =    -0.00200622    0.01957280    0.03602742
     atom    3 type  1   force =    -0.01721553   -0.02247653   -0.01878293
     atom    4 type  1   force =    -0.01816193   -0.00000880   -0.01789626
     atom    5 type  1   force =    -0.01758639    0.00086337   -0.00205270
     atom    6 type  1   force =    -0.00038268    0.01446644   -0.00170683
     atom    7 type  1   force =    -0.00366298    0.00942791   -0.00157856
     atom    8 type  1   force =     0.00652863    0.00659966    0.00809624
     atom    9 type  2   force =    -0.03700219    0.03692963    0.06771449
     atom   10 type  2   force =     1.17199778   -2.26503465    3.73708687
     atom   11 type  2   force =     0.59256597    1.85542220   -0.63135996
     atom   12 type  2   force =     1.82201464   -1.82372801    1.20520752
     atom   13 type  2   force =     0.00054894   -0.08416859    0.02092906
     atom   14 type  2   force =    -0.80367743   -0.37600737   -3.51456316
     atom   15 type  2   force =     5.09634023   -0.74434864   -4.91214535
     atom   16 type  2   force =    -0.06722329    0.08249014    0.00465456
     atom   17 type  2   force =     0.08885423    0.05550988    0.01107108
     atom   18 type  2   force =    -0.07017065    0.02198715    0.01861906
     atom   19 type  2   force =    -0.02665400    0.05080110   -0.00592863
     atom   20 type  2   force =     0.02640700    0.00527559    0.01774135
     atom   21 type  2   force =    -0.01899511   -0.02715547    0.08202059
     atom   22 type  2   force =    -1.21765505    2.02559845   -0.85443148
     atom   23 type  2   force =     0.01949452   -0.00668688    0.04829219
     atom   24 type  2   force =    -2.33719521    1.83863298   -1.68754256
     The ionic contribution  to forces
     atom    1 type  1   force =     0.26506804   -0.04666042   -0.66501769
     atom    2 type  1   force =    -0.15998997    0.49224536    0.08552382
     atom    3 type  1   force =    -0.45483662   -0.47483275    0.17096541
     atom    4 type  1   force =    -0.58153769   -0.13083289    0.89594320
     atom    5 type  1   force =    -0.12506576   -0.04136623   -0.38660910
     atom    6 type  1   force =     0.14128243    0.42695638    0.35804150
     atom    7 type  1   force =    -0.21167347    0.27477778   -0.36452873
     atom    8 type  1   force =     0.27900903    0.01845945    0.30792755
     atom    9 type  2   force =     0.13860731   -0.17721517    1.56838148
     atom   10 type  2   force =     0.25143828   -0.40676687    2.04303917
     atom   11 type  2   force =     0.15222148    0.55257975   -0.77293680
     atom   12 type  2   force =     0.13054414    0.13977862    0.03921991
     atom   13 type  2   force =    -0.09980332  -16.09250157    0.00286499
     atom   14 type  2   force =    13.44924859   -7.98494913   -0.39298106
     atom   15 type  2   force =     0.05977190   15.71132374   -1.28341343
     atom   16 type  2   force =   -13.92556645    7.78044489   -0.33112277
     atom   17 type  2   force =    14.12847305    7.77356591   -0.66433366
     atom   18 type  2   force =   -13.70684177   -7.52769572   -0.34029104
     atom   19 type  2   force =    -0.26732818   -1.33157439   -0.88589556
     atom   20 type  2   force =    -0.61084697    0.94230719    0.86348971
     atom   21 type  2   force =     0.16713975   -0.72878048    0.24897550
     atom   22 type  2   force =     0.21640004    0.53075681   -0.59106943
     atom   23 type  2   force =     0.51245600   -0.52687009    0.38524495
     atom   24 type  2   force =     0.25183015    0.82684982   -0.29141794
     The local contribution  to forces
     atom    1 type  1   force =    -0.27228286    0.04992887    0.64481116
     atom    2 type  1   force =     0.16301659   -0.50983182   -0.11167272
     atom    3 type  1   force =     0.46958096    0.48642590   -0.15308784
     atom    4 type  1   force =     0.59240586    0.13600487   -0.88197857
     atom    5 type  1   force =     0.13724381    0.04249384    0.39118856
     atom    6 type  1   force =    -0.13964529   -0.44072748   -0.35331764
     atom    7 type  1   force =     0.21593431   -0.28498692    0.36336834
     atom    8 type  1   force =    -0.28876149   -0.01880262   -0.31386608
     atom    9 type  2   force =    -0.10059239    0.14158759   -1.61837873
     atom   10 type  2   force =    -1.23957757    2.50948027   -5.33777260
     atom   11 type  2   force =    -0.75882979   -2.40013789    1.38777798
     atom   12 type  2   force =    -1.98071568    1.79318569   -1.28421685
     atom   13 type  2   force =     0.09801715   16.15685047   -0.02001847
     atom   14 type  2   force =   -12.76787160    8.30683734    3.57904925
     atom   15 type  2   force =    -4.12720284  -15.02475225    5.33762120
     atom   16 type  2   force =    13.97631509   -7.85255541    0.32000498
     atom   17 type  2   force =   -14.20075670   -7.81799752    0.65121523
     atom   18 type  2   force =    13.75974044    7.50284612    0.32418582
     atom   19 type  2   force =     0.29196779    1.27148527    0.89097556
     atom   20 type  2   force =     0.57789191   -0.94397509   -0.87980423
     atom   21 type  2   force =    -0.14364875    0.75025823   -0.32785315
     atom   22 type  2   force =     0.82476519   -2.25210620    1.29614439
     atom   23 type  2   force =    -0.53133472    0.53704626   -0.43658206
     atom   24 type  2   force =     1.70088458   -2.43354773    1.74495837
     The core correction contribution to forces
     atom    1 type  1   force =    -0.00003053    0.00000874   -0.00013275
     atom    2 type  1   force =    -0.00000703   -0.00008569   -0.00020186
     atom    3 type  1   force =     0.00008736    0.00014030    0.00009008
     atom    4 type  1   force =     0.00010236   -0.00002870    0.00010912
     atom    5 type  1   force =     0.00009290   -0.00001175   -0.00000623
     atom    6 type  1   force =    -0.00000432   -0.00006006   -0.00000282
     atom    7 type  1   force =     0.00001076   -0.00003472    0.00002029
     atom    8 type  1   force =    -0.00000842   -0.00005284   -0.00003916
     atom    9 type  2   force =     0.00221712   -0.00226877   -0.00728927
     atom   10 type  2   force =    -0.05906424    0.12373633   -0.19449489
     atom   11 type  2   force =    -0.05704473   -0.16980330    0.05669709
     atom   12 type  2   force =    -0.14030606    0.14376990   -0.08859815
     atom   13 type  2   force =     0.00001519    0.00130521   -0.00146719
     atom   14 type  2   force =     0.05179852    0.01917478    0.21843902
     atom   15 type  2   force =    -0.16683627    0.02647560    0.16492937
     atom   16 type  2   force =     0.00094978   -0.00335515    0.00001427
     atom   17 type  2   force =    -0.00196961   -0.00180245   -0.00084318
     atom   18 type  2   force =     0.00141619   -0.00306631   -0.00146337
     atom   19 type  2   force =     0.00118266   -0.00257624   -0.00044085
     atom   20 type  2   force =    -0.00108074   -0.00002999   -0.00083153
     atom   21 type  2   force =     0.00047276    0.00162925   -0.00507430
     atom   22 type  2   force =     0.09221839   -0.15654131    0.06419568
     atom   23 type  2   force =    -0.00107148   -0.00076356   -0.00259734
     atom   24 type  2   force =     0.14805997   -0.12161717    0.10963161
     The Hubbard contrib.    to forces
     atom    1 type  1   force =     0.00000000    0.00000000    0.00000000
     atom    2 type  1   force =     0.00000000    0.00000000    0.00000000
     atom    3 type  1   force =     0.00000000    0.00000000    0.00000000
     atom    4 type  1   force =     0.00000000    0.00000000    0.00000000
     atom    5 type  1   force =     0.00000000    0.00000000    0.00000000
     atom    6 type  1   force =     0.00000000    0.00000000    0.00000000
     atom    7 type  1   force =     0.00000000    0.00000000    0.00000000
     atom    8 type  1   force =     0.00000000    0.00000000    0.00000000
     atom    9 type  2   force =     0.00000000    0.00000000    0.00000000
     atom   10 type  2   force =     0.00000000    0.00000000    0.00000000
     atom   11 type  2   force =     0.00000000    0.00000000    0.00000000
     atom   12 type  2   force =     0.00000000    0.00000000    0.00000000
     atom   13 type  2   force =     0.00000000    0.00000000    0.00000000
     atom   14 type  2   force =     0.00000000    0.00000000    0.00000000
     atom   15 type  2   force =     0.00000000    0.00000000    0.00000000
     atom   16 type  2   force =     0.00000000    0.00000000    0.00000000
     atom   17 type  2   force =     0.00000000    0.00000000    0.00000000
     atom   18 type  2   force =     0.00000000    0.00000000    0.00000000
     atom   19 type  2   force =     0.00000000    0.00000000    0.00000000
     atom   20 type  2   force =     0.00000000    0.00000000    0.00000000
     atom   21 type  2   force =     0.00000000    0.00000000    0.00000000
     atom   22 type  2   force =     0.00000000    0.00000000    0.00000000
     atom   23 type  2   force =     0.00000000    0.00000000    0.00000000
     atom   24 type  2   force =     0.00000000    0.00000000    0.00000000
     The SCF correction term to forces
     atom    1 type  1   force =     0.00000884   -0.00004339   -0.00026485
     atom    2 type  1   force =     0.00006356    0.00003785    0.00067967
     atom    3 type  1   force =    -0.00002523    0.00010178   -0.00038727
     atom    4 type  1   force =     0.00004258   -0.00010146   -0.00024931
     atom    5 type  1   force =    -0.00003514    0.00004145   -0.00047517
     atom    6 type  1   force =    -0.00000926   -0.00002799   -0.00074829
     atom    7 type  1   force =     0.00000590    0.00001516    0.00033862
     atom    8 type  1   force =     0.00016089   -0.00009705    0.00102915
     atom    9 type  2   force =     0.00006915   -0.00000424    0.00030041
     atom   10 type  2   force =    -0.00004624    0.00028516    0.00164062
     atom   11 type  2   force =     0.00007772   -0.00024304   -0.00098519
     atom   12 type  2   force =    -0.00074435    0.00348263   -0.00349836
     atom   13 type  2   force =    -0.00002161   -0.00000698    0.00000352
     atom   14 type  2   force =    -0.00001396   -0.00004606    0.00065555
     atom   15 type  2   force =    -0.00001757    0.00004521    0.00109514
     atom   16 type  2   force =    -0.00073630   -0.00009703    0.00034742
     atom   17 type  2   force =     0.00006742    0.00045294   -0.00014376
     atom   18 type  2   force =     0.00023891    0.00004050    0.00114911
     atom   19 type  2   force =    -0.00006441   -0.00011813   -0.00051004
     atom   20 type  2   force =     0.00033789    0.00015967   -0.00016850
     atom   21 type  2   force =    -0.00013966    0.00001299    0.00032946
     atom   22 type  2   force =    -0.00040926    0.00037857   -0.00089809
     atom   23 type  2   force =    -0.00014719    0.00005990    0.00044468
     atom   24 type  2   force =     0.00062174   -0.00052698    0.00005635

     Total force =     1.245227     Total SCF correction =     0.006172


     Computing stress (Cartesian axis) and pressure


     negative rho (up, down):  7.779E-01 0.000E+00
          total   stress  (Ry/bohr**3)                   (kbar)     P=       13.64
  -0.00004183   0.00007019  -0.00001151           -6.15       10.33       -1.69
   0.00007019   0.00024914  -0.00005497           10.33       36.65       -8.09
  -0.00001151  -0.00005497   0.00007089           -1.69       -8.09       10.43


     BFGS Geometry Optimization
     Energy error            =      0.0E+00 Ry
     Gradient error          =      8.5E-01 Ry/Bohr

     number of scf cycles    =   1
     number of bfgs steps    =   0

     energy             new  =   -7997.4417848080 Ry

     new trust radius        =       0.5000000000 bohr
     new conv_thr            =       0.0000100000 Ry


ATOMIC_POSITIONS (crystal)
Mg            0.9972393656        0.9980933395        0.4068908546
Mg            0.9957853639        0.9986864980        0.9062503187
Mg            0.0045073487        0.0032201776        0.5944437628
Mg            0.0009027108        0.9966937432        0.0937806765
Mg            0.3356386760        0.6651296218        0.6567397328
Mg            0.6641083357        0.3322989677        0.1561051386
Mg            0.6658121296        0.3338921779        0.3450575770
Mg            0.3282040244        0.6636274449        0.8442319650
Ni            0.3314388693        0.6673164716        0.3750922969
Ni            0.6681675009        0.3336992224        0.8786727946
Ni            0.6556798504        0.3222600344        0.6258416099
Ni            0.3300716377        0.6812490296        0.1226280460
Ni            0.1655178890        0.3335553140        0.2498958023
Ni            0.8278873941        0.1625988541        0.7483894864
Ni            0.8804914158        0.6652535512        0.7401942636
Ni            0.1665504461        0.8361474061        0.2511296318
Ni            0.6669606797        0.8346375879        0.2501543941
Ni            0.3320354501        0.1657176907        0.7505327809
Ni            0.5014780942        0.0026692228        0.5005143262
Ni            0.4997287595        0.5000495785        1.0000360448
Ni            0.4951849330        0.0000656976        0.9998979601
Ni            0.4990952014        0.5101904024        0.4990784069
Ni            0.9970449444        0.4963557246        0.0004837817
Ni           -0.0094390202        0.5045492417        0.4986133477



     Writing config-only to output data dir ./C36/out_logs/C36_out_7/laves_C36.save/
     NEW-OLD atomic charge density approx. for the potential

     Check: negative core charge=   -0.000009

     negative rho (up, down):  9.183E-01 0.000E+00

     total cpu time spent up to now is      894.5 secs

     Self-consistent Calculation

     iteration #  1     ecut=    80.00 Ry     beta= 0.20
     Davidson diagonalization with overlap
     c_bands:  3 eigenvalues not converged
     c_bands:  4 eigenvalues not converged
     c_bands:  3 eigenvalues not converged
     c_bands:  4 eigenvalues not converged
     c_bands:  4 eigenvalues not converged
     ethr =  1.00E-06,  avg # of iterations = 20.0

     negative rho (up, down):  1.464E+01 0.000E+00

     total cpu time spent up to now is      937.0 secs

     total energy              =   -8338.03602252 Ry
     estimated scf accuracy    <    5466.57410451 Ry

     iteration #  2     ecut=    80.00 Ry     beta= 0.20
     Davidson diagonalization with overlap
     ethr =  1.00E-02,  avg # of iterations =  6.0

     negative rho (up, down):  2.494E+01 0.000E+00

     total cpu time spent up to now is      949.9 secs

     total energy              =   -8204.46140275 Ry
     estimated scf accuracy    <    5533.65129399 Ry

     iteration #  3     ecut=    80.00 Ry     beta= 0.20
     Davidson diagonalization with overlap
     ethr =  1.00E-02,  avg # of iterations =  6.4

     negative rho (up, down):  4.306E+01 0.000E+00

     total cpu time spent up to now is      967.4 secs

     total energy              =   -7939.64451678 Ry
     estimated scf accuracy    <    7708.49056453 Ry

     iteration #  4     ecut=    80.00 Ry     beta= 0.20
     Davidson diagonalization with overlap
     ethr =  1.00E-02,  avg # of iterations =  8.8

     negative rho (up, down):  8.696E+01 0.000E+00

     total cpu time spent up to now is      990.4 secs

     total energy              =   -7895.61963918 Ry
     estimated scf accuracy    <    3288.00358585 Ry

     iteration #  5     ecut=    80.00 Ry     beta= 0.20
     Davidson diagonalization with overlap
     ethr =  1.00E-02,  avg # of iterations =  9.8

     negative rho (up, down):  9.977E+01 0.000E+00

     total cpu time spent up to now is     1018.3 secs

     total energy              =   -7661.47300781 Ry
     estimated scf accuracy    <    9242.30948536 Ry

     iteration #  6     ecut=    80.00 Ry     beta= 0.20
     Davidson diagonalization with overlap
     ethr =  1.00E-02,  avg # of iterations =  9.0

     negative rho (up, down):  1.056E+02 0.000E+00

     total cpu time spent up to now is     1044.4 secs

     total energy              =   -7987.91819915 Ry
     estimated scf accuracy    <    1512.99199715 Ry

     iteration #  7     ecut=    80.00 Ry     beta= 0.20
     Davidson diagonalization with overlap
     ethr =  1.00E-02,  avg # of iterations =  5.8

     negative rho (up, down):  1.080E+02 0.000E+00

     total cpu time spent up to now is     1058.2 secs

     total energy              =   -8043.17239835 Ry
     estimated scf accuracy    <     495.89013419 Ry

     iteration #  8     ecut=    80.00 Ry     beta= 0.20
     Davidson diagonalization with overlap
     ethr =  1.00E-02,  avg # of iterations =  9.4

     negative rho (up, down):  1.088E+02 0.000E+00

     total cpu time spent up to now is     1071.1 secs

     total energy              =   -8042.92939400 Ry
     estimated scf accuracy    <     313.49792131 Ry

     iteration #  9     ecut=    80.00 Ry     beta= 0.20
     Davidson diagonalization with overlap
     ethr =  1.00E-02,  avg # of iterations =  1.0

     negative rho (up, down):  1.103E+02 0.000E+00

     total cpu time spent up to now is     1080.2 secs

     total energy              =   -8040.17054566 Ry
     estimated scf accuracy    <     141.42265676 Ry

     iteration # 10     ecut=    80.00 Ry     beta= 0.20
     Davidson diagonalization with overlap
     ethr =  1.00E-02,  avg # of iterations =  2.0

     negative rho (up, down):  1.112E+02 0.000E+00

     total cpu time spent up to now is     1090.4 secs

     total energy              =   -8044.86082487 Ry
     estimated scf accuracy    <     496.64793128 Ry

     iteration # 11     ecut=    80.00 Ry     beta= 0.20
     Davidson diagonalization with overlap
     ethr =  1.00E-02,  avg # of iterations =  1.0

     negative rho (up, down):  1.126E+02 0.000E+00

     total cpu time spent up to now is     1099.5 secs

     total energy              =   -8047.58980829 Ry
     estimated scf accuracy    <     424.55956695 Ry

     iteration # 12     ecut=    80.00 Ry     beta= 0.20
     Davidson diagonalization with overlap
     ethr =  1.00E-02,  avg # of iterations =  1.0

     negative rho (up, down):  1.106E+02 0.000E+00

     total cpu time spent up to now is     1108.6 secs

     total energy              =   -8041.38509753 Ry
     estimated scf accuracy    <     529.52654564 Ry

     iteration # 13     ecut=    80.00 Ry     beta= 0.20
     Davidson diagonalization with overlap
     ethr =  1.00E-02,  avg # of iterations =  1.0

     negative rho (up, down):  1.116E+02 0.000E+00

     total cpu time spent up to now is     1117.7 secs

     total energy              =   -8043.01608912 Ry
     estimated scf accuracy    <     325.25613785 Ry

     iteration # 14     ecut=    80.00 Ry     beta= 0.20
     Davidson diagonalization with overlap
     ethr =  1.00E-02,  avg # of iterations =  2.0

     negative rho (up, down):  1.114E+02 0.000E+00

     total cpu time spent up to now is     1127.9 secs

     total energy              =   -8039.31588015 Ry
     estimated scf accuracy    <     397.03222517 Ry

     iteration # 15     ecut=    80.00 Ry     beta= 0.20
     Davidson diagonalization with overlap
     ethr =  1.00E-02,  avg # of iterations =  1.4

     negative rho (up, down):  1.106E+02 0.000E+00

     total cpu time spent up to now is     1137.4 secs

     total energy              =   -8030.48101474 Ry
     estimated scf accuracy    <     257.26719300 Ry

     iteration # 16     ecut=    80.00 Ry     beta= 0.20
     Davidson diagonalization with overlap
     ethr =  1.00E-02,  avg # of iterations =  2.0

     negative rho (up, down):  1.113E+02 0.000E+00

     total cpu time spent up to now is     1147.6 secs

     total energy              =   -8026.97074035 Ry
     estimated scf accuracy    <     175.04329601 Ry

     iteration # 17     ecut=    80.00 Ry     beta= 0.20
     Davidson diagonalization with overlap
     ethr =  1.00E-02,  avg # of iterations =  2.8

     negative rho (up, down):  1.042E+02 0.000E+00

     total cpu time spent up to now is     1158.0 secs

     total energy              =   -8037.66846109 Ry
     estimated scf accuracy    <     289.36040984 Ry

     iteration # 18     ecut=    80.00 Ry     beta= 0.20
     Davidson diagonalization with overlap
     ethr =  1.00E-02,  avg # of iterations =  2.0

     negative rho (up, down):  1.092E+02 0.000E+00

     total cpu time spent up to now is     1168.4 secs

     total energy              =   -8038.75923779 Ry
     estimated scf accuracy    <     270.08244427 Ry

     iteration # 19     ecut=    80.00 Ry     beta= 0.20
     Davidson diagonalization with overlap
     ethr =  1.00E-02,  avg # of iterations =  2.0

     negative rho (up, down):  1.095E+02 0.000E+00

     total cpu time spent up to now is     1178.6 secs

     total energy              =   -8033.22208147 Ry
     estimated scf accuracy    <     226.05397525 Ry

     iteration # 20     ecut=    80.00 Ry     beta= 0.20
     Davidson diagonalization with overlap
     ethr =  1.00E-02,  avg # of iterations =  2.0

     negative rho (up, down):  1.101E+02 0.000E+00

     total cpu time spent up to now is     1188.8 secs

     total energy              =   -8027.40203395 Ry
     estimated scf accuracy    <     288.87017256 Ry

     iteration # 21     ecut=    80.00 Ry     beta= 0.20
     Davidson diagonalization with overlap
     ethr =  1.00E-02,  avg # of iterations =  1.2

     negative rho (up, down):  1.110E+02 0.000E+00

     total cpu time spent up to now is     1198.1 secs

     total energy              =   -8031.44005977 Ry
     estimated scf accuracy    <     184.42379640 Ry

     iteration # 22     ecut=    80.00 Ry     beta= 0.20
     Davidson diagonalization with overlap
     ethr =  1.00E-02,  avg # of iterations =  1.0

     negative rho (up, down):  1.106E+02 0.000E+00

     total cpu time spent up to now is     1207.2 secs

     total energy              =   -8037.40094022 Ry
     estimated scf accuracy    <     226.70114023 Ry

     iteration # 23     ecut=    80.00 Ry     beta= 0.20
     Davidson diagonalization with overlap
     ethr =  1.00E-02,  avg # of iterations =  2.0

     negative rho (up, down):  1.174E+02 0.000E+00

     total cpu time spent up to now is     1217.4 secs

     total energy              =   -8049.07096901 Ry
     estimated scf accuracy    <     235.50499216 Ry

     iteration # 24     ecut=    80.00 Ry     beta= 0.20
     Davidson diagonalization with overlap
     ethr =  1.00E-02,  avg # of iterations =  3.0

     negative rho (up, down):  1.183E+02 0.000E+00

     total cpu time spent up to now is     1228.3 secs

     total energy              =   -8055.14353372 Ry
     estimated scf accuracy    <     223.12535127 Ry

     iteration # 25     ecut=    80.00 Ry     beta= 0.20
     Davidson diagonalization with overlap
     ethr =  1.00E-02,  avg # of iterations =  2.0

     negative rho (up, down):  1.200E+02 0.000E+00

     total cpu time spent up to now is     1238.4 secs

     total energy              =   -8056.16476308 Ry
     estimated scf accuracy    <     226.42650295 Ry

     iteration # 26     ecut=    80.00 Ry     beta= 0.20
     Davidson diagonalization with overlap
     ethr =  1.00E-02,  avg # of iterations =  2.0

     negative rho (up, down):  1.255E+02 0.000E+00

     total cpu time spent up to now is     1248.6 secs

     total energy              =   -8066.60406192 Ry
     estimated scf accuracy    <     190.03052471 Ry

     iteration # 27     ecut=    80.00 Ry     beta= 0.20
     Davidson diagonalization with overlap
     ethr =  1.00E-02,  avg # of iterations =  2.0

     negative rho (up, down):  1.248E+02 0.000E+00

     total cpu time spent up to now is     1258.8 secs

     total energy              =   -8064.50767841 Ry
     estimated scf accuracy    <     188.30439293 Ry

     iteration # 28     ecut=    80.00 Ry     beta= 0.20
     Davidson diagonalization with overlap
     ethr =  1.00E-02,  avg # of iterations =  1.0

     negative rho (up, down):  1.194E+02 0.000E+00

     total cpu time spent up to now is     1268.0 secs

     total energy              =   -8042.79545494 Ry
     estimated scf accuracy    <     186.05542923 Ry

     iteration # 29     ecut=    80.00 Ry     beta= 0.20
     Davidson diagonalization with overlap
     ethr =  1.00E-02,  avg # of iterations =  4.2

     negative rho (up, down):  1.190E+02 0.000E+00

     total cpu time spent up to now is     1279.8 secs

     total energy              =   -8051.71616463 Ry
     estimated scf accuracy    <     178.51708981 Ry

     iteration # 30     ecut=    80.00 Ry     beta= 0.20
     Davidson diagonalization with overlap
     ethr =  1.00E-02,  avg # of iterations =  1.0

     negative rho (up, down):  1.188E+02 0.000E+00

     total cpu time spent up to now is     1288.9 secs

     total energy              =   -8051.59312129 Ry
     estimated scf accuracy    <     172.58525751 Ry

     iteration # 31     ecut=    80.00 Ry     beta= 0.20
     Davidson diagonalization with overlap
     ethr =  1.00E-02,  avg # of iterations =  1.0

     negative rho (up, down):  1.192E+02 0.000E+00

     total cpu time spent up to now is     1298.0 secs

     total energy              =   -8052.71969292 Ry
     estimated scf accuracy    <     175.27664278 Ry

     iteration # 32     ecut=    80.00 Ry     beta= 0.20
     Davidson diagonalization with overlap
     ethr =  1.00E-02,  avg # of iterations =  1.0

     negative rho (up, down):  1.181E+02 0.000E+00

     total cpu time spent up to now is     1307.2 secs

     total energy              =   -8050.90765858 Ry
     estimated scf accuracy    <     217.22056392 Ry

     iteration # 33     ecut=    80.00 Ry     beta= 0.20
     Davidson diagonalization with overlap
     ethr =  1.00E-02,  avg # of iterations =  1.0

     negative rho (up, down):  1.220E+02 0.000E+00

     total cpu time spent up to now is     1316.3 secs

     total energy              =   -8052.87698365 Ry
     estimated scf accuracy    <     301.94393295 Ry

     iteration # 34     ecut=    80.00 Ry     beta= 0.20
     Davidson diagonalization with overlap
     ethr =  1.00E-02,  avg # of iterations =  2.0

     negative rho (up, down):  1.257E+02 0.000E+00

     total cpu time spent up to now is     1326.6 secs

     total energy              =   -8047.79434039 Ry
     estimated scf accuracy    <     505.11047747 Ry

     iteration # 35     ecut=    80.00 Ry     beta= 0.20
     Davidson diagonalization with overlap
     ethr =  1.00E-02,  avg # of iterations =  2.4

     negative rho (up, down):  1.205E+02 0.000E+00

     total cpu time spent up to now is     1337.1 secs

     total energy              =   -8040.11614863 Ry
     estimated scf accuracy    <     733.54817760 Ry

     iteration # 36     ecut=    80.00 Ry     beta= 0.20
     Davidson diagonalization with overlap
     ethr =  1.00E-02,  avg # of iterations =  2.0

     negative rho (up, down):  1.282E+02 0.000E+00

     total cpu time spent up to now is     1347.4 secs

     total energy              =   -8059.14336672 Ry
     estimated scf accuracy    <     303.24613673 Ry

     iteration # 37     ecut=    80.00 Ry     beta= 0.20
     Davidson diagonalization with overlap
     ethr =  1.00E-02,  avg # of iterations =  3.0

     negative rho (up, down):  1.356E+02 0.000E+00

     total cpu time spent up to now is     1358.1 secs

     total energy              =   -8072.14308469 Ry
     estimated scf accuracy    <     177.08437974 Ry

     iteration # 38     ecut=    80.00 Ry     beta= 0.20
     Davidson diagonalization with overlap
     ethr =  1.00E-02,  avg # of iterations =  3.0

     negative rho (up, down):  1.410E+02 0.000E+00

     total cpu time spent up to now is     1368.7 secs

     total energy              =   -8076.92861522 Ry
     estimated scf accuracy    <     175.44007447 Ry

     iteration # 39     ecut=    80.00 Ry     beta= 0.20
     Davidson diagonalization with overlap
     ethr =  1.00E-02,  avg # of iterations =  2.0

     negative rho (up, down):  1.517E+02 0.000E+00

     total cpu time spent up to now is     1379.0 secs

     total energy              =   -8081.96828577 Ry
     estimated scf accuracy    <     133.61766528 Ry

     iteration # 40     ecut=    80.00 Ry     beta= 0.20
     Davidson diagonalization with overlap
     ethr =  1.00E-02,  avg # of iterations =  4.0

     negative rho (up, down):  1.599E+02 0.000E+00

     total cpu time spent up to now is     1389.9 secs

     total energy              =   -8082.66687779 Ry
     estimated scf accuracy    <     111.11485653 Ry

     iteration # 41     ecut=    80.00 Ry     beta= 0.20
     Davidson diagonalization with overlap
     ethr =  1.00E-02,  avg # of iterations =  3.0

     negative rho (up, down):  1.603E+02 0.000E+00

     total cpu time spent up to now is     1400.5 secs

     total energy              =   -8084.14394697 Ry
     estimated scf accuracy    <      48.54615887 Ry

     iteration # 42     ecut=    80.00 Ry     beta= 0.20
     Davidson diagonalization with overlap
     ethr =  1.00E-02,  avg # of iterations =  1.0

     negative rho (up, down):  1.625E+02 0.000E+00

     total cpu time spent up to now is     1409.6 secs

     total energy              =   -8082.79601306 Ry
     estimated scf accuracy    <      55.93338217 Ry

     iteration # 43     ecut=    80.00 Ry     beta= 0.20
     Davidson diagonalization with overlap
     ethr =  1.00E-02,  avg # of iterations =  1.0

     negative rho (up, down):  1.648E+02 0.000E+00

     total cpu time spent up to now is     1418.8 secs

     total energy              =   -8083.09537058 Ry
     estimated scf accuracy    <      22.31385815 Ry

     iteration # 44     ecut=    80.00 Ry     beta= 0.20
     Davidson diagonalization with overlap
     ethr =  6.06E-03,  avg # of iterations =  2.0

     negative rho (up, down):  1.670E+02 0.000E+00

     total cpu time spent up to now is     1428.9 secs

     total energy              =   -8082.26664311 Ry
     estimated scf accuracy    <      29.90266037 Ry

     iteration # 45     ecut=    80.00 Ry     beta= 0.20
     Davidson diagonalization with overlap
     ethr =  6.06E-03,  avg # of iterations =  1.2

     negative rho (up, down):  1.648E+02 0.000E+00

     total cpu time spent up to now is     1438.3 secs

     total energy              =   -8083.58057351 Ry
     estimated scf accuracy    <      20.44841518 Ry

     iteration # 46     ecut=    80.00 Ry     beta= 0.20
     Davidson diagonalization with overlap
     ethr =  5.56E-03,  avg # of iterations =  1.6

     negative rho (up, down):  1.608E+02 0.000E+00

     total cpu time spent up to now is     1448.0 secs

     total energy              =   -8085.00237947 Ry
     estimated scf accuracy    <      47.82794368 Ry

     iteration # 47     ecut=    80.00 Ry     beta= 0.20
     Davidson diagonalization with overlap
     ethr =  5.56E-03,  avg # of iterations =  2.0

     negative rho (up, down):  1.608E+02 0.000E+00

     total cpu time spent up to now is     1458.2 secs

     total energy              =   -8085.46023403 Ry
     estimated scf accuracy    <      61.20157034 Ry

     iteration # 48     ecut=    80.00 Ry     beta= 0.20
     Davidson diagonalization with overlap
     ethr =  5.56E-03,  avg # of iterations =  1.0

     negative rho (up, down):  1.611E+02 0.000E+00

     total cpu time spent up to now is     1467.4 secs

     total energy              =   -8084.77402535 Ry
     estimated scf accuracy    <      77.40778952 Ry

     iteration # 49     ecut=    80.00 Ry     beta= 0.20
     Davidson diagonalization with overlap
     ethr =  5.56E-03,  avg # of iterations =  1.0

     negative rho (up, down):  1.605E+02 0.000E+00

     total cpu time spent up to now is     1476.5 secs

     total energy              =   -8085.46411694 Ry
     estimated scf accuracy    <      25.36167379 Ry

     iteration # 50     ecut=    80.00 Ry     beta= 0.20
     Davidson diagonalization with overlap
     ethr =  5.56E-03,  avg # of iterations =  1.0

     negative rho (up, down):  1.648E+02 0.000E+00

     total cpu time spent up to now is     1485.6 secs

     total energy              =   -8083.35436350 Ry
     estimated scf accuracy    <      29.86963686 Ry

     iteration # 51     ecut=    80.00 Ry     beta= 0.20
     Davidson diagonalization with overlap
     ethr =  5.56E-03,  avg # of iterations =  2.0

     negative rho (up, down):  1.604E+02 0.000E+00

     total cpu time spent up to now is     1495.8 secs

     total energy              =   -8085.26091941 Ry
     estimated scf accuracy    <      15.72197722 Ry

     iteration # 52     ecut=    80.00 Ry     beta= 0.20
     Davidson diagonalization with overlap
     ethr =  4.27E-03,  avg # of iterations =  2.0

     negative rho (up, down):  1.627E+02 0.000E+00

     total cpu time spent up to now is     1506.0 secs

     total energy              =   -8084.92263201 Ry
     estimated scf accuracy    <      30.83501972 Ry

     iteration # 53     ecut=    80.00 Ry     beta= 0.20
     Davidson diagonalization with overlap
     ethr =  4.27E-03,  avg # of iterations =  1.0

     negative rho (up, down):  1.625E+02 0.000E+00

     total cpu time spent up to now is     1515.1 secs

     total energy              =   -8084.58334263 Ry
     estimated scf accuracy    <      23.91785771 Ry

     iteration # 54     ecut=    80.00 Ry     beta= 0.20
     Davidson diagonalization with overlap
     ethr =  4.27E-03,  avg # of iterations =  1.0

     negative rho (up, down):  1.627E+02 0.000E+00

     total cpu time spent up to now is     1524.3 secs

     total energy              =   -8084.88205004 Ry
     estimated scf accuracy    <      14.21686147 Ry

     iteration # 55     ecut=    80.00 Ry     beta= 0.20
     Davidson diagonalization with overlap
     ethr =  3.86E-03,  avg # of iterations =  1.6

     negative rho (up, down):  1.628E+02 0.000E+00

     total cpu time spent up to now is     1534.0 secs

     total energy              =   -8084.71238800 Ry
     estimated scf accuracy    <      16.77592366 Ry

     iteration # 56     ecut=    80.00 Ry     beta= 0.20
     Davidson diagonalization with overlap
     ethr =  3.86E-03,  avg # of iterations =  1.8

     negative rho (up, down):  1.636E+02 0.000E+00

     total cpu time spent up to now is     1544.0 secs

     total energy              =   -8084.32868722 Ry
     estimated scf accuracy    <      12.75666512 Ry

     iteration # 57     ecut=    80.00 Ry     beta= 0.20
     Davidson diagonalization with overlap
     ethr =  3.47E-03,  avg # of iterations =  2.0

     negative rho (up, down):  1.627E+02 0.000E+00

     total cpu time spent up to now is     1554.2 secs

     total energy              =   -8084.95460588 Ry
     estimated scf accuracy    <      10.82112424 Ry

     iteration # 58     ecut=    80.00 Ry     beta= 0.20
     Davidson diagonalization with overlap
     ethr =  2.94E-03,  avg # of iterations =  1.6

     negative rho (up, down):  1.628E+02 0.000E+00

     total cpu time spent up to now is     1564.0 secs

     total energy              =   -8084.99030654 Ry
     estimated scf accuracy    <      13.04883074 Ry

     iteration # 59     ecut=    80.00 Ry     beta= 0.20
     Davidson diagonalization with overlap
     ethr =  2.94E-03,  avg # of iterations =  1.4

     negative rho (up, down):  1.638E+02 0.000E+00

     total cpu time spent up to now is     1573.5 secs

     total energy              =   -8084.33705123 Ry
     estimated scf accuracy    <      15.04469055 Ry

     iteration # 60     ecut=    80.00 Ry     beta= 0.20
     Davidson diagonalization with overlap
     ethr =  2.94E-03,  avg # of iterations =  2.0

     negative rho (up, down):  1.630E+02 0.000E+00

     total cpu time spent up to now is     1583.7 secs

     total energy              =   -8084.74558180 Ry
     estimated scf accuracy    <      11.68202672 Ry

     iteration # 61     ecut=    80.00 Ry     beta= 0.20
     Davidson diagonalization with overlap
     ethr =  2.94E-03,  avg # of iterations =  1.6

     negative rho (up, down):  1.621E+02 0.000E+00

     total cpu time spent up to now is     1593.5 secs

     total energy              =   -8084.55669236 Ry
     estimated scf accuracy    <      29.26231110 Ry

     iteration # 62     ecut=    80.00 Ry     beta= 0.20
     Davidson diagonalization with overlap
     ethr =  2.94E-03,  avg # of iterations =  2.0

     negative rho (up, down):  1.614E+02 0.000E+00

     total cpu time spent up to now is     1603.7 secs

     total energy              =   -8085.57500220 Ry
     estimated scf accuracy    <      16.06042415 Ry

     iteration # 63     ecut=    80.00 Ry     beta= 0.20
     Davidson diagonalization with overlap
     ethr =  2.94E-03,  avg # of iterations =  1.8

     negative rho (up, down):  1.609E+02 0.000E+00

     total cpu time spent up to now is     1613.7 secs

     total energy              =   -8085.85109579 Ry
     estimated scf accuracy    <      10.13926294 Ry

     iteration # 64     ecut=    80.00 Ry     beta= 0.20
     Davidson diagonalization with overlap
     ethr =  2.76E-03,  avg # of iterations =  2.0

     negative rho (up, down):  1.616E+02 0.000E+00

     total cpu time spent up to now is     1623.9 secs

     total energy              =   -8085.41332038 Ry
     estimated scf accuracy    <      14.02548353 Ry

     iteration # 65     ecut=    80.00 Ry     beta= 0.20
     Davidson diagonalization with overlap
     ethr =  2.76E-03,  avg # of iterations =  2.0

     negative rho (up, down):  1.611E+02 0.000E+00

     total cpu time spent up to now is     1634.3 secs

     total energy              =   -8085.64398485 Ry
     estimated scf accuracy    <      13.52016216 Ry

     iteration # 66     ecut=    80.00 Ry     beta= 0.20
     Davidson diagonalization with overlap
     ethr =  2.76E-03,  avg # of iterations =  2.0

     negative rho (up, down):  1.612E+02 0.000E+00

     total cpu time spent up to now is     1644.5 secs

     total energy              =   -8085.65225659 Ry
     estimated scf accuracy    <       7.51581348 Ry

     iteration # 67     ecut=    80.00 Ry     beta= 0.20
     Davidson diagonalization with overlap
     ethr =  2.04E-03,  avg # of iterations =  1.0

     negative rho (up, down):  1.614E+02 0.000E+00

     total cpu time spent up to now is     1653.6 secs

     total energy              =   -8085.57017206 Ry
     estimated scf accuracy    <       8.48109353 Ry

     iteration # 68     ecut=    80.00 Ry     beta= 0.20
     Davidson diagonalization with overlap
     ethr =  2.04E-03,  avg # of iterations =  1.0

     negative rho (up, down):  1.615E+02 0.000E+00

     total cpu time spent up to now is     1662.8 secs

     total energy              =   -8085.61425489 Ry
     estimated scf accuracy    <       3.37257718 Ry

     iteration # 69     ecut=    80.00 Ry     beta= 0.20
     Davidson diagonalization with overlap
     ethr =  9.16E-04,  avg # of iterations =  1.4

     negative rho (up, down):  1.618E+02 0.000E+00

     total cpu time spent up to now is     1672.3 secs

     total energy              =   -8085.40707031 Ry
     estimated scf accuracy    <       4.70864271 Ry

     iteration # 70     ecut=    80.00 Ry     beta= 0.20
     Davidson diagonalization with overlap
     ethr =  9.16E-04,  avg # of iterations =  1.8

     negative rho (up, down):  1.615E+02 0.000E+00

     total cpu time spent up to now is     1682.3 secs

     total energy              =   -8085.61065088 Ry
     estimated scf accuracy    <       3.32987383 Ry

     iteration # 71     ecut=    80.00 Ry     beta= 0.20
     Davidson diagonalization with overlap
     ethr =  9.05E-04,  avg # of iterations =  1.0

     negative rho (up, down):  1.614E+02 0.000E+00

     total cpu time spent up to now is     1691.5 secs

     total energy              =   -8085.68297482 Ry
     estimated scf accuracy    <       4.62597878 Ry

     iteration # 72     ecut=    80.00 Ry     beta= 0.20
     Davidson diagonalization with overlap
     ethr =  9.05E-04,  avg # of iterations =  1.4

     negative rho (up, down):  1.613E+02 0.000E+00

     total cpu time spent up to now is     1701.0 secs

     total energy              =   -8085.69827808 Ry
     estimated scf accuracy    <       5.06067672 Ry

     iteration # 73     ecut=    80.00 Ry     beta= 0.20
     Davidson diagonalization with overlap
     ethr =  9.05E-04,  avg # of iterations =  2.0

     negative rho (up, down):  1.616E+02 0.000E+00

     total cpu time spent up to now is     1711.2 secs

     total energy              =   -8085.45185210 Ry
     estimated scf accuracy    <       6.12841027 Ry

     iteration # 74     ecut=    80.00 Ry     beta= 0.20
     Davidson diagonalization with overlap
     ethr =  9.05E-04,  avg # of iterations =  2.0

     negative rho (up, down):  1.618E+02 0.000E+00

     total cpu time spent up to now is     1721.5 secs

     total energy              =   -8085.40473800 Ry
     estimated scf accuracy    <       3.44444724 Ry

     iteration # 75     ecut=    80.00 Ry     beta= 0.20
     Davidson diagonalization with overlap
     ethr =  9.05E-04,  avg # of iterations =  1.8

     negative rho (up, down):  1.616E+02 0.000E+00

     total cpu time spent up to now is     1731.5 secs

     total energy              =   -8085.53635347 Ry
     estimated scf accuracy    <       5.92820608 Ry

     iteration # 76     ecut=    80.00 Ry     beta= 0.20
     Davidson diagonalization with overlap
     ethr =  9.05E-04,  avg # of iterations =  1.0

     negative rho (up, down):  1.616E+02 0.000E+00

     total cpu time spent up to now is     1740.6 secs

     total energy              =   -8085.49679878 Ry
     estimated scf accuracy    <       9.10874392 Ry

     iteration # 77     ecut=    80.00 Ry     beta= 0.20
     Davidson diagonalization with overlap
     ethr =  9.05E-04,  avg # of iterations =  2.0

     negative rho (up, down):  1.615E+02 0.000E+00

     total cpu time spent up to now is     1750.8 secs

     total energy              =   -8085.57186303 Ry
     estimated scf accuracy    <       4.54866798 Ry

     iteration # 78     ecut=    80.00 Ry     beta= 0.20
     Davidson diagonalization with overlap
     ethr =  9.05E-04,  avg # of iterations =  2.0

     negative rho (up, down):  1.612E+02 0.000E+00

     total cpu time spent up to now is     1761.0 secs

     total energy              =   -8085.71348651 Ry
     estimated scf accuracy    <       5.45064753 Ry

     iteration # 79     ecut=    80.00 Ry     beta= 0.20
     Davidson diagonalization with overlap
     ethr =  9.05E-04,  avg # of iterations =  2.0

     negative rho (up, down):  1.609E+02 0.000E+00

     total cpu time spent up to now is     1771.1 secs

     total energy              =   -8085.92980740 Ry
     estimated scf accuracy    <       5.01427027 Ry

     iteration # 80     ecut=    80.00 Ry     beta= 0.20
     Davidson diagonalization with overlap
     ethr =  9.05E-04,  avg # of iterations =  2.0

     negative rho (up, down):  1.610E+02 0.000E+00

     total cpu time spent up to now is     1781.4 secs

     total energy              =   -8086.04732258 Ry
     estimated scf accuracy    <       6.44679717 Ry

     iteration # 81     ecut=    80.00 Ry     beta= 0.20
     Davidson diagonalization with overlap
     ethr =  9.05E-04,  avg # of iterations =  2.0

     negative rho (up, down):  1.610E+02 0.000E+00

     total cpu time spent up to now is     1791.5 secs

     total energy              =   -8085.85710088 Ry
     estimated scf accuracy    <      14.26490908 Ry

     iteration # 82     ecut=    80.00 Ry     beta= 0.20
     Davidson diagonalization with overlap
     ethr =  9.05E-04,  avg # of iterations =  1.8

     negative rho (up, down):  1.616E+02 0.000E+00

     total cpu time spent up to now is     1801.5 secs

     total energy              =   -8085.42206908 Ry
     estimated scf accuracy    <       9.17844914 Ry

     iteration # 83     ecut=    80.00 Ry     beta= 0.20
     Davidson diagonalization with overlap
     ethr =  9.05E-04,  avg # of iterations =  2.0

     negative rho (up, down):  1.617E+02 0.000E+00

     total cpu time spent up to now is     1812.1 secs

     total energy              =   -8085.57189411 Ry
     estimated scf accuracy    <       4.37360684 Ry

     iteration # 84     ecut=    80.00 Ry     beta= 0.20
     Davidson diagonalization with overlap
     ethr =  9.05E-04,  avg # of iterations =  1.0

     negative rho (up, down):  1.618E+02 0.000E+00

     total cpu time spent up to now is     1821.3 secs

     total energy              =   -8085.58105335 Ry
     estimated scf accuracy    <       3.88042924 Ry

     iteration # 85     ecut=    80.00 Ry     beta= 0.20
     Davidson diagonalization with overlap
     ethr =  9.05E-04,  avg # of iterations =  1.0

     negative rho (up, down):  1.620E+02 0.000E+00

     total cpu time spent up to now is     1830.4 secs

     total energy              =   -8085.45711928 Ry
     estimated scf accuracy    <       4.85481886 Ry

     iteration # 86     ecut=    80.00 Ry     beta= 0.20
     Davidson diagonalization with overlap
     ethr =  9.05E-04,  avg # of iterations =  2.0

     negative rho (up, down):  1.616E+02 0.000E+00

     total cpu time spent up to now is     1840.7 secs

     total energy              =   -8085.62435080 Ry
     estimated scf accuracy    <       6.18064529 Ry

     iteration # 87     ecut=    80.00 Ry     beta= 0.20
     Davidson diagonalization with overlap
     ethr =  9.05E-04,  avg # of iterations =  1.2

     negative rho (up, down):  1.614E+02 0.000E+00

     total cpu time spent up to now is     1850.0 secs

     total energy              =   -8085.79118626 Ry
     estimated scf accuracy    <       5.99302037 Ry

     iteration # 88     ecut=    80.00 Ry     beta= 0.20
     Davidson diagonalization with overlap
     ethr =  9.05E-04,  avg # of iterations =  1.6

     negative rho (up, down):  1.614E+02 0.000E+00

     total cpu time spent up to now is     1859.8 secs

     total energy              =   -8085.82611247 Ry
     estimated scf accuracy    <       6.88292589 Ry

     iteration # 89     ecut=    80.00 Ry     beta= 0.20
     Davidson diagonalization with overlap
     ethr =  9.05E-04,  avg # of iterations =  1.0

     negative rho (up, down):  1.618E+02 0.000E+00

     total cpu time spent up to now is     1869.0 secs

     total energy              =   -8085.42154669 Ry
     estimated scf accuracy    <       5.60136973 Ry

     iteration # 90     ecut=    80.00 Ry     beta= 0.20
     Davidson diagonalization with overlap
     ethr =  9.05E-04,  avg # of iterations =  2.0

     negative rho (up, down):  1.620E+02 0.000E+00

     total cpu time spent up to now is     1879.2 secs

     total energy              =   -8085.38534558 Ry
     estimated scf accuracy    <       5.47721486 Ry

     iteration # 91     ecut=    80.00 Ry     beta= 0.20
     Davidson diagonalization with overlap
     ethr =  9.05E-04,  avg # of iterations =  1.4

     negative rho (up, down):  1.620E+02 0.000E+00

     total cpu time spent up to now is     1888.8 secs

     total energy              =   -8085.52458307 Ry
     estimated scf accuracy    <       5.14200919 Ry

     iteration # 92     ecut=    80.00 Ry     beta= 0.20
     Davidson diagonalization with overlap
     ethr =  9.05E-04,  avg # of iterations =  1.0

     negative rho (up, down):  1.620E+02 0.000E+00

     total cpu time spent up to now is     1897.9 secs

     total energy              =   -8085.55342621 Ry
     estimated scf accuracy    <       5.71698021 Ry

     iteration # 93     ecut=    80.00 Ry     beta= 0.20
     Davidson diagonalization with overlap
     ethr =  9.05E-04,  avg # of iterations =  1.6

     negative rho (up, down):  1.618E+02 0.000E+00

     total cpu time spent up to now is     1907.7 secs

     total energy              =   -8085.56251857 Ry
     estimated scf accuracy    <       7.09934515 Ry

     iteration # 94     ecut=    80.00 Ry     beta= 0.20
     Davidson diagonalization with overlap
     ethr =  9.05E-04,  avg # of iterations =  2.0

     negative rho (up, down):  1.618E+02 0.000E+00

     total cpu time spent up to now is     1917.9 secs

     total energy              =   -8085.64651764 Ry
     estimated scf accuracy    <       4.10044475 Ry

     iteration # 95     ecut=    80.00 Ry     beta= 0.20
     Davidson diagonalization with overlap
     ethr =  9.05E-04,  avg # of iterations =  1.0

     negative rho (up, down):  1.621E+02 0.000E+00

     total cpu time spent up to now is     1927.0 secs

     total energy              =   -8085.33318208 Ry
     estimated scf accuracy    <       5.25595888 Ry

     iteration # 96     ecut=    80.00 Ry     beta= 0.20
     Davidson diagonalization with overlap
     ethr =  9.05E-04,  avg # of iterations =  2.0

     negative rho (up, down):  1.623E+02 0.000E+00

     total cpu time spent up to now is     1937.3 secs

     total energy              =   -8085.18333746 Ry
     estimated scf accuracy    <       4.87305327 Ry

     iteration # 97     ecut=    80.00 Ry     beta= 0.20
     Davidson diagonalization with overlap
     ethr =  9.05E-04,  avg # of iterations =  1.6

     negative rho (up, down):  1.624E+02 0.000E+00

     total cpu time spent up to now is     1947.1 secs

     total energy              =   -8085.12774368 Ry
     estimated scf accuracy    <       5.79200489 Ry

     iteration # 98     ecut=    80.00 Ry     beta= 0.20
     Davidson diagonalization with overlap
     ethr =  9.05E-04,  avg # of iterations =  1.0

     negative rho (up, down):  1.622E+02 0.000E+00

     total cpu time spent up to now is     1956.3 secs

     total energy              =   -8085.32840551 Ry
     estimated scf accuracy    <       2.62728029 Ry

     iteration # 99     ecut=    80.00 Ry     beta= 0.20
     Davidson diagonalization with overlap
     ethr =  7.14E-04,  avg # of iterations =  1.4

     negative rho (up, down):  1.623E+02 0.000E+00

     total cpu time spent up to now is     1965.9 secs

     total energy              =   -8085.24074504 Ry
     estimated scf accuracy    <       3.86338705 Ry

     iteration #100     ecut=    80.00 Ry     beta= 0.20
     Davidson diagonalization with overlap
     ethr =  7.14E-04,  avg # of iterations =  2.0

     negative rho (up, down):  1.623E+02 0.000E+00

     total cpu time spent up to now is     1976.1 secs

     total energy              =   -8085.16335394 Ry
     estimated scf accuracy    <       6.44382488 Ry

     iteration #101     ecut=    80.00 Ry     beta= 0.20
     Davidson diagonalization with overlap
     ethr =  7.14E-04,  avg # of iterations =  1.0

     negative rho (up, down):  1.622E+02 0.000E+00

     total cpu time spent up to now is     1985.2 secs

     total energy              =   -8085.26939677 Ry
     estimated scf accuracy    <       4.52069117 Ry

     iteration #102     ecut=    80.00 Ry     beta= 0.20
     Davidson diagonalization with overlap
     ethr =  7.14E-04,  avg # of iterations =  2.0

     negative rho (up, down):  1.625E+02 0.000E+00

     total cpu time spent up to now is     1995.6 secs

     total energy              =   -8084.63280419 Ry
     estimated scf accuracy    <      16.66215222 Ry

     iteration #103     ecut=    80.00 Ry     beta= 0.20
     Davidson diagonalization with overlap
     ethr =  7.14E-04,  avg # of iterations =  2.0

     negative rho (up, down):  1.624E+02 0.000E+00

     total cpu time spent up to now is     2006.0 secs

     total energy              =   -8085.04121295 Ry
     estimated scf accuracy    <       3.96838016 Ry

     iteration #104     ecut=    80.00 Ry     beta= 0.20
     Davidson diagonalization with overlap
     ethr =  7.14E-04,  avg # of iterations =  1.0

     negative rho (up, down):  1.626E+02 0.000E+00

     total cpu time spent up to now is     2015.2 secs

     total energy              =   -8085.01329512 Ry
     estimated scf accuracy    <       4.27871629 Ry

     iteration #105     ecut=    80.00 Ry     beta= 0.20
     Davidson diagonalization with overlap
     ethr =  7.14E-04,  avg # of iterations =  2.0

     negative rho (up, down):  1.625E+02 0.000E+00

     total cpu time spent up to now is     2025.4 secs

     total energy              =   -8085.10286856 Ry
     estimated scf accuracy    <       2.35845671 Ry

     iteration #106     ecut=    80.00 Ry     beta= 0.20
     Davidson diagonalization with overlap
     ethr =  6.41E-04,  avg # of iterations =  2.0

     negative rho (up, down):  1.624E+02 0.000E+00

     total cpu time spent up to now is     2035.7 secs

     total energy              =   -8085.22719138 Ry
     estimated scf accuracy    <       3.27686795 Ry

     iteration #107     ecut=    80.00 Ry     beta= 0.20
     Davidson diagonalization with overlap
     ethr =  6.41E-04,  avg # of iterations =  2.0

     negative rho (up, down):  1.625E+02 0.000E+00

     total cpu time spent up to now is     2045.9 secs

     total energy              =   -8085.16672263 Ry
     estimated scf accuracy    <       6.21476109 Ry

     iteration #108     ecut=    80.00 Ry     beta= 0.20
     Davidson diagonalization with overlap
     ethr =  6.41E-04,  avg # of iterations =  1.4

     negative rho (up, down):  1.624E+02 0.000E+00

     total cpu time spent up to now is     2055.4 secs

     total energy              =   -8085.27197250 Ry
     estimated scf accuracy    <       5.58114680 Ry

     iteration #109     ecut=    80.00 Ry     beta= 0.20
     Davidson diagonalization with overlap
     ethr =  6.41E-04,  avg # of iterations =  1.6

     negative rho (up, down):  1.623E+02 0.000E+00

     total cpu time spent up to now is     2065.2 secs

     total energy              =   -8085.27163848 Ry
     estimated scf accuracy    <       5.78272033 Ry

     iteration #110     ecut=    80.00 Ry     beta= 0.20
     Davidson diagonalization with overlap
     ethr =  6.41E-04,  avg # of iterations =  1.2

     negative rho (up, down):  1.621E+02 0.000E+00

     total cpu time spent up to now is     2074.5 secs

     total energy              =   -8085.33031260 Ry
     estimated scf accuracy    <       4.59800243 Ry

     iteration #111     ecut=    80.00 Ry     beta= 0.20
     Davidson diagonalization with overlap
     ethr =  6.41E-04,  avg # of iterations =  2.0

     negative rho (up, down):  1.622E+02 0.000E+00

     total cpu time spent up to now is     2084.7 secs

     total energy              =   -8085.28460534 Ry
     estimated scf accuracy    <       3.62059482 Ry

     iteration #112     ecut=    80.00 Ry     beta= 0.20
     Davidson diagonalization with overlap
     ethr =  6.41E-04,  avg # of iterations =  2.0

     negative rho (up, down):  1.620E+02 0.000E+00

     total cpu time spent up to now is     2094.9 secs

     total energy              =   -8085.32627847 Ry
     estimated scf accuracy    <       4.84192566 Ry

     iteration #113     ecut=    80.00 Ry     beta= 0.20
     Davidson diagonalization with overlap
     ethr =  6.41E-04,  avg # of iterations =  2.0

     negative rho (up, down):  1.619E+02 0.000E+00

     total cpu time spent up to now is     2105.1 secs

     total energy              =   -8085.40899117 Ry
     estimated scf accuracy    <       2.34746938 Ry

     iteration #114     ecut=    80.00 Ry     beta= 0.20
     Davidson diagonalization with overlap
     ethr =  6.38E-04,  avg # of iterations =  2.0

     negative rho (up, down):  1.619E+02 0.000E+00

     total cpu time spent up to now is     2115.2 secs

     total energy              =   -8085.45374120 Ry
     estimated scf accuracy    <       2.64979294 Ry

     iteration #115     ecut=    80.00 Ry     beta= 0.20
     Davidson diagonalization with overlap
     ethr =  6.38E-04,  avg # of iterations =  1.0

     negative rho (up, down):  1.618E+02 0.000E+00

     total cpu time spent up to now is     2124.4 secs

     total energy              =   -8085.41231948 Ry
     estimated scf accuracy    <       2.13038852 Ry

     iteration #116     ecut=    80.00 Ry     beta= 0.20
     Davidson diagonalization with overlap
     ethr =  5.79E-04,  avg # of iterations =  2.0

     negative rho (up, down):  1.617E+02 0.000E+00

     total cpu time spent up to now is     2134.8 secs

     total energy              =   -8085.38534361 Ry
     estimated scf accuracy    <      12.41148939 Ry

     iteration #117     ecut=    80.00 Ry     beta= 0.20
     Davidson diagonalization with overlap
     ethr =  5.79E-04,  avg # of iterations =  1.6

     negative rho (up, down):  1.618E+02 0.000E+00

     total cpu time spent up to now is     2144.5 secs

     total energy              =   -8085.57186049 Ry
     estimated scf accuracy    <       4.33764136 Ry

     iteration #118     ecut=    80.00 Ry     beta= 0.20
     Davidson diagonalization with overlap
     ethr =  5.79E-04,  avg # of iterations =  2.0

     negative rho (up, down):  1.620E+02 0.000E+00

     total cpu time spent up to now is     2154.7 secs

     total energy              =   -8085.36096185 Ry
     estimated scf accuracy    <       6.05527318 Ry

     iteration #119     ecut=    80.00 Ry     beta= 0.20
     Davidson diagonalization with overlap
     ethr =  5.79E-04,  avg # of iterations =  2.0

     negative rho (up, down):  1.618E+02 0.000E+00

     total cpu time spent up to now is     2164.9 secs

     total energy              =   -8085.55550635 Ry
     estimated scf accuracy    <       2.53448796 Ry

     iteration #120     ecut=    80.00 Ry     beta= 0.20
     Davidson diagonalization with overlap
     ethr =  5.79E-04,  avg # of iterations =  2.0

     negative rho (up, down):  1.618E+02 0.000E+00

     total cpu time spent up to now is     2175.3 secs

     total energy              =   -8085.44390372 Ry
     estimated scf accuracy    <       7.58757088 Ry

     End of self-consistent calculation

     convergence NOT achieved after 120 iterations: stopping

     Writing config to output data dir ./C36/out_logs/C36_out_7/laves_C36.save/
 
     init_run     :      3.17s CPU      3.28s WALL (       1 calls)
     electrons    :   2147.85s CPU   2149.05s WALL (       2 calls)
     update_pot   :      4.33s CPU      4.34s WALL (       1 calls)
     forces       :      2.13s CPU      2.13s WALL (       1 calls)
     stress       :     11.90s CPU     11.90s WALL (       1 calls)

     Called by init_run:
     wfcinit      :      0.02s CPU      0.02s WALL (       1 calls)
                                        0.02s GPU  (       1 calls)
     potinit      :      2.12s CPU      2.15s WALL (       1 calls)
     hinit0       :      0.87s CPU      0.89s WALL (       1 calls)

     Called by electrons:
     c_bands      :   1476.09s CPU   1476.58s WALL (     204 calls)
     sum_band     :    208.52s CPU    208.57s WALL (     204 calls)
     v_of_rho     :      5.05s CPU      5.16s WALL (     206 calls)
     newd         :     16.62s CPU     16.87s WALL (     206 calls)
                                       15.86s GPU  (     205 calls)
     PAW_pot      :    431.56s CPU    431.56s WALL (     207 calls)
     mix_rho      :     11.66s CPU     12.16s WALL (     204 calls)

     Called by c_bands:
     init_us_2    :      2.51s CPU      2.53s WALL (    2055 calls)
     init_us_2:cp :      0.07s CPU      0.07s WALL (       5 calls)
     init_us_2:gp :      2.41s CPU      2.43s WALL (    2050 calls)
     cegterg      :   1419.19s CPU   1419.50s WALL (    1020 calls)

     Called by *egterg:
     cdiaghg      :     71.16s CPU     71.79s WALL (    3113 calls)
                                       71.77s GPU  (    3113 calls)
     h_psi        :    656.94s CPU    657.19s WALL (    3123 calls)
                                      656.63s GPU  (    3123 calls)
     s_psi        :      2.51s CPU    121.54s WALL (    3123 calls)
                                      120.55s GPU  (    3123 calls)
     g_psi        :      0.01s CPU      2.18s WALL (    2103 calls)
                                        2.16s GPU  (    2103 calls)

     Called by h_psi:
     h_psi:calbec :      0.16s CPU    138.49s WALL (    3123 calls)
                                      138.48s GPU  (    3123 calls)
     vloc_psi     :    394.84s CPU    395.04s WALL (    3123 calls)
                                      394.99s GPU  (    3123 calls)
     add_vuspsi   :      2.69s CPU    121.70s WALL (    3123 calls)
                                      121.55s GPU  (    3123 calls)

     General routines
     calbec       :      2.47s CPU      1.34s WALL (    4173 calls)
     fft          :      2.36s CPU      3.62s WALL (    2702 calls)
                                        1.27s GPU  (    2496 calls)
     ffts         :      1.18s CPU      1.26s WALL (     410 calls)
                                        0.08s GPU  (     204 calls)
     fftw         :      0.57s CPU    421.11s WALL (   78014 calls)
                                      419.67s GPU  (   78014 calls)
     interpolate  :      4.13s CPU      4.13s WALL (     206 calls)
     davcio       :      0.00s CPU      0.13s WALL (      36 calls)
 
     Parallel routines
 
     PWSCF        :  36m14.97s CPU  36m15.54s WALL

 
   This run was terminated on:   6:49:52   3Apr2026            

=------------------------------------------------------------------------------=
   JOB DONE.
=------------------------------------------------------------------------------=
