
     Program PWSCF v.7.2 starts on  9Apr2026 at 20:59:15 

     This program is part of the open-source Quantum ESPRESSO suite
     for quantum simulation of materials; please cite
         "P. Giannozzi et al., J. Phys.:Condens. Matter 21 395502 (2009);
         "P. Giannozzi et al., J. Phys.:Condens. Matter 29 465901 (2017);
         "P. Giannozzi et al., J. Chem. Phys. 152 154105 (2020);
          URL http://www.quantum-espresso.org", 
     in publications or presentations arising from this work. More details at
     http://www.quantum-espresso.org/quote

     Parallel version (MPI), running on     1 processors

     MPI processes distributed on     1 nodes
     2083 MiB available memory on the printing compute node when the environment starts
 
     Reading input from C36/in/laves_197_0_scf.in
Warning: card &CELL ignored
Warning: card / ignored

     Current dimensions of program PWSCF are:
     Max number of different atomic species (ntypx) = 10
     Max number of k-points (npk) =  40000
     Max angular momentum in pseudopotentials (lmaxx) =  4
     file Mg.pbe-spnl-kjpaw_psl.1.0.0.UPF: wavefunction(s)  2P renormalized
     file Ni.pbe-spn-kjpaw_psl.1.0.0.UPF: wavefunction(s)  3P 3D renormalized
 
     Subspace diagonalization in iterative solution of the eigenvalue problem:
     a serial algorithm will be used

 
     G-vector sticks info
     --------------------
     sticks:   dense  smooth     PW     G-vecs:    dense   smooth      PW
     Sum        2651    1333    367               361107   127639   18995
 
     Using Slab Decomposition
 

     Title: 
     C36_MgNi2                                                                  


     bravais-lattice index     =            0
     lattice parameter (alat)  =       8.9459  a.u.
     unit-cell volume          =    2033.6141 (a.u.)^3
     number of atoms/cell      =           24
     number of atomic types    =            2
     number of electrons       =       368.00
     number of Kohn-Sham states=          221
     kinetic-energy cutoff     =      60.0000  Ry
     charge density cutoff     =     480.0000  Ry
     scf convergence threshold =      1.0E-05
     mixing beta               =       0.2200
     number of iterations used =           22  plain     mixing
     Exchange-correlation= SLA  PW   PBX  PBC
                           (   1   4   3   4   0   0   0)

     GPU acceleration is ACTIVE.


     celldm(1)=   8.945922  celldm(2)=   0.000000  celldm(3)=   0.000000
     celldm(4)=   0.000000  celldm(5)=   0.000000  celldm(6)=   0.000000

     crystal axes: (cart. coord. in units of alat)
               a(1) = (   1.000000  -0.000266  -0.000891 )  
               a(2) = (  -0.498012   0.865984   0.001395 )  
               a(3) = (   0.000609   0.001398   3.280575 )  

     reciprocal axes: (cart. coord. in units 2 pi/alat)
               b(1) = (  1.000153  0.575171 -0.000431 )  
               b(2) = (  0.000307  1.154932 -0.000492 )  
               b(3) = (  0.000272 -0.000335  0.304825 )  


     PseudoPot. # 1 for Mg read from file:
     ./pseudo/Mg.pbe-spnl-kjpaw_psl.1.0.0.UPF
     MD5 check sum: fda14e0d92a6a9a5ebed782e5a4b3067
     Pseudo is Projector augmented-wave + core cor, Zval = 10.0
     Generated using &quot;atomic&quot; code by A. Dal Corso  v.6.3
     Shape of augmentation charge: PSQ
     Using radial grid of 1129 points,  4 beta functions with: 
                l(1) =   0
                l(2) =   0
                l(3) =   1
                l(4) =   1
     Q(r) pseudized with 0 coefficients 


     PseudoPot. # 2 for Ni read from file:
     ./pseudo/Ni.pbe-spn-kjpaw_psl.1.0.0.UPF
     MD5 check sum: 6e86b733589c3ad8389697b807d86aa7
     Pseudo is Projector augmented-wave + core cor, Zval = 18.0
     Generated using &quot;atomic&quot; code by A. Dal Corso  v.6.3
     Shape of augmentation charge: PSQ
     Using radial grid of 1195 points,  6 beta functions with: 
                l(1) =   0
                l(2) =   0
                l(3) =   1
                l(4) =   1
                l(5) =   2
                l(6) =   2
     Q(r) pseudized with 0 coefficients 


     atomic species   valence    mass     pseudopotential
        Mg            10.00    24.30500     Mg( 1.00)
        Ni            18.00    58.69340     Ni( 1.00)

     No symmetry found



   Cartesian axes

     site n.     atom                  positions (alat units)
         1           Mg  tau(   1) = (   0.9987741   0.0003250   1.3320338  )
         2           Mg  tau(   2) = (  -0.4972975   0.8671886   2.9717816  )
         3           Mg  tau(   3) = (   0.5016567   0.8658549   1.9478630  )
         4           Mg  tau(   4) = (   0.9984083   0.0011518   0.3077481  )
         5           Mg  tau(   5) = (   0.0000553   0.5770485   2.1515389  )
         6           Mg  tau(   6) = (   0.5013702   0.2876761   0.5103070  )
         7           Mg  tau(   7) = (   0.5017871   0.2882572   1.1306802  )
         8           Mg  tau(   8) = (   0.0012248   0.5782064   2.7705243  )
         9           Ni  tau(   9) = (   0.0022072   0.5770331   1.2309720  )
        10           Ni  tau(  10) = (   0.5004922   0.2907740   2.8702903  )
        11           Ni  tau(  11) = (   0.5009145   0.2907960   2.0487293  )
        12           Ni  tau(  12) = (   0.0003460   0.5778089   0.4110050  )
        13           Ni  tau(  13) = (   0.0001632   0.2890838   0.8213303  )
        14           Ni  tau(  14) = (   0.7523219   0.1440388   2.4579630  )
        15           Ni  tau(  15) = (   0.5021011   0.5775256   2.4603125  )
        16           Ni  tau(  16) = (  -0.2505475   0.7230000   0.8214729  )
        17           Ni  tau(  17) = (   0.2518634   0.7223474   0.8200305  )
        18           Ni  tau(  18) = (   0.2521149   0.1440045   2.4619123  )
        19           Ni  tau(  19) = (   0.4983617   0.0010119   1.6384693  )
        20           Ni  tau(  20) = (   0.2519126   0.4336203   3.2799006  )
        21           Ni  tau(  21) = (   0.5010554   0.0014030   0.0001489  )
        22           Ni  tau(  22) = (   0.2523219   0.4342248   1.6387940  )
        23           Ni  tau(  23) = (   0.7508127   0.4319319   0.0009146  )
        24           Ni  tau(  24) = (  -0.2480002   0.4329209   1.6421088  )

     number of k points=     5  Marzari-Vanderbilt smearing, width (Ry)=  0.0500
                       cart. coord. in units 2pi/alat
        k(    1) = (   0.0000000   0.0000000   0.0000000), wk =   0.2222222
        k(    2) = (   0.0001022   0.3849775  -0.0001641), wk =   0.4444444
        k(    3) = (   0.3333843   0.1917237  -0.0001436), wk =   0.4444444
        k(    4) = (   0.3334866   0.5767012  -0.0003077), wk =   0.4444444
        k(    5) = (   0.3332821  -0.1932538   0.0000205), wk =   0.4444444

     Dense  grid:   361107 G-vectors     FFT dimensions: (  64,  64, 216)

     Smooth grid:   127639 G-vectors     FFT dimensions: (  45,  45, 150)

     Estimated max dynamical RAM per process >       2.02 GB

     Check: negative core charge=   -0.000009

     Initial potential from superposition of free atoms

     starting charge     367.9886, renormalised to     368.0000
     Starting wfcs are  200 randomized atomic wfcs +   21 random wfcs
     Checking if some PAW data can be deallocated... 

     total cpu time spent up to now is        6.6 secs

     Self-consistent Calculation

     iteration #  1     ecut=    60.00 Ry     beta= 0.22
     Davidson diagonalization with overlap
     ethr =  1.00E-02,  avg # of iterations =  5.2

     negative rho (up, down):  1.819E-02 0.000E+00

     total cpu time spent up to now is       17.0 secs

     total energy              =   -7998.42366615 Ry
     estimated scf accuracy    <      67.50417260 Ry

     iteration #  2     ecut=    60.00 Ry     beta= 0.22
     Davidson diagonalization with overlap
     ethr =  1.00E-02,  avg # of iterations =  2.0

     total cpu time spent up to now is       24.9 secs

     total energy              =   -7996.84249993 Ry
     estimated scf accuracy    <     123.52812269 Ry

     iteration #  3     ecut=    60.00 Ry     beta= 0.22
     Davidson diagonalization with overlap
     ethr =  1.00E-02,  avg # of iterations =  2.0

     total cpu time spent up to now is       32.9 secs

     total energy              =   -7984.03918689 Ry
     estimated scf accuracy    <     109.87178600 Ry

     iteration #  4     ecut=    60.00 Ry     beta= 0.22
     Davidson diagonalization with overlap
     ethr =  1.00E-02,  avg # of iterations =  3.6

     negative rho (up, down):  1.326E-03 0.000E+00

     total cpu time spent up to now is       42.2 secs

     total energy              =   -7973.95507539 Ry
     estimated scf accuracy    <    1276.01666458 Ry

     iteration #  5     ecut=    60.00 Ry     beta= 0.22
     Davidson diagonalization with overlap
     ethr =  1.00E-02,  avg # of iterations =  3.2

     negative rho (up, down):  2.884E-03 0.000E+00

     total cpu time spent up to now is       51.0 secs

     total energy              =   -7994.02284671 Ry
     estimated scf accuracy    <     177.28728560 Ry

     iteration #  6     ecut=    60.00 Ry     beta= 0.22
     Davidson diagonalization with overlap
     ethr =  1.00E-02,  avg # of iterations =  2.0

     negative rho (up, down):  5.849E-03 0.000E+00

     total cpu time spent up to now is       59.0 secs

     total energy              =   -7996.95749408 Ry
     estimated scf accuracy    <     151.33709010 Ry

     iteration #  7     ecut=    60.00 Ry     beta= 0.22
     Davidson diagonalization with overlap
     ethr =  1.00E-02,  avg # of iterations =  1.0

     negative rho (up, down):  1.226E-02 0.000E+00

     total cpu time spent up to now is       66.2 secs

     total energy              =   -7997.82999527 Ry
     estimated scf accuracy    <      95.02037425 Ry

     iteration #  8     ecut=    60.00 Ry     beta= 0.22
     Davidson diagonalization with overlap
     ethr =  1.00E-02,  avg # of iterations =  1.0

     negative rho (up, down):  2.236E-02 0.000E+00

     total cpu time spent up to now is       73.5 secs

     total energy              =   -7999.09496808 Ry
     estimated scf accuracy    <      40.83194901 Ry

     iteration #  9     ecut=    60.00 Ry     beta= 0.22
     Davidson diagonalization with overlap
     ethr =  1.00E-02,  avg # of iterations =  1.0

     negative rho (up, down):  2.662E-02 0.000E+00

     total cpu time spent up to now is       80.8 secs

     total energy              =   -7999.19845476 Ry
     estimated scf accuracy    <      45.87765141 Ry

     iteration # 10     ecut=    60.00 Ry     beta= 0.22
     Davidson diagonalization with overlap
     ethr =  1.00E-02,  avg # of iterations =  1.0

     negative rho (up, down):  8.186E-03 0.000E+00

     total cpu time spent up to now is       88.0 secs

     total energy              =   -7999.53372366 Ry
     estimated scf accuracy    <      41.61461799 Ry

     iteration # 11     ecut=    60.00 Ry     beta= 0.22
     Davidson diagonalization with overlap
     ethr =  1.00E-02,  avg # of iterations =  1.0

     negative rho (up, down):  8.502E-03 0.000E+00

     total cpu time spent up to now is       95.2 secs

     total energy              =   -7999.84608480 Ry
     estimated scf accuracy    <      72.10736561 Ry

     iteration # 12     ecut=    60.00 Ry     beta= 0.22
     Davidson diagonalization with overlap
     ethr =  1.00E-02,  avg # of iterations =  1.0

     negative rho (up, down):  8.752E-04 0.000E+00

     total cpu time spent up to now is      102.3 secs

     total energy              =   -7998.89549239 Ry
     estimated scf accuracy    <      75.98113941 Ry

     iteration # 13     ecut=    60.00 Ry     beta= 0.22
     Davidson diagonalization with overlap
     ethr =  1.00E-02,  avg # of iterations =  1.0

     negative rho (up, down):  1.132E-03 0.000E+00

     total cpu time spent up to now is      109.5 secs

     total energy              =   -7998.76764533 Ry
     estimated scf accuracy    <      55.14323195 Ry

     iteration # 14     ecut=    60.00 Ry     beta= 0.22
     Davidson diagonalization with overlap
     ethr =  1.00E-02,  avg # of iterations =  1.0

     negative rho (up, down):  9.760E-04 0.000E+00

     total cpu time spent up to now is      116.7 secs

     total energy              =   -7999.09163052 Ry
     estimated scf accuracy    <      33.97528457 Ry

     iteration # 15     ecut=    60.00 Ry     beta= 0.22
     Davidson diagonalization with overlap
     ethr =  9.23E-03,  avg # of iterations =  1.0

     negative rho (up, down):  8.220E-05 0.000E+00

     total cpu time spent up to now is      123.9 secs

     total energy              =   -7999.01750652 Ry
     estimated scf accuracy    <      35.44443881 Ry

     iteration # 16     ecut=    60.00 Ry     beta= 0.22
     Davidson diagonalization with overlap
     ethr =  9.23E-03,  avg # of iterations =  1.0

     total cpu time spent up to now is      131.1 secs

     total energy              =   -7998.51580023 Ry
     estimated scf accuracy    <      38.34261848 Ry

     iteration # 17     ecut=    60.00 Ry     beta= 0.22
     Davidson diagonalization with overlap
     ethr =  9.23E-03,  avg # of iterations =  1.0

     total cpu time spent up to now is      138.1 secs

     total energy              =   -7998.76252986 Ry
     estimated scf accuracy    <      29.57194388 Ry

     iteration # 18     ecut=    60.00 Ry     beta= 0.22
     Davidson diagonalization with overlap
     ethr =  8.04E-03,  avg # of iterations =  1.0

     total cpu time spent up to now is      145.4 secs

     total energy              =   -7998.82286488 Ry
     estimated scf accuracy    <      27.44654797 Ry

     iteration # 19     ecut=    60.00 Ry     beta= 0.22
     Davidson diagonalization with overlap
     ethr =  7.46E-03,  avg # of iterations =  1.0

     total cpu time spent up to now is      152.6 secs

     total energy              =   -7998.87184992 Ry
     estimated scf accuracy    <      30.12854227 Ry

     iteration # 20     ecut=    60.00 Ry     beta= 0.22
     Davidson diagonalization with overlap
     ethr =  7.46E-03,  avg # of iterations =  1.0

     total cpu time spent up to now is      159.9 secs

     total energy              =   -7998.83058105 Ry
     estimated scf accuracy    <      31.17201128 Ry

     iteration # 21     ecut=    60.00 Ry     beta= 0.22
     Davidson diagonalization with overlap
     ethr =  7.46E-03,  avg # of iterations =  1.0

     total cpu time spent up to now is      167.1 secs

     total energy              =   -7998.72613641 Ry
     estimated scf accuracy    <      29.15981560 Ry

     iteration # 22     ecut=    60.00 Ry     beta= 0.22
     Davidson diagonalization with overlap
     ethr =  7.46E-03,  avg # of iterations =  1.0

     total cpu time spent up to now is      174.4 secs

     total energy              =   -7998.75162782 Ry
     estimated scf accuracy    <      25.16444361 Ry

     iteration # 23     ecut=    60.00 Ry     beta= 0.22
     Davidson diagonalization with overlap
     ethr =  6.84E-03,  avg # of iterations =  1.0

     total cpu time spent up to now is      181.6 secs

     total energy              =   -7998.68262233 Ry
     estimated scf accuracy    <      25.28424740 Ry

     iteration # 24     ecut=    60.00 Ry     beta= 0.22
     Davidson diagonalization with overlap
     ethr =  6.84E-03,  avg # of iterations =  1.0

     total cpu time spent up to now is      188.9 secs

     total energy              =   -7998.45773092 Ry
     estimated scf accuracy    <      24.25305427 Ry

     iteration # 25     ecut=    60.00 Ry     beta= 0.22
     Davidson diagonalization with overlap
     ethr =  6.59E-03,  avg # of iterations =  1.0

     negative rho (up, down):  1.331E-03 0.000E+00

     total cpu time spent up to now is      196.2 secs

     total energy              =   -7997.94174332 Ry
     estimated scf accuracy    <      18.78674067 Ry

     iteration # 26     ecut=    60.00 Ry     beta= 0.22
     Davidson diagonalization with overlap
     ethr =  5.11E-03,  avg # of iterations =  1.0

     negative rho (up, down):  8.054E-03 0.000E+00

     total cpu time spent up to now is      203.3 secs

     total energy              =   -7996.30430204 Ry
     estimated scf accuracy    <      45.29216907 Ry

     iteration # 27     ecut=    60.00 Ry     beta= 0.22
     Davidson diagonalization with overlap
     ethr =  5.11E-03,  avg # of iterations =  1.0

     negative rho (up, down):  1.943E-03 0.000E+00

     total cpu time spent up to now is      210.3 secs

     total energy              =   -7995.54997133 Ry
     estimated scf accuracy    <      81.10603618 Ry

     iteration # 28     ecut=    60.00 Ry     beta= 0.22
     Davidson diagonalization with overlap
     ethr =  5.11E-03,  avg # of iterations =  1.0

     negative rho (up, down):  2.052E-03 0.000E+00

     total cpu time spent up to now is      217.4 secs

     total energy              =   -7997.78872304 Ry
     estimated scf accuracy    <       8.18947339 Ry

     iteration # 29     ecut=    60.00 Ry     beta= 0.22
     Davidson diagonalization with overlap
     ethr =  2.23E-03,  avg # of iterations =  1.0

     negative rho (up, down):  1.753E-03 0.000E+00

     total cpu time spent up to now is      224.5 secs

     total energy              =   -7997.80174216 Ry
     estimated scf accuracy    <       6.66427776 Ry

     iteration # 30     ecut=    60.00 Ry     beta= 0.22
     Davidson diagonalization with overlap
     ethr =  1.81E-03,  avg # of iterations =  1.0

     negative rho (up, down):  1.507E-03 0.000E+00

     total cpu time spent up to now is      231.5 secs

     total energy              =   -7997.85052525 Ry
     estimated scf accuracy    <       3.01590164 Ry

     iteration # 31     ecut=    60.00 Ry     beta= 0.22
     Davidson diagonalization with overlap
     ethr =  8.20E-04,  avg # of iterations =  1.0

     negative rho (up, down):  1.584E-03 0.000E+00

     total cpu time spent up to now is      238.6 secs

     total energy              =   -7997.84314999 Ry
     estimated scf accuracy    <       2.42486720 Ry

     iteration # 32     ecut=    60.00 Ry     beta= 0.22
     Davidson diagonalization with overlap
     ethr =  6.59E-04,  avg # of iterations =  1.0

     negative rho (up, down):  2.104E-03 0.000E+00

     total cpu time spent up to now is      245.6 secs

     total energy              =   -7997.85928655 Ry
     estimated scf accuracy    <       2.34201670 Ry

     iteration # 33     ecut=    60.00 Ry     beta= 0.22
     Davidson diagonalization with overlap
     ethr =  6.36E-04,  avg # of iterations =  1.0

     negative rho (up, down):  2.769E-03 0.000E+00

     total cpu time spent up to now is      252.7 secs

     total energy              =   -7997.86813252 Ry
     estimated scf accuracy    <       4.22275490 Ry

     iteration # 34     ecut=    60.00 Ry     beta= 0.22
     Davidson diagonalization with overlap
     ethr =  6.36E-04,  avg # of iterations =  1.0

     negative rho (up, down):  3.430E-03 0.000E+00

     total cpu time spent up to now is      259.7 secs

     total energy              =   -7997.85559664 Ry
     estimated scf accuracy    <       3.17927159 Ry

     iteration # 35     ecut=    60.00 Ry     beta= 0.22
     Davidson diagonalization with overlap
     ethr =  6.36E-04,  avg # of iterations =  1.0

     negative rho (up, down):  4.024E-03 0.000E+00

     total cpu time spent up to now is      266.7 secs

     total energy              =   -7997.86626245 Ry
     estimated scf accuracy    <       2.28146411 Ry

     iteration # 36     ecut=    60.00 Ry     beta= 0.22
     Davidson diagonalization with overlap
     ethr =  6.20E-04,  avg # of iterations =  1.0

     negative rho (up, down):  4.361E-03 0.000E+00

     total cpu time spent up to now is      273.7 secs

     total energy              =   -7997.88117699 Ry
     estimated scf accuracy    <       2.60528811 Ry

     iteration # 37     ecut=    60.00 Ry     beta= 0.22
     Davidson diagonalization with overlap
     ethr =  6.20E-04,  avg # of iterations =  1.0

     negative rho (up, down):  6.211E-03 0.000E+00

     total cpu time spent up to now is      280.8 secs

     total energy              =   -7997.85895580 Ry
     estimated scf accuracy    <       2.76152431 Ry

     iteration # 38     ecut=    60.00 Ry     beta= 0.22
     Davidson diagonalization with overlap
     ethr =  6.20E-04,  avg # of iterations =  1.0

     negative rho (up, down):  5.540E-03 0.000E+00

     total cpu time spent up to now is      287.8 secs

     total energy              =   -7997.86498246 Ry
     estimated scf accuracy    <       2.50639252 Ry

     iteration # 39     ecut=    60.00 Ry     beta= 0.22
     Davidson diagonalization with overlap
     ethr =  6.20E-04,  avg # of iterations =  1.0

     negative rho (up, down):  7.981E-03 0.000E+00

     total cpu time spent up to now is      294.9 secs

     total energy              =   -7997.86240630 Ry
     estimated scf accuracy    <       2.13400212 Ry

     iteration # 40     ecut=    60.00 Ry     beta= 0.22
     Davidson diagonalization with overlap
     ethr =  5.80E-04,  avg # of iterations =  1.0

     negative rho (up, down):  9.737E-03 0.000E+00

     total cpu time spent up to now is      301.9 secs

     total energy              =   -7997.85417008 Ry
     estimated scf accuracy    <       2.28635916 Ry

     iteration # 41     ecut=    60.00 Ry     beta= 0.22
     Davidson diagonalization with overlap
     ethr =  5.80E-04,  avg # of iterations =  1.0

     negative rho (up, down):  3.254E-03 0.000E+00

     total cpu time spent up to now is      308.9 secs

     total energy              =   -7997.83641741 Ry
     estimated scf accuracy    <       1.79373960 Ry

     iteration # 42     ecut=    60.00 Ry     beta= 0.22
     Davidson diagonalization with overlap
     ethr =  4.87E-04,  avg # of iterations =  1.4

     negative rho (up, down):  1.905E-03 0.000E+00

     total cpu time spent up to now is      316.3 secs

     total energy              =   -7997.82058152 Ry
     estimated scf accuracy    <       2.53293251 Ry

     iteration # 43     ecut=    60.00 Ry     beta= 0.22
     Davidson diagonalization with overlap
     ethr =  4.87E-04,  avg # of iterations =  1.0

     negative rho (up, down):  1.566E-03 0.000E+00

     total cpu time spent up to now is      323.4 secs

     total energy              =   -7997.79462019 Ry
     estimated scf accuracy    <       3.03775496 Ry

     iteration # 44     ecut=    60.00 Ry     beta= 0.22
     Davidson diagonalization with overlap
     ethr =  4.87E-04,  avg # of iterations =  1.0

     negative rho (up, down):  1.614E-03 0.000E+00

     total cpu time spent up to now is      330.4 secs

     total energy              =   -7997.84850200 Ry
     estimated scf accuracy    <       1.83501961 Ry

     iteration # 45     ecut=    60.00 Ry     beta= 0.22
     Davidson diagonalization with overlap
     ethr =  4.87E-04,  avg # of iterations =  1.0

     negative rho (up, down):  1.704E-03 0.000E+00

     total cpu time spent up to now is      337.5 secs

     total energy              =   -7997.84809190 Ry
     estimated scf accuracy    <       1.84377880 Ry

     iteration # 46     ecut=    60.00 Ry     beta= 0.22
     Davidson diagonalization with overlap
     ethr =  4.87E-04,  avg # of iterations =  1.0

     negative rho (up, down):  1.684E-03 0.000E+00

     total cpu time spent up to now is      344.5 secs

     total energy              =   -7997.85724424 Ry
     estimated scf accuracy    <       1.45608613 Ry

     iteration # 47     ecut=    60.00 Ry     beta= 0.22
     Davidson diagonalization with overlap
     ethr =  3.96E-04,  avg # of iterations =  1.0

     negative rho (up, down):  1.251E-03 0.000E+00

     total cpu time spent up to now is      351.6 secs

     total energy              =   -7997.82853571 Ry
     estimated scf accuracy    <       1.45284056 Ry

     iteration # 48     ecut=    60.00 Ry     beta= 0.22
     Davidson diagonalization with overlap
     ethr =  3.95E-04,  avg # of iterations =  1.0

     negative rho (up, down):  1.607E-03 0.000E+00

     total cpu time spent up to now is      358.7 secs

     total energy              =   -7997.86368249 Ry
     estimated scf accuracy    <       4.40147213 Ry

     iteration # 49     ecut=    60.00 Ry     beta= 0.22
     Davidson diagonalization with overlap
     ethr =  3.95E-04,  avg # of iterations =  1.0

     negative rho (up, down):  7.285E-04 0.000E+00

     total cpu time spent up to now is      365.7 secs

     total energy              =   -7997.89060014 Ry
     estimated scf accuracy    <       4.98533954 Ry

     iteration # 50     ecut=    60.00 Ry     beta= 0.22
     Davidson diagonalization with overlap
     ethr =  3.95E-04,  avg # of iterations =  1.0

     negative rho (up, down):  2.775E-04 0.000E+00

     total cpu time spent up to now is      372.8 secs

     total energy              =   -7997.82929230 Ry
     estimated scf accuracy    <       4.92512156 Ry

     iteration # 51     ecut=    60.00 Ry     beta= 0.22
     Davidson diagonalization with overlap
     ethr =  3.95E-04,  avg # of iterations =  1.0

     total cpu time spent up to now is      379.8 secs

     total energy              =   -7997.83130135 Ry
     estimated scf accuracy    <       3.05774222 Ry

     iteration # 52     ecut=    60.00 Ry     beta= 0.22
     Davidson diagonalization with overlap
     ethr =  3.95E-04,  avg # of iterations =  1.0

     negative rho (up, down):  6.812E-04 0.000E+00

     total cpu time spent up to now is      386.9 secs

     total energy              =   -7997.82986637 Ry
     estimated scf accuracy    <       2.20168301 Ry

     iteration # 53     ecut=    60.00 Ry     beta= 0.22
     Davidson diagonalization with overlap
     ethr =  3.95E-04,  avg # of iterations =  1.0

     negative rho (up, down):  8.487E-04 0.000E+00

     total cpu time spent up to now is      394.0 secs

     total energy              =   -7997.82616985 Ry
     estimated scf accuracy    <       1.09960317 Ry

     iteration # 54     ecut=    60.00 Ry     beta= 0.22
     Davidson diagonalization with overlap
     ethr =  2.99E-04,  avg # of iterations =  1.0

     negative rho (up, down):  4.031E-04 0.000E+00

     total cpu time spent up to now is      401.1 secs

     total energy              =   -7997.79459458 Ry
     estimated scf accuracy    <       1.08742431 Ry

     iteration # 55     ecut=    60.00 Ry     beta= 0.22
     Davidson diagonalization with overlap
     ethr =  2.95E-04,  avg # of iterations =  1.0

     negative rho (up, down):  1.150E-03 0.000E+00

     total cpu time spent up to now is      408.2 secs

     total energy              =   -7997.67178741 Ry
     estimated scf accuracy    <       8.14314226 Ry

     iteration # 56     ecut=    60.00 Ry     beta= 0.22
     Davidson diagonalization with overlap
     ethr =  2.95E-04,  avg # of iterations =  1.0

     negative rho (up, down):  1.557E-03 0.000E+00

     total cpu time spent up to now is      415.2 secs

     total energy              =   -7997.84006759 Ry
     estimated scf accuracy    <       0.49548519 Ry

     iteration # 57     ecut=    60.00 Ry     beta= 0.22
     Davidson diagonalization with overlap
     ethr =  1.35E-04,  avg # of iterations =  1.0

     negative rho (up, down):  2.684E-03 0.000E+00

     total cpu time spent up to now is      422.3 secs

     total energy              =   -7997.83961308 Ry
     estimated scf accuracy    <       0.59279481 Ry

     iteration # 58     ecut=    60.00 Ry     beta= 0.22
     Davidson diagonalization with overlap
     ethr =  1.35E-04,  avg # of iterations =  1.8

     negative rho (up, down):  1.785E-03 0.000E+00

     total cpu time spent up to now is      429.9 secs

     total energy              =   -7997.83496602 Ry
     estimated scf accuracy    <       1.53487668 Ry

     iteration # 59     ecut=    60.00 Ry     beta= 0.22
     Davidson diagonalization with overlap
     ethr =  1.35E-04,  avg # of iterations =  1.0

     negative rho (up, down):  1.506E-03 0.000E+00

     total cpu time spent up to now is      437.0 secs

     total energy              =   -7997.84336776 Ry
     estimated scf accuracy    <       0.73373768 Ry

     iteration # 60     ecut=    60.00 Ry     beta= 0.22
     Davidson diagonalization with overlap
     ethr =  1.35E-04,  avg # of iterations =  1.0

     negative rho (up, down):  8.683E-04 0.000E+00

     total cpu time spent up to now is      444.0 secs

     total energy              =   -7997.82660327 Ry
     estimated scf accuracy    <       0.78379703 Ry

     iteration # 61     ecut=    60.00 Ry     beta= 0.22
     Davidson diagonalization with overlap
     ethr =  1.35E-04,  avg # of iterations =  1.0

     negative rho (up, down):  9.568E-04 0.000E+00

     total cpu time spent up to now is      451.1 secs

     total energy              =   -7997.82589329 Ry
     estimated scf accuracy    <       1.58646287 Ry

     iteration # 62     ecut=    60.00 Ry     beta= 0.22
     Davidson diagonalization with overlap
     ethr =  1.35E-04,  avg # of iterations =  1.0

     negative rho (up, down):  8.083E-04 0.000E+00

     total cpu time spent up to now is      458.2 secs

     total energy              =   -7997.83250696 Ry
     estimated scf accuracy    <       0.45250621 Ry

     iteration # 63     ecut=    60.00 Ry     beta= 0.22
     Davidson diagonalization with overlap
     ethr =  1.23E-04,  avg # of iterations =  1.0

     negative rho (up, down):  1.063E-03 0.000E+00

     total cpu time spent up to now is      465.2 secs

     total energy              =   -7997.83800774 Ry
     estimated scf accuracy    <       0.80738526 Ry

     iteration # 64     ecut=    60.00 Ry     beta= 0.22
     Davidson diagonalization with overlap
     ethr =  1.23E-04,  avg # of iterations =  1.0

     negative rho (up, down):  9.442E-05 0.000E+00

     total cpu time spent up to now is      472.3 secs

     total energy              =   -7997.82561029 Ry
     estimated scf accuracy    <       0.50372551 Ry

     iteration # 65     ecut=    60.00 Ry     beta= 0.22
     Davidson diagonalization with overlap
     ethr =  1.23E-04,  avg # of iterations =  1.0

     total cpu time spent up to now is      479.3 secs

     total energy              =   -7997.83740756 Ry
     estimated scf accuracy    <       0.53976378 Ry

     iteration # 66     ecut=    60.00 Ry     beta= 0.22
     Davidson diagonalization with overlap
     ethr =  1.23E-04,  avg # of iterations =  1.0

     total cpu time spent up to now is      486.4 secs

     total energy              =   -7997.84531056 Ry
     estimated scf accuracy    <       0.47785475 Ry

     iteration # 67     ecut=    60.00 Ry     beta= 0.22
     Davidson diagonalization with overlap
     ethr =  1.23E-04,  avg # of iterations =  1.0

     total cpu time spent up to now is      493.4 secs

     total energy              =   -7997.84558657 Ry
     estimated scf accuracy    <       0.28181664 Ry

     iteration # 68     ecut=    60.00 Ry     beta= 0.22
     Davidson diagonalization with overlap
     ethr =  7.66E-05,  avg # of iterations =  1.0

     total cpu time spent up to now is      500.5 secs

     total energy              =   -7997.84535494 Ry
     estimated scf accuracy    <       0.23360275 Ry

     iteration # 69     ecut=    60.00 Ry     beta= 0.22
     Davidson diagonalization with overlap
     ethr =  6.35E-05,  avg # of iterations =  1.0

     total cpu time spent up to now is      507.5 secs

     total energy              =   -7997.84071389 Ry
     estimated scf accuracy    <       0.30923652 Ry

     iteration # 70     ecut=    60.00 Ry     beta= 0.22
     Davidson diagonalization with overlap
     ethr =  6.35E-05,  avg # of iterations =  1.0

     total cpu time spent up to now is      514.6 secs

     total energy              =   -7997.84237747 Ry
     estimated scf accuracy    <       0.22838150 Ry

     iteration # 71     ecut=    60.00 Ry     beta= 0.22
     Davidson diagonalization with overlap
     ethr =  6.21E-05,  avg # of iterations =  1.0

     total cpu time spent up to now is      521.6 secs

     total energy              =   -7997.84316019 Ry
     estimated scf accuracy    <       0.17648270 Ry

     iteration # 72     ecut=    60.00 Ry     beta= 0.22
     Davidson diagonalization with overlap
     ethr =  4.80E-05,  avg # of iterations =  1.0

     total cpu time spent up to now is      528.7 secs

     total energy              =   -7997.84296748 Ry
     estimated scf accuracy    <       0.13329791 Ry

     iteration # 73     ecut=    60.00 Ry     beta= 0.22
     Davidson diagonalization with overlap
     ethr =  3.62E-05,  avg # of iterations =  1.0

     total cpu time spent up to now is      535.7 secs

     total energy              =   -7997.84487956 Ry
     estimated scf accuracy    <       0.09088248 Ry

     iteration # 74     ecut=    60.00 Ry     beta= 0.22
     Davidson diagonalization with overlap
     ethr =  2.47E-05,  avg # of iterations =  1.0

     total cpu time spent up to now is      542.8 secs

     total energy              =   -7997.84573049 Ry
     estimated scf accuracy    <       0.08378643 Ry

     iteration # 75     ecut=    60.00 Ry     beta= 0.22
     Davidson diagonalization with overlap
     ethr =  2.28E-05,  avg # of iterations =  1.0

     total cpu time spent up to now is      549.8 secs

     total energy              =   -7997.84610191 Ry
     estimated scf accuracy    <       0.11030008 Ry

     iteration # 76     ecut=    60.00 Ry     beta= 0.22
     Davidson diagonalization with overlap
     ethr =  2.28E-05,  avg # of iterations =  1.0

     total cpu time spent up to now is      556.9 secs

     total energy              =   -7997.84595881 Ry
     estimated scf accuracy    <       0.07185795 Ry

     iteration # 77     ecut=    60.00 Ry     beta= 0.22
     Davidson diagonalization with overlap
     ethr =  1.95E-05,  avg # of iterations =  1.0

     total cpu time spent up to now is      563.9 secs

     total energy              =   -7997.84608890 Ry
     estimated scf accuracy    <       0.07304773 Ry

     iteration # 78     ecut=    60.00 Ry     beta= 0.22
     Davidson diagonalization with overlap
     ethr =  1.95E-05,  avg # of iterations =  1.0

     total cpu time spent up to now is      571.0 secs

     total energy              =   -7997.84581398 Ry
     estimated scf accuracy    <       0.06307078 Ry

     iteration # 79     ecut=    60.00 Ry     beta= 0.22
     Davidson diagonalization with overlap
     ethr =  1.71E-05,  avg # of iterations =  1.0

     total cpu time spent up to now is      578.1 secs

     total energy              =   -7997.84505588 Ry
     estimated scf accuracy    <       0.07889890 Ry

     iteration # 80     ecut=    60.00 Ry     beta= 0.22
     Davidson diagonalization with overlap
     ethr =  1.71E-05,  avg # of iterations =  1.0

     total cpu time spent up to now is      585.1 secs

     total energy              =   -7997.84589855 Ry
     estimated scf accuracy    <       0.07406112 Ry

     iteration # 81     ecut=    60.00 Ry     beta= 0.22
     Davidson diagonalization with overlap
     ethr =  1.71E-05,  avg # of iterations =  1.0

     total cpu time spent up to now is      592.2 secs

     total energy              =   -7997.84690287 Ry
     estimated scf accuracy    <       0.04564244 Ry

     iteration # 82     ecut=    60.00 Ry     beta= 0.22
     Davidson diagonalization with overlap
     ethr =  1.24E-05,  avg # of iterations =  1.2

     total cpu time spent up to now is      599.4 secs

     total energy              =   -7997.84514652 Ry
     estimated scf accuracy    <       0.09642217 Ry

     iteration # 83     ecut=    60.00 Ry     beta= 0.22
     Davidson diagonalization with overlap
     ethr =  1.24E-05,  avg # of iterations =  1.0

     total cpu time spent up to now is      606.5 secs

     total energy              =   -7997.84692771 Ry
     estimated scf accuracy    <       0.02442780 Ry

     iteration # 84     ecut=    60.00 Ry     beta= 0.22
     Davidson diagonalization with overlap
     ethr =  6.64E-06,  avg # of iterations =  1.2

     total cpu time spent up to now is      613.7 secs

     total energy              =   -7997.84706282 Ry
     estimated scf accuracy    <       0.00704641 Ry

     iteration # 85     ecut=    60.00 Ry     beta= 0.22
     Davidson diagonalization with overlap
     ethr =  1.91E-06,  avg # of iterations =  3.2

     total cpu time spent up to now is      621.5 secs

     total energy              =   -7997.84716664 Ry
     estimated scf accuracy    <       0.00297595 Ry

     iteration # 86     ecut=    60.00 Ry     beta= 0.22
     Davidson diagonalization with overlap
     ethr =  8.09E-07,  avg # of iterations =  1.0

     total cpu time spent up to now is      628.5 secs

     total energy              =   -7997.84716969 Ry
     estimated scf accuracy    <       0.00215728 Ry

     iteration # 87     ecut=    60.00 Ry     beta= 0.22
     Davidson diagonalization with overlap
     ethr =  5.86E-07,  avg # of iterations =  1.6

     total cpu time spent up to now is      635.9 secs

     total energy              =   -7997.84715592 Ry
     estimated scf accuracy    <       0.00400021 Ry

     iteration # 88     ecut=    60.00 Ry     beta= 0.22
     Davidson diagonalization with overlap
     ethr =  5.86E-07,  avg # of iterations =  1.6

     total cpu time spent up to now is      643.3 secs

     total energy              =   -7997.84720102 Ry
     estimated scf accuracy    <       0.00143522 Ry

     iteration # 89     ecut=    60.00 Ry     beta= 0.22
     Davidson diagonalization with overlap
     ethr =  3.90E-07,  avg # of iterations =  1.4

     total cpu time spent up to now is      650.6 secs

     total energy              =   -7997.84719205 Ry
     estimated scf accuracy    <       0.00099116 Ry

     iteration # 90     ecut=    60.00 Ry     beta= 0.22
     Davidson diagonalization with overlap
     ethr =  2.69E-07,  avg # of iterations =  1.6

     total cpu time spent up to now is      658.0 secs

     total energy              =   -7997.84720487 Ry
     estimated scf accuracy    <       0.00147417 Ry

     iteration # 91     ecut=    60.00 Ry     beta= 0.22
     Davidson diagonalization with overlap
     ethr =  2.69E-07,  avg # of iterations =  1.4

     total cpu time spent up to now is      665.4 secs

     total energy              =   -7997.84722876 Ry
     estimated scf accuracy    <       0.00016585 Ry

     iteration # 92     ecut=    60.00 Ry     beta= 0.22
     Davidson diagonalization with overlap
     ethr =  4.51E-08,  avg # of iterations =  1.2

     total cpu time spent up to now is      672.6 secs

     total energy              =   -7997.84723395 Ry
     estimated scf accuracy    <       0.00002855 Ry

     iteration # 93     ecut=    60.00 Ry     beta= 0.22
     Davidson diagonalization with overlap
     ethr =  7.76E-09,  avg # of iterations =  1.6

     total cpu time spent up to now is      680.0 secs

     total energy              =   -7997.84723481 Ry
     estimated scf accuracy    <       0.00002370 Ry

     iteration # 94     ecut=    60.00 Ry     beta= 0.22
     Davidson diagonalization with overlap
     ethr =  6.44E-09,  avg # of iterations =  1.0

     total cpu time spent up to now is      687.0 secs

     total energy              =   -7997.84723571 Ry
     estimated scf accuracy    <       0.00001068 Ry

     iteration # 95     ecut=    60.00 Ry     beta= 0.22
     Davidson diagonalization with overlap
     ethr =  2.90E-09,  avg # of iterations =  1.2

     total cpu time spent up to now is      694.1 secs

     End of self-consistent calculation

          k = 0.0000 0.0000 0.0000 ( 15863 PWs)   bands (ev):

   -89.2987 -89.2964 -89.2926 -89.2895 -89.2617 -89.2603 -89.2428 -89.2390
   -89.2347 -89.2344 -89.2301 -89.2270 -89.2153 -89.2103 -89.2097 -89.2073
   -61.3596 -61.3578 -61.3535 -61.3519 -61.2997 -61.2985 -61.2952 -61.2933
   -49.9861 -49.9730 -49.9465 -49.9160 -49.8588 -49.8174 -49.8030 -49.7805
   -49.7489 -49.7443 -49.7429 -49.7418 -49.7199 -49.7178 -49.7160 -49.7132
   -49.6383 -49.6345 -49.6319 -49.6280 -49.5998 -49.5955 -49.5948 -49.5935
   -49.5920 -49.5900 -49.5631 -49.5608 -49.5518 -49.5502 -49.5468 -49.5452
   -49.5424 -49.5414 -49.5384 -49.5378 -49.5356 -49.5351 -49.5343 -49.5333
   -49.4842 -49.4830 -49.4810 -49.4802 -49.4710 -49.4709 -49.4535 -49.4485
   -28.1145 -28.1100 -28.1094 -28.1081 -28.1079 -28.1069 -28.1045 -28.1031
   -28.1025 -28.1010 -28.0922 -28.0862 -28.0552 -28.0519 -28.0431 -28.0427
   -28.0423 -28.0420 -28.0386 -28.0377 -28.0369 -28.0364 -28.0307 -28.0290
     5.1647   5.7949   5.8176   7.2909   7.9800   9.2229   9.2334   9.3154
     9.9038   9.9311  10.0334  10.1660  10.2758  10.2929  10.2998  10.3262
    10.3391  10.3476  10.4757  10.4825  10.5378  10.6007  10.6090  10.6406
    10.6617  10.6673  10.7643  10.7707  10.8251  10.8287  11.1630  11.1695
    11.2029  11.2061  11.2134  11.2194  11.4556  11.4625  11.6299  11.6462
    11.6562  11.6891  11.6955  11.7063  11.8949  11.9123  12.1718  12.3798
    12.4016  12.4355  12.4406  12.4655  12.6175  12.6242  12.7604  12.7648
    12.8933  12.9038  13.0210  13.0231  13.0262  13.0292  13.0311  13.0337
    13.0355  13.0550  13.0598  13.0648  13.0652  13.0710  13.0742  13.0812
    13.0893  13.1479  13.1525  13.1588  13.1625  13.2791  13.2840  13.6265
    13.6342  13.9188  13.9241  14.1481  14.1485  14.1653  14.1710  14.4616
    14.6408  14.8225  14.8798  14.8841  14.8872  14.9010  14.9113  15.0332
    15.2606  15.2697  15.3263  15.3347  16.6882  16.7101  16.7162  16.7441
    17.2383  17.2648  17.6324  17.6591  18.3339  18.3554  18.3669  18.6131
    18.6937  18.8917  19.2848  19.2949  19.7006  19.7145  20.0900  20.3543
    20.3679  20.6474  20.8678  22.2412  22.3825

          k = 0.0001 0.3850-0.0002 ( 15970 PWs)   bands (ev):

   -89.2969 -89.2954 -89.2915 -89.2899 -89.2557 -89.2553 -89.2420 -89.2413
   -89.2378 -89.2331 -89.2304 -89.2274 -89.2166 -89.2162 -89.2144 -89.2084
   -61.3595 -61.3577 -61.3534 -61.3518 -61.2998 -61.2986 -61.2953 -61.2934
   -49.9495 -49.9390 -49.9127 -49.8722 -49.8703 -49.8179 -49.8050 -49.7831
   -49.7581 -49.7547 -49.7397 -49.7344 -49.7328 -49.7281 -49.7003 -49.6972
   -49.6442 -49.6419 -49.6323 -49.6268 -49.5995 -49.5968 -49.5917 -49.5901
   -49.5890 -49.5865 -49.5637 -49.5628 -49.5548 -49.5537 -49.5526 -49.5500
   -49.5474 -49.5435 -49.5401 -49.5380 -49.5364 -49.5309 -49.5293 -49.5252
   -49.5045 -49.5027 -49.4947 -49.4913 -49.4878 -49.4866 -49.4689 -49.4628
   -28.1154 -28.1105 -28.1090 -28.1089 -28.1082 -28.1067 -28.1052 -28.1032
   -28.1025 -28.1005 -28.0933 -28.0873 -28.0541 -28.0509 -28.0440 -28.0432
   -28.0423 -28.0414 -28.0394 -28.0377 -28.0373 -28.0360 -28.0299 -28.0281
     6.1758   6.7726   6.7990   8.2233   8.7119   8.8924   9.1767   9.2104
     9.7287   9.7656   9.9212  10.0331  10.1254  10.2175  10.3047  10.3950
    10.4340  10.5175  10.5575  10.5720  10.5751  10.6387  10.7814  10.8267
    10.9083  10.9224  10.9870  11.0538  11.0668  11.0798  11.0885  11.2079
    11.2149  11.2460  11.2616  11.3225  11.3434  11.3705  11.4253  11.4953
    11.5790  11.6164  11.6263  11.6488  11.7364  11.8234  11.8690  11.8924
    11.8952  12.0258  12.0324  12.0862  12.1032  12.1585  12.2513  12.2703
    12.2777  12.3477  12.4352  12.4626  12.4782  12.5800  12.5937  12.6108
    12.6776  12.7154  12.7209  12.7872  12.7969  12.8471  12.8818  12.9507
    12.9520  13.0515  13.0612  13.0636  13.0932  13.1115  13.1415  13.1553
    13.2086  13.2352  13.2443  13.3827  13.4042  13.4804  13.5550  13.6992
    13.9961  14.0474  14.4239  14.4428  14.6648  14.7636  14.8586  15.0284
    15.0985  15.1239  15.2083  15.3912  16.0383  16.5118  16.8396  16.8492
    18.2390  18.6273  18.6808  18.8772  19.6347  19.7434  19.8665  19.9650
    19.9897  20.1381  20.6511  21.0844  21.1142  21.2241  21.6829  21.8717
    22.0495  22.5854  22.9447  23.1966  23.2455

          k = 0.3334 0.1917-0.0001 ( 15971 PWs)   bands (ev):

   -89.2969 -89.2955 -89.2915 -89.2899 -89.2568 -89.2563 -89.2393 -89.2384
   -89.2371 -89.2337 -89.2320 -89.2294 -89.2198 -89.2136 -89.2118 -89.2104
   -61.3595 -61.3577 -61.3534 -61.3518 -61.2998 -61.2986 -61.2953 -61.2934
   -49.9498 -49.9393 -49.9138 -49.8727 -49.8716 -49.8188 -49.8054 -49.7828
   -49.7580 -49.7540 -49.7367 -49.7338 -49.7318 -49.7268 -49.7017 -49.6990
   -49.6428 -49.6404 -49.6334 -49.6286 -49.5991 -49.5975 -49.5917 -49.5901
   -49.5895 -49.5864 -49.5633 -49.5600 -49.5564 -49.5562 -49.5556 -49.5497
   -49.5486 -49.5448 -49.5365 -49.5348 -49.5341 -49.5306 -49.5290 -49.5242
   -49.5059 -49.5020 -49.4942 -49.4907 -49.4887 -49.4886 -49.4680 -49.4640
   -28.1154 -28.1110 -28.1089 -28.1088 -28.1085 -28.1061 -28.1052 -28.1032
   -28.1024 -28.1005 -28.0933 -28.0873 -28.0542 -28.0509 -28.0443 -28.0432
   -28.0420 -28.0414 -28.0391 -28.0378 -28.0376 -28.0358 -28.0299 -28.0282
     6.1737   6.7704   6.7971   8.2209   8.7103   8.8866   9.1717   9.2058
     9.7280   9.7641   9.9201  10.0318  10.1231  10.2155  10.3006  10.3964
    10.4335  10.5203  10.5553  10.5719  10.5758  10.6436  10.7872  10.8248
    10.9056  10.9257  10.9854  11.0496  11.0660  11.0856  11.0891  11.2093
    11.2105  11.2447  11.2587  11.3224  11.3425  11.3738  11.4270  11.4929
    11.5824  11.6146  11.6294  11.6477  11.7352  11.8243  11.8680  11.8948
    11.8954  12.0254  12.0336  12.0886  12.1014  12.1593  12.2561  12.2659
    12.2798  12.3459  12.4338  12.4635  12.4794  12.5755  12.5949  12.6127
    12.6785  12.7147  12.7184  12.7895  12.7971  12.8479  12.8768  12.9503
    12.9523  13.0541  13.0629  13.0664  13.0966  13.1118  13.1445  13.1541
    13.2108  13.2372  13.2460  13.3846  13.4060  13.4789  13.5535  13.6984
    13.9988  14.0451  14.4220  14.4453  14.6728  14.7715  14.8661  15.0356
    15.1058  15.1316  15.2179  15.4011  16.0318  16.5052  16.8426  16.8527
    18.2475  18.6329  18.6884  18.8762  19.6399  19.7429  19.8736  19.9671
    20.0002  20.1394  20.6442  21.0837  21.1172  21.2244  21.6869  21.8687
    22.0346  22.5841  22.9425  23.2078  23.2277

          k = 0.3335 0.5767-0.0003 ( 15984 PWs)   bands (ev):

   -89.2958 -89.2951 -89.2909 -89.2902 -89.2521 -89.2511 -89.2448 -89.2431
   -89.2322 -89.2317 -89.2298 -89.2263 -89.2257 -89.2229 -89.2121 -89.2088
   -61.3595 -61.3576 -61.3534 -61.3518 -61.2999 -61.2987 -61.2954 -61.2934
   -49.9117 -49.9095 -49.9012 -49.8976 -49.8135 -49.8103 -49.8080 -49.8040
   -49.7843 -49.7804 -49.7414 -49.7397 -49.7288 -49.7242 -49.6888 -49.6869
   -49.6440 -49.6395 -49.6354 -49.6324 -49.5998 -49.5981 -49.5949 -49.5902
   -49.5836 -49.5823 -49.5664 -49.5660 -49.5615 -49.5596 -49.5578 -49.5550
   -49.5477 -49.5429 -49.5310 -49.5285 -49.5244 -49.5235 -49.5179 -49.5170
   -49.5132 -49.5121 -49.5006 -49.4981 -49.4962 -49.4932 -49.4915 -49.4887
   -28.1156 -28.1119 -28.1095 -28.1092 -28.1079 -28.1060 -28.1054 -28.1040
   -28.1019 -28.0996 -28.0939 -28.0880 -28.0534 -28.0502 -28.0451 -28.0442
   -28.0421 -28.0409 -28.0397 -28.0384 -28.0365 -28.0350 -28.0296 -28.0278
     7.8242   7.8307   8.2871   8.3913   8.4026   8.5874   8.7207   8.7242
     8.9326   9.7282   9.7379   9.7853   9.7910   9.8229   9.8536  10.4552
    10.4627  10.4967  10.6381  10.6433  10.7894  10.8025  10.9565  10.9699
    11.0391  11.0469  11.0993  11.1084  11.1113  11.1195  11.2106  11.2794
    11.2816  11.3050  11.3085  11.3238  11.3502  11.3648  11.3822  11.3880
    11.3975  11.4070  11.4915  11.4990  11.5779  11.5834  11.5938  11.5976
    11.6016  11.8155  11.8289  11.8329  11.9678  12.1091  12.1142  12.1378
    12.1415  12.1945  12.3565  12.3587  12.4515  12.4884  12.4945  12.5477
    12.5745  12.5777  12.6243  12.7135  12.7173  12.7585  12.7636  12.7679
    12.7944  12.8525  12.8577  12.8696  12.8728  12.9268  12.9323  13.0330
    13.2004  13.2186  13.3151  13.3261  13.3326  13.4153  13.4182  13.5307
    13.5915  13.6529  13.6546  13.9066  14.0470  14.0508  14.1440  15.5662
    15.5707  15.6247  15.8206  15.8328  16.4439  18.2849  18.2962  18.4696
    18.7126  18.7240  19.3655  19.4199  19.4313  19.5021  19.5067  19.7384
    20.0018  20.4151  20.4845  20.4993  21.2983  21.3078  21.6801  21.6893
    21.7930  22.5012  23.7983  23.8045  23.9851

          k = 0.3333-0.1933 0.0000 ( 15965 PWs)   bands (ev):

   -89.2969 -89.2955 -89.2915 -89.2899 -89.2571 -89.2566 -89.2374 -89.2362
   -89.2350 -89.2338 -89.2329 -89.2317 -89.2225 -89.2172 -89.2102 -89.2077
   -61.3595 -61.3577 -61.3534 -61.3518 -61.2998 -61.2986 -61.2953 -61.2934
   -49.9487 -49.9381 -49.9137 -49.8734 -49.8703 -49.8190 -49.8042 -49.7811
   -49.7603 -49.7564 -49.7350 -49.7325 -49.7301 -49.7257 -49.7041 -49.7020
   -49.6400 -49.6380 -49.6358 -49.6318 -49.5976 -49.5961 -49.5938 -49.5911
   -49.5900 -49.5861 -49.5621 -49.5576 -49.5573 -49.5563 -49.5559 -49.5518
   -49.5476 -49.5433 -49.5362 -49.5344 -49.5328 -49.5310 -49.5296 -49.5259
   -49.5066 -49.5026 -49.4947 -49.4914 -49.4897 -49.4890 -49.4670 -49.4633
   -28.1155 -28.1106 -28.1092 -28.1088 -28.1081 -28.1068 -28.1040 -28.1034
   -28.1020 -28.1018 -28.0932 -28.0872 -28.0541 -28.0509 -28.0443 -28.0435
   -28.0420 -28.0411 -28.0399 -28.0381 -28.0369 -28.0355 -28.0299 -28.0282
     6.1768   6.7730   6.8004   8.2256   8.7108   8.8977   9.1815   9.2174
     9.7305   9.7666   9.9185  10.0292  10.1257  10.2152  10.3013  10.3952
    10.4368  10.5144  10.5598  10.5669  10.5763  10.6351  10.7753  10.8256
    10.9054  10.9232  10.9889  11.0534  11.0714  11.0853  11.0874  11.2073
    11.2201  11.2548  11.2635  11.3186  11.3433  11.3717  11.4277  11.4841
    11.5802  11.6194  11.6262  11.6484  11.7372  11.8246  11.8758  11.8889
    11.8973  12.0293  12.0361  12.0870  12.1011  12.1585  12.2503  12.2704
    12.2869  12.3547  12.4263  12.4624  12.4745  12.5791  12.6010  12.6107
    12.6782  12.7185  12.7243  12.7876  12.7986  12.8433  12.8784  12.9450
    12.9553  13.0487  13.0603  13.0679  13.0909  13.1038  13.1409  13.1548
    13.2066  13.2330  13.2445  13.3836  13.4053  13.4811  13.5552  13.6933
    13.9961  14.0526  14.4238  14.4390  14.6578  14.7617  14.8467  15.0224
    15.0920  15.1188  15.1974  15.3833  16.0386  16.5178  16.8361  16.8516
    18.2291  18.6177  18.6757  18.8768  19.6348  19.7430  19.8609  19.9652
    19.9801  20.1385  20.6457  21.0910  21.1120  21.2276  21.6866  21.8752
    22.0563  22.5883  22.9446  23.1905  23.2589

     the Fermi energy is    13.7669 ev

!    total energy              =   -7997.84723126 Ry
     total all-electron energy =    -51870.923101 Ry
     estimated scf accuracy    <       0.00000974 Ry
     smearing contrib. (-TS)   =       0.25457146 Ry
     internal energy E=F+TS    =   -7998.10180272 Ry

     The total energy is F=E-TS. E is the sum of the following terms:
     one-electron contribution =   -4414.17755063 Ry
     hartree contribution      =    2371.94074819 Ry
     xc contribution           =    -690.98327396 Ry
     ewald contribution        =   -3687.79631176 Ry
     one-center paw contrib.   =   -1577.08541456 Ry

     convergence has been achieved in  95 iterations

     Forces acting on atoms (cartesian axes, Ry/au):

     atom    1 type  1   force =     0.00186283   -0.00049670    0.00427550
     atom    2 type  1   force =    -0.00061972   -0.00014802    0.00747308
     atom    3 type  1   force =    -0.00012867    0.00058767   -0.00445948
     atom    4 type  1   force =     0.00195993   -0.00173922   -0.00615084
     atom    5 type  1   force =     0.00204289    0.00087306    0.00098943
     atom    6 type  1   force =    -0.00192606    0.00176949    0.00321012
     atom    7 type  1   force =    -0.00151835    0.00071792   -0.00318724
     atom    8 type  1   force =     0.00061355    0.00019198   -0.00215675
     atom    9 type  2   force =    -0.00200094    0.00121226   -0.00102626
     atom   10 type  2   force =     0.00342892   -0.00158419   -0.00110919
     atom   11 type  2   force =    -0.00087270   -0.00224790    0.00336759
     atom   12 type  2   force =     0.00105027   -0.00055256    0.00007452
     atom   13 type  2   force =    -0.00001653   -0.01742272   -0.00083081
     atom   14 type  2   force =     0.01449174   -0.00888949    0.00161205
     atom   15 type  2   force =     0.00036685    0.01913591   -0.00128201
     atom   16 type  2   force =    -0.01258569    0.00736713   -0.00002553
     atom   17 type  2   force =     0.01362753    0.00806760    0.00153915
     atom   18 type  2   force =    -0.01758979   -0.00862747   -0.00397016
     atom   19 type  2   force =     0.00184887   -0.00078251    0.00170429
     atom   20 type  2   force =    -0.00300663    0.00312011    0.00245613
     atom   21 type  2   force =    -0.00151152   -0.00585808   -0.00040309
     atom   22 type  2   force =    -0.00189459    0.00018124    0.00185615
     atom   23 type  2   force =     0.00202774    0.00336568   -0.00166926
     atom   24 type  2   force =     0.00035007    0.00175880   -0.00228739
     The non-local contrib.  to forces
     atom    1 type  1   force =     0.00333586   -0.00139325    0.02623282
     atom    2 type  1   force =    -0.00022076    0.00107859    0.03514981
     atom    3 type  1   force =     0.00327735    0.00434086   -0.02664560
     atom    4 type  1   force =     0.00644338   -0.00577828   -0.02961831
     atom    5 type  1   force =     0.00807092    0.00484165    0.00216747
     atom    6 type  1   force =    -0.00629312    0.00614782    0.00875781
     atom    7 type  1   force =    -0.00130247    0.00232247   -0.01078038
     atom    8 type  1   force =     0.00201424   -0.00011171   -0.00421480
     atom    9 type  2   force =     0.01010358   -0.00987167    0.01344345
     atom   10 type  2   force =    -0.00998646    0.01634092    0.00762598
     atom   11 type  2   force =    -0.00318381    0.02192170   -0.01249727
     atom   12 type  2   force =    -0.01169217    0.00610806   -0.01243829
     atom   13 type  2   force =    -0.01180486   -0.07393295    0.00219585
     atom   14 type  2   force =     0.07723207   -0.03755403   -0.00038672
     atom   15 type  2   force =     0.00320176    0.07261666    0.00488687
     atom   16 type  2   force =    -0.07126086    0.03810283   -0.00067653
     atom   17 type  2   force =     0.06429447    0.05027205   -0.00550915
     atom   18 type  2   force =    -0.05558020   -0.05564845    0.01100810
     atom   19 type  2   force =     0.00106985   -0.00051826   -0.00242525
     atom   20 type  2   force =    -0.00513560   -0.00199211    0.00111368
     atom   21 type  2   force =     0.00272769   -0.00276193    0.00215162
     atom   22 type  2   force =     0.00631062    0.00418778   -0.00083459
     atom   23 type  2   force =     0.00172474   -0.00216074    0.00038301
     atom   24 type  2   force =     0.00541911   -0.00574077    0.00510123
     The ionic contribution  to forces
     atom    1 type  1   force =     0.11033609   -0.04454529   -0.47750752
     atom    2 type  1   force =    -0.02719495    0.01456365   -0.10638584
     atom    3 type  1   force =     0.09955680    0.12388758    0.69253937
     atom    4 type  1   force =     0.21803508   -0.21481750    0.10183791
     atom    5 type  1   force =     0.23017979    0.15250044    0.33812137
     atom    6 type  1   force =    -0.20294219    0.20179883    0.17324222
     atom    7 type  1   force =    -0.03440219    0.04962292   -0.54625643
     atom    8 type  1   force =     0.00976025    0.00360662   -0.07545607
     atom    9 type  2   force =    -0.16489224    0.06654694    0.44333143
     atom   10 type  2   force =     0.34916406   -0.04192127    0.83018631
     atom   11 type  2   force =    -0.43798829   -0.25691155    0.00698464
     atom   12 type  2   force =     0.03461660   -0.03992973   -1.25105220
     atom   13 type  2   force =    -0.00805439  -15.47178282   -0.28608472
     atom   14 type  2   force =    13.48153237   -7.80676551    0.16657526
     atom   15 type  2   force =    -0.02228963   15.79910850    0.02167458
     atom   16 type  2   force =   -13.09886770    7.62511219   -0.17279816
     atom   17 type  2   force =    13.25514204    7.66395273   -0.31285997
     atom   18 type  2   force =   -13.63275894   -8.00491641   -0.11788166
     atom   19 type  2   force =    -0.15324666   -0.19743569    0.39475750
     atom   20 type  2   force =    -0.56480469    0.42128224    0.08162166
     atom   21 type  2   force =    -0.11577233   -0.89486342   -0.18541007
     atom   22 type  2   force =    -0.12163904    0.29391955    0.32964813
     atom   23 type  2   force =     0.37660226    0.58739681   -0.24293451
     atom   24 type  2   force =     0.41992789   -0.02940981    0.19410678
     The local contribution  to forces
     atom    1 type  1   force =    -0.11168166    0.04555091    0.45563596
     atom    2 type  1   force =     0.02699063   -0.01558280    0.08022615
     atom    3 type  1   force =    -0.10273655   -0.12729047   -0.67001979
     atom    4 type  1   force =    -0.22229640    0.21897179   -0.08069915
     atom    5 type  1   force =    -0.23605898   -0.15633553   -0.33812181
     atom    6 type  1   force =     0.20710888   -0.20616731   -0.18077323
     atom    7 type  1   force =     0.03397716   -0.05132755    0.55331309
     atom    8 type  1   force =    -0.01093081   -0.00332389    0.07978062
     atom    9 type  2   force =     0.15435268   -0.05622746   -0.45480152
     atom   10 type  2   force =    -0.33932516    0.02491796   -0.83155818
     atom   11 type  2   force =     0.43901048    0.23202748    0.00628308
     atom   12 type  2   force =    -0.02317615    0.03428354    1.25450222
     atom   13 type  2   force =     0.01862753   15.52702737    0.28122203
     atom   14 type  2   force =   -13.54221119    7.83524163   -0.15905895
     atom   15 type  2   force =     0.01899525  -15.85167761   -0.02245344
     atom   16 type  2   force =    13.15663959   -7.65516312    0.17106115
     atom   17 type  2   force =   -13.30467854   -7.70410630    0.31779815
     atom   18 type  2   force =    13.67112724    8.05000530    0.10642757
     atom   19 type  2   force =     0.15568708    0.19600486   -0.39071124
     atom   20 type  2   force =     0.56656845   -0.41703060   -0.08206071
     atom   21 type  2   force =     0.11134994    0.89245642    0.18068239
     atom   22 type  2   force =     0.11285570   -0.29893129   -0.32667513
     atom   23 type  2   force =    -0.37596012   -0.58248839    0.23830628
     atom   24 type  2   force =    -0.42434353    0.03642843   -0.20188571
     The core correction contribution to forces
     atom    1 type  1   force =    -0.00002119    0.00000648   -0.00013686
     atom    2 type  1   force =     0.00000343   -0.00000408   -0.00018653
     atom    3 type  1   force =    -0.00001203   -0.00001907    0.00013911
     atom    4 type  1   force =    -0.00003288    0.00002895    0.00016252
     atom    5 type  1   force =    -0.00003818   -0.00002112   -0.00001476
     atom    6 type  1   force =     0.00003144   -0.00002912   -0.00004138
     atom    7 type  1   force =     0.00001161   -0.00001075    0.00005403
     atom    8 type  1   force =    -0.00001080   -0.00000008    0.00001879
     atom    9 type  2   force =    -0.00060418    0.00059395   -0.00431216
     atom   10 type  2   force =     0.00070514   -0.00097607   -0.00394339
     atom   11 type  2   force =     0.00001685   -0.00133408    0.00423289
     atom   12 type  2   force =     0.00070701   -0.00041270    0.00424735
     atom   13 type  2   force =     0.00073663    0.00115734   -0.00002457
     atom   14 type  2   force =    -0.00170541    0.00064092   -0.00027445
     atom   15 type  2   force =    -0.00023295   -0.00099581   -0.00032086
     atom   16 type  2   force =     0.00148383   -0.00061659    0.00013525
     atom   17 type  2   force =    -0.00102658   -0.00140989    0.00019476
     atom   18 type  2   force =     0.00051109    0.00161272   -0.00038866
     atom   19 type  2   force =    -0.00050721    0.00009838   -0.00009794
     atom   20 type  2   force =     0.00015918    0.00005494   -0.00017025
     atom   21 type  2   force =     0.00005563    0.00020769    0.00004376
     atom   22 type  2   force =    -0.00008105    0.00006314   -0.00032113
     atom   23 type  2   force =    -0.00006450    0.00005780    0.00021709
     atom   24 type  2   force =     0.00005854    0.00007328   -0.00003129
     The Hubbard contrib.    to forces
     atom    1 type  1   force =     0.00000000    0.00000000    0.00000000
     atom    2 type  1   force =     0.00000000    0.00000000    0.00000000
     atom    3 type  1   force =     0.00000000    0.00000000    0.00000000
     atom    4 type  1   force =     0.00000000    0.00000000    0.00000000
     atom    5 type  1   force =     0.00000000    0.00000000    0.00000000
     atom    6 type  1   force =     0.00000000    0.00000000    0.00000000
     atom    7 type  1   force =     0.00000000    0.00000000    0.00000000
     atom    8 type  1   force =     0.00000000    0.00000000    0.00000000
     atom    9 type  2   force =     0.00000000    0.00000000    0.00000000
     atom   10 type  2   force =     0.00000000    0.00000000    0.00000000
     atom   11 type  2   force =     0.00000000    0.00000000    0.00000000
     atom   12 type  2   force =     0.00000000    0.00000000    0.00000000
     atom   13 type  2   force =     0.00000000    0.00000000    0.00000000
     atom   14 type  2   force =     0.00000000    0.00000000    0.00000000
     atom   15 type  2   force =     0.00000000    0.00000000    0.00000000
     atom   16 type  2   force =     0.00000000    0.00000000    0.00000000
     atom   17 type  2   force =     0.00000000    0.00000000    0.00000000
     atom   18 type  2   force =     0.00000000    0.00000000    0.00000000
     atom   19 type  2   force =     0.00000000    0.00000000    0.00000000
     atom   20 type  2   force =     0.00000000    0.00000000    0.00000000
     atom   21 type  2   force =     0.00000000    0.00000000    0.00000000
     atom   22 type  2   force =     0.00000000    0.00000000    0.00000000
     atom   23 type  2   force =     0.00000000    0.00000000    0.00000000
     atom   24 type  2   force =     0.00000000    0.00000000    0.00000000
     The SCF correction term to forces
     atom    1 type  1   force =    -0.00007987   -0.00014056    0.00009456
     atom    2 type  1   force =    -0.00017167   -0.00022838   -0.00128704
     atom    3 type  1   force =    -0.00018783   -0.00035625   -0.00042911
     atom    4 type  1   force =    -0.00016283   -0.00016920    0.00220965
     atom    5 type  1   force =    -0.00008425   -0.00013739   -0.00111938
     atom    6 type  1   force =     0.00019534   -0.00000575    0.00206815
     atom    7 type  1   force =     0.00022394    0.00008582    0.00052591
     atom    8 type  1   force =    -0.00019294   -0.00000398   -0.00224183
     atom    9 type  2   force =    -0.00093438    0.00014549    0.00135600
     atom   10 type  2   force =     0.00289775    0.00002925   -0.00337645
     atom   11 type  2   force =     0.00129847    0.00202353   -0.00159230
     atom   12 type  2   force =     0.00062138   -0.00062674    0.00485890
     atom   13 type  2   force =     0.00050497    0.00008332    0.00190406
     atom   14 type  2   force =    -0.00032969   -0.00047751   -0.00519963
     atom   15 type  2   force =     0.00071882    0.00005916   -0.00502570
     atom   16 type  2   force =    -0.00055414   -0.00009319    0.00229622
     atom   17 type  2   force =    -0.00007746   -0.00066601    0.00195883
     atom   18 type  2   force =    -0.00086258    0.00029436   -0.00309205
     atom   19 type  2   force =    -0.00112778    0.00104319    0.00022468
     atom   20 type  2   force =     0.00023245    0.00078063    0.00199521
     atom   21 type  2   force =     0.00015397   -0.00092184    0.00217266
     atom   22 type  2   force =     0.00068560    0.00091704    0.00008234
     atom   23 type  2   force =    -0.00024824    0.00053518    0.00240232
     atom   24 type  2   force =    -0.00068553    0.00038265    0.00046506

     Total force =     0.046437     Total SCF correction =     0.013096
     SCF correction compared to forces is large: reduce conv_thr to get better values


     Computing stress (Cartesian axis) and pressure

          total   stress  (Ry/bohr**3)                   (kbar)     P=       33.74
   0.00020871  -0.00001356   0.00000730           30.70       -2.00        1.07
  -0.00001356   0.00021035  -0.00000650           -2.00       30.94       -0.96
   0.00000730  -0.00000650   0.00026904            1.07       -0.96       39.58


     Writing all to output data dir ./C36/out_logs/C36_out_197/laves_C36.save/
 
     init_run     :      6.21s CPU      6.40s WALL (       1 calls)
     electrons    :    687.52s CPU    687.52s WALL (       1 calls)
     forces       :      1.68s CPU      1.68s WALL (       1 calls)
     stress       :      8.52s CPU      8.52s WALL (       1 calls)

     Called by init_run:
     wfcinit      :      1.87s CPU      1.97s WALL (       1 calls)
                                        1.97s GPU  (       1 calls)
     potinit      :      3.32s CPU      3.35s WALL (       1 calls)
     hinit0       :      0.86s CPU      0.87s WALL (       1 calls)

     Called by electrons:
     c_bands      :    393.68s CPU    393.72s WALL (      95 calls)
     sum_band     :     66.61s CPU     66.64s WALL (      95 calls)
     v_of_rho     :      2.43s CPU      2.45s WALL (      96 calls)
     newd         :      7.71s CPU      7.72s WALL (      96 calls)
                                        7.72s GPU  (      96 calls)
     PAW_pot      :    209.50s CPU    209.38s WALL (      96 calls)
     mix_rho      :      7.62s CPU      7.67s WALL (      95 calls)

     Called by c_bands:
     init_us_2    :      1.17s CPU      1.17s WALL (     965 calls)
     init_us_2:gp :      1.16s CPU      1.16s WALL (     965 calls)
     cegterg      :    375.51s CPU    375.54s WALL (     475 calls)

     Called by *egterg:
     cdiaghg      :     26.24s CPU     26.45s WALL (    1047 calls)
                                       26.42s GPU  (    1047 calls)
     h_psi        :    187.00s CPU    187.09s WALL (    1052 calls)
                                      186.91s GPU  (    1052 calls)
     s_psi        :      0.83s CPU     35.17s WALL (    1052 calls)
                                       34.88s GPU  (    1052 calls)
     g_psi        :      0.00s CPU      0.64s WALL (     572 calls)
                                        0.61s GPU  (     572 calls)

     Called by h_psi:
     h_psi:calbec :      0.08s CPU     40.53s WALL (    1052 calls)
                                       40.52s GPU  (    1052 calls)
     vloc_psi     :    110.35s CPU    110.42s WALL (    1052 calls)
                                      110.39s GPU  (    1052 calls)
     add_vuspsi   :      1.05s CPU     35.37s WALL (    1052 calls)
                                       35.26s GPU  (    1052 calls)

     General routines
     calbec       :      0.09s CPU      0.10s WALL (    1552 calls)
     fft          :      1.18s CPU      1.78s WALL (    1271 calls)
                                        0.60s GPU  (    1175 calls)
     ffts         :      0.29s CPU      0.32s WALL (     191 calls)
                                        0.03s GPU  (      95 calls)
     fftw         :      0.26s CPU    116.72s WALL (   33798 calls)
                                      115.87s GPU  (   33798 calls)
     interpolate  :      1.69s CPU      1.69s WALL (      96 calls)
 
     Parallel routines
 
     PWSCF        :  11m44.25s CPU  11m44.55s WALL

 
   This run was terminated on:  21:10:59   9Apr2026            

=------------------------------------------------------------------------------=
   JOB DONE.
=------------------------------------------------------------------------------=
