
     Program PWSCF v.7.2 starts on  9Apr2026 at  2:26:58 

     This program is part of the open-source Quantum ESPRESSO suite
     for quantum simulation of materials; please cite
         "P. Giannozzi et al., J. Phys.:Condens. Matter 21 395502 (2009);
         "P. Giannozzi et al., J. Phys.:Condens. Matter 29 465901 (2017);
         "P. Giannozzi et al., J. Chem. Phys. 152 154105 (2020);
          URL http://www.quantum-espresso.org", 
     in publications or presentations arising from this work. More details at
     http://www.quantum-espresso.org/quote

     Parallel version (MPI), running on     1 processors

     MPI processes distributed on     1 nodes
     1392 MiB available memory on the printing compute node when the environment starts
 
     Reading input from C36/in/laves_149_0_scf.in
Warning: card &CELL ignored
Warning: card / ignored

     Current dimensions of program PWSCF are:
     Max number of different atomic species (ntypx) = 10
     Max number of k-points (npk) =  40000
     Max angular momentum in pseudopotentials (lmaxx) =  4
     file Mg.pbe-spnl-kjpaw_psl.1.0.0.UPF: wavefunction(s)  2P renormalized
     file Ni.pbe-spn-kjpaw_psl.1.0.0.UPF: wavefunction(s)  3P 3D renormalized
 
     Subspace diagonalization in iterative solution of the eigenvalue problem:
     a serial algorithm will be used

 
     G-vector sticks info
     --------------------
     sticks:   dense  smooth     PW     G-vecs:    dense   smooth      PW
     Sum        2649    1329    367               361019   127639   18987
 
     Using Slab Decomposition
 

     Title: 
     C36_MgNi2                                                                  


     bravais-lattice index     =            0
     lattice parameter (alat)  =       8.9477  a.u.
     unit-cell volume          =    2033.4287 (a.u.)^3
     number of atoms/cell      =           23
     number of atomic types    =            2
     number of electrons       =       358.00
     number of Kohn-Sham states=          215
     kinetic-energy cutoff     =      60.0000  Ry
     charge density cutoff     =     480.0000  Ry
     scf convergence threshold =      1.0E-05
     mixing beta               =       0.2200
     number of iterations used =           22  plain     mixing
     Exchange-correlation= SLA  PW   PBX  PBC
                           (   1   4   3   4   0   0   0)

     GPU acceleration is ACTIVE.


     celldm(1)=   8.947694  celldm(2)=   0.000000  celldm(3)=   0.000000
     celldm(4)=   0.000000  celldm(5)=   0.000000  celldm(6)=   0.000000

     crystal axes: (cart. coord. in units of alat)
               a(1) = (   1.000000  -0.000478  -0.000675 )  
               a(2) = (  -0.500731   0.865201   0.000640 )  
               a(3) = (   0.000860  -0.003146   3.281699 )  

     reciprocal axes: (cart. coord. in units 2 pi/alat)
               b(1) = (  1.000277  0.578906  0.000293 )  
               b(2) = (  0.000553  1.156120  0.001108 )  
               b(3) = (  0.000206 -0.000106  0.304720 )  


     PseudoPot. # 1 for Mg read from file:
     ./pseudo/Mg.pbe-spnl-kjpaw_psl.1.0.0.UPF
     MD5 check sum: fda14e0d92a6a9a5ebed782e5a4b3067
     Pseudo is Projector augmented-wave + core cor, Zval = 10.0
     Generated using &quot;atomic&quot; code by A. Dal Corso  v.6.3
     Shape of augmentation charge: PSQ
     Using radial grid of 1129 points,  4 beta functions with: 
                l(1) =   0
                l(2) =   0
                l(3) =   1
                l(4) =   1
     Q(r) pseudized with 0 coefficients 


     PseudoPot. # 2 for Ni read from file:
     ./pseudo/Ni.pbe-spn-kjpaw_psl.1.0.0.UPF
     MD5 check sum: 6e86b733589c3ad8389697b807d86aa7
     Pseudo is Projector augmented-wave + core cor, Zval = 18.0
     Generated using &quot;atomic&quot; code by A. Dal Corso  v.6.3
     Shape of augmentation charge: PSQ
     Using radial grid of 1195 points,  6 beta functions with: 
                l(1) =   0
                l(2) =   0
                l(3) =   1
                l(4) =   1
                l(5) =   2
                l(6) =   2
     Q(r) pseudized with 0 coefficients 


     atomic species   valence    mass     pseudopotential
        Mg            10.00    24.30500     Mg( 1.00)
        Ni            18.00    58.69340     Ni( 1.00)

     No symmetry found



   Cartesian axes

     site n.     atom                  positions (alat units)
         1           Mg  tau(   1) = (   0.9999333  -0.0013106   1.3304450  )
         2           Mg  tau(   2) = (   1.0003093  -0.0021253   1.9474927  )
         3           Mg  tau(   3) = (   0.0013602   0.0010169   0.3100610  )
         4           Mg  tau(   4) = (   0.0001012   0.5748775   2.1528912  )
         5           Mg  tau(   5) = (   0.4988064   0.2876307   0.5102817  )
         6           Mg  tau(   6) = (   0.4994721   0.2862561   1.1283529  )
         7           Mg  tau(   7) = (   0.0015502   0.5743797   2.7708670  )
         8           Ni  tau(   8) = (  -0.0008483   0.5778360   1.2306235  )
         9           Ni  tau(   9) = (   0.5000239   0.2842405   2.8711677  )
        10           Ni  tau(  10) = (   0.4981936   0.2863650   2.0506265  )
        11           Ni  tau(  11) = (  -0.0006417   0.5769544   0.4094662  )
        12           Ni  tau(  12) = (   0.0004619   0.2880750   0.8225305  )
        13           Ni  tau(  13) = (   0.7503015   0.1402960   2.4620979  )
        14           Ni  tau(  14) = (   0.4981981   0.5731443   2.4617958  )
        15           Ni  tau(  15) = (  -0.2500999   0.7203200   0.8201924  )
        16           Ni  tau(  16) = (   0.2497835   0.7190259   0.8207933  )
        17           Ni  tau(  17) = (   0.2515484   0.1428190   2.4611160  )
        18           Ni  tau(  18) = (   0.5004385  -0.0013614   1.6399936  )
        19           Ni  tau(  19) = (   0.2501750   0.4307412   0.0009400  )
        20           Ni  tau(  20) = (   0.0005984   0.8610629   3.2818564  )
        21           Ni  tau(  21) = (   0.2474086   0.4288010   1.6422738  )
        22           Ni  tau(  22) = (  -0.2486917   0.4298395   3.2809386  )
        23           Ni  tau(  23) = (   0.7488249   0.4312301   1.6407418  )

     number of k points=     5  Marzari-Vanderbilt smearing, width (Ry)=  0.0500
                       cart. coord. in units 2pi/alat
        k(    1) = (   0.0000000   0.0000000   0.0000000), wk =   0.2222222
        k(    2) = (   0.0001844   0.3853734   0.0003693), wk =   0.4444444
        k(    3) = (   0.3334257   0.1929685   0.0000975), wk =   0.4444444
        k(    4) = (   0.3336101   0.5783419   0.0004669), wk =   0.4444444
        k(    5) = (   0.3332413  -0.1924049  -0.0002718), wk =   0.4444444

     Dense  grid:   361019 G-vectors     FFT dimensions: (  64,  64, 216)

     Smooth grid:   127639 G-vectors     FFT dimensions: (  45,  45, 150)

     Estimated max dynamical RAM per process >       2.01 GB

     Check: negative core charge=   -0.000008

     Initial potential from superposition of free atoms

     starting charge     357.9895, renormalised to     358.0000
     Starting wfcs are  195 randomized atomic wfcs +   20 random wfcs
     Checking if some PAW data can be deallocated... 

     total cpu time spent up to now is        6.4 secs

     Self-consistent Calculation

     iteration #  1     ecut=    60.00 Ry     beta= 0.22
     Davidson diagonalization with overlap
     ethr =  1.00E-02,  avg # of iterations =  5.8

     negative rho (up, down):  2.411E-02 0.000E+00

     total cpu time spent up to now is       16.1 secs

     total energy              =   -7856.84137648 Ry
     estimated scf accuracy    <      67.68382424 Ry

     iteration #  2     ecut=    60.00 Ry     beta= 0.22
     Davidson diagonalization with overlap
     ethr =  1.00E-02,  avg # of iterations =  2.0

     negative rho (up, down):  1.265E-02 0.000E+00

     total cpu time spent up to now is       23.5 secs

     total energy              =   -7861.09875752 Ry
     estimated scf accuracy    <     210.52669604 Ry

     iteration #  3     ecut=    60.00 Ry     beta= 0.22
     Davidson diagonalization with overlap
     ethr =  1.00E-02,  avg # of iterations =  1.0

     total cpu time spent up to now is       30.2 secs

     total energy              =   -7847.11756791 Ry
     estimated scf accuracy    <     278.64009333 Ry

     iteration #  4     ecut=    60.00 Ry     beta= 0.22
     Davidson diagonalization with overlap
     ethr =  1.00E-02,  avg # of iterations =  2.0

     total cpu time spent up to now is       38.1 secs

     total energy              =   -7840.22840166 Ry
     estimated scf accuracy    <     265.68785085 Ry

     iteration #  5     ecut=    60.00 Ry     beta= 0.22
     Davidson diagonalization with overlap
     ethr =  1.00E-02,  avg # of iterations =  4.2

     total cpu time spent up to now is       46.4 secs

     total energy              =   -7838.10111551 Ry
     estimated scf accuracy    <    1164.86441243 Ry

     iteration #  6     ecut=    60.00 Ry     beta= 0.22
     Davidson diagonalization with overlap
     ethr =  1.00E-02,  avg # of iterations =  3.4

     total cpu time spent up to now is       54.3 secs

     total energy              =   -7854.36795857 Ry
     estimated scf accuracy    <     180.85088235 Ry

     iteration #  7     ecut=    60.00 Ry     beta= 0.22
     Davidson diagonalization with overlap
     ethr =  1.00E-02,  avg # of iterations =  1.2

     negative rho (up, down):  2.763E-03 0.000E+00

     total cpu time spent up to now is       61.1 secs

     total energy              =   -7856.84872884 Ry
     estimated scf accuracy    <      70.80839082 Ry

     iteration #  8     ecut=    60.00 Ry     beta= 0.22
     Davidson diagonalization with overlap
     ethr =  1.00E-02,  avg # of iterations =  1.0

     negative rho (up, down):  1.106E-02 0.000E+00

     total cpu time spent up to now is       67.8 secs

     total energy              =   -7857.75688093 Ry
     estimated scf accuracy    <      39.15144093 Ry

     iteration #  9     ecut=    60.00 Ry     beta= 0.22
     Davidson diagonalization with overlap
     ethr =  1.00E-02,  avg # of iterations =  2.0

     negative rho (up, down):  2.118E-02 0.000E+00

     total cpu time spent up to now is       75.1 secs

     total energy              =   -7857.69708714 Ry
     estimated scf accuracy    <      59.52168255 Ry

     iteration # 10     ecut=    60.00 Ry     beta= 0.22
     Davidson diagonalization with overlap
     ethr =  1.00E-02,  avg # of iterations =  1.0

     negative rho (up, down):  1.963E-02 0.000E+00

     total cpu time spent up to now is       81.8 secs

     total energy              =   -7857.91364534 Ry
     estimated scf accuracy    <      60.27226685 Ry

     iteration # 11     ecut=    60.00 Ry     beta= 0.22
     Davidson diagonalization with overlap
     ethr =  1.00E-02,  avg # of iterations =  1.0

     negative rho (up, down):  1.708E-02 0.000E+00

     total cpu time spent up to now is       88.4 secs

     total energy              =   -7857.93685447 Ry
     estimated scf accuracy    <      54.41897817 Ry

     iteration # 12     ecut=    60.00 Ry     beta= 0.22
     Davidson diagonalization with overlap
     ethr =  1.00E-02,  avg # of iterations =  1.0

     negative rho (up, down):  1.935E-02 0.000E+00

     total cpu time spent up to now is       95.1 secs

     total energy              =   -7858.13356217 Ry
     estimated scf accuracy    <      49.10029982 Ry

     iteration # 13     ecut=    60.00 Ry     beta= 0.22
     Davidson diagonalization with overlap
     ethr =  1.00E-02,  avg # of iterations =  1.0

     negative rho (up, down):  2.021E-02 0.000E+00

     total cpu time spent up to now is      101.8 secs

     total energy              =   -7858.21694775 Ry
     estimated scf accuracy    <      59.20945149 Ry

     iteration # 14     ecut=    60.00 Ry     beta= 0.22
     Davidson diagonalization with overlap
     ethr =  1.00E-02,  avg # of iterations =  1.0

     negative rho (up, down):  2.210E-02 0.000E+00

     total cpu time spent up to now is      108.4 secs

     total energy              =   -7858.25041692 Ry
     estimated scf accuracy    <      65.37644938 Ry

     iteration # 15     ecut=    60.00 Ry     beta= 0.22
     Davidson diagonalization with overlap
     ethr =  1.00E-02,  avg # of iterations =  1.0

     negative rho (up, down):  2.259E-02 0.000E+00

     total cpu time spent up to now is      115.1 secs

     total energy              =   -7858.38805856 Ry
     estimated scf accuracy    <      73.11070784 Ry

     iteration # 16     ecut=    60.00 Ry     beta= 0.22
     Davidson diagonalization with overlap
     ethr =  1.00E-02,  avg # of iterations =  1.0

     negative rho (up, down):  2.349E-02 0.000E+00

     total cpu time spent up to now is      121.8 secs

     total energy              =   -7858.41239689 Ry
     estimated scf accuracy    <      73.86490277 Ry

     iteration # 17     ecut=    60.00 Ry     beta= 0.22
     Davidson diagonalization with overlap
     ethr =  1.00E-02,  avg # of iterations =  1.0

     negative rho (up, down):  3.147E-02 0.000E+00

     total cpu time spent up to now is      128.5 secs

     total energy              =   -7858.49003903 Ry
     estimated scf accuracy    <      74.30770985 Ry

     iteration # 18     ecut=    60.00 Ry     beta= 0.22
     Davidson diagonalization with overlap
     ethr =  1.00E-02,  avg # of iterations =  1.0

     negative rho (up, down):  4.255E-02 0.000E+00

     total cpu time spent up to now is      135.2 secs

     total energy              =   -7858.59177926 Ry
     estimated scf accuracy    <      80.57884278 Ry

     iteration # 19     ecut=    60.00 Ry     beta= 0.22
     Davidson diagonalization with overlap
     ethr =  1.00E-02,  avg # of iterations =  1.0

     negative rho (up, down):  4.826E-02 0.000E+00

     total cpu time spent up to now is      141.9 secs

     total energy              =   -7858.70115949 Ry
     estimated scf accuracy    <      86.16056758 Ry

     iteration # 20     ecut=    60.00 Ry     beta= 0.22
     Davidson diagonalization with overlap
     ethr =  1.00E-02,  avg # of iterations =  1.0

     negative rho (up, down):  6.562E-02 0.000E+00

     total cpu time spent up to now is      148.6 secs

     total energy              =   -7858.98354367 Ry
     estimated scf accuracy    <      92.10875415 Ry

     iteration # 21     ecut=    60.00 Ry     beta= 0.22
     Davidson diagonalization with overlap
     ethr =  1.00E-02,  avg # of iterations =  1.0

     negative rho (up, down):  8.045E-02 0.000E+00

     total cpu time spent up to now is      155.3 secs

     total energy              =   -7858.77281218 Ry
     estimated scf accuracy    <     116.28583359 Ry

     iteration # 22     ecut=    60.00 Ry     beta= 0.22
     Davidson diagonalization with overlap
     ethr =  1.00E-02,  avg # of iterations =  1.0

     negative rho (up, down):  9.619E-02 0.000E+00

     total cpu time spent up to now is      162.0 secs

     total energy              =   -7859.04996419 Ry
     estimated scf accuracy    <     103.87651499 Ry

     iteration # 23     ecut=    60.00 Ry     beta= 0.22
     Davidson diagonalization with overlap
     ethr =  1.00E-02,  avg # of iterations =  1.0

     negative rho (up, down):  9.607E-02 0.000E+00

     total cpu time spent up to now is      168.7 secs

     total energy              =   -7859.08441728 Ry
     estimated scf accuracy    <     116.21825500 Ry

     iteration # 24     ecut=    60.00 Ry     beta= 0.22
     Davidson diagonalization with overlap
     ethr =  1.00E-02,  avg # of iterations =  1.0

     negative rho (up, down):  1.246E-01 0.000E+00

     total cpu time spent up to now is      175.4 secs

     total energy              =   -7859.51245623 Ry
     estimated scf accuracy    <     117.36065547 Ry

     iteration # 25     ecut=    60.00 Ry     beta= 0.22
     Davidson diagonalization with overlap
     ethr =  1.00E-02,  avg # of iterations =  1.0

     negative rho (up, down):  1.011E-01 0.000E+00

     total cpu time spent up to now is      182.2 secs

     total energy              =   -7854.83744166 Ry
     estimated scf accuracy    <     147.25782126 Ry

     iteration # 26     ecut=    60.00 Ry     beta= 0.22
     Davidson diagonalization with overlap
     ethr =  1.00E-02,  avg # of iterations =  2.0

     negative rho (up, down):  4.741E-02 0.000E+00

     total cpu time spent up to now is      189.7 secs

     total energy              =   -7855.67046788 Ry
     estimated scf accuracy    <      68.33212653 Ry

     iteration # 27     ecut=    60.00 Ry     beta= 0.22
     Davidson diagonalization with overlap
     ethr =  1.00E-02,  avg # of iterations =  1.0

     negative rho (up, down):  3.062E-01 0.000E+00

     total cpu time spent up to now is      196.4 secs

     total energy              =   -7855.72299935 Ry
     estimated scf accuracy    <      48.92406789 Ry

     iteration # 28     ecut=    60.00 Ry     beta= 0.22
     Davidson diagonalization with overlap
     ethr =  1.00E-02,  avg # of iterations =  1.0

     negative rho (up, down):  2.155E-01 0.000E+00

     total cpu time spent up to now is      203.2 secs

     total energy              =   -7853.35775446 Ry
     estimated scf accuracy    <     221.22130524 Ry

     iteration # 29     ecut=    60.00 Ry     beta= 0.22
     Davidson diagonalization with overlap
     ethr =  1.00E-02,  avg # of iterations =  1.0

     negative rho (up, down):  2.379E-01 0.000E+00

     total cpu time spent up to now is      209.9 secs

     total energy              =   -7856.86828490 Ry
     estimated scf accuracy    <      45.49689554 Ry

     iteration # 30     ecut=    60.00 Ry     beta= 0.22
     Davidson diagonalization with overlap
     ethr =  1.00E-02,  avg # of iterations =  1.0

     negative rho (up, down):  2.874E-01 0.000E+00

     total cpu time spent up to now is      216.6 secs

     total energy              =   -7856.51217115 Ry
     estimated scf accuracy    <      56.17168486 Ry

     iteration # 31     ecut=    60.00 Ry     beta= 0.22
     Davidson diagonalization with overlap
     ethr =  1.00E-02,  avg # of iterations =  1.0

     negative rho (up, down):  3.705E-01 0.000E+00

     total cpu time spent up to now is      223.3 secs

     total energy              =   -7856.35519950 Ry
     estimated scf accuracy    <      46.67662218 Ry

     iteration # 32     ecut=    60.00 Ry     beta= 0.22
     Davidson diagonalization with overlap
     ethr =  1.00E-02,  avg # of iterations =  1.0

     negative rho (up, down):  5.010E-01 0.000E+00

     total cpu time spent up to now is      230.0 secs

     total energy              =   -7856.28515189 Ry
     estimated scf accuracy    <      29.71407709 Ry

     iteration # 33     ecut=    60.00 Ry     beta= 0.22
     Davidson diagonalization with overlap
     ethr =  8.30E-03,  avg # of iterations =  1.0

     negative rho (up, down):  4.326E-01 0.000E+00

     total cpu time spent up to now is      236.8 secs

     total energy              =   -7856.61283335 Ry
     estimated scf accuracy    <      61.68537340 Ry

     iteration # 34     ecut=    60.00 Ry     beta= 0.22
     Davidson diagonalization with overlap
     ethr =  8.30E-03,  avg # of iterations =  1.0

     negative rho (up, down):  3.211E-01 0.000E+00

     total cpu time spent up to now is      243.5 secs

     total energy              =   -7856.58898630 Ry
     estimated scf accuracy    <      56.24036019 Ry

     iteration # 35     ecut=    60.00 Ry     beta= 0.22
     Davidson diagonalization with overlap
     ethr =  8.30E-03,  avg # of iterations =  1.0

     negative rho (up, down):  3.875E-01 0.000E+00

     total cpu time spent up to now is      250.2 secs

     total energy              =   -7856.29033834 Ry
     estimated scf accuracy    <      47.34406156 Ry

     iteration # 36     ecut=    60.00 Ry     beta= 0.22
     Davidson diagonalization with overlap
     ethr =  8.30E-03,  avg # of iterations =  1.0

     negative rho (up, down):  3.106E-01 0.000E+00

     total cpu time spent up to now is      257.0 secs

     total energy              =   -7855.99117520 Ry
     estimated scf accuracy    <      42.71918117 Ry

     iteration # 37     ecut=    60.00 Ry     beta= 0.22
     Davidson diagonalization with overlap
     ethr =  8.30E-03,  avg # of iterations =  1.8

     negative rho (up, down):  3.537E-01 0.000E+00

     total cpu time spent up to now is      264.3 secs

     total energy              =   -7854.99470422 Ry
     estimated scf accuracy    <      67.30567767 Ry

     iteration # 38     ecut=    60.00 Ry     beta= 0.22
     Davidson diagonalization with overlap
     ethr =  8.30E-03,  avg # of iterations =  1.0

     negative rho (up, down):  3.942E-01 0.000E+00

     total cpu time spent up to now is      271.0 secs

     total energy              =   -7855.36564621 Ry
     estimated scf accuracy    <      41.55306181 Ry

     iteration # 39     ecut=    60.00 Ry     beta= 0.22
     Davidson diagonalization with overlap
     ethr =  8.30E-03,  avg # of iterations =  1.0

     negative rho (up, down):  4.292E-01 0.000E+00

     total cpu time spent up to now is      277.7 secs

     total energy              =   -7856.04497130 Ry
     estimated scf accuracy    <      19.84601700 Ry

     iteration # 40     ecut=    60.00 Ry     beta= 0.22
     Davidson diagonalization with overlap
     ethr =  5.54E-03,  avg # of iterations =  1.0

     negative rho (up, down):  5.099E-01 0.000E+00

     total cpu time spent up to now is      284.4 secs

     total energy              =   -7855.87285254 Ry
     estimated scf accuracy    <      17.47879059 Ry

     iteration # 41     ecut=    60.00 Ry     beta= 0.22
     Davidson diagonalization with overlap
     ethr =  4.88E-03,  avg # of iterations =  1.0

     negative rho (up, down):  4.821E-01 0.000E+00

     total cpu time spent up to now is      291.1 secs

     total energy              =   -7856.17495249 Ry
     estimated scf accuracy    <      17.31360209 Ry

     iteration # 42     ecut=    60.00 Ry     beta= 0.22
     Davidson diagonalization with overlap
     ethr =  4.84E-03,  avg # of iterations =  1.0

     negative rho (up, down):  4.825E-01 0.000E+00

     total cpu time spent up to now is      297.8 secs

     total energy              =   -7856.17180746 Ry
     estimated scf accuracy    <      22.14291141 Ry

     iteration # 43     ecut=    60.00 Ry     beta= 0.22
     Davidson diagonalization with overlap
     ethr =  4.84E-03,  avg # of iterations =  1.0

     negative rho (up, down):  4.768E-01 0.000E+00

     total cpu time spent up to now is      304.5 secs

     total energy              =   -7856.04489245 Ry
     estimated scf accuracy    <      18.92907880 Ry

     iteration # 44     ecut=    60.00 Ry     beta= 0.22
     Davidson diagonalization with overlap
     ethr =  4.84E-03,  avg # of iterations =  1.0

     negative rho (up, down):  5.229E-01 0.000E+00

     total cpu time spent up to now is      311.3 secs

     total energy              =   -7855.96682658 Ry
     estimated scf accuracy    <      14.40963121 Ry

     iteration # 45     ecut=    60.00 Ry     beta= 0.22
     Davidson diagonalization with overlap
     ethr =  4.03E-03,  avg # of iterations =  1.2

     negative rho (up, down):  5.336E-01 0.000E+00

     total cpu time spent up to now is      318.1 secs

     total energy              =   -7855.80817161 Ry
     estimated scf accuracy    <      22.71260918 Ry

     iteration # 46     ecut=    60.00 Ry     beta= 0.22
     Davidson diagonalization with overlap
     ethr =  4.03E-03,  avg # of iterations =  1.0

     negative rho (up, down):  4.920E-01 0.000E+00

     total cpu time spent up to now is      324.9 secs

     total energy              =   -7855.98794499 Ry
     estimated scf accuracy    <      17.52194675 Ry

     iteration # 47     ecut=    60.00 Ry     beta= 0.22
     Davidson diagonalization with overlap
     ethr =  4.03E-03,  avg # of iterations =  1.0

     negative rho (up, down):  5.743E-01 0.000E+00

     total cpu time spent up to now is      331.6 secs

     total energy              =   -7856.08941403 Ry
     estimated scf accuracy    <      12.93047403 Ry

     iteration # 48     ecut=    60.00 Ry     beta= 0.22
     Davidson diagonalization with overlap
     ethr =  3.61E-03,  avg # of iterations =  1.0

     negative rho (up, down):  5.391E-01 0.000E+00

     total cpu time spent up to now is      338.3 secs

     total energy              =   -7855.96031230 Ry
     estimated scf accuracy    <      19.73601770 Ry

     iteration # 49     ecut=    60.00 Ry     beta= 0.22
     Davidson diagonalization with overlap
     ethr =  3.61E-03,  avg # of iterations =  1.0

     negative rho (up, down):  4.843E-01 0.000E+00

     total cpu time spent up to now is      345.0 secs

     total energy              =   -7856.13713770 Ry
     estimated scf accuracy    <      15.68651294 Ry

     iteration # 50     ecut=    60.00 Ry     beta= 0.22
     Davidson diagonalization with overlap
     ethr =  3.61E-03,  avg # of iterations =  1.0

     negative rho (up, down):  5.431E-01 0.000E+00

     total cpu time spent up to now is      351.7 secs

     total energy              =   -7855.91305213 Ry
     estimated scf accuracy    <      18.17987034 Ry

     iteration # 51     ecut=    60.00 Ry     beta= 0.22
     Davidson diagonalization with overlap
     ethr =  3.61E-03,  avg # of iterations =  1.0

     negative rho (up, down):  5.134E-01 0.000E+00

     total cpu time spent up to now is      358.4 secs

     total energy              =   -7856.02042670 Ry
     estimated scf accuracy    <      15.48378078 Ry

     iteration # 52     ecut=    60.00 Ry     beta= 0.22
     Davidson diagonalization with overlap
     ethr =  3.61E-03,  avg # of iterations =  1.0

     negative rho (up, down):  4.798E-01 0.000E+00

     total cpu time spent up to now is      365.2 secs

     total energy              =   -7855.81036816 Ry
     estimated scf accuracy    <      26.79640044 Ry

     iteration # 53     ecut=    60.00 Ry     beta= 0.22
     Davidson diagonalization with overlap
     ethr =  3.61E-03,  avg # of iterations =  1.0

     negative rho (up, down):  5.535E-01 0.000E+00

     total cpu time spent up to now is      371.9 secs

     total energy              =   -7855.52564844 Ry
     estimated scf accuracy    <      27.96827424 Ry

     iteration # 54     ecut=    60.00 Ry     beta= 0.22
     Davidson diagonalization with overlap
     ethr =  3.61E-03,  avg # of iterations =  1.0

     negative rho (up, down):  6.368E-01 0.000E+00

     total cpu time spent up to now is      378.6 secs

     total energy              =   -7855.61185473 Ry
     estimated scf accuracy    <      18.65431428 Ry

     iteration # 55     ecut=    60.00 Ry     beta= 0.22
     Davidson diagonalization with overlap
     ethr =  3.61E-03,  avg # of iterations =  1.0

     negative rho (up, down):  5.168E-01 0.000E+00

     total cpu time spent up to now is      385.3 secs

     total energy              =   -7855.82016378 Ry
     estimated scf accuracy    <      19.75286752 Ry

     iteration # 56     ecut=    60.00 Ry     beta= 0.22
     Davidson diagonalization with overlap
     ethr =  3.61E-03,  avg # of iterations =  1.8

     negative rho (up, down):  5.879E-01 0.000E+00

     total cpu time spent up to now is      392.6 secs

     total energy              =   -7855.82334355 Ry
     estimated scf accuracy    <      12.36437481 Ry

     iteration # 57     ecut=    60.00 Ry     beta= 0.22
     Davidson diagonalization with overlap
     ethr =  3.45E-03,  avg # of iterations =  1.0

     negative rho (up, down):  6.030E-01 0.000E+00

     total cpu time spent up to now is      399.3 secs

     total energy              =   -7855.92604330 Ry
     estimated scf accuracy    <      16.89734500 Ry

     iteration # 58     ecut=    60.00 Ry     beta= 0.22
     Davidson diagonalization with overlap
     ethr =  3.45E-03,  avg # of iterations =  1.0

     negative rho (up, down):  5.529E-01 0.000E+00

     total cpu time spent up to now is      406.0 secs

     total energy              =   -7855.82623212 Ry
     estimated scf accuracy    <      12.40960784 Ry

     iteration # 59     ecut=    60.00 Ry     beta= 0.22
     Davidson diagonalization with overlap
     ethr =  3.45E-03,  avg # of iterations =  1.0

     negative rho (up, down):  5.315E-01 0.000E+00

     total cpu time spent up to now is      412.7 secs

     total energy              =   -7855.78553112 Ry
     estimated scf accuracy    <      18.77827409 Ry

     iteration # 60     ecut=    60.00 Ry     beta= 0.22
     Davidson diagonalization with overlap
     ethr =  3.45E-03,  avg # of iterations =  1.0

     negative rho (up, down):  5.180E-01 0.000E+00

     total cpu time spent up to now is      419.4 secs

     total energy              =   -7855.88687413 Ry
     estimated scf accuracy    <      10.48319894 Ry

     iteration # 61     ecut=    60.00 Ry     beta= 0.22
     Davidson diagonalization with overlap
     ethr =  2.93E-03,  avg # of iterations =  1.0

     negative rho (up, down):  5.090E-01 0.000E+00

     total cpu time spent up to now is      426.2 secs

     total energy              =   -7855.97118264 Ry
     estimated scf accuracy    <       9.71392819 Ry

     iteration # 62     ecut=    60.00 Ry     beta= 0.22
     Davidson diagonalization with overlap
     ethr =  2.71E-03,  avg # of iterations =  1.0

     negative rho (up, down):  4.981E-01 0.000E+00

     total cpu time spent up to now is      432.9 secs

     total energy              =   -7856.03532971 Ry
     estimated scf accuracy    <       8.76851312 Ry

     iteration # 63     ecut=    60.00 Ry     beta= 0.22
     Davidson diagonalization with overlap
     ethr =  2.45E-03,  avg # of iterations =  1.0

     negative rho (up, down):  4.865E-01 0.000E+00

     total cpu time spent up to now is      439.6 secs

     total energy              =   -7856.02079991 Ry
     estimated scf accuracy    <      11.01107741 Ry

     iteration # 64     ecut=    60.00 Ry     beta= 0.22
     Davidson diagonalization with overlap
     ethr =  2.45E-03,  avg # of iterations =  1.0

     negative rho (up, down):  4.581E-01 0.000E+00

     total cpu time spent up to now is      446.3 secs

     total energy              =   -7856.06114421 Ry
     estimated scf accuracy    <      10.36725418 Ry

     iteration # 65     ecut=    60.00 Ry     beta= 0.22
     Davidson diagonalization with overlap
     ethr =  2.45E-03,  avg # of iterations =  1.0

     negative rho (up, down):  5.203E-01 0.000E+00

     total cpu time spent up to now is      453.1 secs

     total energy              =   -7855.89749373 Ry
     estimated scf accuracy    <      10.83339673 Ry

     iteration # 66     ecut=    60.00 Ry     beta= 0.22
     Davidson diagonalization with overlap
     ethr =  2.45E-03,  avg # of iterations =  2.0

     negative rho (up, down):  4.863E-01 0.000E+00

     total cpu time spent up to now is      460.5 secs

     total energy              =   -7855.92185775 Ry
     estimated scf accuracy    <      16.47402126 Ry

     iteration # 67     ecut=    60.00 Ry     beta= 0.22
     Davidson diagonalization with overlap
     ethr =  2.45E-03,  avg # of iterations =  1.2

     negative rho (up, down):  4.760E-01 0.000E+00

     total cpu time spent up to now is      467.3 secs

     total energy              =   -7855.96980041 Ry
     estimated scf accuracy    <      11.03470455 Ry

     iteration # 68     ecut=    60.00 Ry     beta= 0.22
     Davidson diagonalization with overlap
     ethr =  2.45E-03,  avg # of iterations =  1.0

     negative rho (up, down):  4.649E-01 0.000E+00

     total cpu time spent up to now is      474.1 secs

     total energy              =   -7856.00079426 Ry
     estimated scf accuracy    <       8.77138795 Ry

     iteration # 69     ecut=    60.00 Ry     beta= 0.22
     Davidson diagonalization with overlap
     ethr =  2.45E-03,  avg # of iterations =  1.0

     negative rho (up, down):  4.008E-01 0.000E+00

     total cpu time spent up to now is      480.8 secs

     total energy              =   -7855.90669048 Ry
     estimated scf accuracy    <       6.53306532 Ry

     iteration # 70     ecut=    60.00 Ry     beta= 0.22
     Davidson diagonalization with overlap
     ethr =  1.82E-03,  avg # of iterations =  1.0

     negative rho (up, down):  3.013E-01 0.000E+00

     total cpu time spent up to now is      487.5 secs

     total energy              =   -7855.89507537 Ry
     estimated scf accuracy    <       5.86991413 Ry

     iteration # 71     ecut=    60.00 Ry     beta= 0.22
     Davidson diagonalization with overlap
     ethr =  1.64E-03,  avg # of iterations =  2.0

     negative rho (up, down):  2.939E-01 0.000E+00

     total cpu time spent up to now is      494.9 secs

     total energy              =   -7856.15854656 Ry
     estimated scf accuracy    <      10.23343187 Ry

     iteration # 72     ecut=    60.00 Ry     beta= 0.22
     Davidson diagonalization with overlap
     ethr =  1.64E-03,  avg # of iterations =  1.0

     negative rho (up, down):  2.630E-01 0.000E+00

     total cpu time spent up to now is      501.7 secs

     total energy              =   -7856.09204859 Ry
     estimated scf accuracy    <       8.84576832 Ry

     iteration # 73     ecut=    60.00 Ry     beta= 0.22
     Davidson diagonalization with overlap
     ethr =  1.64E-03,  avg # of iterations =  1.0

     negative rho (up, down):  3.151E-01 0.000E+00

     total cpu time spent up to now is      508.4 secs

     total energy              =   -7855.92345899 Ry
     estimated scf accuracy    <       5.83531817 Ry

     iteration # 74     ecut=    60.00 Ry     beta= 0.22
     Davidson diagonalization with overlap
     ethr =  1.63E-03,  avg # of iterations =  1.4

     negative rho (up, down):  2.615E-01 0.000E+00

     total cpu time spent up to now is      515.4 secs

     total energy              =   -7855.91456707 Ry
     estimated scf accuracy    <       4.91491945 Ry

     iteration # 75     ecut=    60.00 Ry     beta= 0.22
     Davidson diagonalization with overlap
     ethr =  1.37E-03,  avg # of iterations =  2.0

     negative rho (up, down):  2.521E-01 0.000E+00

     total cpu time spent up to now is      522.8 secs

     total energy              =   -7855.91097057 Ry
     estimated scf accuracy    <       7.90679061 Ry

     iteration # 76     ecut=    60.00 Ry     beta= 0.22
     Davidson diagonalization with overlap
     ethr =  1.37E-03,  avg # of iterations =  1.0

     negative rho (up, down):  2.438E-01 0.000E+00

     total cpu time spent up to now is      529.5 secs

     total energy              =   -7856.05918498 Ry
     estimated scf accuracy    <       2.26719894 Ry

     iteration # 77     ecut=    60.00 Ry     beta= 0.22
     Davidson diagonalization with overlap
     ethr =  6.33E-04,  avg # of iterations =  1.0

     negative rho (up, down):  2.564E-01 0.000E+00

     total cpu time spent up to now is      536.2 secs

     total energy              =   -7856.04131186 Ry
     estimated scf accuracy    <       2.37166856 Ry

     iteration # 78     ecut=    60.00 Ry     beta= 0.22
     Davidson diagonalization with overlap
     ethr =  6.33E-04,  avg # of iterations =  1.0

     negative rho (up, down):  2.615E-01 0.000E+00

     total cpu time spent up to now is      542.9 secs

     total energy              =   -7856.03190004 Ry
     estimated scf accuracy    <       2.47447713 Ry

     iteration # 79     ecut=    60.00 Ry     beta= 0.22
     Davidson diagonalization with overlap
     ethr =  6.33E-04,  avg # of iterations =  1.2

     negative rho (up, down):  2.479E-01 0.000E+00

     total cpu time spent up to now is      549.8 secs

     total energy              =   -7856.01786367 Ry
     estimated scf accuracy    <       3.26792263 Ry

     iteration # 80     ecut=    60.00 Ry     beta= 0.22
     Davidson diagonalization with overlap
     ethr =  6.33E-04,  avg # of iterations =  1.0

     negative rho (up, down):  2.349E-01 0.000E+00

     total cpu time spent up to now is      556.5 secs

     total energy              =   -7856.04348495 Ry
     estimated scf accuracy    <       1.75274938 Ry

     iteration # 81     ecut=    60.00 Ry     beta= 0.22
     Davidson diagonalization with overlap
     ethr =  4.90E-04,  avg # of iterations =  1.0

     negative rho (up, down):  2.388E-01 0.000E+00

     total cpu time spent up to now is      563.3 secs

     total energy              =   -7856.03576190 Ry
     estimated scf accuracy    <       2.61890495 Ry

     iteration # 82     ecut=    60.00 Ry     beta= 0.22
     Davidson diagonalization with overlap
     ethr =  4.90E-04,  avg # of iterations =  1.2

     negative rho (up, down):  2.449E-01 0.000E+00

     total cpu time spent up to now is      570.1 secs

     total energy              =   -7856.04669580 Ry
     estimated scf accuracy    <       2.08821068 Ry

     iteration # 83     ecut=    60.00 Ry     beta= 0.22
     Davidson diagonalization with overlap
     ethr =  4.90E-04,  avg # of iterations =  1.0

     negative rho (up, down):  2.440E-01 0.000E+00

     total cpu time spent up to now is      576.8 secs

     total energy              =   -7856.04936443 Ry
     estimated scf accuracy    <       1.90685010 Ry

     iteration # 84     ecut=    60.00 Ry     beta= 0.22
     Davidson diagonalization with overlap
     ethr =  4.90E-04,  avg # of iterations =  1.0

     negative rho (up, down):  2.339E-01 0.000E+00

     total cpu time spent up to now is      583.6 secs

     total energy              =   -7856.04528638 Ry
     estimated scf accuracy    <       2.22053472 Ry

     iteration # 85     ecut=    60.00 Ry     beta= 0.22
     Davidson diagonalization with overlap
     ethr =  4.90E-04,  avg # of iterations =  1.0

     negative rho (up, down):  2.375E-01 0.000E+00

     total cpu time spent up to now is      590.3 secs

     total energy              =   -7856.05691001 Ry
     estimated scf accuracy    <       1.58311251 Ry

     iteration # 86     ecut=    60.00 Ry     beta= 0.22
     Davidson diagonalization with overlap
     ethr =  4.42E-04,  avg # of iterations =  1.0

     negative rho (up, down):  2.334E-01 0.000E+00

     total cpu time spent up to now is      597.0 secs

     total energy              =   -7856.06625810 Ry
     estimated scf accuracy    <       1.50100418 Ry

     iteration # 87     ecut=    60.00 Ry     beta= 0.22
     Davidson diagonalization with overlap
     ethr =  4.19E-04,  avg # of iterations =  1.0

     negative rho (up, down):  2.385E-01 0.000E+00

     total cpu time spent up to now is      603.7 secs

     total energy              =   -7856.05351650 Ry
     estimated scf accuracy    <       1.88930618 Ry

     iteration # 88     ecut=    60.00 Ry     beta= 0.22
     Davidson diagonalization with overlap
     ethr =  4.19E-04,  avg # of iterations =  1.0

     negative rho (up, down):  2.423E-01 0.000E+00

     total cpu time spent up to now is      610.4 secs

     total energy              =   -7856.05955592 Ry
     estimated scf accuracy    <       1.69766162 Ry

     iteration # 89     ecut=    60.00 Ry     beta= 0.22
     Davidson diagonalization with overlap
     ethr =  4.19E-04,  avg # of iterations =  1.0

     negative rho (up, down):  2.333E-01 0.000E+00

     total cpu time spent up to now is      617.2 secs

     total energy              =   -7856.05334600 Ry
     estimated scf accuracy    <       1.91252742 Ry

     iteration # 90     ecut=    60.00 Ry     beta= 0.22
     Davidson diagonalization with overlap
     ethr =  4.19E-04,  avg # of iterations =  1.0

     negative rho (up, down):  2.409E-01 0.000E+00

     total cpu time spent up to now is      623.9 secs

     total energy              =   -7856.04058503 Ry
     estimated scf accuracy    <       2.34170431 Ry

     iteration # 91     ecut=    60.00 Ry     beta= 0.22
     Davidson diagonalization with overlap
     ethr =  4.19E-04,  avg # of iterations =  1.0

     negative rho (up, down):  2.459E-01 0.000E+00

     total cpu time spent up to now is      630.6 secs

     total energy              =   -7856.04590281 Ry
     estimated scf accuracy    <       1.87551328 Ry

     iteration # 92     ecut=    60.00 Ry     beta= 0.22
     Davidson diagonalization with overlap
     ethr =  4.19E-04,  avg # of iterations =  1.0

     negative rho (up, down):  2.501E-01 0.000E+00

     total cpu time spent up to now is      637.3 secs

     total energy              =   -7856.00632038 Ry
     estimated scf accuracy    <       2.22423365 Ry

     iteration # 93     ecut=    60.00 Ry     beta= 0.22
     Davidson diagonalization with overlap
     ethr =  4.19E-04,  avg # of iterations =  1.8

     negative rho (up, down):  2.256E-01 0.000E+00

     total cpu time spent up to now is      644.6 secs

     total energy              =   -7856.00370589 Ry
     estimated scf accuracy    <       1.76771893 Ry

     iteration # 94     ecut=    60.00 Ry     beta= 0.22
     Davidson diagonalization with overlap
     ethr =  4.19E-04,  avg # of iterations =  2.0

     negative rho (up, down):  2.318E-01 0.000E+00

     total cpu time spent up to now is      652.2 secs

     total energy              =   -7855.95882969 Ry
     estimated scf accuracy    <       3.95927784 Ry

     iteration # 95     ecut=    60.00 Ry     beta= 0.22
     Davidson diagonalization with overlap
     ethr =  4.19E-04,  avg # of iterations =  1.8

     negative rho (up, down):  2.389E-01 0.000E+00

     total cpu time spent up to now is      659.5 secs

     total energy              =   -7856.02288645 Ry
     estimated scf accuracy    <       1.23987225 Ry

     iteration # 96     ecut=    60.00 Ry     beta= 0.22
     Davidson diagonalization with overlap
     ethr =  3.46E-04,  avg # of iterations =  1.8

     negative rho (up, down):  2.264E-01 0.000E+00

     total cpu time spent up to now is      666.8 secs

     total energy              =   -7856.00546243 Ry
     estimated scf accuracy    <       2.19340618 Ry

     iteration # 97     ecut=    60.00 Ry     beta= 0.22
     Davidson diagonalization with overlap
     ethr =  3.46E-04,  avg # of iterations =  1.2

     negative rho (up, down):  2.290E-01 0.000E+00

     total cpu time spent up to now is      673.7 secs

     total energy              =   -7856.04713823 Ry
     estimated scf accuracy    <       0.72440426 Ry

     iteration # 98     ecut=    60.00 Ry     beta= 0.22
     Davidson diagonalization with overlap
     ethr =  2.02E-04,  avg # of iterations =  1.0

     negative rho (up, down):  2.266E-01 0.000E+00

     total cpu time spent up to now is      680.4 secs

     total energy              =   -7856.05241893 Ry
     estimated scf accuracy    <       0.52256310 Ry

     iteration # 99     ecut=    60.00 Ry     beta= 0.22
     Davidson diagonalization with overlap
     ethr =  1.46E-04,  avg # of iterations =  1.0

     negative rho (up, down):  2.232E-01 0.000E+00

     total cpu time spent up to now is      687.1 secs

     total energy              =   -7856.05082319 Ry
     estimated scf accuracy    <       0.57173529 Ry

     iteration #100     ecut=    60.00 Ry     beta= 0.22
     Davidson diagonalization with overlap
     ethr =  1.46E-04,  avg # of iterations =  1.2

     negative rho (up, down):  2.207E-01 0.000E+00

     total cpu time spent up to now is      694.0 secs

     total energy              =   -7856.04938796 Ry
     estimated scf accuracy    <       0.82348562 Ry

     iteration #101     ecut=    60.00 Ry     beta= 0.22
     Davidson diagonalization with overlap
     ethr =  1.46E-04,  avg # of iterations =  1.0

     negative rho (up, down):  2.218E-01 0.000E+00

     total cpu time spent up to now is      700.7 secs

     total energy              =   -7856.05868372 Ry
     estimated scf accuracy    <       0.51294248 Ry

     iteration #102     ecut=    60.00 Ry     beta= 0.22
     Davidson diagonalization with overlap
     ethr =  1.43E-04,  avg # of iterations =  1.0

     negative rho (up, down):  2.208E-01 0.000E+00

     total cpu time spent up to now is      707.5 secs

     total energy              =   -7856.06511769 Ry
     estimated scf accuracy    <       0.51460924 Ry

     iteration #103     ecut=    60.00 Ry     beta= 0.22
     Davidson diagonalization with overlap
     ethr =  1.43E-04,  avg # of iterations =  1.0

     negative rho (up, down):  2.231E-01 0.000E+00

     total cpu time spent up to now is      714.2 secs

     total energy              =   -7856.04535113 Ry
     estimated scf accuracy    <       0.63568437 Ry

     iteration #104     ecut=    60.00 Ry     beta= 0.22
     Davidson diagonalization with overlap
     ethr =  1.43E-04,  avg # of iterations =  2.0

     negative rho (up, down):  2.164E-01 0.000E+00

     total cpu time spent up to now is      721.7 secs

     total energy              =   -7856.04433104 Ry
     estimated scf accuracy    <       0.59600814 Ry

     iteration #105     ecut=    60.00 Ry     beta= 0.22
     Davidson diagonalization with overlap
     ethr =  1.43E-04,  avg # of iterations =  2.0

     negative rho (up, down):  2.187E-01 0.000E+00

     total cpu time spent up to now is      729.3 secs

     total energy              =   -7856.05761516 Ry
     estimated scf accuracy    <       1.00126360 Ry

     iteration #106     ecut=    60.00 Ry     beta= 0.22
     Davidson diagonalization with overlap
     ethr =  1.43E-04,  avg # of iterations =  1.0

     negative rho (up, down):  2.185E-01 0.000E+00

     total cpu time spent up to now is      736.0 secs

     total energy              =   -7856.06531157 Ry
     estimated scf accuracy    <       0.50120476 Ry

     iteration #107     ecut=    60.00 Ry     beta= 0.22
     Davidson diagonalization with overlap
     ethr =  1.40E-04,  avg # of iterations =  1.0

     negative rho (up, down):  2.174E-01 0.000E+00

     total cpu time spent up to now is      742.8 secs

     total energy              =   -7856.06081967 Ry
     estimated scf accuracy    <       0.43975149 Ry

     iteration #108     ecut=    60.00 Ry     beta= 0.22
     Davidson diagonalization with overlap
     ethr =  1.23E-04,  avg # of iterations =  1.2

     negative rho (up, down):  2.144E-01 0.000E+00

     total cpu time spent up to now is      749.6 secs

     total energy              =   -7856.06398880 Ry
     estimated scf accuracy    <       0.28190158 Ry

     iteration #109     ecut=    60.00 Ry     beta= 0.22
     Davidson diagonalization with overlap
     ethr =  7.87E-05,  avg # of iterations =  1.0

     negative rho (up, down):  2.157E-01 0.000E+00

     total cpu time spent up to now is      756.4 secs

     total energy              =   -7856.06274591 Ry
     estimated scf accuracy    <       0.27282699 Ry

     iteration #110     ecut=    60.00 Ry     beta= 0.22
     Davidson diagonalization with overlap
     ethr =  7.62E-05,  avg # of iterations =  2.0

     negative rho (up, down):  2.140E-01 0.000E+00

     total cpu time spent up to now is      763.8 secs

     total energy              =   -7856.05007535 Ry
     estimated scf accuracy    <       0.66784940 Ry

     iteration #111     ecut=    60.00 Ry     beta= 0.22
     Davidson diagonalization with overlap
     ethr =  7.62E-05,  avg # of iterations =  2.0

     negative rho (up, down):  2.154E-01 0.000E+00

     total cpu time spent up to now is      771.3 secs

     total energy              =   -7856.04692250 Ry
     estimated scf accuracy    <       0.98328835 Ry

     iteration #112     ecut=    60.00 Ry     beta= 0.22
     Davidson diagonalization with overlap
     ethr =  7.62E-05,  avg # of iterations =  2.0

     negative rho (up, down):  2.168E-01 0.000E+00

     total cpu time spent up to now is      778.7 secs

     total energy              =   -7856.06220296 Ry
     estimated scf accuracy    <       0.30770129 Ry

     iteration #113     ecut=    60.00 Ry     beta= 0.22
     Davidson diagonalization with overlap
     ethr =  7.62E-05,  avg # of iterations =  1.0

     negative rho (up, down):  2.141E-01 0.000E+00

     total cpu time spent up to now is      785.5 secs

     total energy              =   -7856.06934134 Ry
     estimated scf accuracy    <       0.38481970 Ry

     iteration #114     ecut=    60.00 Ry     beta= 0.22
     Davidson diagonalization with overlap
     ethr =  7.62E-05,  avg # of iterations =  1.2

     negative rho (up, down):  2.133E-01 0.000E+00

     total cpu time spent up to now is      792.3 secs

     total energy              =   -7856.07166695 Ry
     estimated scf accuracy    <       0.62137005 Ry

     iteration #115     ecut=    60.00 Ry     beta= 0.22
     Davidson diagonalization with overlap
     ethr =  7.62E-05,  avg # of iterations =  1.2

     negative rho (up, down):  2.151E-01 0.000E+00

     total cpu time spent up to now is      799.2 secs

     total energy              =   -7856.06494594 Ry
     estimated scf accuracy    <       0.75177565 Ry

     iteration #116     ecut=    60.00 Ry     beta= 0.22
     Davidson diagonalization with overlap
     ethr =  7.62E-05,  avg # of iterations =  1.6

     negative rho (up, down):  2.142E-01 0.000E+00

     total cpu time spent up to now is      806.3 secs

     total energy              =   -7856.06988957 Ry
     estimated scf accuracy    <       0.51163979 Ry

     iteration #117     ecut=    60.00 Ry     beta= 0.22
     Davidson diagonalization with overlap
     ethr =  7.62E-05,  avg # of iterations =  1.0

     negative rho (up, down):  2.147E-01 0.000E+00

     total cpu time spent up to now is      813.0 secs

     total energy              =   -7856.06299873 Ry
     estimated scf accuracy    <       0.60897817 Ry

     iteration #118     ecut=    60.00 Ry     beta= 0.22
     Davidson diagonalization with overlap
     ethr =  7.62E-05,  avg # of iterations =  1.0

     negative rho (up, down):  2.135E-01 0.000E+00

     total cpu time spent up to now is      819.8 secs

     total energy              =   -7856.06247700 Ry
     estimated scf accuracy    <       0.51318312 Ry

     iteration #119     ecut=    60.00 Ry     beta= 0.22
     Davidson diagonalization with overlap
     ethr =  7.62E-05,  avg # of iterations =  1.0

     negative rho (up, down):  2.145E-01 0.000E+00

     total cpu time spent up to now is      826.5 secs

     total energy              =   -7856.06553822 Ry
     estimated scf accuracy    <       0.25865327 Ry

     iteration #120     ecut=    60.00 Ry     beta= 0.22
     Davidson diagonalization with overlap
     ethr =  7.22E-05,  avg # of iterations =  1.0

     negative rho (up, down):  2.155E-01 0.000E+00

     total cpu time spent up to now is      833.2 secs

     total energy              =   -7856.06377154 Ry
     estimated scf accuracy    <       0.31422558 Ry

     iteration #121     ecut=    60.00 Ry     beta= 0.22
     Davidson diagonalization with overlap
     ethr =  7.22E-05,  avg # of iterations =  1.0

     negative rho (up, down):  2.151E-01 0.000E+00

     total cpu time spent up to now is      839.9 secs

     total energy              =   -7856.06182917 Ry
     estimated scf accuracy    <       0.36996710 Ry

     iteration #122     ecut=    60.00 Ry     beta= 0.22
     Davidson diagonalization with overlap
     ethr =  7.22E-05,  avg # of iterations =  1.2

     negative rho (up, down):  2.163E-01 0.000E+00

     total cpu time spent up to now is      846.8 secs

     total energy              =   -7856.06279108 Ry
     estimated scf accuracy    <       0.29280562 Ry

     iteration #123     ecut=    60.00 Ry     beta= 0.22
     Davidson diagonalization with overlap
     ethr =  7.22E-05,  avg # of iterations =  1.0

     negative rho (up, down):  2.161E-01 0.000E+00

     total cpu time spent up to now is      853.5 secs

     total energy              =   -7856.06276281 Ry
     estimated scf accuracy    <       0.25743168 Ry

     iteration #124     ecut=    60.00 Ry     beta= 0.22
     Davidson diagonalization with overlap
     ethr =  7.19E-05,  avg # of iterations =  1.0

     negative rho (up, down):  2.151E-01 0.000E+00

     total cpu time spent up to now is      860.2 secs

     total energy              =   -7856.06304184 Ry
     estimated scf accuracy    <       0.17378869 Ry

     iteration #125     ecut=    60.00 Ry     beta= 0.22
     Davidson diagonalization with overlap
     ethr =  4.85E-05,  avg # of iterations =  1.0

     negative rho (up, down):  2.167E-01 0.000E+00

     total cpu time spent up to now is      867.0 secs

     total energy              =   -7856.05633835 Ry
     estimated scf accuracy    <       0.19150973 Ry

     iteration #126     ecut=    60.00 Ry     beta= 0.22
     Davidson diagonalization with overlap
     ethr =  4.85E-05,  avg # of iterations =  2.0

     negative rho (up, down):  2.159E-01 0.000E+00

     total cpu time spent up to now is      874.5 secs

     total energy              =   -7856.05073271 Ry
     estimated scf accuracy    <       0.55617375 Ry

     iteration #127     ecut=    60.00 Ry     beta= 0.22
     Davidson diagonalization with overlap
     ethr =  4.85E-05,  avg # of iterations =  1.6

     negative rho (up, down):  2.170E-01 0.000E+00

     total cpu time spent up to now is      881.7 secs

     total energy              =   -7856.05764261 Ry
     estimated scf accuracy    <       0.14780299 Ry

     iteration #128     ecut=    60.00 Ry     beta= 0.22
     Davidson diagonalization with overlap
     ethr =  4.13E-05,  avg # of iterations =  1.2

     negative rho (up, down):  2.161E-01 0.000E+00

     total cpu time spent up to now is      888.6 secs

     total energy              =   -7856.05952228 Ry
     estimated scf accuracy    <       0.08618615 Ry

     iteration #129     ecut=    60.00 Ry     beta= 0.22
     Davidson diagonalization with overlap
     ethr =  2.41E-05,  avg # of iterations =  1.0

     negative rho (up, down):  2.162E-01 0.000E+00

     total cpu time spent up to now is      895.3 secs

     total energy              =   -7856.05973913 Ry
     estimated scf accuracy    <       0.08211429 Ry

     iteration #130     ecut=    60.00 Ry     beta= 0.22
     Davidson diagonalization with overlap
     ethr =  2.29E-05,  avg # of iterations =  1.0

     negative rho (up, down):  2.156E-01 0.000E+00

     total cpu time spent up to now is      902.0 secs

     total energy              =   -7856.06053036 Ry
     estimated scf accuracy    <       0.04979304 Ry

     iteration #131     ecut=    60.00 Ry     beta= 0.22
     Davidson diagonalization with overlap
     ethr =  1.39E-05,  avg # of iterations =  1.0

     negative rho (up, down):  2.156E-01 0.000E+00

     total cpu time spent up to now is      908.8 secs

     total energy              =   -7856.06109544 Ry
     estimated scf accuracy    <       0.04045798 Ry

     iteration #132     ecut=    60.00 Ry     beta= 0.22
     Davidson diagonalization with overlap
     ethr =  1.13E-05,  avg # of iterations =  1.0

     negative rho (up, down):  2.155E-01 0.000E+00

     total cpu time spent up to now is      915.5 secs

     total energy              =   -7856.06168742 Ry
     estimated scf accuracy    <       0.02069488 Ry

     iteration #133     ecut=    60.00 Ry     beta= 0.22
     Davidson diagonalization with overlap
     ethr =  5.78E-06,  avg # of iterations =  1.0

     negative rho (up, down):  2.157E-01 0.000E+00

     total cpu time spent up to now is      922.2 secs

     total energy              =   -7856.06153652 Ry
     estimated scf accuracy    <       0.01548254 Ry

     iteration #134     ecut=    60.00 Ry     beta= 0.22
     Davidson diagonalization with overlap
     ethr =  4.32E-06,  avg # of iterations =  1.0

     negative rho (up, down):  2.155E-01 0.000E+00

     total cpu time spent up to now is      929.0 secs

     total energy              =   -7856.06182355 Ry
     estimated scf accuracy    <       0.01328674 Ry

     iteration #135     ecut=    60.00 Ry     beta= 0.22
     Davidson diagonalization with overlap
     ethr =  3.71E-06,  avg # of iterations =  1.0

     negative rho (up, down):  2.155E-01 0.000E+00

     total cpu time spent up to now is      935.7 secs

     total energy              =   -7856.06186566 Ry
     estimated scf accuracy    <       0.00895645 Ry

     iteration #136     ecut=    60.00 Ry     beta= 0.22
     Davidson diagonalization with overlap
     ethr =  2.50E-06,  avg # of iterations =  1.0

     negative rho (up, down):  2.155E-01 0.000E+00

     total cpu time spent up to now is      942.4 secs

     total energy              =   -7856.06189352 Ry
     estimated scf accuracy    <       0.00881754 Ry

     iteration #137     ecut=    60.00 Ry     beta= 0.22
     Davidson diagonalization with overlap
     ethr =  2.46E-06,  avg # of iterations =  1.0

     negative rho (up, down):  2.154E-01 0.000E+00

     total cpu time spent up to now is      949.2 secs

     total energy              =   -7856.06195764 Ry
     estimated scf accuracy    <       0.00847100 Ry

     iteration #138     ecut=    60.00 Ry     beta= 0.22
     Davidson diagonalization with overlap
     ethr =  2.37E-06,  avg # of iterations =  1.0

     negative rho (up, down):  2.158E-01 0.000E+00

     total cpu time spent up to now is      955.9 secs

     total energy              =   -7856.06140758 Ry
     estimated scf accuracy    <       0.01832669 Ry

     iteration #139     ecut=    60.00 Ry     beta= 0.22
     Davidson diagonalization with overlap
     ethr =  2.37E-06,  avg # of iterations =  1.0

     negative rho (up, down):  2.151E-01 0.000E+00

     total cpu time spent up to now is      962.6 secs

     total energy              =   -7856.06231224 Ry
     estimated scf accuracy    <       0.01336620 Ry

     iteration #140     ecut=    60.00 Ry     beta= 0.22
     Davidson diagonalization with overlap
     ethr =  2.37E-06,  avg # of iterations =  1.2

     negative rho (up, down):  2.158E-01 0.000E+00

     total cpu time spent up to now is      969.5 secs

     total energy              =   -7856.06147536 Ry
     estimated scf accuracy    <       0.02907503 Ry

     iteration #141     ecut=    60.00 Ry     beta= 0.22
     Davidson diagonalization with overlap
     ethr =  2.37E-06,  avg # of iterations =  1.2

     negative rho (up, down):  2.155E-01 0.000E+00

     total cpu time spent up to now is      976.4 secs

     total energy              =   -7856.06195307 Ry
     estimated scf accuracy    <       0.01482570 Ry

     iteration #142     ecut=    60.00 Ry     beta= 0.22
     Davidson diagonalization with overlap
     ethr =  2.37E-06,  avg # of iterations =  1.0

     negative rho (up, down):  2.156E-01 0.000E+00

     total cpu time spent up to now is      983.1 secs

     total energy              =   -7856.06185685 Ry
     estimated scf accuracy    <       0.01851341 Ry

     iteration #143     ecut=    60.00 Ry     beta= 0.22
     Davidson diagonalization with overlap
     ethr =  2.37E-06,  avg # of iterations =  1.0

     negative rho (up, down):  2.156E-01 0.000E+00

     total cpu time spent up to now is      989.9 secs

     total energy              =   -7856.06183913 Ry
     estimated scf accuracy    <       0.01556934 Ry

     iteration #144     ecut=    60.00 Ry     beta= 0.22
     Davidson diagonalization with overlap
     ethr =  2.37E-06,  avg # of iterations =  1.0

     negative rho (up, down):  2.156E-01 0.000E+00

     total cpu time spent up to now is      996.6 secs

     total energy              =   -7856.06186586 Ry
     estimated scf accuracy    <       0.01440735 Ry

     iteration #145     ecut=    60.00 Ry     beta= 0.22
     Davidson diagonalization with overlap
     ethr =  2.37E-06,  avg # of iterations =  1.0

     negative rho (up, down):  2.151E-01 0.000E+00

     total cpu time spent up to now is     1003.3 secs

     total energy              =   -7856.06246077 Ry
     estimated scf accuracy    <       0.01539877 Ry

     iteration #146     ecut=    60.00 Ry     beta= 0.22
     Davidson diagonalization with overlap
     ethr =  2.37E-06,  avg # of iterations =  1.4

     negative rho (up, down):  2.153E-01 0.000E+00

     total cpu time spent up to now is     1010.3 secs

     total energy              =   -7856.06148617 Ry
     estimated scf accuracy    <       0.06885793 Ry

     iteration #147     ecut=    60.00 Ry     beta= 0.22
     Davidson diagonalization with overlap
     ethr =  2.37E-06,  avg # of iterations =  1.0

     negative rho (up, down):  2.154E-01 0.000E+00

     total cpu time spent up to now is     1017.1 secs

     total energy              =   -7856.06186329 Ry
     estimated scf accuracy    <       0.01199107 Ry

     iteration #148     ecut=    60.00 Ry     beta= 0.22
     Davidson diagonalization with overlap
     ethr =  2.37E-06,  avg # of iterations =  1.0

     negative rho (up, down):  2.148E-01 0.000E+00

     total cpu time spent up to now is     1023.8 secs

     total energy              =   -7856.06245293 Ry
     estimated scf accuracy    <       0.00742396 Ry

     iteration #149     ecut=    60.00 Ry     beta= 0.22
     Davidson diagonalization with overlap
     ethr =  2.07E-06,  avg # of iterations =  1.2

     negative rho (up, down):  2.151E-01 0.000E+00

     total cpu time spent up to now is     1030.7 secs

     total energy              =   -7856.06213838 Ry
     estimated scf accuracy    <       0.00838798 Ry

     iteration #150     ecut=    60.00 Ry     beta= 0.22
     Davidson diagonalization with overlap
     ethr =  2.07E-06,  avg # of iterations =  1.0

     negative rho (up, down):  2.149E-01 0.000E+00

     total cpu time spent up to now is     1037.4 secs

     total energy              =   -7856.06244257 Ry
     estimated scf accuracy    <       0.00150139 Ry

     iteration #151     ecut=    60.00 Ry     beta= 0.22
     Davidson diagonalization with overlap
     ethr =  4.19E-07,  avg # of iterations =  2.0

     negative rho (up, down):  2.150E-01 0.000E+00

     total cpu time spent up to now is     1044.8 secs

     total energy              =   -7856.06238442 Ry
     estimated scf accuracy    <       0.00320301 Ry

     iteration #152     ecut=    60.00 Ry     beta= 0.22
     Davidson diagonalization with overlap
     ethr =  4.19E-07,  avg # of iterations =  1.0

     negative rho (up, down):  2.150E-01 0.000E+00

     total cpu time spent up to now is     1051.6 secs

     total energy              =   -7856.06238363 Ry
     estimated scf accuracy    <       0.00105148 Ry

     iteration #153     ecut=    60.00 Ry     beta= 0.22
     Davidson diagonalization with overlap
     ethr =  2.94E-07,  avg # of iterations =  1.2

     negative rho (up, down):  2.151E-01 0.000E+00

     total cpu time spent up to now is     1058.4 secs

     total energy              =   -7856.06232818 Ry
     estimated scf accuracy    <       0.00137393 Ry

     iteration #154     ecut=    60.00 Ry     beta= 0.22
     Davidson diagonalization with overlap
     ethr =  2.94E-07,  avg # of iterations =  1.0

     negative rho (up, down):  2.150E-01 0.000E+00

     total cpu time spent up to now is     1065.1 secs

     total energy              =   -7856.06237017 Ry
     estimated scf accuracy    <       0.00050753 Ry

     iteration #155     ecut=    60.00 Ry     beta= 0.22
     Davidson diagonalization with overlap
     ethr =  1.42E-07,  avg # of iterations =  1.0

     negative rho (up, down):  2.151E-01 0.000E+00

     total cpu time spent up to now is     1071.8 secs

     total energy              =   -7856.06234742 Ry
     estimated scf accuracy    <       0.00018549 Ry

     iteration #156     ecut=    60.00 Ry     beta= 0.22
     Davidson diagonalization with overlap
     ethr =  5.18E-08,  avg # of iterations =  1.0

     negative rho (up, down):  2.151E-01 0.000E+00

     total cpu time spent up to now is     1078.6 secs

     total energy              =   -7856.06230903 Ry
     estimated scf accuracy    <       0.00003605 Ry

     iteration #157     ecut=    60.00 Ry     beta= 0.22
     Davidson diagonalization with overlap
     ethr =  1.01E-08,  avg # of iterations =  2.0

     negative rho (up, down):  2.151E-01 0.000E+00

     total cpu time spent up to now is     1086.0 secs

     total energy              =   -7856.06231505 Ry
     estimated scf accuracy    <       0.00004374 Ry

     iteration #158     ecut=    60.00 Ry     beta= 0.22
     Davidson diagonalization with overlap
     ethr =  1.01E-08,  avg # of iterations =  2.0

     negative rho (up, down):  2.151E-01 0.000E+00

     total cpu time spent up to now is     1093.5 secs

     total energy              =   -7856.06230752 Ry
     estimated scf accuracy    <       0.00014082 Ry

     iteration #159     ecut=    60.00 Ry     beta= 0.22
     Davidson diagonalization with overlap
     ethr =  1.01E-08,  avg # of iterations =  1.8

     negative rho (up, down):  2.151E-01 0.000E+00

     total cpu time spent up to now is     1100.8 secs

     total energy              =   -7856.06230850 Ry
     estimated scf accuracy    <       0.00006584 Ry

     iteration #160     ecut=    60.00 Ry     beta= 0.22
     Davidson diagonalization with overlap
     ethr =  1.01E-08,  avg # of iterations =  2.0

     negative rho (up, down):  2.151E-01 0.000E+00

     total cpu time spent up to now is     1108.3 secs

     total energy              =   -7856.06232494 Ry
     estimated scf accuracy    <       0.00003102 Ry

     iteration #161     ecut=    60.00 Ry     beta= 0.22
     Davidson diagonalization with overlap
     ethr =  8.66E-09,  avg # of iterations =  1.4

     negative rho (up, down):  2.151E-01 0.000E+00

     total cpu time spent up to now is     1115.3 secs

     total energy              =   -7856.06231590 Ry
     estimated scf accuracy    <       0.00001132 Ry

     iteration #162     ecut=    60.00 Ry     beta= 0.22
     Davidson diagonalization with overlap
     ethr =  3.16E-09,  avg # of iterations =  1.2

     negative rho (up, down):  2.151E-01 0.000E+00

     total cpu time spent up to now is     1122.2 secs

     total energy              =   -7856.06228371 Ry
     estimated scf accuracy    <       0.00001824 Ry

     iteration #163     ecut=    60.00 Ry     beta= 0.22
     Davidson diagonalization with overlap
     ethr =  3.16E-09,  avg # of iterations =  2.0

     negative rho (up, down):  2.151E-01 0.000E+00

     total cpu time spent up to now is     1129.7 secs

     total energy              =   -7856.06230849 Ry
     estimated scf accuracy    <       0.00015653 Ry

     iteration #164     ecut=    60.00 Ry     beta= 0.22
     Davidson diagonalization with overlap
     ethr =  3.16E-09,  avg # of iterations =  2.0

     negative rho (up, down):  2.152E-01 0.000E+00

     total cpu time spent up to now is     1137.0 secs

     End of self-consistent calculation

          k = 0.0000 0.0000 0.0000 ( 15857 PWs)   bands (ev):

   -90.0358 -90.0276 -90.0144 -90.0040 -89.9808 -89.9785 -89.9668 -89.9536
   -89.9493 -89.9453 -89.9177 -89.9115 -89.8720 -89.8388 -89.8343 -89.8224
   -62.0829 -62.0670 -62.0662 -62.0293 -62.0255 -61.9486 -61.9257 -50.7097
   -50.6801 -50.6487 -50.6196 -50.5761 -50.5402 -50.5157 -50.4751 -50.4635
   -50.4539 -50.4506 -50.4307 -50.4122 -50.4091 -50.4055 -50.4040 -50.3627
   -50.3593 -50.3476 -50.3427 -50.3338 -50.3118 -50.3097 -50.2842 -50.2835
   -50.2760 -50.2732 -50.2709 -50.2691 -50.2654 -50.2560 -50.2513 -50.2483
   -50.2188 -50.2157 -50.2131 -50.2068 -50.1873 -50.1801 -50.1795 -50.1588
   -50.1549 -50.1531 -50.0887 -50.0884 -50.0727 -50.0699 -50.0095 -28.8334
   -28.8328 -28.8325 -28.8188 -28.8183 -28.8159 -28.8146 -28.8121 -28.8034
   -28.7834 -28.7722 -28.7712 -28.7692 -28.7682 -28.7600 -28.6984 -28.6903
   -28.6900 -28.6749 -28.6740 -28.6617   4.5903   5.1534   5.6159   6.7837
     7.6477   8.5167   8.5967   8.8852   9.2380   9.2926   9.3758   9.5961
     9.5991   9.6307   9.6627   9.7208   9.7268   9.7937   9.8021   9.8089
     9.9039   9.9633   9.9705  10.0242  10.0344  10.0951  10.1053  10.2748
    10.2777  10.3005  10.4565  10.4717  10.5650  10.5745  10.6375  10.6455
    10.8382  10.8435  10.9615  11.0070  11.0176  11.0428  11.1671  11.1789
    11.2589  11.2655  11.5114  11.6895  11.8260  11.8441  11.8521  11.9411
    11.9650  11.9890  12.1201  12.1314  12.2599  12.2629  12.2900  12.3140
    12.3205  12.3249  12.3384  12.3485  12.3702  12.3882  12.3949  12.4005
    12.4029  12.4127  12.4267  12.4305  12.4500  12.4552  12.5308  12.5820
    12.5845  12.5998  12.6017  12.9571  12.9634  13.2384  13.2490  13.4123
    13.4442  13.4655  13.5683  13.9966  14.0611  14.2338  14.2380  14.2636
    14.3856  14.4403  14.4434  14.6535  14.6833  14.6940  15.2936  15.3289
    16.1705  16.2094  16.3113  16.3495  16.8766  16.8827  17.4975  17.5227
    17.8171  17.9377  18.0234  18.0340  18.3115  18.9130  18.9721  18.9971
    19.3948  19.4166  19.7457  20.2971  20.4131  20.4351  20.6156

          k = 0.0002 0.3854 0.0004 ( 15968 PWs)   bands (ev):

   -90.0353 -90.0244 -90.0142 -90.0039 -89.9782 -89.9742 -89.9714 -89.9600
   -89.9463 -89.9431 -89.9214 -89.9147 -89.8645 -89.8467 -89.8352 -89.8220
   -62.0828 -62.0668 -62.0661 -62.0295 -62.0256 -61.9486 -61.9257 -50.6755
   -50.6476 -50.6215 -50.5814 -50.5730 -50.5257 -50.5214 -50.4788 -50.4659
   -50.4657 -50.4523 -50.4367 -50.4327 -50.4012 -50.3995 -50.3942 -50.3682
   -50.3620 -50.3487 -50.3448 -50.3244 -50.3159 -50.3098 -50.2916 -50.2863
   -50.2807 -50.2784 -50.2692 -50.2673 -50.2591 -50.2566 -50.2507 -50.2463
   -50.2367 -50.2264 -50.2222 -50.2165 -50.1994 -50.1965 -50.1764 -50.1712
   -50.1599 -50.1493 -50.0980 -50.0842 -50.0773 -50.0705 -50.0282 -28.8343
   -28.8339 -28.8313 -28.8196 -28.8179 -28.8162 -28.8144 -28.8132 -28.8040
   -28.7821 -28.7727 -28.7711 -28.7703 -28.7674 -28.7591 -28.6984 -28.6904
   -28.6902 -28.6749 -28.6744 -28.6613   5.5944   6.1310   6.5591   7.6901
     8.2379   8.3353   8.5220   8.8255   9.1194   9.1971   9.3115   9.4802
     9.5463   9.6043   9.7089   9.7559   9.8178   9.8984   9.9257   9.9539
    10.0165  10.1367  10.1865  10.2098  10.2848  10.2916  10.3339  10.3741
    10.4132  10.4995  10.5268  10.5528  10.6076  10.6504  10.6631  10.6799
    10.7921  10.8041  10.8414  10.8461  10.9230  10.9667  11.0600  11.0960
    11.1028  11.2040  11.2073  11.2502  11.2969  11.3623  11.4073  11.4752
    11.5162  11.5789  11.6110  11.6464  11.7097  11.7557  11.7864  11.7986
    11.8511  11.9257  11.9730  11.9765  12.0596  12.0807  12.1182  12.1630
    12.1875  12.2060  12.2487  12.2786  12.3586  12.3919  12.3960  12.4091
    12.4261  12.4564  12.4908  12.4965  12.5179  12.5571  12.6237  12.6884
    12.7649  12.8094  12.9397  13.0232  13.3151  13.6023  13.7947  13.8592
    14.0449  14.1825  14.3286  14.4290  14.4688  14.5939  15.0065  15.3827
    15.6187  16.1370  16.3919  16.4759  17.8387  18.1895  18.4005  18.5640
    19.1036  19.2614  19.3716  19.4120  19.8335  19.9449  20.3696  20.5795
    21.0055  21.0817  21.5396  21.6136  21.7127  22.2200  22.6231

          k = 0.3334 0.1930 0.0001 ( 15969 PWs)   bands (ev):

   -90.0354 -90.0232 -90.0142 -90.0038 -89.9841 -89.9742 -89.9671 -89.9592
   -89.9468 -89.9416 -89.9258 -89.9118 -89.8657 -89.8417 -89.8390 -89.8219
   -62.0828 -62.0668 -62.0661 -62.0295 -62.0256 -61.9486 -61.9257 -50.6740
   -50.6468 -50.6222 -50.5809 -50.5730 -50.5241 -50.5220 -50.4889 -50.4713
   -50.4555 -50.4541 -50.4346 -50.4322 -50.4012 -50.4000 -50.3924 -50.3707
   -50.3592 -50.3522 -50.3417 -50.3241 -50.3154 -50.3105 -50.2897 -50.2877
   -50.2797 -50.2751 -50.2722 -50.2685 -50.2637 -50.2542 -50.2478 -50.2449
   -50.2347 -50.2323 -50.2237 -50.2204 -50.2032 -50.1871 -50.1762 -50.1700
   -50.1574 -50.1520 -50.0984 -50.0846 -50.0778 -50.0708 -50.0267 -28.8342
   -28.8337 -28.8317 -28.8199 -28.8181 -28.8156 -28.8150 -28.8126 -28.8040
   -28.7822 -28.7735 -28.7707 -28.7695 -28.7679 -28.7591 -28.6984 -28.6905
   -28.6901 -28.6756 -28.6737 -28.6613   5.5938   6.1288   6.5587   7.6880
     8.2508   8.3168   8.5236   8.8388   9.1076   9.1927   9.3055   9.4840
     9.5393   9.6033   9.7136   9.7518   9.8188   9.9073   9.9307   9.9472
    10.0127  10.1388  10.1798  10.2080  10.2831  10.2953  10.3339  10.3905
    10.4062  10.5086  10.5237  10.5408  10.6077  10.6349  10.6779  10.6851
    10.7973  10.8012  10.8430  10.8525  10.9158  10.9689  11.0558  11.1018
    11.1156  11.2022  11.2093  11.2495  11.3000  11.3593  11.4081  11.4719
    11.5147  11.5865  11.6189  11.6482  11.6946  11.7599  11.7847  11.7913
    11.8579  11.9272  11.9677  11.9768  12.0494  12.0796  12.1211  12.1658
    12.1912  12.2061  12.2510  12.2798  12.3552  12.3838  12.3955  12.4059
    12.4235  12.4617  12.4925  12.4964  12.5225  12.5569  12.6226  12.6887
    12.7634  12.8141  12.9373  13.0262  13.3110  13.5974  13.7960  13.8631
    14.0488  14.1832  14.3352  14.4341  14.4669  14.5968  15.0022  15.3907
    15.6165  16.1385  16.3915  16.4737  17.8319  18.2037  18.3861  18.5716
    19.1054  19.2748  19.3712  19.4244  19.8168  19.9498  20.3610  20.5831
    21.0092  21.0890  21.5384  21.6107  21.7102  22.2211  22.6091

          k = 0.3336 0.5783 0.0005 ( 15983 PWs)   bands (ev):

   -90.0351 -90.0219 -90.0142 -90.0038 -89.9818 -89.9707 -89.9690 -89.9635
   -89.9481 -89.9367 -89.9286 -89.9141 -89.8575 -89.8527 -89.8366 -89.8218
   -62.0828 -62.0668 -62.0661 -62.0296 -62.0257 -61.9486 -61.9257 -50.6407
   -50.6360 -50.6183 -50.5526 -50.5389 -50.5353 -50.5178 -50.4955 -50.4911
   -50.4847 -50.4531 -50.4492 -50.4225 -50.4002 -50.3960 -50.3828 -50.3684
   -50.3641 -50.3508 -50.3446 -50.3207 -50.3183 -50.3106 -50.3002 -50.2856
   -50.2831 -50.2756 -50.2683 -50.2613 -50.2535 -50.2523 -50.2503 -50.2486
   -50.2462 -50.2397 -50.2251 -50.2194 -50.1996 -50.1983 -50.1954 -50.1736
   -50.1613 -50.1463 -50.1058 -50.0816 -50.0781 -50.0547 -50.0522 -28.8353
   -28.8336 -28.8311 -28.8213 -28.8165 -28.8160 -28.8142 -28.8140 -28.8043
   -28.7811 -28.7745 -28.7719 -28.7685 -28.7672 -28.7587 -28.6984 -28.6905
   -28.6903 -28.6757 -28.6737 -28.6611   7.1494   7.2672   7.7031   7.7898
     7.9785   8.0428   8.0826   8.2808   8.7179   9.0728   9.1587   9.1765
     9.3417   9.3478   9.6695   9.7364   9.8347   9.9715   9.9920  10.1085
    10.2546  10.2755  10.3081  10.3453  10.3505  10.3732  10.4207  10.4275
    10.4497  10.5562  10.5811  10.6258  10.6342  10.6597  10.6841  10.6899
    10.7089  10.7192  10.7686  10.7800  10.7967  10.8410  10.8570  10.8827
    10.9051  10.9224  10.9907  11.0507  11.1746  11.2200  11.2263  11.3241
    11.3675  11.4228  11.4320  11.5518  11.6217  11.6485  11.6811  11.7360
    11.7966  11.8238  11.8292  11.9143  11.9599  11.9837  11.9976  12.0371
    12.0467  12.0834  12.1188  12.1253  12.1365  12.1719  12.1926  12.2566
    12.2920  12.3478  12.3516  12.3704  12.4970  12.5626  12.6305  12.6503
    12.6636  12.7124  12.7731  12.8345  12.9517  13.0008  13.0084  13.4139
    13.4707  13.5100  13.5943  14.9949  15.0530  15.3251  15.3494  15.3647
    16.1246  17.6753  17.8569  18.0813  18.2310  18.4681  18.8025  18.8616
    19.0307  19.1513  19.2382  19.4746  19.8398  20.1310  20.2026  20.2429
    20.8969  20.9829  21.4221  21.4426  21.5933  22.2087  23.4322

          k = 0.3332-0.1924-0.0003 ( 15969 PWs)   bands (ev):

   -90.0354 -90.0242 -90.0142 -90.0041 -89.9793 -89.9758 -89.9706 -89.9538
   -89.9506 -89.9435 -89.9199 -89.9158 -89.8650 -89.8457 -89.8356 -89.8220
   -62.0828 -62.0668 -62.0661 -62.0295 -62.0256 -61.9486 -61.9257 -50.6745
   -50.6472 -50.6225 -50.5821 -50.5736 -50.5254 -50.5225 -50.4870 -50.4684
   -50.4552 -50.4526 -50.4378 -50.4305 -50.4007 -50.3994 -50.3951 -50.3710
   -50.3591 -50.3502 -50.3436 -50.3243 -50.3171 -50.3089 -50.2921 -50.2874
   -50.2795 -50.2744 -50.2711 -50.2681 -50.2626 -50.2535 -50.2508 -50.2456
   -50.2379 -50.2324 -50.2230 -50.2149 -50.2029 -50.1868 -50.1773 -50.1711
   -50.1576 -50.1504 -50.0969 -50.0836 -50.0779 -50.0720 -50.0276 -28.8342
   -28.8337 -28.8317 -28.8201 -28.8178 -28.8162 -28.8145 -28.8126 -28.8040
   -28.7822 -28.7737 -28.7705 -28.7695 -28.7680 -28.7591 -28.6984 -28.6905
   -28.6902 -28.6754 -28.6739 -28.6613   5.5927   6.1275   6.5574   7.6812
     8.2446   8.3216   8.5157   8.8330   9.1044   9.1942   9.3072   9.4839
     9.5362   9.6021   9.7123   9.7501   9.8190   9.9059   9.9343   9.9456
    10.0195  10.1309  10.1885  10.2061  10.2820  10.2988  10.3317  10.3934
    10.4179  10.5046  10.5271  10.5423  10.6059  10.6361  10.6742  10.6811
    10.7880  10.8016  10.8421  10.8544  10.9165  10.9682  11.0561  11.1009
    11.1090  11.2003  11.2141  11.2473  11.2984  11.3655  11.4047  11.4581
    11.5182  11.5772  11.6120  11.6516  11.6987  11.7622  11.7823  11.7999
    11.8565  11.9239  11.9634  11.9747  12.0516  12.0861  12.1178  12.1693
    12.1888  12.2094  12.2533  12.2825  12.3569  12.3848  12.3930  12.4064
    12.4213  12.4613  12.4891  12.5002  12.5240  12.5598  12.6235  12.6934
    12.7661  12.8093  12.9343  13.0239  13.3188  13.5860  13.8059  13.8704
    14.0533  14.1911  14.3457  14.4424  14.4840  14.6096  15.0126  15.4004
    15.6295  16.1241  16.3982  16.4692  17.8474  18.2037  18.3936  18.5718
    19.1059  19.2732  19.3738  19.4311  19.8215  19.9490  20.3531  20.5892
    21.0034  21.0973  21.5335  21.6245  21.7004  22.2196  22.5941

     the Fermi energy is    13.0324 ev

!    total energy              =   -7856.06221335 Ry
     total all-electron energy =    -51469.867814 Ry
     estimated scf accuracy    <       0.00000279 Ry
     smearing contrib. (-TS)   =       0.24717008 Ry
     internal energy E=F+TS    =   -7856.30938343 Ry

     The total energy is F=E-TS. E is the sum of the following terms:
     one-electron contribution =   -4531.65446592 Ry
     hartree contribution      =    2423.23831010 Ry
     xc contribution           =    -675.06336344 Ry
     ewald contribution        =   -3509.90725404 Ry
     one-center paw contrib.   =   -1562.92261013 Ry

     convergence has been achieved in 164 iterations

     negative rho (up, down):  2.152E-01 0.000E+00

     Forces acting on atoms (cartesian axes, Ry/au):

     atom    1 type  1   force =    -0.00436093    0.00574573    0.01922967
     atom    2 type  1   force =    -0.00478002    0.00566392    0.00841764
     atom    3 type  1   force =    -0.00649388    0.00369123   -0.02554936
     atom    4 type  1   force =    -0.00487161    0.00337736    0.01594530
     atom    5 type  1   force =    -0.00072164    0.00459898    0.00857528
     atom    6 type  1   force =    -0.00207579    0.00365280    0.01309922
     atom    7 type  1   force =    -0.00513803    0.00465363    0.03393697
     atom    8 type  2   force =    -0.00353225    0.00177499    0.01405380
     atom    9 type  2   force =    -0.00211936    0.00547850    0.01866375
     atom   10 type  2   force =    -0.00096416    0.00513862    0.01561382
     atom   11 type  2   force =    -0.00284587    0.00354906    0.01402831
     atom   12 type  2   force =    -0.00450999   -0.01743330    0.00814065
     atom   13 type  2   force =     0.01768632   -0.00464736    0.01009858
     atom   14 type  2   force =     0.00126092    0.03129965    0.01279010
     atom   15 type  2   force =    -0.02229802    0.01412197    0.01074366
     atom   16 type  2   force =     0.06717647   -0.06676728    0.03067299
     atom   17 type  2   force =    -0.02863541   -0.01142357    0.01280720
     atom   18 type  2   force =    -0.00336674   -0.02998428   -0.24391019
     atom   19 type  2   force =     0.00403198   -0.00335323    0.01994244
     atom   20 type  2   force =     0.02643346    0.00853137   -0.02765802
     atom   21 type  2   force =    -0.00186598    0.00981631    0.00941691
     atom   22 type  2   force =    -0.00556150    0.00320770    0.00923860
     atom   23 type  2   force =    -0.01244796    0.01930721    0.01170268
     The non-local contrib.  to forces
     atom    1 type  1   force =    -0.00254894    0.00065397    0.03493913
     atom    2 type  1   force =    -0.00714653   -0.00054169   -0.01571186
     atom    3 type  1   force =    -0.00702940   -0.00376449   -0.01657397
     atom    4 type  1   force =    -0.00691285   -0.00347189   -0.00486313
     atom    5 type  1   force =     0.00751580   -0.00193775    0.01555639
     atom    6 type  1   force =     0.00351538    0.00166280    0.00869329
     atom    7 type  1   force =    -0.00661250   -0.00413178    0.00594382
     atom    8 type  2   force =     0.00270902   -0.00929963   -0.03141024
     atom    9 type  2   force =    -0.01540723    0.00291653   -0.10294436
     atom   10 type  2   force =    -0.02108651   -0.04651615   -0.11711351
     atom   11 type  2   force =    -0.01512399    0.01490617    0.03067570
     atom   12 type  2   force =     0.03251199   -0.03363412    0.00610334
     atom   13 type  2   force =     0.05047056   -0.04741635   -0.08816491
     atom   14 type  2   force =    -0.02267490    0.05688451   -0.08533785
     atom   15 type  2   force =    -0.07642550    0.03944437   -0.00792907
     atom   16 type  2   force =    -0.47050205    1.96919703   -0.84742896
     atom   17 type  2   force =    -0.03792296   -0.01686645   -0.09095477
     atom   18 type  2   force =     0.00095475   -0.14310406   -4.88613723
     atom   19 type  2   force =     0.55420108   -0.92191840    1.08951365
     atom   20 type  2   force =     1.23198003    0.04576736   -1.07277422
     atom   21 type  2   force =     0.01823787   -0.00451954    0.00333168
     atom   22 type  2   force =     0.00915371    0.01024695    0.06133083
     atom   23 type  2   force =     0.82627612   -1.29884823   -0.01916567
     The ionic contribution  to forces
     atom    1 type  1   force =    -0.06510391   -0.12390401   -0.11583755
     atom    2 type  1   force =    -0.17299472   -0.08376966    7.41501172
     atom    3 type  1   force =    -0.23364147   -0.14034685  -12.31383581
     atom    4 type  1   force =    -0.27252110   -0.04063863    8.96961051
     atom    5 type  1   force =     0.21497701    0.05762744   -8.75038600
     atom    6 type  1   force =     0.06725179    0.26146915   -2.14249201
     atom    7 type  1   force =    -0.23877743   -0.14597147    7.98748210
     atom    8 type  2   force =     0.00022721   -0.03901999   -0.52162179
     atom    9 type  2   force =     0.03102765    0.10094799    9.54144055
     atom   10 type  2   force =     0.47318431    0.00094912   13.28117477
     atom   11 type  2   force =    -0.03685278   -0.11182768  -18.35796642
     atom   12 type  2   force =    -0.23314678  -16.20533526  -10.34022761
     atom   13 type  2   force =    16.58539954   -9.05809434   22.55706962
     atom   14 type  2   force =     0.64903523   19.29942600   22.85132092
     atom   15 type  2   force =   -14.03350271    7.92155909  -10.45635093
     atom   16 type  2   force =    14.15093835    8.15881624  -10.44913757
     atom   17 type  2   force =   -17.03908203  -10.14452337   22.74989674
     atom   18 type  2   force =     0.35098064   -0.13167343    6.21126338
     atom   19 type  2   force =     0.04468419    0.07530190  -19.91026480
     atom   20 type  2   force =     0.37456684    0.15559330  -20.04504806
     atom   21 type  2   force =    -0.05116895    0.11316803    5.90493463
     atom   22 type  2   force =    -0.27581437   -0.13804983  -20.11689693
     atom   23 type  2   force =    -0.28966650    0.21829626    6.05086054
     The local contribution  to forces
     atom    1 type  1   force =     0.06670825    0.12412053    0.08860136
     atom    2 type  1   force =     0.17869695    0.08516063   -7.40053601
     atom    3 type  1   force =     0.23751310    0.14288598   12.29478432
     atom    4 type  1   force =     0.27792910    0.04261260   -8.95802112
     atom    5 type  1   force =    -0.21973780   -0.05611650    8.73352703
     atom    6 type  1   force =    -0.06946983   -0.26448816    2.13515252
     atom    7 type  1   force =     0.24357270    0.14991821   -7.97027295
     atom    8 type  2   force =    -0.00304417    0.04468748    0.55588371
     atom    9 type  2   force =    -0.01534751   -0.10401863   -9.43360123
     atom   10 type  2   force =    -0.45092382    0.04279948  -13.16575983
     atom   11 type  2   force =     0.05123638    0.09661601   18.33076070
     atom   12 type  2   force =     0.20129512   16.21742900   10.33139346
     atom   13 type  2   force =   -16.61485191    9.09490666  -22.47385992
     atom   14 type  2   force =    -0.62336677  -19.32962101  -22.76777224
     atom   15 type  2   force =    14.08948194   -7.95071567   10.46378723
     atom   16 type  2   force =   -13.65724485  -10.03128166   11.24412075
     atom   17 type  2   force =    17.05280605   10.14565428  -22.66095254
     atom   18 type  2   force =    -0.35198175    0.23526841   -1.81217373
     atom   19 type  2   force =    -0.54117012    0.75372470   18.93020671
     atom   20 type  2   force =    -1.46580947   -0.19323422   20.98266197
     atom   21 type  2   force =     0.03561770   -0.10337335   -5.90942048
     atom   22 type  2   force =     0.26443420    0.12637522   20.05861100
     atom   23 type  2   force =    -0.46831703    0.97283011   -6.03259535
     The core correction contribution to forces
     atom    1 type  1   force =     0.00001081   -0.00000508   -0.00017737
     atom    2 type  1   force =     0.00002706   -0.00000427    0.00007878
     atom    3 type  1   force =     0.00003679    0.00001903    0.00021062
     atom    4 type  1   force =     0.00003045    0.00002111   -0.00001202
     atom    5 type  1   force =    -0.00003870    0.00000624   -0.00003415
     atom    6 type  1   force =    -0.00001650    0.00000183   -0.00003285
     atom    7 type  1   force =     0.00003879    0.00001287   -0.00008887
     atom    8 type  2   force =    -0.00003755    0.00066285   -0.00191843
     atom    9 type  2   force =     0.00088952   -0.00007646    0.00186069
     atom   10 type  2   force =     0.00145650    0.00253169    0.00927736
     atom   11 type  2   force =     0.00091819   -0.00086505    0.00177126
     atom   12 type  2   force =    -0.00190911   -0.00105557   -0.00047641
     atom   13 type  2   force =    -0.00002624    0.00118689    0.00599738
     atom   14 type  2   force =     0.00133529    0.00005025    0.00554608
     atom   15 type  2   force =     0.00171337   -0.00060473    0.00004059
     atom   16 type  2   force =     0.04730910   -0.16796626    0.07189147
     atom   17 type  2   force =    -0.00094220   -0.00085157    0.00591417
     atom   18 type  2   force =     0.00013258    0.00439780    0.23196353
     atom   19 type  2   force =    -0.05039446    0.08391759   -0.09921103
     atom   20 type  2   force =    -0.11041758   -0.00452317    0.09657600
     atom   21 type  2   force =    -0.00139818   -0.00037318   -0.00041521
     atom   22 type  2   force =    -0.00001311   -0.00037129   -0.00450790
     atom   23 type  2   force =    -0.07761134    0.12195025    0.00137041
     The Hubbard contrib.    to forces
     atom    1 type  1   force =     0.00000000    0.00000000    0.00000000
     atom    2 type  1   force =     0.00000000    0.00000000    0.00000000
     atom    3 type  1   force =     0.00000000    0.00000000    0.00000000
     atom    4 type  1   force =     0.00000000    0.00000000    0.00000000
     atom    5 type  1   force =     0.00000000    0.00000000    0.00000000
     atom    6 type  1   force =     0.00000000    0.00000000    0.00000000
     atom    7 type  1   force =     0.00000000    0.00000000    0.00000000
     atom    8 type  2   force =     0.00000000    0.00000000    0.00000000
     atom    9 type  2   force =     0.00000000    0.00000000    0.00000000
     atom   10 type  2   force =     0.00000000    0.00000000    0.00000000
     atom   11 type  2   force =     0.00000000    0.00000000    0.00000000
     atom   12 type  2   force =     0.00000000    0.00000000    0.00000000
     atom   13 type  2   force =     0.00000000    0.00000000    0.00000000
     atom   14 type  2   force =     0.00000000    0.00000000    0.00000000
     atom   15 type  2   force =     0.00000000    0.00000000    0.00000000
     atom   16 type  2   force =     0.00000000    0.00000000    0.00000000
     atom   17 type  2   force =     0.00000000    0.00000000    0.00000000
     atom   18 type  2   force =     0.00000000    0.00000000    0.00000000
     atom   19 type  2   force =     0.00000000    0.00000000    0.00000000
     atom   20 type  2   force =     0.00000000    0.00000000    0.00000000
     atom   21 type  2   force =     0.00000000    0.00000000    0.00000000
     atom   22 type  2   force =     0.00000000    0.00000000    0.00000000
     atom   23 type  2   force =     0.00000000    0.00000000    0.00000000
     The SCF correction term to forces
     atom    1 type  1   force =    -0.00005792   -0.00003947    0.00117961
     atom    2 type  1   force =     0.00000644   -0.00010088   -0.00094948
     atom    3 type  1   force =    -0.00000368   -0.00002223   -0.00065900
     atom    4 type  1   force =    -0.00002800   -0.00006563   -0.00129344
     atom    5 type  1   force =    -0.00006872    0.00009976   -0.00061249
     atom    6 type  1   force =     0.00001259    0.00008738    0.00125377
     atom    7 type  1   force =     0.00000962   -0.00009400    0.00034838
     atom    8 type  2   force =    -0.00001753   -0.00017551    0.00259605
     atom    9 type  2   force =     0.00008743    0.00078927    0.00138361
     atom   10 type  2   force =    -0.00022542    0.00045469   -0.00248946
     atom   11 type  2   force =     0.00034555   -0.00020018   -0.00173741
     atom   12 type  2   force =     0.00010802    0.00024286    0.00082337
     atom   13 type  2   force =     0.00006358   -0.00015000   -0.00146809
     atom   14 type  2   force =     0.00030129   -0.00035990   -0.00149131
     atom   15 type  2   force =    -0.00019589   -0.00048089    0.00067135
     atom   16 type  2   force =     0.00004514   -0.00045242    0.00070279
     atom   17 type  2   force =    -0.00012505    0.00024375   -0.00162089
     atom   18 type  2   force =    -0.00008374    0.00020720    0.00064937
     atom   19 type  2   force =     0.00008051    0.00070118   -0.00082659
     atom   20 type  2   force =    -0.00051715    0.00000830    0.00040179
     atom   21 type  2   force =     0.00021480   -0.00000545    0.00046178
     atom   22 type  2   force =     0.00004727    0.00008685    0.00017711
     atom   23 type  2   force =     0.00024002    0.00015902    0.00070825

     Total force =     0.285076     Total SCF correction =     0.006159


     Computing stress (Cartesian axis) and pressure


     negative rho (up, down):  2.152E-01 0.000E+00
          total   stress  (Ry/bohr**3)                   (kbar)     P=       15.72
   0.00009314   0.00000156   0.00000227           13.70        0.23        0.33
   0.00000156   0.00011346   0.00000345            0.23       16.69        0.51
   0.00000227   0.00000345   0.00011396            0.33        0.51       16.76


     Writing all to output data dir ./C36/out_logs/C36_out_149/laves_C36.save/
 
     init_run     :      5.98s CPU      6.16s WALL (       1 calls)
     electrons    :   1130.38s CPU   1130.64s WALL (       1 calls)
     forces       :      1.60s CPU      1.60s WALL (       1 calls)
     stress       :      7.86s CPU      7.86s WALL (       1 calls)

     Called by init_run:
     wfcinit      :      1.72s CPU      1.81s WALL (       1 calls)
                                        1.81s GPU  (       1 calls)
     potinit      :      3.22s CPU      3.25s WALL (       1 calls)
     hinit0       :      0.89s CPU      0.90s WALL (       1 calls)

     Called by electrons:
     c_bands      :    651.08s CPU    651.26s WALL (     164 calls)
     sum_band     :    108.87s CPU    108.91s WALL (     164 calls)
     v_of_rho     :      4.01s CPU      4.04s WALL (     165 calls)
     newd         :     12.73s CPU     12.74s WALL (     165 calls)
                                       12.74s GPU  (     165 calls)
     PAW_pot      :    338.58s CPU    338.57s WALL (     165 calls)
     mix_rho      :     13.49s CPU     13.53s WALL (     164 calls)

     Called by c_bands:
     init_us_2    :      1.93s CPU      1.94s WALL (    1655 calls)
     init_us_2:gp :      1.92s CPU      1.92s WALL (    1655 calls)
     cegterg      :    621.55s CPU    621.69s WALL (     820 calls)

     Called by *egterg:
     cdiaghg      :     42.72s CPU     43.07s WALL (    1845 calls)
                                       43.06s GPU  (    1845 calls)
     h_psi        :    303.80s CPU    303.93s WALL (    1850 calls)
                                      303.64s GPU  (    1850 calls)
     s_psi        :      1.34s CPU     58.34s WALL (    1850 calls)
                                       57.88s GPU  (    1850 calls)
     g_psi        :      0.01s CPU      1.03s WALL (    1025 calls)
                                        1.02s GPU  (    1025 calls)

     Called by h_psi:
     h_psi:calbec :      0.09s CPU     67.33s WALL (    1850 calls)
                                       67.32s GPU  (    1850 calls)
     vloc_psi     :    176.91s CPU    177.01s WALL (    1850 calls)
                                      176.99s GPU  (    1850 calls)
     add_vuspsi   :      1.53s CPU     58.51s WALL (    1850 calls)
                                       58.43s GPU  (    1850 calls)

     General routines
     calbec       :      0.10s CPU      0.11s WALL (    2695 calls)
     fft          :      1.91s CPU      2.91s WALL (    2168 calls)
                                        1.02s GPU  (    2003 calls)
     ffts         :      0.48s CPU      0.53s WALL (     329 calls)
                                        0.04s GPU  (     164 calls)
     fftw         :      0.41s CPU    190.73s WALL (   58208 calls)
                                      190.01s GPU  (   58208 calls)
     interpolate  :      2.73s CPU      2.73s WALL (     165 calls)
 
     Parallel routines
 
     PWSCF        :  19m 6.13s CPU  19m 6.68s WALL

 
   This run was terminated on:   2:46: 5   9Apr2026            

=------------------------------------------------------------------------------=
   JOB DONE.
=------------------------------------------------------------------------------=
