
     Program PWSCF v.7.2 starts on 10Apr2026 at 17:37:31 

     This program is part of the open-source Quantum ESPRESSO suite
     for quantum simulation of materials; please cite
         "P. Giannozzi et al., J. Phys.:Condens. Matter 21 395502 (2009);
         "P. Giannozzi et al., J. Phys.:Condens. Matter 29 465901 (2017);
         "P. Giannozzi et al., J. Chem. Phys. 152 154105 (2020);
          URL http://www.quantum-espresso.org", 
     in publications or presentations arising from this work. More details at
     http://www.quantum-espresso.org/quote

     Parallel version (MPI), running on     1 processors

     MPI processes distributed on     1 nodes
     2501 MiB available memory on the printing compute node when the environment starts
 
     Reading input from C36/in/laves_244_0_scf.in
Warning: card &CELL ignored
Warning: card / ignored

     Current dimensions of program PWSCF are:
     Max number of different atomic species (ntypx) = 10
     Max number of k-points (npk) =  40000
     Max angular momentum in pseudopotentials (lmaxx) =  4
     file Mg.pbe-spnl-kjpaw_psl.1.0.0.UPF: wavefunction(s)  2P renormalized
     file Ni.pbe-spn-kjpaw_psl.1.0.0.UPF: wavefunction(s)  3P 3D renormalized
 
     Subspace diagonalization in iterative solution of the eigenvalue problem:
     a serial algorithm will be used

 
     G-vector sticks info
     --------------------
     sticks:   dense  smooth     PW     G-vecs:    dense   smooth      PW
     Sum        2653    1333    367               361437   127769   19001
 
     Using Slab Decomposition
 

     Title: 
     C36_MgNi2                                                                  


     bravais-lattice index     =            0
     lattice parameter (alat)  =       8.9517  a.u.
     unit-cell volume          =    2035.3677 (a.u.)^3
     number of atoms/cell      =           24
     number of atomic types    =            2
     number of electrons       =       368.00
     number of Kohn-Sham states=          221
     kinetic-energy cutoff     =      60.0000  Ry
     charge density cutoff     =     480.0000  Ry
     scf convergence threshold =      1.0E-05
     mixing beta               =       0.2200
     number of iterations used =           22  plain     mixing
     Exchange-correlation= SLA  PW   PBX  PBC
                           (   1   4   3   4   0   0   0)

     GPU acceleration is ACTIVE.


     celldm(1)=   8.951670  celldm(2)=   0.000000  celldm(3)=   0.000000
     celldm(4)=   0.000000  celldm(5)=   0.000000  celldm(6)=   0.000000

     crystal axes: (cart. coord. in units of alat)
               a(1) = (   1.000000   0.000576   0.000691 )  
               a(2) = (  -0.499795   0.866086  -0.000141 )  
               a(3) = (  -0.002446   0.006534   3.275108 )  

     reciprocal axes: (cart. coord. in units 2 pi/alat)
               b(1) = (  0.999668  0.576882 -0.000404 )  
               b(2) = ( -0.000663  1.154237 -0.002303 )  
               b(3) = ( -0.000211 -0.000072  0.305333 )  


     PseudoPot. # 1 for Mg read from file:
     ./pseudo/Mg.pbe-spnl-kjpaw_psl.1.0.0.UPF
     MD5 check sum: fda14e0d92a6a9a5ebed782e5a4b3067
     Pseudo is Projector augmented-wave + core cor, Zval = 10.0
     Generated using &quot;atomic&quot; code by A. Dal Corso  v.6.3
     Shape of augmentation charge: PSQ
     Using radial grid of 1129 points,  4 beta functions with: 
                l(1) =   0
                l(2) =   0
                l(3) =   1
                l(4) =   1
     Q(r) pseudized with 0 coefficients 


     PseudoPot. # 2 for Ni read from file:
     ./pseudo/Ni.pbe-spn-kjpaw_psl.1.0.0.UPF
     MD5 check sum: 6e86b733589c3ad8389697b807d86aa7
     Pseudo is Projector augmented-wave + core cor, Zval = 18.0
     Generated using &quot;atomic&quot; code by A. Dal Corso  v.6.3
     Shape of augmentation charge: PSQ
     Using radial grid of 1195 points,  6 beta functions with: 
                l(1) =   0
                l(2) =   0
                l(3) =   1
                l(4) =   1
                l(5) =   2
                l(6) =   2
     Q(r) pseudized with 0 coefficients 


     atomic species   valence    mass     pseudopotential
        Mg            10.00    24.30500     Mg( 1.00)
        Ni            18.00    58.69340     Ni( 1.00)

     No symmetry found



   Cartesian axes

     site n.     atom                  positions (alat units)
         1           Mg  tau(   1) = (  -0.5002935   0.8686048   1.3306762  )
         2           Mg  tau(   2) = (   0.4971890   0.8716035   2.9678913  )
         3           Mg  tau(   3) = (   0.4982822   0.8702211   1.9443353  )
         4           Mg  tau(   4) = (  -0.4992456   0.8664597   0.3087411  )
         5           Mg  tau(   5) = (  -0.0010373   0.5824704   2.1495538  )
         6           Mg  tau(   6) = (   0.5005700   0.2896890   0.5105282  )
         7           Mg  tau(   7) = (   0.5004147   0.2905071   1.1259474  )
         8           Mg  tau(   8) = (  -0.0028294   0.5843382   2.7657090  )
         9           Ni  tau(   9) = (   0.0001292   0.5805001   1.2277487  )
        10           Ni  tau(  10) = (   0.4988930   0.2973391   2.8635239  )
        11           Ni  tau(  11) = (   0.4988818   0.2935936   2.0471368  )
        12           Ni  tau(  12) = (  -0.0009227   0.5786105   0.4095960  )
        13           Ni  tau(  13) = (  -0.0004319   0.2891375   0.8199681  )
        14           Ni  tau(  14) = (   0.7466975   0.1497803   2.4561713  )
        15           Ni  tau(  15) = (   0.4993341   0.5827060   2.4574615  )
        16           Ni  tau(  16) = (  -0.2507192   0.7233621   0.8174476  )
        17           Ni  tau(  17) = (   0.2487011   0.7240982   0.8185000  )
        18           Ni  tau(  18) = (   0.2462615   0.1488841   2.4559271  )
        19           Ni  tau(  19) = (   0.4991566   0.0040430   1.6393310  )
        20           Ni  tau(  20) = (   0.2483374   0.4391185   3.2751866  )
        21           Ni  tau(  21) = (   0.4982983   0.0069498   3.2748154  )
        22           Ni  tau(  22) = (   0.2489192   0.4344526   1.6370422  )
        23           Ni  tau(  23) = (  -0.2514521   0.4420083   3.2734208  )
        24           Ni  tau(  24) = (   0.7501357   0.4342308   1.6377124  )

     number of k points=     5  Marzari-Vanderbilt smearing, width (Ry)=  0.0500
                       cart. coord. in units 2pi/alat
        k(    1) = (   0.0000000   0.0000000   0.0000000), wk =   0.2222222
        k(    2) = (  -0.0002210   0.3847457  -0.0007677), wk =   0.4444444
        k(    3) = (   0.3332228   0.1922939  -0.0001347), wk =   0.4444444
        k(    4) = (   0.3330018   0.5770397  -0.0009024), wk =   0.4444444
        k(    5) = (   0.3334439  -0.1924518   0.0006330), wk =   0.4444444

     Dense  grid:   361437 G-vectors     FFT dimensions: (  64,  64, 216)

     Smooth grid:   127769 G-vectors     FFT dimensions: (  45,  45, 150)

     Estimated max dynamical RAM per process >       2.02 GB

     Check: negative core charge=   -0.000009

     Initial potential from superposition of free atoms

     starting charge     367.9886, renormalised to     368.0000
     Starting wfcs are  200 randomized atomic wfcs +   21 random wfcs
     Checking if some PAW data can be deallocated... 

     total cpu time spent up to now is        7.4 secs

     Self-consistent Calculation

     iteration #  1     ecut=    60.00 Ry     beta= 0.22
     Davidson diagonalization with overlap
     ethr =  1.00E-02,  avg # of iterations =  5.2

     negative rho (up, down):  1.887E-02 0.000E+00

     total cpu time spent up to now is       23.0 secs

     total energy              =   -7998.44327936 Ry
     estimated scf accuracy    <      67.53441951 Ry

     iteration #  2     ecut=    60.00 Ry     beta= 0.22
     Davidson diagonalization with overlap
     ethr =  1.00E-02,  avg # of iterations =  2.0

     total cpu time spent up to now is       31.4 secs

     total energy              =   -7996.44704586 Ry
     estimated scf accuracy    <     126.50777894 Ry

     iteration #  3     ecut=    60.00 Ry     beta= 0.22
     Davidson diagonalization with overlap
     ethr =  1.00E-02,  avg # of iterations =  2.0

     negative rho (up, down):  1.030E-05 0.000E+00

     total cpu time spent up to now is       40.1 secs

     total energy              =   -7985.23132795 Ry
     estimated scf accuracy    <      91.76811156 Ry

     iteration #  4     ecut=    60.00 Ry     beta= 0.22
     Davidson diagonalization with overlap
     ethr =  1.00E-02,  avg # of iterations =  4.6

     negative rho (up, down):  6.593E-03 0.000E+00

     total cpu time spent up to now is       49.7 secs

     total energy              =   -7974.20735669 Ry
     estimated scf accuracy    <    1377.81904428 Ry

     iteration #  5     ecut=    60.00 Ry     beta= 0.22
     Davidson diagonalization with overlap
     ethr =  1.00E-02,  avg # of iterations =  3.2

     negative rho (up, down):  1.335E-02 0.000E+00

     total cpu time spent up to now is       58.1 secs

     total energy              =   -7993.59179782 Ry
     estimated scf accuracy    <     196.03817520 Ry

     iteration #  6     ecut=    60.00 Ry     beta= 0.22
     Davidson diagonalization with overlap
     ethr =  1.00E-02,  avg # of iterations =  2.0

     negative rho (up, down):  2.000E-02 0.000E+00

     total cpu time spent up to now is       65.8 secs

     total energy              =   -7995.97603259 Ry
     estimated scf accuracy    <     356.00367840 Ry

     iteration #  7     ecut=    60.00 Ry     beta= 0.22
     Davidson diagonalization with overlap
     ethr =  1.00E-02,  avg # of iterations =  1.0

     negative rho (up, down):  3.218E-02 0.000E+00

     total cpu time spent up to now is       72.6 secs

     total energy              =   -7998.79451454 Ry
     estimated scf accuracy    <      70.36205886 Ry

     iteration #  8     ecut=    60.00 Ry     beta= 0.22
     Davidson diagonalization with overlap
     ethr =  1.00E-02,  avg # of iterations =  1.0

     negative rho (up, down):  4.668E-02 0.000E+00

     total cpu time spent up to now is       79.5 secs

     total energy              =   -7999.51930399 Ry
     estimated scf accuracy    <      54.72166494 Ry

     iteration #  9     ecut=    60.00 Ry     beta= 0.22
     Davidson diagonalization with overlap
     ethr =  1.00E-02,  avg # of iterations =  1.0

     negative rho (up, down):  1.893E-02 0.000E+00

     total cpu time spent up to now is       86.3 secs

     total energy              =   -7999.59384207 Ry
     estimated scf accuracy    <      56.81505061 Ry

     iteration # 10     ecut=    60.00 Ry     beta= 0.22
     Davidson diagonalization with overlap
     ethr =  1.00E-02,  avg # of iterations =  1.0

     negative rho (up, down):  1.890E-02 0.000E+00

     total cpu time spent up to now is       93.2 secs

     total energy              =   -7999.84576131 Ry
     estimated scf accuracy    <      74.09903211 Ry

     iteration # 11     ecut=    60.00 Ry     beta= 0.22
     Davidson diagonalization with overlap
     ethr =  1.00E-02,  avg # of iterations =  1.0

     negative rho (up, down):  7.670E-03 0.000E+00

     total cpu time spent up to now is      100.1 secs

     total energy              =   -7999.50049433 Ry
     estimated scf accuracy    <      73.40278992 Ry

     iteration # 12     ecut=    60.00 Ry     beta= 0.22
     Davidson diagonalization with overlap
     ethr =  1.00E-02,  avg # of iterations =  1.0

     negative rho (up, down):  1.758E-03 0.000E+00

     total cpu time spent up to now is      107.1 secs

     total energy              =   -7998.27056905 Ry
     estimated scf accuracy    <      80.61576426 Ry

     iteration # 13     ecut=    60.00 Ry     beta= 0.22
     Davidson diagonalization with overlap
     ethr =  1.00E-02,  avg # of iterations =  1.8

     negative rho (up, down):  1.149E-02 0.000E+00

     total cpu time spent up to now is      114.5 secs

     total energy              =   -7998.11729211 Ry
     estimated scf accuracy    <      47.51132558 Ry

     iteration # 14     ecut=    60.00 Ry     beta= 0.22
     Davidson diagonalization with overlap
     ethr =  1.00E-02,  avg # of iterations =  1.0

     negative rho (up, down):  8.538E-03 0.000E+00

     total cpu time spent up to now is      121.6 secs

     total energy              =   -7998.96791813 Ry
     estimated scf accuracy    <      35.52300016 Ry

     iteration # 15     ecut=    60.00 Ry     beta= 0.22
     Davidson diagonalization with overlap
     ethr =  9.65E-03,  avg # of iterations =  1.0

     total cpu time spent up to now is      128.5 secs

     total energy              =   -7998.40937487 Ry
     estimated scf accuracy    <      35.36405684 Ry

     iteration # 16     ecut=    60.00 Ry     beta= 0.22
     Davidson diagonalization with overlap
     ethr =  9.61E-03,  avg # of iterations =  1.0

     negative rho (up, down):  1.813E-04 0.000E+00

     total cpu time spent up to now is      135.5 secs

     total energy              =   -7998.38206866 Ry
     estimated scf accuracy    <      23.93454877 Ry

     iteration # 17     ecut=    60.00 Ry     beta= 0.22
     Davidson diagonalization with overlap
     ethr =  6.50E-03,  avg # of iterations =  1.0

     negative rho (up, down):  5.376E-04 0.000E+00

     total cpu time spent up to now is      142.4 secs

     total energy              =   -7998.43629559 Ry
     estimated scf accuracy    <      17.37128010 Ry

     iteration # 18     ecut=    60.00 Ry     beta= 0.22
     Davidson diagonalization with overlap
     ethr =  4.72E-03,  avg # of iterations =  1.0

     negative rho (up, down):  8.943E-04 0.000E+00

     total cpu time spent up to now is      149.3 secs

     total energy              =   -7998.44959195 Ry
     estimated scf accuracy    <      14.79064846 Ry

     iteration # 19     ecut=    60.00 Ry     beta= 0.22
     Davidson diagonalization with overlap
     ethr =  4.02E-03,  avg # of iterations =  1.0

     negative rho (up, down):  5.794E-04 0.000E+00

     total cpu time spent up to now is      156.2 secs

     total energy              =   -7998.49216069 Ry
     estimated scf accuracy    <      14.30792455 Ry

     iteration # 20     ecut=    60.00 Ry     beta= 0.22
     Davidson diagonalization with overlap
     ethr =  3.89E-03,  avg # of iterations =  1.0

     negative rho (up, down):  4.529E-04 0.000E+00

     total cpu time spent up to now is      163.0 secs

     total energy              =   -7998.53731678 Ry
     estimated scf accuracy    <      15.27105561 Ry

     iteration # 21     ecut=    60.00 Ry     beta= 0.22
     Davidson diagonalization with overlap
     ethr =  3.89E-03,  avg # of iterations =  1.0

     total cpu time spent up to now is      170.0 secs

     total energy              =   -7998.53085269 Ry
     estimated scf accuracy    <      16.64316323 Ry

     iteration # 22     ecut=    60.00 Ry     beta= 0.22
     Davidson diagonalization with overlap
     ethr =  3.89E-03,  avg # of iterations =  1.0

     total cpu time spent up to now is      176.8 secs

     total energy              =   -7998.27504702 Ry
     estimated scf accuracy    <      16.19588575 Ry

     iteration # 23     ecut=    60.00 Ry     beta= 0.22
     Davidson diagonalization with overlap
     ethr =  3.89E-03,  avg # of iterations =  1.2

     total cpu time spent up to now is      184.5 secs

     total energy              =   -7998.10611029 Ry
     estimated scf accuracy    <      13.18813298 Ry

     iteration # 24     ecut=    60.00 Ry     beta= 0.22
     Davidson diagonalization with overlap
     ethr =  3.58E-03,  avg # of iterations =  1.0

     negative rho (up, down):  5.538E-04 0.000E+00

     total cpu time spent up to now is      191.6 secs

     total energy              =   -7997.90966990 Ry
     estimated scf accuracy    <       7.79904247 Ry

     iteration # 25     ecut=    60.00 Ry     beta= 0.22
     Davidson diagonalization with overlap
     ethr =  2.12E-03,  avg # of iterations =  1.2

     negative rho (up, down):  2.412E-04 0.000E+00

     total cpu time spent up to now is      198.6 secs

     total energy              =   -7998.06206346 Ry
     estimated scf accuracy    <      12.15104345 Ry

     iteration # 26     ecut=    60.00 Ry     beta= 0.22
     Davidson diagonalization with overlap
     ethr =  2.12E-03,  avg # of iterations =  1.0

     negative rho (up, down):  2.171E-02 0.000E+00

     total cpu time spent up to now is      205.4 secs

     total energy              =   -7997.77504540 Ry
     estimated scf accuracy    <       9.47958754 Ry

     iteration # 27     ecut=    60.00 Ry     beta= 0.22
     Davidson diagonalization with overlap
     ethr =  2.12E-03,  avg # of iterations =  2.0

     negative rho (up, down):  1.064E-03 0.000E+00

     total cpu time spent up to now is      213.1 secs

     total energy              =   -7997.14141760 Ry
     estimated scf accuracy    <      40.66402980 Ry

     iteration # 28     ecut=    60.00 Ry     beta= 0.22
     Davidson diagonalization with overlap
     ethr =  2.12E-03,  avg # of iterations =  2.0

     negative rho (up, down):  1.066E-04 0.000E+00

     total cpu time spent up to now is      220.6 secs

     total energy              =   -7997.85311946 Ry
     estimated scf accuracy    <      10.21563324 Ry

     iteration # 29     ecut=    60.00 Ry     beta= 0.22
     Davidson diagonalization with overlap
     ethr =  2.12E-03,  avg # of iterations =  1.0

     total cpu time spent up to now is      227.5 secs

     total energy              =   -7997.89891623 Ry
     estimated scf accuracy    <       3.60980178 Ry

     iteration # 30     ecut=    60.00 Ry     beta= 0.22
     Davidson diagonalization with overlap
     ethr =  9.81E-04,  avg # of iterations =  1.0

     total cpu time spent up to now is      234.4 secs

     total energy              =   -7997.81504227 Ry
     estimated scf accuracy    <       3.38370738 Ry

     iteration # 31     ecut=    60.00 Ry     beta= 0.22
     Davidson diagonalization with overlap
     ethr =  9.19E-04,  avg # of iterations =  1.0

     total cpu time spent up to now is      241.3 secs

     total energy              =   -7997.83666868 Ry
     estimated scf accuracy    <       1.64923398 Ry

     iteration # 32     ecut=    60.00 Ry     beta= 0.22
     Davidson diagonalization with overlap
     ethr =  4.48E-04,  avg # of iterations =  1.0

     negative rho (up, down):  4.824E-04 0.000E+00

     total cpu time spent up to now is      248.1 secs

     total energy              =   -7997.83577618 Ry
     estimated scf accuracy    <       1.06115672 Ry

     iteration # 33     ecut=    60.00 Ry     beta= 0.22
     Davidson diagonalization with overlap
     ethr =  2.88E-04,  avg # of iterations =  1.0

     negative rho (up, down):  7.338E-04 0.000E+00

     total cpu time spent up to now is      255.0 secs

     total energy              =   -7997.83633936 Ry
     estimated scf accuracy    <       0.79571619 Ry

     iteration # 34     ecut=    60.00 Ry     beta= 0.22
     Davidson diagonalization with overlap
     ethr =  2.16E-04,  avg # of iterations =  1.0

     negative rho (up, down):  8.286E-04 0.000E+00

     total cpu time spent up to now is      261.9 secs

     total energy              =   -7997.83551356 Ry
     estimated scf accuracy    <       0.90669738 Ry

     iteration # 35     ecut=    60.00 Ry     beta= 0.22
     Davidson diagonalization with overlap
     ethr =  2.16E-04,  avg # of iterations =  1.0

     negative rho (up, down):  1.211E-03 0.000E+00

     total cpu time spent up to now is      268.8 secs

     total energy              =   -7997.83492753 Ry
     estimated scf accuracy    <       0.99961540 Ry

     iteration # 36     ecut=    60.00 Ry     beta= 0.22
     Davidson diagonalization with overlap
     ethr =  2.16E-04,  avg # of iterations =  1.0

     negative rho (up, down):  1.705E-03 0.000E+00

     total cpu time spent up to now is      275.6 secs

     total energy              =   -7997.83675278 Ry
     estimated scf accuracy    <       0.73959450 Ry

     iteration # 37     ecut=    60.00 Ry     beta= 0.22
     Davidson diagonalization with overlap
     ethr =  2.01E-04,  avg # of iterations =  1.0

     negative rho (up, down):  2.401E-03 0.000E+00

     total cpu time spent up to now is      282.5 secs

     total energy              =   -7997.84331877 Ry
     estimated scf accuracy    <       0.96809399 Ry

     iteration # 38     ecut=    60.00 Ry     beta= 0.22
     Davidson diagonalization with overlap
     ethr =  2.01E-04,  avg # of iterations =  1.0

     negative rho (up, down):  2.950E-03 0.000E+00

     total cpu time spent up to now is      289.4 secs

     total energy              =   -7997.85364275 Ry
     estimated scf accuracy    <       1.31854612 Ry

     iteration # 39     ecut=    60.00 Ry     beta= 0.22
     Davidson diagonalization with overlap
     ethr =  2.01E-04,  avg # of iterations =  1.0

     negative rho (up, down):  2.936E-03 0.000E+00

     total cpu time spent up to now is      296.2 secs

     total energy              =   -7997.85510840 Ry
     estimated scf accuracy    <       1.74589353 Ry

     iteration # 40     ecut=    60.00 Ry     beta= 0.22
     Davidson diagonalization with overlap
     ethr =  2.01E-04,  avg # of iterations =  1.0

     negative rho (up, down):  2.726E-03 0.000E+00

     total cpu time spent up to now is      303.1 secs

     total energy              =   -7997.85647469 Ry
     estimated scf accuracy    <       1.64668267 Ry

     iteration # 41     ecut=    60.00 Ry     beta= 0.22
     Davidson diagonalization with overlap
     ethr =  2.01E-04,  avg # of iterations =  1.0

     negative rho (up, down):  2.400E-03 0.000E+00

     total cpu time spent up to now is      310.0 secs

     total energy              =   -7997.84848849 Ry
     estimated scf accuracy    <       1.84139638 Ry

     iteration # 42     ecut=    60.00 Ry     beta= 0.22
     Davidson diagonalization with overlap
     ethr =  2.01E-04,  avg # of iterations =  1.0

     negative rho (up, down):  1.698E-03 0.000E+00

     total cpu time spent up to now is      316.9 secs

     total energy              =   -7997.83222987 Ry
     estimated scf accuracy    <       1.41606810 Ry

     iteration # 43     ecut=    60.00 Ry     beta= 0.22
     Davidson diagonalization with overlap
     ethr =  2.01E-04,  avg # of iterations =  1.4

     negative rho (up, down):  2.412E-03 0.000E+00

     total cpu time spent up to now is      324.0 secs

     total energy              =   -7997.80100312 Ry
     estimated scf accuracy    <       1.70007880 Ry

     iteration # 44     ecut=    60.00 Ry     beta= 0.22
     Davidson diagonalization with overlap
     ethr =  2.01E-04,  avg # of iterations =  2.0

     negative rho (up, down):  1.660E-03 0.000E+00

     total cpu time spent up to now is      331.6 secs

     total energy              =   -7997.81344789 Ry
     estimated scf accuracy    <       1.87488676 Ry

     iteration # 45     ecut=    60.00 Ry     beta= 0.22
     Davidson diagonalization with overlap
     ethr =  2.01E-04,  avg # of iterations =  1.0

     negative rho (up, down):  1.727E-03 0.000E+00

     total cpu time spent up to now is      338.4 secs

     total energy              =   -7997.82038934 Ry
     estimated scf accuracy    <       0.85566647 Ry

     iteration # 46     ecut=    60.00 Ry     beta= 0.22
     Davidson diagonalization with overlap
     ethr =  2.01E-04,  avg # of iterations =  1.0

     negative rho (up, down):  1.645E-03 0.000E+00

     total cpu time spent up to now is      345.3 secs

     total energy              =   -7997.83282467 Ry
     estimated scf accuracy    <       0.50534687 Ry

     iteration # 47     ecut=    60.00 Ry     beta= 0.22
     Davidson diagonalization with overlap
     ethr =  1.37E-04,  avg # of iterations =  1.0

     negative rho (up, down):  1.935E-03 0.000E+00

     total cpu time spent up to now is      352.2 secs

     total energy              =   -7997.83647615 Ry
     estimated scf accuracy    <       0.59273705 Ry

     iteration # 48     ecut=    60.00 Ry     beta= 0.22
     Davidson diagonalization with overlap
     ethr =  1.37E-04,  avg # of iterations =  1.2

     negative rho (up, down):  1.466E-03 0.000E+00

     total cpu time spent up to now is      359.2 secs

     total energy              =   -7997.83340740 Ry
     estimated scf accuracy    <       0.70682273 Ry

     iteration # 49     ecut=    60.00 Ry     beta= 0.22
     Davidson diagonalization with overlap
     ethr =  1.37E-04,  avg # of iterations =  1.6

     negative rho (up, down):  1.203E-03 0.000E+00

     total cpu time spent up to now is      366.5 secs

     total energy              =   -7997.83660578 Ry
     estimated scf accuracy    <       0.26606917 Ry

     iteration # 50     ecut=    60.00 Ry     beta= 0.22
     Davidson diagonalization with overlap
     ethr =  7.23E-05,  avg # of iterations =  1.2

     negative rho (up, down):  1.659E-03 0.000E+00

     total cpu time spent up to now is      373.5 secs

     total energy              =   -7997.83084119 Ry
     estimated scf accuracy    <       0.33434387 Ry

     iteration # 51     ecut=    60.00 Ry     beta= 0.22
     Davidson diagonalization with overlap
     ethr =  7.23E-05,  avg # of iterations =  2.0

     negative rho (up, down):  1.747E-03 0.000E+00

     total cpu time spent up to now is      381.1 secs

     total energy              =   -7997.83934506 Ry
     estimated scf accuracy    <       0.45478059 Ry

     iteration # 52     ecut=    60.00 Ry     beta= 0.22
     Davidson diagonalization with overlap
     ethr =  7.23E-05,  avg # of iterations =  1.2

     negative rho (up, down):  1.935E-03 0.000E+00

     total cpu time spent up to now is      388.1 secs

     total energy              =   -7997.83916396 Ry
     estimated scf accuracy    <       0.63161482 Ry

     iteration # 53     ecut=    60.00 Ry     beta= 0.22
     Davidson diagonalization with overlap
     ethr =  7.23E-05,  avg # of iterations =  1.0

     negative rho (up, down):  1.833E-03 0.000E+00

     total cpu time spent up to now is      395.0 secs

     total energy              =   -7997.83592043 Ry
     estimated scf accuracy    <       0.88182590 Ry

     iteration # 54     ecut=    60.00 Ry     beta= 0.22
     Davidson diagonalization with overlap
     ethr =  7.23E-05,  avg # of iterations =  1.2

     negative rho (up, down):  1.611E-03 0.000E+00

     total cpu time spent up to now is      402.0 secs

     total energy              =   -7997.83632997 Ry
     estimated scf accuracy    <       0.56633859 Ry

     iteration # 55     ecut=    60.00 Ry     beta= 0.22
     Davidson diagonalization with overlap
     ethr =  7.23E-05,  avg # of iterations =  1.2

     negative rho (up, down):  1.087E-03 0.000E+00

     total cpu time spent up to now is      409.0 secs

     total energy              =   -7997.83374006 Ry
     estimated scf accuracy    <       0.25972750 Ry

     iteration # 56     ecut=    60.00 Ry     beta= 0.22
     Davidson diagonalization with overlap
     ethr =  7.06E-05,  avg # of iterations =  1.2

     negative rho (up, down):  1.160E-03 0.000E+00

     total cpu time spent up to now is      416.2 secs

     total energy              =   -7997.83671508 Ry
     estimated scf accuracy    <       0.11549672 Ry

     iteration # 57     ecut=    60.00 Ry     beta= 0.22
     Davidson diagonalization with overlap
     ethr =  3.14E-05,  avg # of iterations =  3.8

     negative rho (up, down):  1.161E-03 0.000E+00

     total cpu time spent up to now is      423.9 secs

     total energy              =   -7997.83797682 Ry
     estimated scf accuracy    <       0.09811410 Ry

     iteration # 58     ecut=    60.00 Ry     beta= 0.22
     Davidson diagonalization with overlap
     ethr =  2.67E-05,  avg # of iterations =  1.0

     negative rho (up, down):  1.076E-03 0.000E+00

     total cpu time spent up to now is      430.9 secs

     total energy              =   -7997.83737849 Ry
     estimated scf accuracy    <       0.10356288 Ry

     iteration # 59     ecut=    60.00 Ry     beta= 0.22
     Davidson diagonalization with overlap
     ethr =  2.67E-05,  avg # of iterations =  1.0

     negative rho (up, down):  1.046E-03 0.000E+00

     total cpu time spent up to now is      437.8 secs

     total energy              =   -7997.83689845 Ry
     estimated scf accuracy    <       0.10814165 Ry

     iteration # 60     ecut=    60.00 Ry     beta= 0.22
     Davidson diagonalization with overlap
     ethr =  2.67E-05,  avg # of iterations =  1.0

     negative rho (up, down):  8.736E-04 0.000E+00

     total cpu time spent up to now is      444.7 secs

     total energy              =   -7997.83685806 Ry
     estimated scf accuracy    <       0.10616752 Ry

     iteration # 61     ecut=    60.00 Ry     beta= 0.22
     Davidson diagonalization with overlap
     ethr =  2.67E-05,  avg # of iterations =  1.0

     negative rho (up, down):  5.544E-04 0.000E+00

     total cpu time spent up to now is      451.7 secs

     total energy              =   -7997.83862845 Ry
     estimated scf accuracy    <       0.09780285 Ry

     iteration # 62     ecut=    60.00 Ry     beta= 0.22
     Davidson diagonalization with overlap
     ethr =  2.66E-05,  avg # of iterations =  1.0

     negative rho (up, down):  2.779E-04 0.000E+00

     total cpu time spent up to now is      458.6 secs

     total energy              =   -7997.83711365 Ry
     estimated scf accuracy    <       0.13044419 Ry

     iteration # 63     ecut=    60.00 Ry     beta= 0.22
     Davidson diagonalization with overlap
     ethr =  2.66E-05,  avg # of iterations =  1.0

     total cpu time spent up to now is      465.7 secs

     total energy              =   -7997.83777118 Ry
     estimated scf accuracy    <       0.13699875 Ry

     iteration # 64     ecut=    60.00 Ry     beta= 0.22
     Davidson diagonalization with overlap
     ethr =  2.66E-05,  avg # of iterations =  1.0

     total cpu time spent up to now is      472.6 secs

     total energy              =   -7997.83556326 Ry
     estimated scf accuracy    <       0.34721239 Ry

     iteration # 65     ecut=    60.00 Ry     beta= 0.22
     Davidson diagonalization with overlap
     ethr =  2.66E-05,  avg # of iterations =  1.0

     total cpu time spent up to now is      479.6 secs

     total energy              =   -7997.83927315 Ry
     estimated scf accuracy    <       0.22411325 Ry

     iteration # 66     ecut=    60.00 Ry     beta= 0.22
     Davidson diagonalization with overlap
     ethr =  2.66E-05,  avg # of iterations =  1.0

     total cpu time spent up to now is      486.5 secs

     total energy              =   -7997.84004590 Ry
     estimated scf accuracy    <       0.19784785 Ry

     iteration # 67     ecut=    60.00 Ry     beta= 0.22
     Davidson diagonalization with overlap
     ethr =  2.66E-05,  avg # of iterations =  1.0

     total cpu time spent up to now is      493.5 secs

     total energy              =   -7997.84081356 Ry
     estimated scf accuracy    <       0.18469370 Ry

     iteration # 68     ecut=    60.00 Ry     beta= 0.22
     Davidson diagonalization with overlap
     ethr =  2.66E-05,  avg # of iterations =  1.0

     total cpu time spent up to now is      500.4 secs

     total energy              =   -7997.84077542 Ry
     estimated scf accuracy    <       0.19238855 Ry

     iteration # 69     ecut=    60.00 Ry     beta= 0.22
     Davidson diagonalization with overlap
     ethr =  2.66E-05,  avg # of iterations =  1.0

     total cpu time spent up to now is      507.4 secs

     total energy              =   -7997.84136170 Ry
     estimated scf accuracy    <       0.17898817 Ry

     iteration # 70     ecut=    60.00 Ry     beta= 0.22
     Davidson diagonalization with overlap
     ethr =  2.66E-05,  avg # of iterations =  1.0

     total cpu time spent up to now is      514.6 secs

     total energy              =   -7997.84173640 Ry
     estimated scf accuracy    <       0.17145143 Ry

     iteration # 71     ecut=    60.00 Ry     beta= 0.22
     Davidson diagonalization with overlap
     ethr =  2.66E-05,  avg # of iterations =  1.0

     total cpu time spent up to now is      521.5 secs

     total energy              =   -7997.84101704 Ry
     estimated scf accuracy    <       0.19084033 Ry

     iteration # 72     ecut=    60.00 Ry     beta= 0.22
     Davidson diagonalization with overlap
     ethr =  2.66E-05,  avg # of iterations =  1.0

     total cpu time spent up to now is      528.5 secs

     total energy              =   -7997.84168375 Ry
     estimated scf accuracy    <       0.18769609 Ry

     iteration # 73     ecut=    60.00 Ry     beta= 0.22
     Davidson diagonalization with overlap
     ethr =  2.66E-05,  avg # of iterations =  1.0

     total cpu time spent up to now is      535.5 secs

     total energy              =   -7997.84237359 Ry
     estimated scf accuracy    <       0.14318962 Ry

     iteration # 74     ecut=    60.00 Ry     beta= 0.22
     Davidson diagonalization with overlap
     ethr =  2.66E-05,  avg # of iterations =  1.0

     total cpu time spent up to now is      542.4 secs

     total energy              =   -7997.84240515 Ry
     estimated scf accuracy    <       0.10551767 Ry

     iteration # 75     ecut=    60.00 Ry     beta= 0.22
     Davidson diagonalization with overlap
     ethr =  2.66E-05,  avg # of iterations =  1.0

     total cpu time spent up to now is      549.3 secs

     total energy              =   -7997.84274114 Ry
     estimated scf accuracy    <       0.10472789 Ry

     iteration # 76     ecut=    60.00 Ry     beta= 0.22
     Davidson diagonalization with overlap
     ethr =  2.66E-05,  avg # of iterations =  1.0

     total cpu time spent up to now is      556.3 secs

     total energy              =   -7997.84266352 Ry
     estimated scf accuracy    <       0.10989730 Ry

     iteration # 77     ecut=    60.00 Ry     beta= 0.22
     Davidson diagonalization with overlap
     ethr =  2.66E-05,  avg # of iterations =  1.0

     total cpu time spent up to now is      563.1 secs

     total energy              =   -7997.84181061 Ry
     estimated scf accuracy    <       0.24925910 Ry

     iteration # 78     ecut=    60.00 Ry     beta= 0.22
     Davidson diagonalization with overlap
     ethr =  2.66E-05,  avg # of iterations =  1.0

     total cpu time spent up to now is      570.1 secs

     total energy              =   -7997.84375835 Ry
     estimated scf accuracy    <       0.10657199 Ry

     iteration # 79     ecut=    60.00 Ry     beta= 0.22
     Davidson diagonalization with overlap
     ethr =  2.66E-05,  avg # of iterations =  1.0

     total cpu time spent up to now is      577.1 secs

     total energy              =   -7997.84039139 Ry
     estimated scf accuracy    <       0.10227142 Ry

     iteration # 80     ecut=    60.00 Ry     beta= 0.22
     Davidson diagonalization with overlap
     ethr =  2.66E-05,  avg # of iterations =  1.0

     total cpu time spent up to now is      584.1 secs

     total energy              =   -7997.84211527 Ry
     estimated scf accuracy    <       0.20141096 Ry

     iteration # 81     ecut=    60.00 Ry     beta= 0.22
     Davidson diagonalization with overlap
     ethr =  2.66E-05,  avg # of iterations =  1.0

     total cpu time spent up to now is      591.0 secs

     total energy              =   -7997.84309765 Ry
     estimated scf accuracy    <       0.22454715 Ry

     iteration # 82     ecut=    60.00 Ry     beta= 0.22
     Davidson diagonalization with overlap
     ethr =  2.66E-05,  avg # of iterations =  1.0

     total cpu time spent up to now is      598.0 secs

     total energy              =   -7997.84450200 Ry
     estimated scf accuracy    <       0.05206875 Ry

     iteration # 83     ecut=    60.00 Ry     beta= 0.22
     Davidson diagonalization with overlap
     ethr =  1.41E-05,  avg # of iterations =  1.0

     total cpu time spent up to now is      605.1 secs

     total energy              =   -7997.84616779 Ry
     estimated scf accuracy    <       0.04329246 Ry

     iteration # 84     ecut=    60.00 Ry     beta= 0.22
     Davidson diagonalization with overlap
     ethr =  1.18E-05,  avg # of iterations =  1.0

     total cpu time spent up to now is      612.1 secs

     total energy              =   -7997.84689721 Ry
     estimated scf accuracy    <       0.02300457 Ry

     iteration # 85     ecut=    60.00 Ry     beta= 0.22
     Davidson diagonalization with overlap
     ethr =  6.25E-06,  avg # of iterations =  1.0

     total cpu time spent up to now is      619.0 secs

     total energy              =   -7997.84729660 Ry
     estimated scf accuracy    <       0.02305832 Ry

     iteration # 86     ecut=    60.00 Ry     beta= 0.22
     Davidson diagonalization with overlap
     ethr =  6.25E-06,  avg # of iterations =  1.0

     total cpu time spent up to now is      625.9 secs

     total energy              =   -7997.84744580 Ry
     estimated scf accuracy    <       0.02213439 Ry

     iteration # 87     ecut=    60.00 Ry     beta= 0.22
     Davidson diagonalization with overlap
     ethr =  6.01E-06,  avg # of iterations =  1.0

     total cpu time spent up to now is      632.9 secs

     total energy              =   -7997.84797749 Ry
     estimated scf accuracy    <       0.03254600 Ry

     iteration # 88     ecut=    60.00 Ry     beta= 0.22
     Davidson diagonalization with overlap
     ethr =  6.01E-06,  avg # of iterations =  1.0

     total cpu time spent up to now is      639.8 secs

     total energy              =   -7997.84807270 Ry
     estimated scf accuracy    <       0.06444352 Ry

     iteration # 89     ecut=    60.00 Ry     beta= 0.22
     Davidson diagonalization with overlap
     ethr =  6.01E-06,  avg # of iterations =  1.0

     total cpu time spent up to now is      646.8 secs

     total energy              =   -7997.84801698 Ry
     estimated scf accuracy    <       0.06625891 Ry

     iteration # 90     ecut=    60.00 Ry     beta= 0.22
     Davidson diagonalization with overlap
     ethr =  6.01E-06,  avg # of iterations =  1.0

     total cpu time spent up to now is      653.7 secs

     total energy              =   -7997.84837101 Ry
     estimated scf accuracy    <       0.06347124 Ry

     iteration # 91     ecut=    60.00 Ry     beta= 0.22
     Davidson diagonalization with overlap
     ethr =  6.01E-06,  avg # of iterations =  1.0

     total cpu time spent up to now is      660.6 secs

     total energy              =   -7997.84833668 Ry
     estimated scf accuracy    <       0.06298928 Ry

     iteration # 92     ecut=    60.00 Ry     beta= 0.22
     Davidson diagonalization with overlap
     ethr =  6.01E-06,  avg # of iterations =  1.0

     total cpu time spent up to now is      667.5 secs

     total energy              =   -7997.84822098 Ry
     estimated scf accuracy    <       0.06523908 Ry

     iteration # 93     ecut=    60.00 Ry     beta= 0.22
     Davidson diagonalization with overlap
     ethr =  6.01E-06,  avg # of iterations =  1.0

     total cpu time spent up to now is      674.5 secs

     total energy              =   -7997.84831539 Ry
     estimated scf accuracy    <       0.06089198 Ry

     iteration # 94     ecut=    60.00 Ry     beta= 0.22
     Davidson diagonalization with overlap
     ethr =  6.01E-06,  avg # of iterations =  1.0

     total cpu time spent up to now is      681.4 secs

     total energy              =   -7997.84831156 Ry
     estimated scf accuracy    <       0.06284389 Ry

     iteration # 95     ecut=    60.00 Ry     beta= 0.22
     Davidson diagonalization with overlap
     ethr =  6.01E-06,  avg # of iterations =  1.0

     total cpu time spent up to now is      688.3 secs

     total energy              =   -7997.84830969 Ry
     estimated scf accuracy    <       0.06257031 Ry

     iteration # 96     ecut=    60.00 Ry     beta= 0.22
     Davidson diagonalization with overlap
     ethr =  6.01E-06,  avg # of iterations =  1.0

     total cpu time spent up to now is      695.4 secs

     total energy              =   -7997.84844023 Ry
     estimated scf accuracy    <       0.06293347 Ry

     iteration # 97     ecut=    60.00 Ry     beta= 0.22
     Davidson diagonalization with overlap
     ethr =  6.01E-06,  avg # of iterations =  1.0

     total cpu time spent up to now is      702.5 secs

     total energy              =   -7997.84832209 Ry
     estimated scf accuracy    <       0.06915217 Ry

     iteration # 98     ecut=    60.00 Ry     beta= 0.22
     Davidson diagonalization with overlap
     ethr =  6.01E-06,  avg # of iterations =  1.0

     total cpu time spent up to now is      709.5 secs

     total energy              =   -7997.84814561 Ry
     estimated scf accuracy    <       0.06618280 Ry

     iteration # 99     ecut=    60.00 Ry     beta= 0.22
     Davidson diagonalization with overlap
     ethr =  6.01E-06,  avg # of iterations =  1.0

     total cpu time spent up to now is      716.5 secs

     total energy              =   -7997.84817925 Ry
     estimated scf accuracy    <       0.05988270 Ry

     iteration #100     ecut=    60.00 Ry     beta= 0.22
     Davidson diagonalization with overlap
     ethr =  6.01E-06,  avg # of iterations =  1.0

     total cpu time spent up to now is      723.5 secs

     total energy              =   -7997.84795247 Ry
     estimated scf accuracy    <       0.05943413 Ry

     iteration #101     ecut=    60.00 Ry     beta= 0.22
     Davidson diagonalization with overlap
     ethr =  6.01E-06,  avg # of iterations =  1.0

     total cpu time spent up to now is      730.6 secs

     total energy              =   -7997.84778537 Ry
     estimated scf accuracy    <       0.06408404 Ry

     iteration #102     ecut=    60.00 Ry     beta= 0.22
     Davidson diagonalization with overlap
     ethr =  6.01E-06,  avg # of iterations =  1.0

     total cpu time spent up to now is      737.7 secs

     total energy              =   -7997.84799291 Ry
     estimated scf accuracy    <       0.05429346 Ry

     iteration #103     ecut=    60.00 Ry     beta= 0.22
     Davidson diagonalization with overlap
     ethr =  6.01E-06,  avg # of iterations =  1.0

     total cpu time spent up to now is      744.7 secs

     total energy              =   -7997.84726469 Ry
     estimated scf accuracy    <       0.04728978 Ry

     iteration #104     ecut=    60.00 Ry     beta= 0.22
     Davidson diagonalization with overlap
     ethr =  6.01E-06,  avg # of iterations =  1.0

     total cpu time spent up to now is      751.7 secs

     total energy              =   -7997.84626771 Ry
     estimated scf accuracy    <       0.01756819 Ry

     iteration #105     ecut=    60.00 Ry     beta= 0.22
     Davidson diagonalization with overlap
     ethr =  4.77E-06,  avg # of iterations =  1.2

     total cpu time spent up to now is      758.8 secs

     total energy              =   -7997.84671177 Ry
     estimated scf accuracy    <       0.01738114 Ry

     iteration #106     ecut=    60.00 Ry     beta= 0.22
     Davidson diagonalization with overlap
     ethr =  4.72E-06,  avg # of iterations =  1.0

     total cpu time spent up to now is      765.7 secs

     total energy              =   -7997.84723408 Ry
     estimated scf accuracy    <       0.00226957 Ry

     iteration #107     ecut=    60.00 Ry     beta= 0.22
     Davidson diagonalization with overlap
     ethr =  6.17E-07,  avg # of iterations =  1.2

     total cpu time spent up to now is      772.7 secs

     total energy              =   -7997.84727587 Ry
     estimated scf accuracy    <       0.00094354 Ry

     iteration #108     ecut=    60.00 Ry     beta= 0.22
     Davidson diagonalization with overlap
     ethr =  2.56E-07,  avg # of iterations =  1.0

     total cpu time spent up to now is      779.7 secs

     total energy              =   -7997.84730263 Ry
     estimated scf accuracy    <       0.00038008 Ry

     iteration #109     ecut=    60.00 Ry     beta= 0.22
     Davidson diagonalization with overlap
     ethr =  1.03E-07,  avg # of iterations =  1.2

     total cpu time spent up to now is      786.7 secs

     total energy              =   -7997.84730849 Ry
     estimated scf accuracy    <       0.00010533 Ry

     iteration #110     ecut=    60.00 Ry     beta= 0.22
     Davidson diagonalization with overlap
     ethr =  2.86E-08,  avg # of iterations =  1.0

     total cpu time spent up to now is      793.6 secs

     total energy              =   -7997.84731599 Ry
     estimated scf accuracy    <       0.00008548 Ry

     iteration #111     ecut=    60.00 Ry     beta= 0.22
     Davidson diagonalization with overlap
     ethr =  2.32E-08,  avg # of iterations =  1.2

     total cpu time spent up to now is      800.7 secs

     total energy              =   -7997.84732037 Ry
     estimated scf accuracy    <       0.00009211 Ry

     iteration #112     ecut=    60.00 Ry     beta= 0.22
     Davidson diagonalization with overlap
     ethr =  2.32E-08,  avg # of iterations =  1.2

     total cpu time spent up to now is      807.7 secs

     total energy              =   -7997.84732499 Ry
     estimated scf accuracy    <       0.00007123 Ry

     iteration #113     ecut=    60.00 Ry     beta= 0.22
     Davidson diagonalization with overlap
     ethr =  1.94E-08,  avg # of iterations =  1.0

     total cpu time spent up to now is      814.7 secs

     total energy              =   -7997.84732647 Ry
     estimated scf accuracy    <       0.00006891 Ry

     iteration #114     ecut=    60.00 Ry     beta= 0.22
     Davidson diagonalization with overlap
     ethr =  1.87E-08,  avg # of iterations =  1.2

     total cpu time spent up to now is      821.9 secs

     total energy              =   -7997.84733056 Ry
     estimated scf accuracy    <       0.00007826 Ry

     iteration #115     ecut=    60.00 Ry     beta= 0.22
     Davidson diagonalization with overlap
     ethr =  1.87E-08,  avg # of iterations =  1.0

     total cpu time spent up to now is      828.8 secs

     total energy              =   -7997.84733693 Ry
     estimated scf accuracy    <       0.00004456 Ry

     iteration #116     ecut=    60.00 Ry     beta= 0.22
     Davidson diagonalization with overlap
     ethr =  1.21E-08,  avg # of iterations =  1.2

     total cpu time spent up to now is      836.0 secs

     total energy              =   -7997.84734016 Ry
     estimated scf accuracy    <       0.00002428 Ry

     iteration #117     ecut=    60.00 Ry     beta= 0.22
     Davidson diagonalization with overlap
     ethr =  6.60E-09,  avg # of iterations =  1.0

     total cpu time spent up to now is      843.0 secs

     total energy              =   -7997.84734106 Ry
     estimated scf accuracy    <       0.00001471 Ry

     iteration #118     ecut=    60.00 Ry     beta= 0.22
     Davidson diagonalization with overlap
     ethr =  4.00E-09,  avg # of iterations =  1.2

     total cpu time spent up to now is      850.1 secs

     total energy              =   -7997.84734203 Ry
     estimated scf accuracy    <       0.00001442 Ry

     iteration #119     ecut=    60.00 Ry     beta= 0.22
     Davidson diagonalization with overlap
     ethr =  3.92E-09,  avg # of iterations =  1.0

     total cpu time spent up to now is      857.1 secs

     End of self-consistent calculation

          k = 0.0000 0.0000 0.0000 ( 15913 PWs)   bands (ev):

   -89.3157 -89.3113 -89.3097 -89.3045 -89.2769 -89.2749 -89.2522 -89.2516
   -89.2493 -89.2487 -89.2461 -89.2429 -89.2230 -89.2209 -89.2204 -89.2174
   -61.3753 -61.3723 -61.3712 -61.3690 -61.3135 -61.3129 -61.3106 -61.3099
   -49.9973 -49.9822 -49.9611 -49.9262 -49.8761 -49.8317 -49.8170 -49.7935
   -49.7563 -49.7546 -49.7530 -49.7503 -49.7340 -49.7319 -49.7295 -49.7286
   -49.6569 -49.6515 -49.6474 -49.6468 -49.6152 -49.6111 -49.6099 -49.6085
   -49.6060 -49.6057 -49.5759 -49.5742 -49.5658 -49.5634 -49.5593 -49.5557
   -49.5549 -49.5537 -49.5528 -49.5524 -49.5518 -49.5502 -49.5472 -49.5468
   -49.4939 -49.4933 -49.4923 -49.4919 -49.4883 -49.4876 -49.4645 -49.4608
   -28.1306 -28.1277 -28.1251 -28.1246 -28.1221 -28.1213 -28.1207 -28.1201
   -28.1189 -28.1184 -28.1068 -28.1042 -28.0699 -28.0683 -28.0572 -28.0571
   -28.0562 -28.0560 -28.0537 -28.0535 -28.0534 -28.0527 -28.0454 -28.0450
     5.1545   5.7787   5.8161   7.2827   7.9791   9.2218   9.2253   9.3030
     9.8942   9.9215  10.0159  10.1503  10.2695  10.2832  10.2867  10.3255
    10.3341  10.3375  10.4563  10.4615  10.5327  10.5924  10.5952  10.6297
    10.6498  10.6550  10.7427  10.7493  10.8152  10.8172  11.1576  11.1583
    11.1932  11.1958  11.1968  11.2006  11.4444  11.4501  11.6223  11.6360
    11.6393  11.6756  11.6781  11.6938  11.8865  11.8920  12.1649  12.3743
    12.3889  12.4291  12.4317  12.4616  12.6015  12.6063  12.7461  12.7499
    12.8796  12.8857  13.0025  13.0089  13.0137  13.0144  13.0162  13.0209
    13.0273  13.0390  13.0417  13.0482  13.0521  13.0558  13.0569  13.0664
    13.0694  13.1370  13.1393  13.1447  13.1474  13.2651  13.2671  13.6153
    13.6194  13.9043  13.9082  14.1255  14.1258  14.1499  14.1527  14.4717
    14.6210  14.8011  14.8554  14.8653  14.8739  14.8766  14.8843  15.0134
    15.2326  15.2384  15.3048  15.3072  16.6798  16.6897  16.7075  16.7178
    17.2262  17.2319  17.6244  17.6257  18.3170  18.3407  18.3477  18.5785
    18.6620  18.8533  19.2606  19.2715  19.6907  19.6965  20.0699  20.3341
    20.3492  20.6228  20.8391  22.2293  22.3787

          k =-0.0002 0.3847-0.0008 ( 15972 PWs)   bands (ev):

   -89.3142 -89.3101 -89.3089 -89.3044 -89.2715 -89.2707 -89.2582 -89.2521
   -89.2488 -89.2461 -89.2440 -89.2435 -89.2277 -89.2245 -89.2226 -89.2197
   -61.3752 -61.3723 -61.3711 -61.3689 -61.3137 -61.3130 -61.3107 -61.3100
   -49.9616 -49.9500 -49.9288 -49.8883 -49.8817 -49.8299 -49.8185 -49.7956
   -49.7687 -49.7645 -49.7471 -49.7466 -49.7429 -49.7394 -49.7162 -49.7130
   -49.6629 -49.6545 -49.6516 -49.6459 -49.6147 -49.6108 -49.6076 -49.6054
   -49.6044 -49.6024 -49.5784 -49.5736 -49.5722 -49.5698 -49.5694 -49.5641
   -49.5595 -49.5556 -49.5542 -49.5506 -49.5463 -49.5423 -49.5399 -49.5367
   -49.5154 -49.5135 -49.5059 -49.5044 -49.5036 -49.5027 -49.4788 -49.4755
   -28.1313 -28.1284 -28.1258 -28.1240 -28.1229 -28.1215 -28.1207 -28.1197
   -28.1194 -28.1176 -28.1078 -28.1053 -28.0689 -28.0673 -28.0584 -28.0572
   -28.0564 -28.0554 -28.0545 -28.0538 -28.0529 -28.0526 -28.0446 -28.0442
     6.1632   6.7539   6.7952   8.2132   8.7078   8.8729   9.1545   9.2017
     9.7173   9.7584   9.9057  10.0221  10.1114  10.2060  10.2881  10.3816
    10.4224  10.5042  10.5467  10.5638  10.5686  10.6162  10.7659  10.8180
    10.8937  10.9075  10.9746  11.0390  11.0571  11.0649  11.0770  11.1987
    11.2034  11.2358  11.2509  11.3051  11.3321  11.3610  11.4169  11.4755
    11.5683  11.6017  11.6170  11.6425  11.7255  11.8046  11.8519  11.8804
    11.8835  12.0140  12.0219  12.0763  12.0920  12.1519  12.2363  12.2471
    12.2724  12.3328  12.4190  12.4478  12.4589  12.5644  12.5823  12.5983
    12.6638  12.7035  12.7068  12.7727  12.7830  12.8333  12.8715  12.9352
    12.9451  13.0391  13.0482  13.0542  13.0788  13.0929  13.1289  13.1416
    13.1937  13.2209  13.2293  13.3704  13.3900  13.4658  13.5405  13.6852
    13.9830  14.0376  14.4172  14.4283  14.6437  14.7442  14.8393  15.0091
    15.0843  15.1049  15.1880  15.3822  16.0361  16.5028  16.8157  16.8377
    18.2274  18.6118  18.6613  18.8708  19.6116  19.7234  19.8590  19.9342
    19.9761  20.1184  20.6437  21.0710  21.0774  21.2032  21.6611  21.8471
    22.0209  22.5530  22.9247  23.1984  23.2103

          k = 0.3332 0.1923-0.0001 ( 15970 PWs)   bands (ev):

   -89.3143 -89.3101 -89.3089 -89.3044 -89.2732 -89.2701 -89.2548 -89.2523
   -89.2480 -89.2467 -89.2458 -89.2428 -89.2281 -89.2276 -89.2223 -89.2175
   -61.3752 -61.3723 -61.3711 -61.3689 -61.3136 -61.3130 -61.3107 -61.3100
   -49.9614 -49.9494 -49.9295 -49.8888 -49.8818 -49.8306 -49.8183 -49.7949
   -49.7687 -49.7669 -49.7460 -49.7446 -49.7408 -49.7388 -49.7189 -49.7137
   -49.6578 -49.6567 -49.6545 -49.6460 -49.6135 -49.6108 -49.6090 -49.6062
   -49.6041 -49.6022 -49.5763 -49.5739 -49.5720 -49.5713 -49.5710 -49.5654
   -49.5596 -49.5551 -49.5524 -49.5473 -49.5462 -49.5417 -49.5398 -49.5372
   -49.5156 -49.5141 -49.5064 -49.5054 -49.5044 -49.5024 -49.4790 -49.4750
   -28.1313 -28.1286 -28.1259 -28.1239 -28.1223 -28.1213 -28.1212 -28.1196
   -28.1195 -28.1178 -28.1078 -28.1052 -28.0689 -28.0673 -28.0584 -28.0573
   -28.0563 -28.0553 -28.0549 -28.0545 -28.0527 -28.0519 -28.0446 -28.0442
     6.1628   6.7534   6.7950   8.2135   8.7062   8.8739   9.1551   9.2036
     9.7165   9.7580   9.9032  10.0199  10.1109  10.2039  10.2871  10.3826
    10.4246  10.5035  10.5488  10.5616  10.5691  10.6162  10.7651  10.8175
    10.8922  10.9090  10.9749  11.0381  11.0577  11.0680  11.0765  11.1992
    11.2023  11.2373  11.2519  11.3038  11.3321  11.3633  11.4165  11.4719
    11.5709  11.6022  11.6169  11.6418  11.7254  11.8055  11.8565  11.8805
    11.8834  12.0169  12.0203  12.0775  12.0903  12.1515  12.2372  12.2485
    12.2743  12.3348  12.4168  12.4489  12.4579  12.5621  12.5831  12.6010
    12.6646  12.7033  12.7075  12.7727  12.7851  12.8316  12.8675  12.9330
    12.9456  13.0389  13.0485  13.0555  13.0797  13.0902  13.1290  13.1423
    13.1938  13.2214  13.2302  13.3713  13.3911  13.4660  13.5404  13.6827
    13.9823  14.0398  14.4170  14.4270  14.6426  14.7462  14.8354  15.0100
    15.0843  15.1053  15.1858  15.3824  16.0342  16.5040  16.8157  16.8430
    18.2264  18.6099  18.6615  18.8711  19.6135  19.7238  19.8597  19.9337
    19.9743  20.1178  20.6367  21.0717  21.0794  21.2061  21.6615  21.8481
    22.0177  22.5532  22.9222  23.1953  23.2114

          k = 0.3330 0.5770-0.0009 ( 15992 PWs)   bands (ev):

   -89.3136 -89.3096 -89.3086 -89.3044 -89.2675 -89.2646 -89.2609 -89.2602
   -89.2475 -89.2457 -89.2386 -89.2363 -89.2361 -89.2330 -89.2220 -89.2189
   -61.3751 -61.3722 -61.3711 -61.3689 -61.3137 -61.3130 -61.3107 -61.3100
   -49.9269 -49.9224 -49.9155 -49.9109 -49.8239 -49.8217 -49.8184 -49.8181
   -49.7951 -49.7928 -49.7542 -49.7525 -49.7379 -49.7332 -49.7031 -49.7021
   -49.6624 -49.6554 -49.6521 -49.6508 -49.6149 -49.6120 -49.6110 -49.6047
   -49.5999 -49.5983 -49.5819 -49.5818 -49.5763 -49.5734 -49.5715 -49.5699
   -49.5580 -49.5545 -49.5402 -49.5394 -49.5359 -49.5350 -49.5341 -49.5326
   -49.5310 -49.5283 -49.5106 -49.5092 -49.5062 -49.5043 -49.5025 -49.5012
   -28.1316 -28.1287 -28.1269 -28.1237 -28.1231 -28.1224 -28.1207 -28.1201
   -28.1185 -28.1166 -28.1085 -28.1059 -28.0682 -28.0666 -28.0592 -28.0577
   -28.0569 -28.0564 -28.0543 -28.0533 -28.0524 -28.0515 -28.0443 -28.0439
     7.8070   7.8128   8.2725   8.3898   8.3926   8.5732   8.6992   8.7033
     8.9225   9.7217   9.7247   9.7719   9.7739   9.8099   9.8484  10.4340
    10.4437  10.4879  10.6245  10.6290  10.7850  10.7911  10.9486  10.9525
    11.0288  11.0386  11.0850  11.0985  11.1024  11.1082  11.2082  11.2632
    11.2665  11.2904  11.2967  11.3104  11.3462  11.3491  11.3721  11.3753
    11.3897  11.3935  11.4742  11.4821  11.5707  11.5736  11.5786  11.5824
    11.5918  11.8010  11.8167  11.8188  11.9490  12.0984  12.1033  12.1254
    12.1286  12.1792  12.3396  12.3456  12.4311  12.4762  12.4786  12.5348
    12.5632  12.5662  12.6129  12.6966  12.7007  12.7455  12.7491  12.7581
    12.7789  12.8398  12.8421  12.8609  12.8638  12.9132  12.9171  13.0197
    13.1878  13.2045  13.3034  13.3131  13.3151  13.4038  13.4063  13.5163
    13.5775  13.6352  13.6376  13.8976  14.0347  14.0394  14.1296  15.5541
    15.5628  15.6107  15.8189  15.8250  16.4453  18.2612  18.2669  18.4487
    18.7000  18.7069  19.3283  19.3915  19.3982  19.4881  19.4945  19.7445
    19.9794  20.3936  20.4670  20.4725  21.2830  21.2846  21.6565  21.6620
    21.7708  22.4737  23.7816  23.7847  23.9789

          k = 0.3334-0.1925 0.0006 ( 15977 PWs)   bands (ev):

   -89.3143 -89.3101 -89.3089 -89.3044 -89.2717 -89.2701 -89.2574 -89.2547
   -89.2469 -89.2455 -89.2443 -89.2434 -89.2300 -89.2251 -89.2210 -89.2193
   -61.3752 -61.3723 -61.3711 -61.3689 -61.3137 -61.3130 -61.3107 -61.3100
   -49.9611 -49.9494 -49.9288 -49.8888 -49.8810 -49.8299 -49.8181 -49.7951
   -49.7703 -49.7652 -49.7471 -49.7450 -49.7432 -49.7403 -49.7156 -49.7133
   -49.6620 -49.6562 -49.6511 -49.6455 -49.6142 -49.6107 -49.6081 -49.6054
   -49.6045 -49.6024 -49.5780 -49.5746 -49.5710 -49.5702 -49.5689 -49.5642
   -49.5585 -49.5554 -49.5530 -49.5525 -49.5462 -49.5420 -49.5409 -49.5370
   -49.5160 -49.5135 -49.5055 -49.5049 -49.5045 -49.5029 -49.4780 -49.4755
   -28.1314 -28.1285 -28.1255 -28.1242 -28.1226 -28.1210 -28.1210 -28.1200
   -28.1193 -28.1180 -28.1078 -28.1052 -28.0689 -28.0673 -28.0584 -28.0573
   -28.0564 -28.0553 -28.0547 -28.0542 -28.0528 -28.0522 -28.0446 -28.0442
     6.1641   6.7549   6.7961   8.2156   8.7074   8.8775   9.1585   9.2067
     9.7160   9.7581   9.9037  10.0215  10.1129  10.2062  10.2922  10.3824
    10.4241  10.5020  10.5488  10.5609  10.5695  10.6129  10.7618  10.8192
    10.8951  10.9048  10.9757  11.0421  11.0557  11.0618  11.0756  11.1977
    11.2034  11.2373  11.2550  11.3054  11.3337  11.3598  11.4163  11.4759
    11.5684  11.6027  11.6135  11.6409  11.7299  11.8055  11.8563  11.8800
    11.8848  12.0164  12.0192  12.0755  12.0932  12.1512  12.2370  12.2549
    12.2686  12.3338  12.4193  12.4448  12.4624  12.5649  12.5823  12.5977
    12.6644  12.7050  12.7071  12.7709  12.7844  12.8284  12.8692  12.9334
    12.9431  13.0373  13.0473  13.0543  13.0786  13.0911  13.1280  13.1433
    13.1921  13.2205  13.2277  13.3710  13.3881  13.4676  13.5420  13.6851
    13.9786  14.0426  14.4157  14.4252  14.6371  14.7417  14.8317  15.0040
    15.0796  15.1000  15.1794  15.3765  16.0354  16.5090  16.8122  16.8427
    18.2209  18.6089  18.6566  18.8727  19.6114  19.7221  19.8555  19.9334
    19.9674  20.1159  20.6430  21.0724  21.0746  21.2070  21.6549  21.8481
    22.0297  22.5544  22.9221  23.1916  23.2265

     the Fermi energy is    13.7530 ev

!    total energy              =   -7997.84734208 Ry
     total all-electron energy =    -51870.923212 Ry
     estimated scf accuracy    <       0.00000273 Ry
     smearing contrib. (-TS)   =       0.25477949 Ry
     internal energy E=F+TS    =   -7998.10212157 Ry

     The total energy is F=E-TS. E is the sum of the following terms:
     one-electron contribution =   -4416.63793445 Ry
     hartree contribution      =    2372.98173293 Ry
     xc contribution           =    -690.97313604 Ry
     ewald contribution        =   -3686.38846486 Ry
     one-center paw contrib.   =   -1577.08431915 Ry

     convergence has been achieved in 119 iterations

     Forces acting on atoms (cartesian axes, Ry/au):

     atom    1 type  1   force =     0.00040114   -0.00150887    0.00376648
     atom    2 type  1   force =     0.00045464    0.00235127    0.00567009
     atom    3 type  1   force =     0.00085270   -0.00047286   -0.00348321
     atom    4 type  1   force =    -0.00076327    0.00049083   -0.00737564
     atom    5 type  1   force =    -0.00030428   -0.00108323   -0.00093686
     atom    6 type  1   force =    -0.00075250    0.00045877   -0.00021163
     atom    7 type  1   force =    -0.00085186    0.00087120    0.00091917
     atom    8 type  1   force =     0.00128455   -0.00101348   -0.00147184
     atom    9 type  2   force =    -0.00076310   -0.00014654    0.00220964
     atom   10 type  2   force =    -0.00176252   -0.00333383    0.00760553
     atom   11 type  2   force =    -0.00068265    0.00033573    0.00059131
     atom   12 type  2   force =     0.00189398   -0.00133272   -0.00204154
     atom   13 type  2   force =     0.00006916   -0.01703942   -0.00162690
     atom   14 type  2   force =     0.01978459   -0.01158988    0.00038550
     atom   15 type  2   force =    -0.00325396    0.02108575   -0.00394133
     atom   16 type  2   force =    -0.01745448    0.00921669    0.00224640
     atom   17 type  2   force =     0.01887155    0.00834409    0.00034703
     atom   18 type  2   force =    -0.01510754   -0.00764366    0.00062481
     atom   19 type  2   force =    -0.00017339   -0.00643216   -0.00348227
     atom   20 type  2   force =    -0.00015328    0.00118219   -0.00012647
     atom   21 type  2   force =     0.00083036    0.00278154   -0.00054320
     atom   22 type  2   force =     0.00006000    0.00384600    0.00033077
     atom   23 type  2   force =    -0.00202439   -0.00417328    0.00072462
     atom   24 type  2   force =    -0.00045543    0.00480588   -0.00018046
     The non-local contrib.  to forces
     atom    1 type  1   force =     0.00073929   -0.00511306    0.02587472
     atom    2 type  1   force =     0.00359767    0.01075736    0.02752396
     atom    3 type  1   force =     0.00350367   -0.00536323   -0.02458958
     atom    4 type  1   force =    -0.00530907    0.00279295   -0.03592444
     atom    5 type  1   force =    -0.00101514   -0.00207872   -0.00183873
     atom    6 type  1   force =    -0.00351645    0.00260460    0.00276081
     atom    7 type  1   force =    -0.00329182    0.00340367    0.00070973
     atom    8 type  1   force =     0.00648215   -0.00199500   -0.01074387
     atom    9 type  2   force =     0.00663333    0.01247789    0.01045634
     atom   10 type  2   force =     0.01598376    0.03292878    0.01595154
     atom   11 type  2   force =     0.00698879    0.01434406   -0.01048807
     atom   12 type  2   force =    -0.01151381   -0.00237834   -0.00581371
     atom   13 type  2   force =     0.00308616   -0.08610285    0.00597278
     atom   14 type  2   force =     0.04502072   -0.04297291   -0.00559461
     atom   15 type  2   force =     0.02164161    0.07402627    0.00157631
     atom   16 type  2   force =    -0.07172622    0.03768935   -0.00730850
     atom   17 type  2   force =     0.05582654    0.04557782   -0.00541306
     atom   18 type  2   force =    -0.07846625   -0.03731725    0.00346849
     atom   19 type  2   force =    -0.00460895    0.00207635    0.00417111
     atom   20 type  2   force =    -0.00047416    0.00092599    0.00329575
     atom   21 type  2   force =     0.00324472   -0.00405601   -0.00125051
     atom   22 type  2   force =    -0.00395227    0.00981005   -0.00052447
     atom   23 type  2   force =    -0.00663934    0.00400455   -0.00075591
     atom   24 type  2   force =    -0.00336408    0.00260307   -0.00562528
     The ionic contribution  to forces
     atom    1 type  1   force =     0.04744399   -0.22818334   -0.46261724
     atom    2 type  1   force =     0.06100067    0.36978114   -0.07288025
     atom    3 type  1   force =     0.12295767   -0.21781487    0.35224257
     atom    4 type  1   force =    -0.18438257    0.11003130    0.06380300
     atom    5 type  1   force =     0.00996805   -0.03733602   -0.13781795
     atom    6 type  1   force =    -0.08815217    0.12039787   -0.00659513
     atom    7 type  1   force =    -0.09154020    0.12639439    0.00205323
     atom    8 type  1   force =     0.23102871   -0.07799826   -0.14704711
     atom    9 type  2   force =    -0.06812034    0.30777798    1.25436912
     atom   10 type  2   force =    -0.25302245   -0.31639045    2.24137692
     atom   11 type  2   force =    -0.15784321    0.34966520   -0.99159610
     atom   12 type  2   force =     0.16028169   -0.30479449   -1.26977381
     atom   13 type  2   force =     0.11028334  -15.63795557    0.06957340
     atom   14 type  2   force =    14.14767602   -8.52938776   -0.06370222
     atom   15 type  2   force =    -0.29750391   16.24745001   -0.54198912
     atom   16 type  2   force =   -14.00512237    7.77041809    0.14390054
     atom   17 type  2   force =    14.01941033    7.83585943   -0.09278752
     atom   18 type  2   force =   -13.78415584   -7.61428927   -0.00860138
     atom   19 type  2   force =    -0.12652051   -1.11006541   -0.30805347
     atom   20 type  2   force =    -0.05450871   -0.20954832    0.41468065
     atom   21 type  2   force =     0.42060224    0.51236229    0.06141027
     atom   22 type  2   force =    -0.02197460    0.45514272   -0.32314244
     atom   23 type  2   force =    -0.30250005   -0.45459811    0.17598156
     atom   24 type  2   force =     0.10469422    0.53308145   -0.35278752
     The local contribution  to forces
     atom    1 type  1   force =    -0.04771425    0.23178538    0.44032147
     atom    2 type  1   force =    -0.06415599   -0.37799699    0.05071490
     atom    3 type  1   force =    -0.12563352    0.22283574   -0.33130238
     atom    4 type  1   force =     0.18895049   -0.11225431   -0.03475371
     atom    5 type  1   force =    -0.00924029    0.03850031    0.13869355
     atom    6 type  1   force =     0.09083541   -0.12235997    0.00446132
     atom    7 type  1   force =     0.09389043   -0.12882984   -0.00208156
     atom    8 type  1   force =    -0.23624454    0.07900024    0.15597915
     atom    9 type  2   force =     0.06097573   -0.31948551   -1.25889593
     atom   10 type  2   force =     0.23678795    0.28189337   -2.24569767
     atom   11 type  2   force =     0.15068569   -0.36335512    0.99845398
     atom   12 type  2   force =    -0.14744914    0.30550002    1.27145165
     atom   13 type  2   force =    -0.11269374   15.70523654   -0.07673383
     atom   14 type  2   force =   -14.17354226    8.56009268    0.06880598
     atom   15 type  2   force =     0.27431744  -16.29913324    0.53620044
     atom   16 type  2   force =    14.05763812   -7.79799346   -0.13391130
     atom   17 type  2   force =   -14.05598047   -7.87241185    0.09867240
     atom   18 type  2   force =    13.84564146    7.64359014    0.00583975
     atom   19 type  2   force =     0.13043485    1.10217224    0.30069727
     atom   20 type  2   force =     0.05492641    0.21035416   -0.41804616
     atom   21 type  2   force =    -0.42303890   -0.50599061   -0.06064066
     atom   22 type  2   force =     0.02565121   -0.46010196    0.32417952
     atom   23 type  2   force =     0.30713699    0.44597606   -0.17418693
     atom   24 type  2   force =    -0.10209094   -0.53013349    0.35803538
     The core correction contribution to forces
     atom    1 type  1   force =    -0.00000380    0.00002362   -0.00013319
     atom    2 type  1   force =    -0.00001573   -0.00005045   -0.00014593
     atom    3 type  1   force =    -0.00001627    0.00002054    0.00012768
     atom    4 type  1   force =     0.00002296   -0.00001210    0.00018356
     atom    5 type  1   force =     0.00000452    0.00001149    0.00001097
     atom    6 type  1   force =     0.00001537   -0.00001089   -0.00000938
     atom    7 type  1   force =     0.00001501   -0.00001579   -0.00000693
     atom    8 type  1   force =    -0.00002810    0.00000986    0.00004411
     atom    9 type  2   force =    -0.00045140   -0.00056679   -0.00408201
     atom   10 type  2   force =    -0.00093201   -0.00208640   -0.00443430
     atom   11 type  2   force =    -0.00046379   -0.00070924    0.00415125
     atom   12 type  2   force =     0.00063566    0.00008260    0.00376430
     atom   13 type  2   force =    -0.00016738    0.00189653   -0.00007601
     atom   14 type  2   force =     0.00025199    0.00066928    0.00025221
     atom   15 type  2   force =    -0.00124117   -0.00110058   -0.00002410
     atom   16 type  2   force =     0.00135917   -0.00063089    0.00024881
     atom   17 type  2   force =    -0.00044590   -0.00100807    0.00014099
     atom   18 type  2   force =     0.00184669    0.00061757   -0.00028448
     atom   19 type  2   force =     0.00028629   -0.00036592    0.00006063
     atom   20 type  2   force =     0.00004794   -0.00032730   -0.00011478
     atom   21 type  2   force =     0.00008992    0.00034489   -0.00010112
     atom   22 type  2   force =     0.00023216   -0.00090462   -0.00016416
     atom   23 type  2   force =     0.00034633    0.00014921   -0.00033061
     atom   24 type  2   force =     0.00042537   -0.00056595    0.00020413
     The Hubbard contrib.    to forces
     atom    1 type  1   force =     0.00000000    0.00000000    0.00000000
     atom    2 type  1   force =     0.00000000    0.00000000    0.00000000
     atom    3 type  1   force =     0.00000000    0.00000000    0.00000000
     atom    4 type  1   force =     0.00000000    0.00000000    0.00000000
     atom    5 type  1   force =     0.00000000    0.00000000    0.00000000
     atom    6 type  1   force =     0.00000000    0.00000000    0.00000000
     atom    7 type  1   force =     0.00000000    0.00000000    0.00000000
     atom    8 type  1   force =     0.00000000    0.00000000    0.00000000
     atom    9 type  2   force =     0.00000000    0.00000000    0.00000000
     atom   10 type  2   force =     0.00000000    0.00000000    0.00000000
     atom   11 type  2   force =     0.00000000    0.00000000    0.00000000
     atom   12 type  2   force =     0.00000000    0.00000000    0.00000000
     atom   13 type  2   force =     0.00000000    0.00000000    0.00000000
     atom   14 type  2   force =     0.00000000    0.00000000    0.00000000
     atom   15 type  2   force =     0.00000000    0.00000000    0.00000000
     atom   16 type  2   force =     0.00000000    0.00000000    0.00000000
     atom   17 type  2   force =     0.00000000    0.00000000    0.00000000
     atom   18 type  2   force =     0.00000000    0.00000000    0.00000000
     atom   19 type  2   force =     0.00000000    0.00000000    0.00000000
     atom   20 type  2   force =     0.00000000    0.00000000    0.00000000
     atom   21 type  2   force =     0.00000000    0.00000000    0.00000000
     atom   22 type  2   force =     0.00000000    0.00000000    0.00000000
     atom   23 type  2   force =     0.00000000    0.00000000    0.00000000
     atom   24 type  2   force =     0.00000000    0.00000000    0.00000000
     The SCF correction term to forces
     atom    1 type  1   force =    -0.00006021    0.00006125    0.00034048
     atom    2 type  1   force =     0.00003190   -0.00005709    0.00047717
     atom    3 type  1   force =     0.00004504   -0.00006834    0.00005826
     atom    4 type  1   force =    -0.00004120    0.00001571   -0.00066429
     atom    5 type  1   force =    -0.00001754   -0.00009758    0.00003506
     atom    6 type  1   force =     0.00006921   -0.00009014   -0.00080947
     atom    7 type  1   force =     0.00007860    0.00000149    0.00026446
     atom    8 type  1   force =     0.00005021    0.00005240    0.00031564
     atom    9 type  2   force =     0.00020346   -0.00026741    0.00038189
     atom   10 type  2   force =    -0.00057589    0.00040359    0.00042881
     atom   11 type  2   force =    -0.00004625    0.00047354    0.00009002
     atom   12 type  2   force =    -0.00005654    0.00034020   -0.00165021
     atom   13 type  2   force =    -0.00043534   -0.00003136   -0.00034348
     atom   14 type  2   force =     0.00038200    0.00009155    0.00064390
     atom   15 type  2   force =    -0.00046405   -0.00007399    0.00031491
     atom   16 type  2   force =     0.00040071   -0.00018368   -0.00066338
     atom   17 type  2   force =     0.00006493    0.00040946   -0.00024602
     atom   18 type  2   force =     0.00003028   -0.00016214    0.00022220
     atom   19 type  2   force =     0.00023882   -0.00016670   -0.00033805
     atom   20 type  2   force =    -0.00014087   -0.00013962    0.00007783
     atom   21 type  2   force =    -0.00006373    0.00020368    0.00005857
     atom   22 type  2   force =     0.00010737   -0.00001748    0.00000208
     atom   23 type  2   force =    -0.00036444    0.00037772    0.00003627
     atom   24 type  2   force =    -0.00011613   -0.00009649    0.00001258

     Total force =     0.052366     Total SCF correction =     0.002903


     Computing stress (Cartesian axis) and pressure

          total   stress  (Ry/bohr**3)                   (kbar)     P=       32.55
   0.00019399  -0.00000548  -0.00000001           28.54       -0.81       -0.00
  -0.00000548   0.00018708  -0.00001029           -0.81       27.52       -1.51
  -0.00000001  -0.00001029   0.00028273           -0.00       -1.51       41.59


     Writing all to output data dir ./C36/out_logs/C36_out_244/laves_C36.save/
 
     init_run     :      6.92s CPU      7.13s WALL (       1 calls)
     electrons    :    849.55s CPU    849.76s WALL (       1 calls)
     forces       :      1.64s CPU      1.64s WALL (       1 calls)
     stress       :      8.28s CPU      8.28s WALL (       1 calls)

     Called by init_run:
     wfcinit      :      1.90s CPU      1.99s WALL (       1 calls)
                                        1.99s GPU  (       1 calls)
     potinit      :      3.86s CPU      3.90s WALL (       1 calls)
     hinit0       :      1.00s CPU      1.02s WALL (       1 calls)

     Called by electrons:
     c_bands      :    485.41s CPU    485.54s WALL (     119 calls)
     sum_band     :     82.41s CPU     82.42s WALL (     119 calls)
     v_of_rho     :      2.97s CPU      3.00s WALL (     120 calls)
     newd         :      9.28s CPU      9.28s WALL (     120 calls)
                                        9.28s GPU  (     120 calls)
     PAW_pot      :    259.81s CPU    259.81s WALL (     120 calls)
     mix_rho      :      9.63s CPU      9.69s WALL (     119 calls)

     Called by c_bands:
     init_us_2    :      1.45s CPU      1.45s WALL (    1205 calls)
     init_us_2:gp :      1.44s CPU      1.44s WALL (    1205 calls)
     cegterg      :    462.81s CPU    462.91s WALL (     595 calls)

     Called by *egterg:
     cdiaghg      :     32.15s CPU     32.41s WALL (    1314 calls)
                                       32.36s GPU  (    1314 calls)
     h_psi        :    229.49s CPU    229.61s WALL (    1319 calls)
                                      229.38s GPU  (    1319 calls)
     s_psi        :      1.03s CPU     43.19s WALL (    1319 calls)
                                       42.83s GPU  (    1319 calls)
     g_psi        :      0.00s CPU      0.82s WALL (     719 calls)
                                        0.78s GPU  (     719 calls)

     Called by h_psi:
     h_psi:calbec :      0.09s CPU     49.49s WALL (    1319 calls)
                                       49.47s GPU  (    1319 calls)
     vloc_psi     :    135.40s CPU    135.49s WALL (    1319 calls)
                                      135.46s GPU  (    1319 calls)
     add_vuspsi   :      1.75s CPU     43.73s WALL (    1319 calls)
                                       43.63s GPU  (    1319 calls)

     General routines
     calbec       :      0.09s CPU      0.11s WALL (    1939 calls)
     fft          :      1.42s CPU      2.17s WALL (    1583 calls)
                                        0.75s GPU  (    1463 calls)
     ffts         :      0.36s CPU      0.39s WALL (     239 calls)
                                        0.03s GPU  (     119 calls)
     fftw         :      0.32s CPU    144.16s WALL (   42262 calls)
                                      143.29s GPU  (   42262 calls)
     interpolate  :      2.04s CPU      2.04s WALL (     120 calls)
 
     Parallel routines
 
     PWSCF        :  14m26.73s CPU  14m27.28s WALL

 
   This run was terminated on:  17:51:58  10Apr2026            

=------------------------------------------------------------------------------=
   JOB DONE.
=------------------------------------------------------------------------------=
