
     Program PWSCF v.7.2 starts on  3Apr2026 at  7:10: 8 

     This program is part of the open-source Quantum ESPRESSO suite
     for quantum simulation of materials; please cite
         "P. Giannozzi et al., J. Phys.:Condens. Matter 21 395502 (2009);
         "P. Giannozzi et al., J. Phys.:Condens. Matter 29 465901 (2017);
         "P. Giannozzi et al., J. Chem. Phys. 152 154105 (2020);
          URL http://www.quantum-espresso.org", 
     in publications or presentations arising from this work. More details at
     http://www.quantum-espresso.org/quote

     Parallel version (MPI), running on     1 processors

     MPI processes distributed on     1 nodes
     2588 MiB available memory on the printing compute node when the environment starts
 
     Reading input from C36/in/laves_008_vc-relax.in

     Current dimensions of program PWSCF are:
     Max number of different atomic species (ntypx) = 10
     Max number of k-points (npk) =  40000
     Max angular momentum in pseudopotentials (lmaxx) =  4
     file Mg.pbe-spnl-kjpaw_psl.1.0.0.UPF: wavefunction(s)  2P renormalized
     file Ni.pbe-spn-kjpaw_psl.1.0.0.UPF: wavefunction(s)  3P 3D renormalized
 
     Subspace diagonalization in iterative solution of the eigenvalue problem:
     a serial algorithm will be used

 
     G-vector sticks info
     --------------------
     sticks:   dense  smooth     PW     G-vecs:    dense   smooth      PW
     Sum        2603    1743    487               355727   193755   28233
 
     Using Slab Decomposition
 

     Title: 
     C36_MgNi2                                                                  


     bravais-lattice index     =            0
     lattice parameter (alat)  =       8.8751  a.u.
     unit-cell volume          =    2004.0792 (a.u.)^3
     number of atoms/cell      =           23
     number of atomic types    =            2
     number of electrons       =       350.00
     number of Kohn-Sham states=          210
     kinetic-energy cutoff     =      80.0000  Ry
     charge density cutoff     =     480.0000  Ry
     scf convergence threshold =      1.0E-05
     mixing beta               =       0.2000
     number of iterations used =           12  plain     mixing
     energy convergence thresh.=      1.0E-05
     force convergence thresh. =      1.0E-04
     press convergence thresh. =      5.0E-01
     Exchange-correlation= SLA  PW   PBX  PBC
                           (   1   4   3   4   0   0   0)
     nstep                     =           12


     GPU acceleration is ACTIVE.


     celldm(1)=   8.875077  celldm(2)=   0.000000  celldm(3)=   0.000000
     celldm(4)=   0.000000  celldm(5)=   0.000000  celldm(6)=   0.000000

     crystal axes: (cart. coord. in units of alat)
               a(1) = (   0.999994   0.003531   0.000357 )  
               a(2) = (  -0.497782   0.866034   0.001139 )  
               a(3) = (   0.031631  -0.003565   3.303593 )  

     reciprocal axes: (cart. coord. in units 2 pi/alat)
               b(1) = (  0.997984  0.573637 -0.008936 )  
               b(2) = ( -0.004069  1.152349  0.001282 )  
               b(3) = ( -0.000107 -0.000459  0.302701 )  


     PseudoPot. # 1 for Mg read from file:
     ./pseudo/Mg.pbe-spnl-kjpaw_psl.1.0.0.UPF
     MD5 check sum: fda14e0d92a6a9a5ebed782e5a4b3067
     Pseudo is Projector augmented-wave + core cor, Zval = 10.0
     Generated using &quot;atomic&quot; code by A. Dal Corso  v.6.3
     Shape of augmentation charge: PSQ
     Using radial grid of 1129 points,  4 beta functions with: 
                l(1) =   0
                l(2) =   0
                l(3) =   1
                l(4) =   1
     Q(r) pseudized with 0 coefficients 


     PseudoPot. # 2 for Ni read from file:
     ./pseudo/Ni.pbe-spn-kjpaw_psl.1.0.0.UPF
     MD5 check sum: 6e86b733589c3ad8389697b807d86aa7
     Pseudo is Projector augmented-wave + core cor, Zval = 18.0
     Generated using &quot;atomic&quot; code by A. Dal Corso  v.6.3
     Shape of augmentation charge: PSQ
     Using radial grid of 1195 points,  6 beta functions with: 
                l(1) =   0
                l(2) =   0
                l(3) =   1
                l(4) =   1
                l(5) =   2
                l(6) =   2
     Q(r) pseudized with 0 coefficients 


     atomic species   valence    mass     pseudopotential
        Mg            10.00    24.30500     Mg( 1.00)
        Ni            18.00    58.69340     Ni( 1.00)

     No symmetry found



   Cartesian axes

     site n.     atom                  positions (alat units)
         1           Mg  tau(   1) = (   0.5139051   0.8669039   1.3399279  )
         2           Mg  tau(   2) = (   0.0295918  -0.0029195   2.9938888  )
         3           Mg  tau(   3) = (   0.5214207   0.8664736   1.9601619  )
         4           Mg  tau(   4) = (   0.5055150   0.8673895   0.3093484  )
         5           Mg  tau(   5) = (   0.0243574   0.5728179   2.1678426  )
         6           Mg  tau(   6) = (   0.5051639   0.2880711   0.5139361  )
         7           Mg  tau(   7) = (   0.5106012   0.2931478   1.1369627  )
         8           Mg  tau(   8) = (   0.0311263   0.5757043   2.7872258  )
         9           Ni  tau(   9) = (   0.0130756   0.5764110   1.2419773  )
        10           Ni  tau(  10) = (   0.5263840   0.2865257   2.8907238  )
        11           Ni  tau(  11) = (   0.5176222   0.2897713   2.0628367  )
        12           Ni  tau(  12) = (   0.0086315   0.5783940   0.4105781  )
        13           Ni  tau(  13) = (   0.7702205   0.1416638   2.4771261  )
        14           Ni  tau(  14) = (   0.5225921   0.5715256   2.4800564  )
        15           Ni  tau(  15) = (  -0.2427696   0.7184246   0.8246614  )
        16           Ni  tau(  16) = (   0.2593858   0.7237191   0.8293952  )
        17           Ni  tau(  17) = (   0.2742921   0.1436897   2.4782959  )
        18           Ni  tau(  18) = (   0.0180554   0.8656309   1.6561063  )
        19           Ni  tau(  19) = (   0.2488353   0.4342788   0.0030126  )
        20           Ni  tau(  20) = (   0.5322171  -0.0010289   3.3030366  )
        21           Ni  tau(  21) = (   0.2683125   0.4332576   1.6522448  )
        22           Ni  tau(  22) = (  -0.2456211   0.4342407   0.0046291  )
        23           Ni  tau(  23) = (   0.7663364   0.4334624   1.6517464  )

     number of k points=     5  Marzari-Vanderbilt smearing, width (Ry)=  0.0300
                       cart. coord. in units 2pi/alat
        k(    1) = (   0.0000000   0.0000000   0.0000000), wk =   0.2222222
        k(    2) = (  -0.0013563   0.3841162   0.0004275), wk =   0.4444444
        k(    3) = (   0.3326614   0.1912122  -0.0029788), wk =   0.4444444
        k(    4) = (   0.3313051   0.5753284  -0.0025513), wk =   0.4444444
        k(    5) = (   0.3340177  -0.1929040  -0.0034063), wk =   0.4444444

     Dense  grid:   355727 G-vectors     FFT dimensions: (  64,  64, 216)

     Smooth grid:   193755 G-vectors     FFT dimensions: (  54,  54, 180)

     Estimated max dynamical RAM per process >       2.05 GB

     Check: negative core charge=   -0.000009

     Initial potential from superposition of free atoms

     starting charge     349.9889, renormalised to     350.0000
     Starting wfcs are  190 randomized atomic wfcs +   20 random wfcs
     Checking if some PAW data can be deallocated... 

     total cpu time spent up to now is        9.0 secs

     Self-consistent Calculation

     iteration #  1     ecut=    80.00 Ry     beta= 0.20
     Davidson diagonalization with overlap
     ethr =  1.00E-02,  avg # of iterations =  5.6

     negative rho (up, down):  6.535E-03 0.000E+00

     total cpu time spent up to now is       21.8 secs

     total energy              =   -7568.86043445 Ry
     estimated scf accuracy    <      64.46920769 Ry

     iteration #  2     ecut=    80.00 Ry     beta= 0.20
     Davidson diagonalization with overlap
     ethr =  1.00E-02,  avg # of iterations =  1.2

     negative rho (up, down):  2.667E-02 0.000E+00

     total cpu time spent up to now is       30.7 secs

     total energy              =   -7569.67632112 Ry
     estimated scf accuracy    <     126.13430225 Ry

     iteration #  3     ecut=    80.00 Ry     beta= 0.20
     Davidson diagonalization with overlap
     ethr =  1.00E-02,  avg # of iterations =  1.0

     negative rho (up, down):  5.887E-03 0.000E+00

     total cpu time spent up to now is       39.4 secs

     total energy              =   -7571.24648088 Ry
     estimated scf accuracy    <     122.11598252 Ry

     iteration #  4     ecut=    80.00 Ry     beta= 0.20
     Davidson diagonalization with overlap
     ethr =  1.00E-02,  avg # of iterations =  1.0

     negative rho (up, down):  6.501E-03 0.000E+00

     total cpu time spent up to now is       48.1 secs

     total energy              =   -7565.37581524 Ry
     estimated scf accuracy    <     171.09633940 Ry

     iteration #  5     ecut=    80.00 Ry     beta= 0.20
     Davidson diagonalization with overlap
     ethr =  1.00E-02,  avg # of iterations =  2.0

     negative rho (up, down):  1.479E-02 0.000E+00

     total cpu time spent up to now is       58.1 secs

     total energy              =   -7562.91323937 Ry
     estimated scf accuracy    <     300.34926591 Ry

     iteration #  6     ecut=    80.00 Ry     beta= 0.20
     Davidson diagonalization with overlap
     ethr =  1.00E-02,  avg # of iterations =  2.0

     negative rho (up, down):  1.511E-02 0.000E+00

     total cpu time spent up to now is       67.9 secs

     total energy              =   -7559.43346580 Ry
     estimated scf accuracy    <     519.10272430 Ry

     iteration #  7     ecut=    80.00 Ry     beta= 0.20
     Davidson diagonalization with overlap
     ethr =  1.00E-02,  avg # of iterations =  2.0

     negative rho (up, down):  3.310E-02 0.000E+00

     total cpu time spent up to now is       77.6 secs

     total energy              =   -7569.10281367 Ry
     estimated scf accuracy    <     141.91655982 Ry

     iteration #  8     ecut=    80.00 Ry     beta= 0.20
     Davidson diagonalization with overlap
     ethr =  1.00E-02,  avg # of iterations =  1.0

     negative rho (up, down):  1.191E-02 0.000E+00

     total cpu time spent up to now is       86.4 secs

     total energy              =   -7571.15435678 Ry
     estimated scf accuracy    <      87.75317985 Ry

     iteration #  9     ecut=    80.00 Ry     beta= 0.20
     Davidson diagonalization with overlap
     ethr =  1.00E-02,  avg # of iterations =  1.0

     total cpu time spent up to now is       95.1 secs

     total energy              =   -7568.30963210 Ry
     estimated scf accuracy    <      81.15469462 Ry

     iteration # 10     ecut=    80.00 Ry     beta= 0.20
     Davidson diagonalization with overlap
     ethr =  1.00E-02,  avg # of iterations =  2.0

     negative rho (up, down):  4.474E-04 0.000E+00

     total cpu time spent up to now is      104.9 secs

     total energy              =   -7569.96536743 Ry
     estimated scf accuracy    <      74.95056906 Ry

     iteration # 11     ecut=    80.00 Ry     beta= 0.20
     Davidson diagonalization with overlap
     ethr =  1.00E-02,  avg # of iterations =  1.2

     negative rho (up, down):  8.805E-04 0.000E+00

     total cpu time spent up to now is      113.9 secs

     total energy              =   -7571.09423903 Ry
     estimated scf accuracy    <      77.77680818 Ry

     iteration # 12     ecut=    80.00 Ry     beta= 0.20
     Davidson diagonalization with overlap
     ethr =  1.00E-02,  avg # of iterations =  1.0

     negative rho (up, down):  1.589E-05 0.000E+00

     total cpu time spent up to now is      122.7 secs

     total energy              =   -7571.22552970 Ry
     estimated scf accuracy    <      72.14145219 Ry

     iteration # 13     ecut=    80.00 Ry     beta= 0.20
     Davidson diagonalization with overlap
     ethr =  1.00E-02,  avg # of iterations =  1.0

     negative rho (up, down):  3.541E-05 0.000E+00

     total cpu time spent up to now is      131.5 secs

     total energy              =   -7571.30202198 Ry
     estimated scf accuracy    <      79.41157144 Ry

     iteration # 14     ecut=    80.00 Ry     beta= 0.20
     Davidson diagonalization with overlap
     ethr =  1.00E-02,  avg # of iterations =  1.0

     negative rho (up, down):  4.378E-03 0.000E+00

     total cpu time spent up to now is      140.3 secs

     total energy              =   -7570.54021077 Ry
     estimated scf accuracy    <      79.28757742 Ry

     iteration # 15     ecut=    80.00 Ry     beta= 0.20
     Davidson diagonalization with overlap
     ethr =  1.00E-02,  avg # of iterations =  2.0

     negative rho (up, down):  4.018E-02 0.000E+00

     total cpu time spent up to now is      150.0 secs

     total energy              =   -7567.51198379 Ry
     estimated scf accuracy    <      59.78147585 Ry

     iteration # 16     ecut=    80.00 Ry     beta= 0.20
     Davidson diagonalization with overlap
     ethr =  1.00E-02,  avg # of iterations =  2.0

     negative rho (up, down):  1.309E-02 0.000E+00

     total cpu time spent up to now is      160.0 secs

     total energy              =   -7558.47714365 Ry
     estimated scf accuracy    <     566.19574618 Ry

     iteration # 17     ecut=    80.00 Ry     beta= 0.20
     Davidson diagonalization with overlap
     ethr =  1.00E-02,  avg # of iterations =  2.0

     negative rho (up, down):  9.620E-02 0.000E+00

     total cpu time spent up to now is      170.3 secs

     total energy              =   -7568.49805898 Ry
     estimated scf accuracy    <     102.38852544 Ry

     iteration # 18     ecut=    80.00 Ry     beta= 0.20
     Davidson diagonalization with overlap
     ethr =  1.00E-02,  avg # of iterations =  1.0

     negative rho (up, down):  1.194E-01 0.000E+00

     total cpu time spent up to now is      179.0 secs

     total energy              =   -7569.40044529 Ry
     estimated scf accuracy    <     332.79008499 Ry

     iteration # 19     ecut=    80.00 Ry     beta= 0.20
     Davidson diagonalization with overlap
     ethr =  1.00E-02,  avg # of iterations =  1.0

     negative rho (up, down):  6.903E-02 0.000E+00

     total cpu time spent up to now is      187.8 secs

     total energy              =   -7571.16091431 Ry
     estimated scf accuracy    <     101.71402536 Ry

     iteration # 20     ecut=    80.00 Ry     beta= 0.20
     Davidson diagonalization with overlap
     ethr =  1.00E-02,  avg # of iterations =  1.0

     negative rho (up, down):  3.539E-02 0.000E+00

     total cpu time spent up to now is      196.5 secs

     total energy              =   -7568.59530046 Ry
     estimated scf accuracy    <     160.88813654 Ry

     iteration # 21     ecut=    80.00 Ry     beta= 0.20
     Davidson diagonalization with overlap
     ethr =  1.00E-02,  avg # of iterations =  1.0

     negative rho (up, down):  2.279E-02 0.000E+00

     total cpu time spent up to now is      205.3 secs

     total energy              =   -7568.09348293 Ry
     estimated scf accuracy    <     164.38840285 Ry

     iteration # 22     ecut=    80.00 Ry     beta= 0.20
     Davidson diagonalization with overlap
     ethr =  1.00E-02,  avg # of iterations =  1.0

     negative rho (up, down):  1.126E-02 0.000E+00

     total cpu time spent up to now is      214.1 secs

     total energy              =   -7569.24816773 Ry
     estimated scf accuracy    <      63.72149268 Ry

     iteration # 23     ecut=    80.00 Ry     beta= 0.20
     Davidson diagonalization with overlap
     ethr =  1.00E-02,  avg # of iterations =  1.4

     negative rho (up, down):  3.372E-03 0.000E+00

     total cpu time spent up to now is      223.2 secs

     total energy              =   -7566.14468679 Ry
     estimated scf accuracy    <      68.49668224 Ry

     iteration # 24     ecut=    80.00 Ry     beta= 0.20
     Davidson diagonalization with overlap
     ethr =  1.00E-02,  avg # of iterations =  2.0

     negative rho (up, down):  4.399E-03 0.000E+00

     total cpu time spent up to now is      233.0 secs

     total energy              =   -7568.27591049 Ry
     estimated scf accuracy    <      92.06060114 Ry

     iteration # 25     ecut=    80.00 Ry     beta= 0.20
     Davidson diagonalization with overlap
     ethr =  1.00E-02,  avg # of iterations =  1.0

     negative rho (up, down):  5.812E-03 0.000E+00

     total cpu time spent up to now is      241.8 secs

     total energy              =   -7568.58403899 Ry
     estimated scf accuracy    <      27.28010136 Ry

     iteration # 26     ecut=    80.00 Ry     beta= 0.20
     Davidson diagonalization with overlap
     ethr =  7.79E-03,  avg # of iterations =  1.0

     negative rho (up, down):  1.882E-02 0.000E+00

     total cpu time spent up to now is      250.5 secs

     total energy              =   -7568.42751322 Ry
     estimated scf accuracy    <      35.86361579 Ry

     iteration # 27     ecut=    80.00 Ry     beta= 0.20
     Davidson diagonalization with overlap
     ethr =  7.79E-03,  avg # of iterations =  1.0

     negative rho (up, down):  2.390E-02 0.000E+00

     total cpu time spent up to now is      259.3 secs

     total energy              =   -7568.29834007 Ry
     estimated scf accuracy    <      29.18883898 Ry

     iteration # 28     ecut=    80.00 Ry     beta= 0.20
     Davidson diagonalization with overlap
     ethr =  7.79E-03,  avg # of iterations =  1.0

     negative rho (up, down):  4.619E-02 0.000E+00

     total cpu time spent up to now is      268.0 secs

     total energy              =   -7569.24457062 Ry
     estimated scf accuracy    <      26.92643858 Ry

     iteration # 29     ecut=    80.00 Ry     beta= 0.20
     Davidson diagonalization with overlap
     ethr =  7.69E-03,  avg # of iterations =  1.0

     negative rho (up, down):  6.979E-02 0.000E+00

     total cpu time spent up to now is      276.8 secs

     total energy              =   -7569.76898867 Ry
     estimated scf accuracy    <      23.87672748 Ry

     iteration # 30     ecut=    80.00 Ry     beta= 0.20
     Davidson diagonalization with overlap
     ethr =  6.82E-03,  avg # of iterations =  1.0

     negative rho (up, down):  1.065E-01 0.000E+00

     total cpu time spent up to now is      285.5 secs

     total energy              =   -7569.03405144 Ry
     estimated scf accuracy    <      47.73871136 Ry

     iteration # 31     ecut=    80.00 Ry     beta= 0.20
     Davidson diagonalization with overlap
     ethr =  6.82E-03,  avg # of iterations =  1.0

     negative rho (up, down):  1.742E-02 0.000E+00

     total cpu time spent up to now is      294.3 secs

     total energy              =   -7566.63095776 Ry
     estimated scf accuracy    <      97.99004907 Ry

     iteration # 32     ecut=    80.00 Ry     beta= 0.20
     Davidson diagonalization with overlap
     ethr =  6.82E-03,  avg # of iterations =  1.0

     negative rho (up, down):  5.280E-03 0.000E+00

     total cpu time spent up to now is      303.1 secs

     total energy              =   -7566.41686401 Ry
     estimated scf accuracy    <     130.33798278 Ry

     iteration # 33     ecut=    80.00 Ry     beta= 0.20
     Davidson diagonalization with overlap
     ethr =  6.82E-03,  avg # of iterations =  1.0

     negative rho (up, down):  7.411E-03 0.000E+00

     total cpu time spent up to now is      311.8 secs

     total energy              =   -7568.02581708 Ry
     estimated scf accuracy    <      45.53610717 Ry

     iteration # 34     ecut=    80.00 Ry     beta= 0.20
     Davidson diagonalization with overlap
     ethr =  6.82E-03,  avg # of iterations =  1.0

     negative rho (up, down):  5.972E-03 0.000E+00

     total cpu time spent up to now is      320.6 secs

     total energy              =   -7568.38659700 Ry
     estimated scf accuracy    <      22.15714120 Ry

     iteration # 35     ecut=    80.00 Ry     beta= 0.20
     Davidson diagonalization with overlap
     ethr =  6.33E-03,  avg # of iterations =  1.0

     negative rho (up, down):  6.461E-03 0.000E+00

     total cpu time spent up to now is      329.3 secs

     total energy              =   -7568.49988471 Ry
     estimated scf accuracy    <      14.14776579 Ry

     iteration # 36     ecut=    80.00 Ry     beta= 0.20
     Davidson diagonalization with overlap
     ethr =  4.04E-03,  avg # of iterations =  1.0

     negative rho (up, down):  6.558E-03 0.000E+00

     total cpu time spent up to now is      338.1 secs

     total energy              =   -7568.66447712 Ry
     estimated scf accuracy    <       4.49104742 Ry

     iteration # 37     ecut=    80.00 Ry     beta= 0.20
     Davidson diagonalization with overlap
     ethr =  1.28E-03,  avg # of iterations =  1.0

     negative rho (up, down):  6.225E-03 0.000E+00

     total cpu time spent up to now is      346.8 secs

     total energy              =   -7568.19205087 Ry
     estimated scf accuracy    <      23.77248539 Ry

     iteration # 38     ecut=    80.00 Ry     beta= 0.20
     Davidson diagonalization with overlap
     ethr =  1.28E-03,  avg # of iterations =  1.0

     negative rho (up, down):  6.067E-03 0.000E+00

     total cpu time spent up to now is      355.6 secs

     total energy              =   -7568.82066776 Ry
     estimated scf accuracy    <       2.07075339 Ry

     iteration # 39     ecut=    80.00 Ry     beta= 0.20
     Davidson diagonalization with overlap
     ethr =  5.92E-04,  avg # of iterations =  1.0

     negative rho (up, down):  5.848E-03 0.000E+00

     total cpu time spent up to now is      364.4 secs

     total energy              =   -7568.83803965 Ry
     estimated scf accuracy    <       1.96173324 Ry

     iteration # 40     ecut=    80.00 Ry     beta= 0.20
     Davidson diagonalization with overlap
     ethr =  5.60E-04,  avg # of iterations =  1.0

     negative rho (up, down):  6.051E-03 0.000E+00

     total cpu time spent up to now is      373.1 secs

     total energy              =   -7568.83440345 Ry
     estimated scf accuracy    <       0.70077686 Ry

     iteration # 41     ecut=    80.00 Ry     beta= 0.20
     Davidson diagonalization with overlap
     ethr =  2.00E-04,  avg # of iterations =  1.0

     negative rho (up, down):  5.246E-03 0.000E+00

     total cpu time spent up to now is      381.9 secs

     total energy              =   -7568.82749645 Ry
     estimated scf accuracy    <       0.59725851 Ry

     iteration # 42     ecut=    80.00 Ry     beta= 0.20
     Davidson diagonalization with overlap
     ethr =  1.71E-04,  avg # of iterations =  1.4

     negative rho (up, down):  6.003E-03 0.000E+00

     total cpu time spent up to now is      391.1 secs

     total energy              =   -7568.82069281 Ry
     estimated scf accuracy    <       1.06671345 Ry

     iteration # 43     ecut=    80.00 Ry     beta= 0.20
     Davidson diagonalization with overlap
     ethr =  1.71E-04,  avg # of iterations =  2.0

     negative rho (up, down):  4.789E-03 0.000E+00

     total cpu time spent up to now is      400.9 secs

     total energy              =   -7568.80490025 Ry
     estimated scf accuracy    <       0.62062057 Ry

     iteration # 44     ecut=    80.00 Ry     beta= 0.20
     Davidson diagonalization with overlap
     ethr =  1.71E-04,  avg # of iterations =  2.0

     negative rho (up, down):  5.475E-03 0.000E+00

     total cpu time spent up to now is      410.6 secs

     total energy              =   -7568.82019172 Ry
     estimated scf accuracy    <       0.64879008 Ry

     iteration # 45     ecut=    80.00 Ry     beta= 0.20
     Davidson diagonalization with overlap
     ethr =  1.71E-04,  avg # of iterations =  2.0

     negative rho (up, down):  5.254E-03 0.000E+00

     total cpu time spent up to now is      420.4 secs

     total energy              =   -7568.82743246 Ry
     estimated scf accuracy    <       0.37372620 Ry

     iteration # 46     ecut=    80.00 Ry     beta= 0.20
     Davidson diagonalization with overlap
     ethr =  1.07E-04,  avg # of iterations =  1.0

     negative rho (up, down):  5.184E-03 0.000E+00

     total cpu time spent up to now is      429.2 secs

     total energy              =   -7568.82504128 Ry
     estimated scf accuracy    <       0.45594117 Ry

     iteration # 47     ecut=    80.00 Ry     beta= 0.20
     Davidson diagonalization with overlap
     ethr =  1.07E-04,  avg # of iterations =  1.0

     negative rho (up, down):  5.224E-03 0.000E+00

     total cpu time spent up to now is      437.9 secs

     total energy              =   -7568.82461278 Ry
     estimated scf accuracy    <       0.20463848 Ry

     iteration # 48     ecut=    80.00 Ry     beta= 0.20
     Davidson diagonalization with overlap
     ethr =  5.85E-05,  avg # of iterations =  1.0

     negative rho (up, down):  5.164E-03 0.000E+00

     total cpu time spent up to now is      446.7 secs

     total energy              =   -7568.82682468 Ry
     estimated scf accuracy    <       0.18250426 Ry

     iteration # 49     ecut=    80.00 Ry     beta= 0.20
     Davidson diagonalization with overlap
     ethr =  5.21E-05,  avg # of iterations =  1.0

     negative rho (up, down):  5.199E-03 0.000E+00

     total cpu time spent up to now is      455.4 secs

     total energy              =   -7568.82776093 Ry
     estimated scf accuracy    <       0.22329196 Ry

     iteration # 50     ecut=    80.00 Ry     beta= 0.20
     Davidson diagonalization with overlap
     ethr =  5.21E-05,  avg # of iterations =  1.0

     negative rho (up, down):  5.110E-03 0.000E+00

     total cpu time spent up to now is      464.2 secs

     total energy              =   -7568.82458278 Ry
     estimated scf accuracy    <       0.14049120 Ry

     iteration # 51     ecut=    80.00 Ry     beta= 0.20
     Davidson diagonalization with overlap
     ethr =  4.01E-05,  avg # of iterations =  1.2

     negative rho (up, down):  5.069E-03 0.000E+00

     total cpu time spent up to now is      473.2 secs

     total energy              =   -7568.82540792 Ry
     estimated scf accuracy    <       0.14605973 Ry

     iteration # 52     ecut=    80.00 Ry     beta= 0.20
     Davidson diagonalization with overlap
     ethr =  4.01E-05,  avg # of iterations =  1.0

     negative rho (up, down):  4.975E-03 0.000E+00

     total cpu time spent up to now is      481.9 secs

     total energy              =   -7568.82903346 Ry
     estimated scf accuracy    <       0.17321604 Ry

     iteration # 53     ecut=    80.00 Ry     beta= 0.20
     Davidson diagonalization with overlap
     ethr =  4.01E-05,  avg # of iterations =  1.4

     negative rho (up, down):  5.050E-03 0.000E+00

     total cpu time spent up to now is      491.1 secs

     total energy              =   -7568.82817024 Ry
     estimated scf accuracy    <       0.20489609 Ry

     iteration # 54     ecut=    80.00 Ry     beta= 0.20
     Davidson diagonalization with overlap
     ethr =  4.01E-05,  avg # of iterations =  1.0

     negative rho (up, down):  5.095E-03 0.000E+00

     total cpu time spent up to now is      499.9 secs

     total energy              =   -7568.82674740 Ry
     estimated scf accuracy    <       0.09701091 Ry

     iteration # 55     ecut=    80.00 Ry     beta= 0.20
     Davidson diagonalization with overlap
     ethr =  2.77E-05,  avg # of iterations =  1.4

     negative rho (up, down):  5.214E-03 0.000E+00

     total cpu time spent up to now is      509.1 secs

     total energy              =   -7568.82692296 Ry
     estimated scf accuracy    <       0.12590461 Ry

     iteration # 56     ecut=    80.00 Ry     beta= 0.20
     Davidson diagonalization with overlap
     ethr =  2.77E-05,  avg # of iterations =  1.0

     negative rho (up, down):  4.962E-03 0.000E+00

     total cpu time spent up to now is      517.9 secs

     total energy              =   -7568.83076327 Ry
     estimated scf accuracy    <       0.03220263 Ry

     iteration # 57     ecut=    80.00 Ry     beta= 0.20
     Davidson diagonalization with overlap
     ethr =  9.20E-06,  avg # of iterations =  3.6

     negative rho (up, down):  5.025E-03 0.000E+00

     total cpu time spent up to now is      528.1 secs

     total energy              =   -7568.83134665 Ry
     estimated scf accuracy    <       0.02990381 Ry

     iteration # 58     ecut=    80.00 Ry     beta= 0.20
     Davidson diagonalization with overlap
     ethr =  8.54E-06,  avg # of iterations =  2.6

     negative rho (up, down):  5.047E-03 0.000E+00

     total cpu time spent up to now is      537.6 secs

     total energy              =   -7568.83152040 Ry
     estimated scf accuracy    <       0.01006112 Ry

     iteration # 59     ecut=    80.00 Ry     beta= 0.20
     Davidson diagonalization with overlap
     c_bands:  1 eigenvalues not converged
     ethr =  2.87E-06,  avg # of iterations =  6.6

     negative rho (up, down):  5.139E-03 0.000E+00

     total cpu time spent up to now is      548.4 secs

     total energy              =   -7568.83134553 Ry
     estimated scf accuracy    <       0.00954899 Ry

     iteration # 60     ecut=    80.00 Ry     beta= 0.20
     Davidson diagonalization with overlap
     ethr =  2.73E-06,  avg # of iterations =  1.6

     negative rho (up, down):  5.079E-03 0.000E+00

     total cpu time spent up to now is      557.8 secs

     total energy              =   -7568.83147700 Ry
     estimated scf accuracy    <       0.00995288 Ry

     iteration # 61     ecut=    80.00 Ry     beta= 0.20
     Davidson diagonalization with overlap
     ethr =  2.73E-06,  avg # of iterations =  1.2

     negative rho (up, down):  5.058E-03 0.000E+00

     total cpu time spent up to now is      566.7 secs

     total energy              =   -7568.83136414 Ry
     estimated scf accuracy    <       0.01373583 Ry

     iteration # 62     ecut=    80.00 Ry     beta= 0.20
     Davidson diagonalization with overlap
     ethr =  2.73E-06,  avg # of iterations =  1.0

     negative rho (up, down):  5.082E-03 0.000E+00

     total cpu time spent up to now is      575.5 secs

     total energy              =   -7568.83157206 Ry
     estimated scf accuracy    <       0.00420052 Ry

     iteration # 63     ecut=    80.00 Ry     beta= 0.20
     Davidson diagonalization with overlap
     ethr =  1.20E-06,  avg # of iterations =  1.0

     negative rho (up, down):  5.069E-03 0.000E+00

     total cpu time spent up to now is      584.3 secs

     total energy              =   -7568.83166224 Ry
     estimated scf accuracy    <       0.00284845 Ry

     iteration # 64     ecut=    80.00 Ry     beta= 0.20
     Davidson diagonalization with overlap
     ethr =  8.14E-07,  avg # of iterations =  1.0

     negative rho (up, down):  5.066E-03 0.000E+00

     total cpu time spent up to now is      593.1 secs

     total energy              =   -7568.83173624 Ry
     estimated scf accuracy    <       0.00087968 Ry

     iteration # 65     ecut=    80.00 Ry     beta= 0.20
     Davidson diagonalization with overlap
     ethr =  2.51E-07,  avg # of iterations =  1.0

     negative rho (up, down):  5.063E-03 0.000E+00

     total cpu time spent up to now is      601.9 secs

     total energy              =   -7568.83175425 Ry
     estimated scf accuracy    <       0.00018977 Ry

     iteration # 66     ecut=    80.00 Ry     beta= 0.20
     Davidson diagonalization with overlap
     ethr =  5.42E-08,  avg # of iterations =  1.0

     negative rho (up, down):  5.062E-03 0.000E+00

     total cpu time spent up to now is      610.6 secs

     total energy              =   -7568.83176115 Ry
     estimated scf accuracy    <       0.00007116 Ry

     iteration # 67     ecut=    80.00 Ry     beta= 0.20
     Davidson diagonalization with overlap
     ethr =  2.03E-08,  avg # of iterations =  1.0

     negative rho (up, down):  5.067E-03 0.000E+00

     total cpu time spent up to now is      619.4 secs

     total energy              =   -7568.83175804 Ry
     estimated scf accuracy    <       0.00009863 Ry

     iteration # 68     ecut=    80.00 Ry     beta= 0.20
     Davidson diagonalization with overlap
     ethr =  2.03E-08,  avg # of iterations =  1.0

     negative rho (up, down):  5.063E-03 0.000E+00

     total cpu time spent up to now is      628.2 secs

     total energy              =   -7568.83176326 Ry
     estimated scf accuracy    <       0.00007903 Ry

     iteration # 69     ecut=    80.00 Ry     beta= 0.20
     Davidson diagonalization with overlap
     ethr =  2.03E-08,  avg # of iterations =  1.0

     negative rho (up, down):  5.065E-03 0.000E+00

     total cpu time spent up to now is      637.0 secs

     total energy              =   -7568.83176375 Ry
     estimated scf accuracy    <       0.00010126 Ry

     iteration # 70     ecut=    80.00 Ry     beta= 0.20
     Davidson diagonalization with overlap
     ethr =  2.03E-08,  avg # of iterations =  1.0

     negative rho (up, down):  5.068E-03 0.000E+00

     total cpu time spent up to now is      645.8 secs

     total energy              =   -7568.83176466 Ry
     estimated scf accuracy    <       0.00001852 Ry

     iteration # 71     ecut=    80.00 Ry     beta= 0.20
     Davidson diagonalization with overlap
     ethr =  5.29E-09,  avg # of iterations =  2.0

     negative rho (up, down):  5.065E-03 0.000E+00

     total cpu time spent up to now is      655.5 secs

     total energy              =   -7568.83176659 Ry
     estimated scf accuracy    <       0.00003494 Ry

     iteration # 72     ecut=    80.00 Ry     beta= 0.20
     Davidson diagonalization with overlap
     ethr =  5.29E-09,  avg # of iterations =  1.0

     negative rho (up, down):  5.066E-03 0.000E+00

     total cpu time spent up to now is      664.3 secs

     total energy              =   -7568.83176708 Ry
     estimated scf accuracy    <       0.00001598 Ry

     iteration # 73     ecut=    80.00 Ry     beta= 0.20
     Davidson diagonalization with overlap
     ethr =  4.56E-09,  avg # of iterations =  1.0

     negative rho (up, down):  5.066E-03 0.000E+00

     total cpu time spent up to now is      673.0 secs

     total energy              =   -7568.83176778 Ry
     estimated scf accuracy    <       0.00001869 Ry

     iteration # 74     ecut=    80.00 Ry     beta= 0.20
     Davidson diagonalization with overlap
     ethr =  4.56E-09,  avg # of iterations =  1.0

     negative rho (up, down):  5.065E-03 0.000E+00

     total cpu time spent up to now is      681.8 secs

     total energy              =   -7568.83176781 Ry
     estimated scf accuracy    <       0.00001462 Ry

     iteration # 75     ecut=    80.00 Ry     beta= 0.20
     Davidson diagonalization with overlap
     ethr =  4.18E-09,  avg # of iterations =  1.0

     negative rho (up, down):  5.066E-03 0.000E+00

     total cpu time spent up to now is      690.6 secs

     total energy              =   -7568.83176741 Ry
     estimated scf accuracy    <       0.00003836 Ry

     iteration # 76     ecut=    80.00 Ry     beta= 0.20
     Davidson diagonalization with overlap
     ethr =  4.18E-09,  avg # of iterations =  1.0

     negative rho (up, down):  5.060E-03 0.000E+00

     total cpu time spent up to now is      699.3 secs

     total energy              =   -7568.83176981 Ry
     estimated scf accuracy    <       0.00001616 Ry

     iteration # 77     ecut=    80.00 Ry     beta= 0.20
     Davidson diagonalization with overlap
     ethr =  4.18E-09,  avg # of iterations =  2.0

     negative rho (up, down):  5.062E-03 0.000E+00

     total cpu time spent up to now is      709.1 secs

     total energy              =   -7568.83176939 Ry
     estimated scf accuracy    <       0.00003388 Ry

     iteration # 78     ecut=    80.00 Ry     beta= 0.20
     Davidson diagonalization with overlap
     ethr =  4.18E-09,  avg # of iterations =  1.0

     negative rho (up, down):  5.065E-03 0.000E+00

     total cpu time spent up to now is      717.9 secs

     total energy              =   -7568.83176803 Ry
     estimated scf accuracy    <       0.00005594 Ry

     iteration # 79     ecut=    80.00 Ry     beta= 0.20
     Davidson diagonalization with overlap
     ethr =  4.18E-09,  avg # of iterations =  1.0

     negative rho (up, down):  5.065E-03 0.000E+00

     total cpu time spent up to now is      726.6 secs

     total energy              =   -7568.83176870 Ry
     estimated scf accuracy    <       0.00002094 Ry

     iteration # 80     ecut=    80.00 Ry     beta= 0.20
     Davidson diagonalization with overlap
     ethr =  4.18E-09,  avg # of iterations =  1.0

     negative rho (up, down):  5.065E-03 0.000E+00

     total cpu time spent up to now is      735.4 secs

     total energy              =   -7568.83176836 Ry
     estimated scf accuracy    <       0.00001847 Ry

     iteration # 81     ecut=    80.00 Ry     beta= 0.20
     Davidson diagonalization with overlap
     ethr =  4.18E-09,  avg # of iterations =  1.0

     negative rho (up, down):  5.064E-03 0.000E+00

     total cpu time spent up to now is      744.1 secs

     total energy              =   -7568.83176864 Ry
     estimated scf accuracy    <       0.00004231 Ry

     iteration # 82     ecut=    80.00 Ry     beta= 0.20
     Davidson diagonalization with overlap
     ethr =  4.18E-09,  avg # of iterations =  1.0

     negative rho (up, down):  5.065E-03 0.000E+00

     total cpu time spent up to now is      752.9 secs

     total energy              =   -7568.83176838 Ry
     estimated scf accuracy    <       0.00001971 Ry

     iteration # 83     ecut=    80.00 Ry     beta= 0.20
     Davidson diagonalization with overlap
     ethr =  4.18E-09,  avg # of iterations =  1.0

     negative rho (up, down):  5.065E-03 0.000E+00

     total cpu time spent up to now is      761.6 secs

     total energy              =   -7568.83176866 Ry
     estimated scf accuracy    <       0.00002036 Ry

     iteration # 84     ecut=    80.00 Ry     beta= 0.20
     Davidson diagonalization with overlap
     ethr =  4.18E-09,  avg # of iterations =  1.0

     negative rho (up, down):  5.066E-03 0.000E+00

     total cpu time spent up to now is      770.4 secs

     total energy              =   -7568.83176828 Ry
     estimated scf accuracy    <       0.00001823 Ry

     iteration # 85     ecut=    80.00 Ry     beta= 0.20
     Davidson diagonalization with overlap
     ethr =  4.18E-09,  avg # of iterations =  1.0

     negative rho (up, down):  5.065E-03 0.000E+00

     total cpu time spent up to now is      779.2 secs

     total energy              =   -7568.83176841 Ry
     estimated scf accuracy    <       0.00001954 Ry

     iteration # 86     ecut=    80.00 Ry     beta= 0.20
     Davidson diagonalization with overlap
     ethr =  4.18E-09,  avg # of iterations =  1.0

     negative rho (up, down):  5.064E-03 0.000E+00

     total cpu time spent up to now is      787.9 secs

     total energy              =   -7568.83176893 Ry
     estimated scf accuracy    <       0.00001704 Ry

     iteration # 87     ecut=    80.00 Ry     beta= 0.20
     Davidson diagonalization with overlap
     ethr =  4.18E-09,  avg # of iterations =  1.0

     negative rho (up, down):  5.064E-03 0.000E+00

     total cpu time spent up to now is      796.7 secs

     total energy              =   -7568.83176859 Ry
     estimated scf accuracy    <       0.00002101 Ry

     iteration # 88     ecut=    80.00 Ry     beta= 0.20
     Davidson diagonalization with overlap
     ethr =  4.18E-09,  avg # of iterations =  1.0

     negative rho (up, down):  5.064E-03 0.000E+00

     total cpu time spent up to now is      805.4 secs

     total energy              =   -7568.83176915 Ry
     estimated scf accuracy    <       0.00002258 Ry

     iteration # 89     ecut=    80.00 Ry     beta= 0.20
     Davidson diagonalization with overlap
     ethr =  4.18E-09,  avg # of iterations =  1.0

     negative rho (up, down):  5.064E-03 0.000E+00

     total cpu time spent up to now is      814.2 secs

     total energy              =   -7568.83176959 Ry
     estimated scf accuracy    <       0.00002910 Ry

     iteration # 90     ecut=    80.00 Ry     beta= 0.20
     Davidson diagonalization with overlap
     ethr =  4.18E-09,  avg # of iterations =  1.0

     negative rho (up, down):  5.063E-03 0.000E+00

     total cpu time spent up to now is      822.9 secs

     total energy              =   -7568.83177037 Ry
     estimated scf accuracy    <       0.00002023 Ry

     iteration # 91     ecut=    80.00 Ry     beta= 0.20
     Davidson diagonalization with overlap
     ethr =  4.18E-09,  avg # of iterations =  1.0

     negative rho (up, down):  5.064E-03 0.000E+00

     total cpu time spent up to now is      831.7 secs

     total energy              =   -7568.83177031 Ry
     estimated scf accuracy    <       0.00001937 Ry

     iteration # 92     ecut=    80.00 Ry     beta= 0.20
     Davidson diagonalization with overlap
     ethr =  4.18E-09,  avg # of iterations =  1.0

     negative rho (up, down):  5.064E-03 0.000E+00

     total cpu time spent up to now is      840.5 secs

     total energy              =   -7568.83177038 Ry
     estimated scf accuracy    <       0.00001940 Ry

     iteration # 93     ecut=    80.00 Ry     beta= 0.20
     Davidson diagonalization with overlap
     ethr =  4.18E-09,  avg # of iterations =  1.0

     negative rho (up, down):  5.061E-03 0.000E+00

     total cpu time spent up to now is      849.2 secs

     total energy              =   -7568.83177235 Ry
     estimated scf accuracy    <       0.00004611 Ry

     iteration # 94     ecut=    80.00 Ry     beta= 0.20
     Davidson diagonalization with overlap
     ethr =  4.18E-09,  avg # of iterations =  1.6

     negative rho (up, down):  5.059E-03 0.000E+00

     total cpu time spent up to now is      858.6 secs

     total energy              =   -7568.83177379 Ry
     estimated scf accuracy    <       0.00001448 Ry

     iteration # 95     ecut=    80.00 Ry     beta= 0.20
     Davidson diagonalization with overlap
     ethr =  4.14E-09,  avg # of iterations =  1.0

     negative rho (up, down):  5.064E-03 0.000E+00

     total cpu time spent up to now is      867.4 secs

     total energy              =   -7568.83177161 Ry
     estimated scf accuracy    <       0.00001359 Ry

     iteration # 96     ecut=    80.00 Ry     beta= 0.20
     Davidson diagonalization with overlap
     ethr =  3.88E-09,  avg # of iterations =  2.0

     negative rho (up, down):  5.064E-03 0.000E+00

     total cpu time spent up to now is      877.2 secs

     total energy              =   -7568.83177189 Ry
     estimated scf accuracy    <       0.00001358 Ry

     iteration # 97     ecut=    80.00 Ry     beta= 0.20
     Davidson diagonalization with overlap
     ethr =  3.88E-09,  avg # of iterations =  1.0

     negative rho (up, down):  5.062E-03 0.000E+00

     total cpu time spent up to now is      885.9 secs

     total energy              =   -7568.83177272 Ry
     estimated scf accuracy    <       0.00001185 Ry

     iteration # 98     ecut=    80.00 Ry     beta= 0.20
     Davidson diagonalization with overlap
     ethr =  3.38E-09,  avg # of iterations =  1.0

     negative rho (up, down):  5.067E-03 0.000E+00

     total cpu time spent up to now is      894.6 secs

     End of self-consistent calculation

          k = 0.0000 0.0000 0.0000 ( 24267 PWs)   bands (ev):

   -89.8796 -89.8705 -89.8054 -89.7956 -89.7897 -89.7580 -89.7574 -89.7494
   -89.7491 -89.7315 -89.7303 -89.7165 -89.6954 -89.4771 -89.4487 -61.9352
   -61.9314 -61.9308 -61.9246 -61.8833 -61.8812 -61.8807 -61.8674 -50.5115
   -50.5018 -50.4403 -50.3880 -50.3331 -50.2971 -50.2928 -50.2605 -50.2578
   -50.2556 -50.2506 -50.2331 -50.2302 -50.2145 -50.1984 -50.1829 -50.1739
   -50.1465 -50.1358 -50.1256 -50.1251 -50.1149 -50.1118 -50.1096 -50.0940
   -50.0910 -50.0886 -50.0772 -50.0752 -50.0733 -50.0667 -50.0330 -50.0269
   -50.0251 -50.0247 -50.0211 -50.0037 -49.9946 -49.9608 -49.9494 -49.9119
   -49.9037 -49.8854 -49.6589 -49.6323 -28.7058 -28.7018 -28.6983 -28.6982
   -28.6982 -28.6953 -28.6947 -28.6930 -28.6818 -28.6779 -28.6775 -28.6724
   -28.6555 -28.6495 -28.6388 -28.6376 -28.6356 -28.6349 -28.6347 -28.6300
   -28.6245 -28.6235 -28.6226 -28.6171   4.6332   5.1915   5.5939   7.0941
     7.4586   8.6471   8.6653   9.1201   9.3619   9.5231   9.6455   9.7197
     9.7324   9.7389   9.7557   9.7723   9.7938   9.9507   9.9695  10.0288
    10.0706  10.0891  10.1812  10.2379  10.2648  10.5445  10.5472  10.5601
    10.5723  10.6088  10.6346  10.6573  10.6668  10.7744  10.8742  11.0720
    11.1097  11.1324  11.1643  11.2093  11.2836  11.3362  11.3849  11.4443
    11.7538  11.7752  11.8952  12.0081  12.0414  12.1031  12.1249  12.1350
    12.2611  12.2838  12.3155  12.4429  12.4762  12.4835  12.4947  12.5046
    12.5104  12.5209  12.5301  12.5399  12.5603  12.5752  12.5984  12.6218
    12.6331  12.6445  12.6619  12.6820  12.6922  12.8363  13.0163  13.0685
    13.1745  13.2902  13.4666  13.6674  13.6770  13.6846  14.0812  14.1899
    14.3397  14.3667  14.4284  14.4605  14.4895  14.4979  14.7489  14.8024
    14.8631  15.7358  15.8707  16.1591  16.1635  16.2620  16.5505  16.7743
    16.8223  17.2483  17.3603  17.7699  17.8640  17.9563  18.1912  18.2529
    18.4118  18.8747  19.0381  19.2101  19.4536  19.7140  20.0721  20.1447
    20.2196  20.5005

          k =-0.0014 0.3841 0.0004 ( 24221 PWs)   bands (ev):

   -89.8793 -89.8702 -89.8008 -89.7906 -89.7822 -89.7658 -89.7620 -89.7546
   -89.7492 -89.7318 -89.7304 -89.7162 -89.6953 -89.4771 -89.4487 -61.9351
   -61.9313 -61.9307 -61.9244 -61.8834 -61.8814 -61.8809 -61.8675 -50.4797
   -50.4686 -50.4017 -50.3840 -50.3404 -50.3103 -50.2982 -50.2510 -50.2492
   -50.2443 -50.2427 -50.2378 -50.2215 -50.2067 -50.1926 -50.1906 -50.1649
   -50.1380 -50.1278 -50.1200 -50.1159 -50.1133 -50.1119 -50.1062 -50.1038
   -50.0943 -50.0931 -50.0919 -50.0891 -50.0822 -50.0707 -50.0617 -50.0518
   -50.0401 -50.0360 -50.0352 -50.0137 -50.0067 -49.9607 -49.9494 -49.9118
   -49.9035 -49.8853 -49.6590 -49.6320 -28.7067 -28.7029 -28.6993 -28.6993
   -28.6970 -28.6964 -28.6945 -28.6933 -28.6801 -28.6787 -28.6767 -28.6731
   -28.6550 -28.6498 -28.6402 -28.6368 -28.6359 -28.6341 -28.6337 -28.6308
   -28.6243 -28.6236 -28.6218 -28.6160   5.6491   6.1901   6.5410   7.9165
     8.2065   8.3742   8.6532   8.9280   9.2421   9.3148   9.5044   9.5226
     9.6773   9.7811   9.8179   9.8429   9.9467   9.9972  10.0755  10.0860
    10.1396  10.3263  10.3665  10.4104  10.4370  10.4975  10.5387  10.5498
    10.6109  10.6360  10.6664  10.7232  10.8008  10.8122  10.8472  10.8852
    10.9742  11.0330  11.0872  11.1174  11.2450  11.2568  11.2676  11.3129
    11.3434  11.3754  11.4009  11.4884  11.6170  11.6666  11.7253  11.7371
    11.8057  11.9047  11.9356  12.0111  12.0162  12.0833  12.0979  12.1030
    12.1693  12.1788  12.2603  12.3034  12.3371  12.3489  12.3968  12.4910
    12.5258  12.5420  12.5614  12.6017  12.6215  12.6380  12.6485  12.7167
    12.7569  12.8368  12.8942  12.9103  13.0287  13.0434  13.1619  13.4542
    13.5186  13.8353  13.8880  14.0409  14.3434  14.3519  14.4966  14.5800
    14.6885  14.8028  14.8908  15.4398  16.0262  16.6315  16.7028  17.9337
    18.1385  18.3615  18.5683  19.1695  19.2800  19.5121  19.5677  19.5939
    19.7112  20.1715  20.6401  20.8131  20.8254  21.4055  21.5165  21.7385
    22.2697  22.6120

          k = 0.3327 0.1912-0.0030 ( 24222 PWs)   bands (ev):

   -89.8793 -89.8703 -89.8031 -89.7928 -89.7842 -89.7604 -89.7553 -89.7525
   -89.7466 -89.7365 -89.7362 -89.7159 -89.6951 -89.4726 -89.4532 -61.9351
   -61.9313 -61.9307 -61.9244 -61.8834 -61.8814 -61.8808 -61.8675 -50.4834
   -50.4750 -50.4043 -50.3815 -50.3285 -50.2945 -50.2897 -50.2704 -50.2685
   -50.2448 -50.2334 -50.2268 -50.2135 -50.2107 -50.2007 -50.1801 -50.1698
   -50.1426 -50.1312 -50.1219 -50.1182 -50.1109 -50.1092 -50.1035 -50.1019
   -50.0973 -50.0927 -50.0829 -50.0792 -50.0713 -50.0601 -50.0476 -50.0427
   -50.0425 -50.0411 -50.0351 -50.0219 -50.0078 -49.9608 -49.9570 -49.9492
   -49.9071 -49.8879 -49.6556 -49.6355 -28.7058 -28.7028 -28.6993 -28.6984
   -28.6971 -28.6962 -28.6948 -28.6930 -28.6820 -28.6787 -28.6781 -28.6737
   -28.6544 -28.6485 -28.6388 -28.6377 -28.6359 -28.6349 -28.6342 -28.6293
   -28.6239 -28.6238 -28.6225 -28.6162   5.6492   6.1863   6.5740   8.0042
     8.2104   8.3583   8.6393   8.8623   9.2377   9.3065   9.5157   9.6415
     9.6842   9.7181   9.8581   9.9504   9.9597  10.0105  10.0685  10.1148
    10.1520  10.3457  10.3618  10.4295  10.4551  10.5174  10.5467  10.6011
    10.6298  10.6583  10.7393  10.7628  10.7969  10.8140  10.8840  10.9686
    11.0161  11.0525  11.0866  11.1544  11.1707  11.2136  11.2622  11.2941
    11.3821  11.4336  11.4560  11.5269  11.5885  11.6705  11.6844  11.7257
    11.7408  11.8581  11.8869  11.9242  11.9700  12.0082  12.0690  12.0815
    12.1097  12.1320  12.2061  12.2452  12.3017  12.3337  12.3418  12.3669
    12.4172  12.4896  12.5091  12.5433  12.5776  12.6430  12.6459  12.6874
    12.7008  12.7269  12.8044  12.8299  13.0190  13.0297  13.1618  13.3613
    13.4919  13.9679  14.0006  14.2143  14.3212  14.3704  14.5022  14.6095
    14.6502  14.9975  15.4488  15.7179  16.1009  16.2942  16.4552  17.7233
    18.2015  18.3420  18.3764  19.2349  19.3518  19.3890  19.6855  19.7375
    19.7914  20.2635  20.6934  20.7832  20.8333  21.3311  21.4964  21.6963
    22.2710  22.5279

          k = 0.3313 0.5753-0.0026 ( 24155 PWs)   bands (ev):

   -89.8792 -89.8701 -89.8003 -89.7899 -89.7784 -89.7668 -89.7592 -89.7522
   -89.7510 -89.7356 -89.7349 -89.7158 -89.6951 -89.4726 -89.4531 -61.9350
   -61.9313 -61.9306 -61.9243 -61.8835 -61.8814 -61.8809 -61.8675 -50.4637
   -50.4523 -50.3845 -50.3722 -50.3277 -50.3116 -50.2939 -50.2677 -50.2600
   -50.2516 -50.2310 -50.2271 -50.2170 -50.2094 -50.1965 -50.1761 -50.1572
   -50.1369 -50.1293 -50.1259 -50.1201 -50.1171 -50.1094 -50.1071 -50.1023
   -50.0968 -50.0910 -50.0784 -50.0775 -50.0704 -50.0640 -50.0600 -50.0542
   -50.0461 -50.0428 -50.0394 -50.0372 -50.0302 -49.9606 -49.9569 -49.9490
   -49.9071 -49.8878 -49.6556 -49.6352 -28.7064 -28.7030 -28.7006 -28.6991
   -28.6968 -28.6963 -28.6957 -28.6918 -28.6810 -28.6795 -28.6765 -28.6750
   -28.6539 -28.6486 -28.6403 -28.6378 -28.6352 -28.6349 -28.6332 -28.6291
   -28.6248 -28.6234 -28.6212 -28.6158   7.2099   7.5358   7.7858   7.7974
     7.8664   8.2425   8.3578   8.3791   8.5952   9.2215   9.2675   9.3549
     9.3796   9.4319   9.7681   9.8497  10.1052  10.1436  10.1628  10.2041
    10.2514  10.3161  10.4670  10.4853  10.5257  10.5330  10.6138  10.6235
    10.6856  10.7243  10.7449  10.7652  10.7938  10.8066  10.8142  10.8235
    10.9018  10.9352  10.9542  10.9715  11.0060  11.0180  11.0983  11.2238
    11.2294  11.2616  11.3278  11.3914  11.5264  11.5295  11.5671  11.6173
    11.6475  11.6578  11.7350  11.8450  11.8619  11.9166  11.9696  12.0081
    12.0191  12.0825  12.1592  12.1687  12.1741  12.2088  12.2438  12.2513
    12.2799  12.2875  12.3312  12.3517  12.3880  12.4603  12.5389  12.6326
    12.6740  12.7004  12.8195  12.8270  12.8623  12.8867  13.0325  13.0814
    13.1132  13.1882  13.3324  13.4782  13.5962  13.6714  15.0235  15.0572
    15.0920  15.2071  15.6107  16.0076  17.8156  17.9895  18.0923  18.2169
    18.3418  18.9637  18.9864  19.0335  19.0804  19.1827  19.4256  19.7663
    19.9901  20.0532  20.0898  20.8167  20.9478  21.3470  21.4031  21.5016
    22.2090  23.3651

          k = 0.3340-0.1929-0.0034 ( 24223 PWs)   bands (ev):

   -89.8793 -89.8703 -89.8023 -89.7922 -89.7841 -89.7587 -89.7576 -89.7544
   -89.7484 -89.7350 -89.7350 -89.7159 -89.6952 -89.4726 -89.4532 -61.9351
   -61.9313 -61.9307 -61.9244 -61.8834 -61.8814 -61.8808 -61.8675 -50.4816
   -50.4703 -50.4017 -50.3816 -50.3311 -50.2992 -50.2890 -50.2707 -50.2624
   -50.2430 -50.2341 -50.2282 -50.2139 -50.2111 -50.2005 -50.1840 -50.1691
   -50.1404 -50.1293 -50.1224 -50.1193 -50.1109 -50.1097 -50.1039 -50.1006
   -50.0970 -50.0926 -50.0816 -50.0795 -50.0713 -50.0612 -50.0544 -50.0456
   -50.0450 -50.0421 -50.0367 -50.0139 -50.0083 -49.9608 -49.9570 -49.9491
   -49.9071 -49.8879 -49.6556 -49.6355 -28.7059 -28.7028 -28.6992 -28.6986
   -28.6973 -28.6960 -28.6956 -28.6923 -28.6820 -28.6787 -28.6782 -28.6736
   -28.6544 -28.6485 -28.6396 -28.6368 -28.6365 -28.6349 -28.6336 -28.6293
   -28.6243 -28.6238 -28.6220 -28.6162   5.6616   6.1987   6.5841   8.0157
     8.2187   8.3861   8.6636   8.8778   9.2409   9.3217   9.5338   9.6500
     9.6903   9.7224   9.8616   9.9391   9.9633   9.9982  10.0730  10.1110
    10.1358  10.3477  10.3614  10.4330  10.4541  10.5251  10.5395  10.5939
    10.6343  10.6565  10.7380  10.7623  10.7891  10.8133  10.8803  10.9653
    11.0202  11.0487  11.0745  11.1533  11.1635  11.2087  11.2661  11.2960
    11.3914  11.4309  11.4550  11.5272  11.5902  11.6735  11.6828  11.7196
    11.7450  11.8610  11.8863  11.9145  11.9751  12.0080  12.0653  12.0834
    12.1128  12.1377  12.2069  12.2387  12.3008  12.3272  12.3432  12.3705
    12.4220  12.4875  12.5005  12.5297  12.5725  12.6315  12.6424  12.6807
    12.6955  12.7181  12.8067  12.8318  13.0212  13.0356  13.1539  13.3523
    13.4985  13.9647  14.0065  14.1913  14.3014  14.3203  14.4550  14.5695
    14.6094  14.9605  15.3875  15.7354  16.1082  16.3107  16.4259  17.6858
    18.1674  18.3171  18.3863  19.2272  19.3333  19.3596  19.6451  19.7318
    19.7712  20.2849  20.6917  20.7793  20.8204  21.3278  21.5142  21.7575
    22.2730  22.5771

     the Fermi energy is    13.2164 ev

!    total energy              =   -7568.83177020 Ry
     total all-electron energy =    -48829.475532 Ry
     estimated scf accuracy    <       0.00000232 Ry
     smearing contrib. (-TS)   =       0.08992081 Ry
     internal energy E=F+TS    =   -7568.92169101 Ry

     The total energy is F=E-TS. E is the sum of the following terms:
     one-electron contribution =   -4473.52757033 Ry
     hartree contribution      =    2385.79018301 Ry
     xc contribution           =    -656.93080545 Ry
     ewald contribution        =   -3338.23712079 Ry
     one-center paw contrib.   =   -1486.01637745 Ry

     convergence has been achieved in  98 iterations

     negative rho (up, down):  5.067E-03 0.000E+00

     Forces acting on atoms (cartesian axes, Ry/au):

     atom    1 type  1   force =     0.00152870    0.00104341    0.00292256
     atom    2 type  1   force =    -0.00090162   -0.00119999    0.00371979
     atom    3 type  1   force =     0.00007524   -0.00026187   -0.00152853
     atom    4 type  1   force =     0.00123121   -0.00140727    0.00265740
     atom    5 type  1   force =    -0.00390924    0.00271355    0.00016112
     atom    6 type  1   force =    -0.00014892    0.00417891    0.01147113
     atom    7 type  1   force =     0.00148292   -0.00238533   -0.00879230
     atom    8 type  1   force =    -0.00388012   -0.00110635    0.00191374
     atom    9 type  2   force =    -0.00002794    0.01052295   -0.01975967
     atom   10 type  2   force =     0.00553158    0.00003696    0.01135886
     atom   11 type  2   force =     0.00393312   -0.00506835    0.00566845
     atom   12 type  2   force =    -0.01409170    0.01124314    0.02455846
     atom   13 type  2   force =     0.02609228   -0.01206210   -0.00253345
     atom   14 type  2   force =     0.00652739    0.03723504   -0.00311447
     atom   15 type  2   force =    -0.01068380   -0.00072615    0.00390089
     atom   16 type  2   force =     0.01388530   -0.00226943   -0.00640548
     atom   17 type  2   force =    -0.02715554   -0.02177314    0.00035651
     atom   18 type  2   force =     0.00007655   -0.00563873   -0.00771717
     atom   19 type  2   force =     0.01574695   -0.00329552   -0.00752853
     atom   20 type  2   force =     0.00128476   -0.00104463    0.00206630
     atom   21 type  2   force =    -0.00418098   -0.00147340   -0.00309926
     atom   22 type  2   force =    -0.01518603   -0.00692820   -0.00999704
     atom   23 type  2   force =     0.00276990   -0.00033352   -0.00027930
     The non-local contrib.  to forces
     atom    1 type  1   force =     0.00786877    0.04733843    0.02233572
     atom    2 type  1   force =    -0.00011006   -0.00372505    0.01846180
     atom    3 type  1   force =    -0.00395415    0.00545365   -0.00339956
     atom    4 type  1   force =    -0.00358334    0.04489398    0.00257595
     atom    5 type  1   force =    -0.02123769    0.00789579   -0.00575229
     atom    6 type  1   force =     0.00301646   -0.01295814    0.02369121
     atom    7 type  1   force =     0.00126539   -0.04109440   -0.01173318
     atom    8 type  1   force =    -0.02816318   -0.00866609    0.01791546
     atom    9 type  2   force =     0.00643911   -0.18343293    0.05391139
     atom   10 type  2   force =    -0.04337682    0.02872825    0.05092513
     atom   11 type  2   force =    -0.03113124    0.08579354   -0.07624230
     atom   12 type  2   force =    -0.23521439   -0.12519156    1.82569096
     atom   13 type  2   force =     0.07382004   -0.08609795   -0.01001633
     atom   14 type  2   force =    -0.00607640    0.02431295    0.00622885
     atom   15 type  2   force =    -0.14711037    0.15588999    0.02199945
     atom   16 type  2   force =     0.09989443    0.22261834    0.03293079
     atom   17 type  2   force =    -0.09708705   -0.01756438    0.01076225
     atom   18 type  2   force =    -0.00104884    0.05089098    0.09013096
     atom   19 type  2   force =    -0.02254794    0.01935990    0.04584226
     atom   20 type  2   force =    -0.00323485    0.05469226   -0.04464165
     atom   21 type  2   force =    -0.01151960    0.02835656   -0.01764134
     atom   22 type  2   force =     0.01029953    0.02746806    0.06469030
     atom   23 type  2   force =     0.01917006    0.02608032   -0.01865194
     The ionic contribution  to forces
     atom    1 type  1   force =     0.24376995    3.09221737  -23.76231482
     atom    2 type  1   force =     0.06548367   -0.22937373    9.43611101
     atom    3 type  1   force =    -0.03513704    0.10815876   -9.14767282
     atom    4 type  1   force =    -0.15524996    2.72567645   24.23558655
     atom    5 type  1   force =    -0.71377386    0.29148055   -6.08033387
     atom    6 type  1   force =     0.11584440    0.01832526   20.92906696
     atom    7 type  1   force =     0.09159688   -0.76005643  -20.45336961
     atom    8 type  1   force =    -1.01558862   -0.20050568    6.53874373
     atom    9 type  2   force =    -0.46405777   -9.54083673  -46.49778959
     atom   10 type  2   force =     0.76905254    0.37358839   17.19177183
     atom   11 type  2   force =     0.40192210    0.07758155  -14.74179226
     atom   12 type  2   force =     0.15353075   -9.72313171   48.02684887
     atom   13 type  2   force =    15.44512935   -8.66977992   -0.70867098
     atom   14 type  2   force =     1.20789529   18.60850130    0.02510308
     atom   15 type  2   force =   -12.77951155    7.64289377    0.64403143
     atom   16 type  2   force =    12.83527604    8.26380370   -0.71117773
     atom   17 type  2   force =   -15.86505505   -9.91510466    0.14537401
     atom   18 type  2   force =    -0.16162014   -0.61117966  -29.53673403
     atom   19 type  2   force =     1.38886801   -0.84922108   28.46508229
     atom   20 type  2   force =     0.21759438    0.65868039   28.24650506
     atom   21 type  2   force =    -1.06261960   -0.10558039  -30.45711304
     atom   22 type  2   force =    -1.81327411   -1.07060223   28.28296021
     atom   23 type  2   force =     1.12992430   -0.18553529  -30.07021624
     The local contribution  to forces
     atom    1 type  1   force =    -0.25052068   -3.13834403   23.74302307
     atom    2 type  1   force =    -0.06669234    0.23190401   -9.45028092
     atom    3 type  1   force =     0.03874478   -0.11381250    9.14884348
     atom    4 type  1   force =     0.15961634   -2.77183780  -24.23664499
     atom    5 type  1   force =     0.73058005   -0.29663101    6.08592281
     atom    6 type  1   force =    -0.11945497   -0.00123722  -20.94253609
     atom    7 type  1   force =    -0.09181202    0.79856815   20.45612244
     atom    8 type  1   force =     1.03933987    0.20803088   -6.55394379
     atom    9 type  2   force =     0.45750328    9.72795062   46.43401858
     atom   10 type  2   force =    -0.72350587   -0.40154801  -17.22444375
     atom   11 type  2   force =    -0.36853294   -0.16365609   14.81420914
     atom   12 type  2   force =     0.04519733    9.85554884  -49.67145417
     atom   13 type  2   force =   -15.49126017    8.74026791    0.71674434
     atom   14 type  2   force =    -1.19612792  -18.59848105   -0.03392131
     atom   15 type  2   force =    12.91190618   -7.79556653   -0.66244962
     atom   16 type  2   force =   -12.92175659   -8.48030386    0.67203198
     atom   17 type  2   force =    15.93271436    9.91172959   -0.15446468
     atom   18 type  2   force =     0.16213145    0.55794720   29.44478336
     atom   19 type  2   force =    -1.35249434    0.82813323  -28.51648930
     atom   20 type  2   force =    -0.21366295   -0.71127147  -28.20439570
     atom   21 type  2   force =     1.06896951    0.07683931   30.47031454
     atom   22 type  2   force =     1.78827376    1.03800053  -28.35470403
     atom   23 type  2   force =    -1.14584696    0.16112431   30.08763529
     The core correction contribution to forces
     atom    1 type  1   force =    -0.00003257   -0.00015633   -0.00016797
     atom    2 type  1   force =     0.00000590    0.00001955   -0.00010728
     atom    3 type  1   force =     0.00001752   -0.00002202    0.00004620
     atom    4 type  1   force =     0.00001015   -0.00014023    0.00005507
     atom    5 type  1   force =     0.00009945   -0.00004159    0.00002615
     atom    6 type  1   force =    -0.00000844    0.00002361   -0.00007494
     atom    7 type  1   force =    -0.00001151    0.00015937    0.00002299
     atom    8 type  1   force =     0.00012448    0.00003612   -0.00008174
     atom    9 type  2   force =    -0.00053570    0.00653260   -0.00950078
     atom   10 type  2   force =     0.00274568   -0.00127149   -0.00607649
     atom   11 type  2   force =     0.00177958   -0.00466108    0.00842071
     atom   12 type  2   force =     0.02223145    0.00371330   -0.15876973
     atom   13 type  2   force =    -0.00146732    0.00328153    0.00022429
     atom   14 type  2   force =     0.00019507    0.00268369   -0.00007848
     atom   15 type  2   force =     0.00357578   -0.00421558   -0.00163033
     atom   16 type  2   force =    -0.00067801   -0.00814930   -0.00155590
     atom   17 type  2   force =     0.00229234   -0.00096021   -0.00060676
     atom   18 type  2   force =    -0.00001153   -0.00326379   -0.00660591
     atom   19 type  2   force =     0.00129689   -0.00126834   -0.00230108
     atom   20 type  2   force =     0.00031092   -0.00310855    0.00414076
     atom   21 type  2   force =     0.00089645   -0.00128450    0.00059798
     atom   22 type  2   force =    -0.00103879   -0.00153083   -0.00342155
     atom   23 type  2   force =    -0.00110117   -0.00160495    0.00073430
     The Hubbard contrib.    to forces
     atom    1 type  1   force =     0.00000000    0.00000000    0.00000000
     atom    2 type  1   force =     0.00000000    0.00000000    0.00000000
     atom    3 type  1   force =     0.00000000    0.00000000    0.00000000
     atom    4 type  1   force =     0.00000000    0.00000000    0.00000000
     atom    5 type  1   force =     0.00000000    0.00000000    0.00000000
     atom    6 type  1   force =     0.00000000    0.00000000    0.00000000
     atom    7 type  1   force =     0.00000000    0.00000000    0.00000000
     atom    8 type  1   force =     0.00000000    0.00000000    0.00000000
     atom    9 type  2   force =     0.00000000    0.00000000    0.00000000
     atom   10 type  2   force =     0.00000000    0.00000000    0.00000000
     atom   11 type  2   force =     0.00000000    0.00000000    0.00000000
     atom   12 type  2   force =     0.00000000    0.00000000    0.00000000
     atom   13 type  2   force =     0.00000000    0.00000000    0.00000000
     atom   14 type  2   force =     0.00000000    0.00000000    0.00000000
     atom   15 type  2   force =     0.00000000    0.00000000    0.00000000
     atom   16 type  2   force =     0.00000000    0.00000000    0.00000000
     atom   17 type  2   force =     0.00000000    0.00000000    0.00000000
     atom   18 type  2   force =     0.00000000    0.00000000    0.00000000
     atom   19 type  2   force =     0.00000000    0.00000000    0.00000000
     atom   20 type  2   force =     0.00000000    0.00000000    0.00000000
     atom   21 type  2   force =     0.00000000    0.00000000    0.00000000
     atom   22 type  2   force =     0.00000000    0.00000000    0.00000000
     atom   23 type  2   force =     0.00000000    0.00000000    0.00000000
     The SCF correction term to forces
     atom    1 type  1   force =     0.00002754   -0.00003839   -0.00025202
     atom    2 type  1   force =    -0.00000448   -0.00005112   -0.00076341
     atom    3 type  1   force =    -0.00001156   -0.00006611    0.00035559
     atom    4 type  1   force =     0.00002234   -0.00002603    0.00078623
     atom    5 type  1   force =     0.00000711   -0.00001654   -0.00000027
     atom    6 type  1   force =     0.00003794   -0.00000095    0.00102540
     atom    7 type  1   force =     0.00002848    0.00001164   -0.00013352
     atom    8 type  1   force =    -0.00000835   -0.00002792   -0.00101850
     atom    9 type  2   force =     0.00020745    0.00028304   -0.00069785
     atom   10 type  2   force =     0.00020036    0.00051346   -0.00111646
     atom   11 type  2   force =    -0.00052006   -0.00015262    0.00077458
     atom   12 type  2   force =    -0.00025252    0.00027792    0.00194395
     atom   13 type  2   force =    -0.00054529    0.00023998   -0.00111334
     atom   14 type  2   force =     0.00022567    0.00019180   -0.00074520
     atom   15 type  2   force =     0.00004046    0.00024584    0.00165138
     atom   16 type  2   force =     0.00073374   -0.00026465    0.00106679
     atom   17 type  2   force =    -0.00043582    0.00010016   -0.00100689
     atom   18 type  2   force =     0.00020992   -0.00005981    0.00040987
     atom   19 type  2   force =     0.00020864   -0.00032558    0.00003871
     atom   20 type  2   force =    -0.00013843   -0.00006361    0.00015924
     atom   21 type  2   force =    -0.00032342    0.00016927    0.00044402
     atom   22 type  2   force =     0.00013790   -0.00029007    0.00017944
     atom   23 type  2   force =     0.00020798   -0.00042426   -0.00007929

     Total force =     0.081619     Total SCF correction =     0.004425


     Computing stress (Cartesian axis) and pressure


     negative rho (up, down):  5.067E-03 0.000E+00
          total   stress  (Ry/bohr**3)                   (kbar)     P=       31.78
   0.00027065  -0.00003346  -0.00004817           39.81       -4.92       -7.09
  -0.00003346   0.00019177  -0.00000395           -4.92       28.21       -0.58
  -0.00004817  -0.00000395   0.00018562           -7.09       -0.58       27.31


     BFGS Geometry Optimization
     Energy error            =      0.0E+00 Ry
     Gradient error          =      3.7E-02 Ry/Bohr
     Cell gradient error     =      4.0E+01 kbar

     number of scf cycles    =   1
     number of bfgs steps    =   0

     enthalpy           new  =   -7568.8317701981 Ry

     new trust radius        =       0.0619864338 bohr
     new conv_thr            =       0.0000100000 Ry

     new unit-cell volume =   2036.71546 a.u.^3 (   301.81009 Ang^3 )
     density =      5.91370 g/cm^3

CELL_PARAMETERS (angstrom)
   4.728220324   0.012732307  -0.003971392
  -2.357054488   4.088773567   0.007785339
   0.130889428  -0.018479920  15.587107761

ATOMIC_POSITIONS (crystal)
Mg            0.9984193970        0.9987381986        0.4052446070
Mg            0.0009203082        0.0002001424        0.9063789434
Mg            0.9998870738        0.9988377435        0.5928378792
Mg            0.9993428129        0.9976920979        0.0932786935
Mg            0.3332606405        0.6631211459        0.6559484017
Mg            0.6650428056        0.3311063197        0.1557740303
Mg            0.6675934294        0.3368773364        0.3436712276
Mg            0.3358912535        0.6667184061        0.8434943755
Ni            0.3332979009        0.6671294681        0.3750075152
Ni            0.6644649662        0.3317469045        0.8752253469
Ni            0.6644769737        0.3337979366        0.6244285482
Ni            0.3358503847        0.6684728299        0.1248531999
Ni            0.8299519462        0.1617105167        0.7495959029
Ni            0.8303677980        0.6644821916        0.7502897703
Ni            0.1612127663        0.8298321782        0.2494552131
Ni            0.6680241390        0.8336830434        0.2504804797
Ni            0.3295567590        0.1648284550        0.7501016118
Ni            0.4994289215        0.9988257119        0.5006430822
Ni            0.4989902879        0.4989957994        0.0004292068
Ni            0.5011118693        0.0007490739        0.9998475136
Ni            0.5009767458        0.5001011614        0.4998034202
Ni            0.0017836271        0.5005079539        0.0008875729
Ni            0.9989711934        0.4984553850        0.4996954581



     Writing config-only to output data dir ./C36/out_logs/C36_out_8/laves_C36.save/
     NEW-OLD atomic charge density approx. for the potential

     Check: negative core charge=   -0.000010

     negative rho (up, down):  5.984E-03 0.000E+00
     extrapolated charge  355.60821, renormalised to  350.00000

     total cpu time spent up to now is      919.7 secs

     Self-consistent Calculation

     iteration #  1     ecut=    80.00 Ry     beta= 0.20
     Davidson diagonalization with overlap
     ethr =  1.00E-06,  avg # of iterations = 15.4

     total cpu time spent up to now is      954.4 secs

     total energy              =   -7509.10075263 Ry
     estimated scf accuracy    <     160.51862555 Ry

     iteration #  2     ecut=    80.00 Ry     beta= 0.20
     Davidson diagonalization with overlap
     ethr =  1.00E-02,  avg # of iterations =  6.2

     total cpu time spent up to now is      971.2 secs

     total energy              =   -7519.03823500 Ry
     estimated scf accuracy    <    3361.29206448 Ry

     iteration #  3     ecut=    80.00 Ry     beta= 0.20
     Davidson diagonalization with overlap
     ethr =  1.00E-02,  avg # of iterations =  9.8

     total cpu time spent up to now is      987.2 secs

     total energy              =   -7564.16325793 Ry
     estimated scf accuracy    <     430.42917235 Ry

     iteration #  4     ecut=    80.00 Ry     beta= 0.20
     Davidson diagonalization with overlap
     ethr =  1.00E-02,  avg # of iterations =  6.0

     total cpu time spent up to now is      998.8 secs

     total energy              =   -7567.53161839 Ry
     estimated scf accuracy    <     160.28890790 Ry

     iteration #  5     ecut=    80.00 Ry     beta= 0.20
     Davidson diagonalization with overlap
     ethr =  1.00E-02,  avg # of iterations =  2.0

     total cpu time spent up to now is     1008.0 secs

     total energy              =   -7568.36531535 Ry
     estimated scf accuracy    <     180.58939398 Ry

     iteration #  6     ecut=    80.00 Ry     beta= 0.20
     Davidson diagonalization with overlap
     ethr =  1.00E-02,  avg # of iterations =  1.8

     total cpu time spent up to now is     1017.0 secs

     total energy              =   -7569.48586514 Ry
     estimated scf accuracy    <     104.59216089 Ry

     iteration #  7     ecut=    80.00 Ry     beta= 0.20
     Davidson diagonalization with overlap
     ethr =  1.00E-02,  avg # of iterations =  1.6

     total cpu time spent up to now is     1026.2 secs

     total energy              =   -7570.86235743 Ry
     estimated scf accuracy    <      23.70250676 Ry

     iteration #  8     ecut=    80.00 Ry     beta= 0.20
     Davidson diagonalization with overlap
     ethr =  6.77E-03,  avg # of iterations =  1.6

     total cpu time spent up to now is     1035.2 secs

     total energy              =   -7570.83477053 Ry
     estimated scf accuracy    <      26.72136190 Ry

     iteration #  9     ecut=    80.00 Ry     beta= 0.20
     Davidson diagonalization with overlap
     ethr =  6.77E-03,  avg # of iterations =  1.0

     total cpu time spent up to now is     1043.9 secs

     total energy              =   -7570.70728334 Ry
     estimated scf accuracy    <      25.02161884 Ry

     iteration # 10     ecut=    80.00 Ry     beta= 0.20
     Davidson diagonalization with overlap
     ethr =  6.77E-03,  avg # of iterations =  1.0

     total cpu time spent up to now is     1052.6 secs

     total energy              =   -7570.61055757 Ry
     estimated scf accuracy    <      23.51293523 Ry

     iteration # 11     ecut=    80.00 Ry     beta= 0.20
     Davidson diagonalization with overlap
     ethr =  6.72E-03,  avg # of iterations =  1.8

     total cpu time spent up to now is     1061.6 secs

     total energy              =   -7570.74366643 Ry
     estimated scf accuracy    <      21.77233453 Ry

     iteration # 12     ecut=    80.00 Ry     beta= 0.20
     Davidson diagonalization with overlap
     ethr =  6.22E-03,  avg # of iterations =  1.8

     total cpu time spent up to now is     1070.7 secs

     total energy              =   -7569.98084781 Ry
     estimated scf accuracy    <      21.47572305 Ry

     iteration # 13     ecut=    80.00 Ry     beta= 0.20
     Davidson diagonalization with overlap
     ethr =  6.14E-03,  avg # of iterations =  1.0

     negative rho (up, down):  1.012E-04 0.000E+00

     total cpu time spent up to now is     1079.4 secs

     total energy              =   -7569.11587172 Ry
     estimated scf accuracy    <      16.24687912 Ry

     iteration # 14     ecut=    80.00 Ry     beta= 0.20
     Davidson diagonalization with overlap
     ethr =  4.64E-03,  avg # of iterations =  1.0

     negative rho (up, down):  5.472E-05 0.000E+00

     total cpu time spent up to now is     1088.2 secs

     total energy              =   -7568.76976027 Ry
     estimated scf accuracy    <      51.44889528 Ry

     iteration # 15     ecut=    80.00 Ry     beta= 0.20
     Davidson diagonalization with overlap
     ethr =  4.64E-03,  avg # of iterations =  1.8

     negative rho (up, down):  1.440E-04 0.000E+00

     total cpu time spent up to now is     1097.7 secs

     total energy              =   -7568.13985093 Ry
     estimated scf accuracy    <      57.41884619 Ry

     iteration # 16     ecut=    80.00 Ry     beta= 0.20
     Davidson diagonalization with overlap
     ethr =  4.64E-03,  avg # of iterations =  1.0

     total cpu time spent up to now is     1106.5 secs

     total energy              =   -7568.40525886 Ry
     estimated scf accuracy    <      12.37510829 Ry

     iteration # 17     ecut=    80.00 Ry     beta= 0.20
     Davidson diagonalization with overlap
     ethr =  3.54E-03,  avg # of iterations =  1.0

     negative rho (up, down):  2.286E-04 0.000E+00

     total cpu time spent up to now is     1115.2 secs

     total energy              =   -7568.88020909 Ry
     estimated scf accuracy    <       6.71597442 Ry

     iteration # 18     ecut=    80.00 Ry     beta= 0.20
     Davidson diagonalization with overlap
     ethr =  1.92E-03,  avg # of iterations =  1.0

     negative rho (up, down):  2.119E-03 0.000E+00

     total cpu time spent up to now is     1124.0 secs

     total energy              =   -7568.95141521 Ry
     estimated scf accuracy    <       2.09941075 Ry

     iteration # 19     ecut=    80.00 Ry     beta= 0.20
     Davidson diagonalization with overlap
     ethr =  6.00E-04,  avg # of iterations =  1.0

     negative rho (up, down):  9.033E-03 0.000E+00

     total cpu time spent up to now is     1132.7 secs

     total energy              =   -7569.14161435 Ry
     estimated scf accuracy    <       2.25652309 Ry

     iteration # 20     ecut=    80.00 Ry     beta= 0.20
     Davidson diagonalization with overlap
     ethr =  6.00E-04,  avg # of iterations =  2.0

     negative rho (up, down):  4.763E-02 0.000E+00

     total cpu time spent up to now is     1142.6 secs

     total energy              =   -7569.53954385 Ry
     estimated scf accuracy    <      11.85433395 Ry

     iteration # 21     ecut=    80.00 Ry     beta= 0.20
     Davidson diagonalization with overlap
     ethr =  6.00E-04,  avg # of iterations =  2.0

     total cpu time spent up to now is     1152.4 secs

     total energy              =   -7568.47290824 Ry
     estimated scf accuracy    <      22.46456300 Ry

     iteration # 22     ecut=    80.00 Ry     beta= 0.20
     Davidson diagonalization with overlap
     ethr =  6.00E-04,  avg # of iterations =  2.0

     total cpu time spent up to now is     1162.9 secs

     total energy              =   -7568.84865711 Ry
     estimated scf accuracy    <       1.61234116 Ry

     iteration # 23     ecut=    80.00 Ry     beta= 0.20
     Davidson diagonalization with overlap
     ethr =  4.61E-04,  avg # of iterations =  1.0

     total cpu time spent up to now is     1171.6 secs

     total energy              =   -7568.86690781 Ry
     estimated scf accuracy    <       0.86291131 Ry

     iteration # 24     ecut=    80.00 Ry     beta= 0.20
     Davidson diagonalization with overlap
     ethr =  2.47E-04,  avg # of iterations =  1.0

     total cpu time spent up to now is     1180.4 secs

     total energy              =   -7568.83784545 Ry
     estimated scf accuracy    <       0.84358946 Ry

     iteration # 25     ecut=    80.00 Ry     beta= 0.20
     Davidson diagonalization with overlap
     ethr =  2.41E-04,  avg # of iterations =  1.0

     total cpu time spent up to now is     1189.1 secs

     total energy              =   -7568.83543747 Ry
     estimated scf accuracy    <       0.44176050 Ry

     iteration # 26     ecut=    80.00 Ry     beta= 0.20
     Davidson diagonalization with overlap
     ethr =  1.26E-04,  avg # of iterations =  1.4

     total cpu time spent up to now is     1198.3 secs

     total energy              =   -7568.82553857 Ry
     estimated scf accuracy    <       0.42048742 Ry

     iteration # 27     ecut=    80.00 Ry     beta= 0.20
     Davidson diagonalization with overlap
     ethr =  1.20E-04,  avg # of iterations =  1.0

     total cpu time spent up to now is     1207.0 secs

     total energy              =   -7568.83380403 Ry
     estimated scf accuracy    <       0.27098208 Ry

     iteration # 28     ecut=    80.00 Ry     beta= 0.20
     Davidson diagonalization with overlap
     ethr =  7.74E-05,  avg # of iterations =  1.4

     total cpu time spent up to now is     1216.2 secs

     total energy              =   -7568.83495462 Ry
     estimated scf accuracy    <       0.43912421 Ry

     iteration # 29     ecut=    80.00 Ry     beta= 0.20
     Davidson diagonalization with overlap
     ethr =  7.74E-05,  avg # of iterations =  1.0

     total cpu time spent up to now is     1224.9 secs

     total energy              =   -7568.84081040 Ry
     estimated scf accuracy    <       0.02780613 Ry

     iteration # 30     ecut=    80.00 Ry     beta= 0.20
     Davidson diagonalization with overlap
     ethr =  7.94E-06,  avg # of iterations =  9.2

     total cpu time spent up to now is     1236.2 secs

     total energy              =   -7568.84189372 Ry
     estimated scf accuracy    <       0.06443739 Ry

     iteration # 31     ecut=    80.00 Ry     beta= 0.20
     Davidson diagonalization with overlap
     ethr =  7.94E-06,  avg # of iterations =  1.2

     total cpu time spent up to now is     1245.2 secs

     total energy              =   -7568.84218947 Ry
     estimated scf accuracy    <       0.05311112 Ry

     iteration # 32     ecut=    80.00 Ry     beta= 0.20
     Davidson diagonalization with overlap
     ethr =  7.94E-06,  avg # of iterations =  1.0

     total cpu time spent up to now is     1253.9 secs

     total energy              =   -7568.84243321 Ry
     estimated scf accuracy    <       0.05203670 Ry

     iteration # 33     ecut=    80.00 Ry     beta= 0.20
     Davidson diagonalization with overlap
     ethr =  7.94E-06,  avg # of iterations =  1.2

     total cpu time spent up to now is     1262.9 secs

     total energy              =   -7568.84264097 Ry
     estimated scf accuracy    <       0.06433894 Ry

     iteration # 34     ecut=    80.00 Ry     beta= 0.20
     Davidson diagonalization with overlap
     ethr =  7.94E-06,  avg # of iterations =  1.0

     negative rho (up, down):  2.906E-05 0.000E+00

     total cpu time spent up to now is     1271.6 secs

     total energy              =   -7568.84267571 Ry
     estimated scf accuracy    <       0.06726619 Ry

     iteration # 35     ecut=    80.00 Ry     beta= 0.20
     Davidson diagonalization with overlap
     ethr =  7.94E-06,  avg # of iterations =  2.0

     total cpu time spent up to now is     1281.8 secs

     total energy              =   -7568.83995162 Ry
     estimated scf accuracy    <       0.24221095 Ry

     iteration # 36     ecut=    80.00 Ry     beta= 0.20
     Davidson diagonalization with overlap
     ethr =  7.94E-06,  avg # of iterations =  2.0

     total cpu time spent up to now is     1292.0 secs

     total energy              =   -7568.84080984 Ry
     estimated scf accuracy    <       0.05401514 Ry

     iteration # 37     ecut=    80.00 Ry     beta= 0.20
     Davidson diagonalization with overlap
     ethr =  7.94E-06,  avg # of iterations =  1.0

     total cpu time spent up to now is     1300.7 secs

     total energy              =   -7568.84041262 Ry
     estimated scf accuracy    <       0.10631075 Ry

     iteration # 38     ecut=    80.00 Ry     beta= 0.20
     Davidson diagonalization with overlap
     ethr =  7.94E-06,  avg # of iterations =  1.0

     total cpu time spent up to now is     1309.5 secs

     total energy              =   -7568.84210054 Ry
     estimated scf accuracy    <       0.07914174 Ry

     iteration # 39     ecut=    80.00 Ry     beta= 0.20
     Davidson diagonalization with overlap
     ethr =  7.94E-06,  avg # of iterations =  1.2

     total cpu time spent up to now is     1318.4 secs

     total energy              =   -7568.84263325 Ry
     estimated scf accuracy    <       0.07962708 Ry

     iteration # 40     ecut=    80.00 Ry     beta= 0.20
     Davidson diagonalization with overlap
     ethr =  7.94E-06,  avg # of iterations =  1.0

     total cpu time spent up to now is     1327.2 secs

     total energy              =   -7568.84294220 Ry
     estimated scf accuracy    <       0.06995149 Ry

     iteration # 41     ecut=    80.00 Ry     beta= 0.20
     Davidson diagonalization with overlap
     ethr =  7.94E-06,  avg # of iterations =  1.0

     total cpu time spent up to now is     1335.9 secs

     total energy              =   -7568.84296545 Ry
     estimated scf accuracy    <       0.07460805 Ry

     iteration # 42     ecut=    80.00 Ry     beta= 0.20
     Davidson diagonalization with overlap
     ethr =  7.94E-06,  avg # of iterations =  1.0

     total cpu time spent up to now is     1344.6 secs

     total energy              =   -7568.84392166 Ry
     estimated scf accuracy    <       0.05919941 Ry

     iteration # 43     ecut=    80.00 Ry     beta= 0.20
     Davidson diagonalization with overlap
     ethr =  7.94E-06,  avg # of iterations =  1.2

     total cpu time spent up to now is     1353.6 secs

     total energy              =   -7568.84422059 Ry
     estimated scf accuracy    <       0.07025293 Ry

     iteration # 44     ecut=    80.00 Ry     beta= 0.20
     Davidson diagonalization with overlap
     ethr =  7.94E-06,  avg # of iterations =  1.0

     total cpu time spent up to now is     1362.3 secs

     total energy              =   -7568.84459976 Ry
     estimated scf accuracy    <       0.04500622 Ry

     iteration # 45     ecut=    80.00 Ry     beta= 0.20
     Davidson diagonalization with overlap
     ethr =  7.94E-06,  avg # of iterations =  1.0

     total cpu time spent up to now is     1371.0 secs

     total energy              =   -7568.84464313 Ry
     estimated scf accuracy    <       0.04675365 Ry

     iteration # 46     ecut=    80.00 Ry     beta= 0.20
     Davidson diagonalization with overlap
     ethr =  7.94E-06,  avg # of iterations =  1.0

     total cpu time spent up to now is     1379.7 secs

     total energy              =   -7568.84470796 Ry
     estimated scf accuracy    <       0.03921142 Ry

     iteration # 47     ecut=    80.00 Ry     beta= 0.20
     Davidson diagonalization with overlap
     ethr =  7.94E-06,  avg # of iterations =  1.0

     total cpu time spent up to now is     1388.5 secs

     total energy              =   -7568.84483582 Ry
     estimated scf accuracy    <       0.03139168 Ry

     iteration # 48     ecut=    80.00 Ry     beta= 0.20
     Davidson diagonalization with overlap
     ethr =  7.94E-06,  avg # of iterations =  1.0

     total cpu time spent up to now is     1397.2 secs

     total energy              =   -7568.84492311 Ry
     estimated scf accuracy    <       0.02326396 Ry

     iteration # 49     ecut=    80.00 Ry     beta= 0.20
     Davidson diagonalization with overlap
     ethr =  6.65E-06,  avg # of iterations =  2.0

     total cpu time spent up to now is     1406.9 secs

     total energy              =   -7568.84488173 Ry
     estimated scf accuracy    <       0.00932093 Ry

     iteration # 50     ecut=    80.00 Ry     beta= 0.20
     Davidson diagonalization with overlap
     ethr =  2.66E-06,  avg # of iterations =  1.0

     total cpu time spent up to now is     1415.7 secs

     total energy              =   -7568.84492558 Ry
     estimated scf accuracy    <       0.00366218 Ry

     iteration # 51     ecut=    80.00 Ry     beta= 0.20
     Davidson diagonalization with overlap
     ethr =  1.05E-06,  avg # of iterations =  1.0

     total cpu time spent up to now is     1424.4 secs

     total energy              =   -7568.84501913 Ry
     estimated scf accuracy    <       0.00195449 Ry

     iteration # 52     ecut=    80.00 Ry     beta= 0.20
     Davidson diagonalization with overlap
     ethr =  5.58E-07,  avg # of iterations =  1.0

     total cpu time spent up to now is     1433.1 secs

     total energy              =   -7568.84503690 Ry
     estimated scf accuracy    <       0.00275486 Ry

     iteration # 53     ecut=    80.00 Ry     beta= 0.20
     Davidson diagonalization with overlap
     ethr =  5.58E-07,  avg # of iterations =  1.0

     total cpu time spent up to now is     1441.9 secs

     total energy              =   -7568.84508249 Ry
     estimated scf accuracy    <       0.00119145 Ry

     iteration # 54     ecut=    80.00 Ry     beta= 0.20
     Davidson diagonalization with overlap
     ethr =  3.40E-07,  avg # of iterations =  1.0

     total cpu time spent up to now is     1450.6 secs

     total energy              =   -7568.84506359 Ry
     estimated scf accuracy    <       0.00159088 Ry

     iteration # 55     ecut=    80.00 Ry     beta= 0.20
     Davidson diagonalization with overlap
     ethr =  3.40E-07,  avg # of iterations =  1.0

     total cpu time spent up to now is     1459.3 secs

     total energy              =   -7568.84505508 Ry
     estimated scf accuracy    <       0.00113395 Ry

     iteration # 56     ecut=    80.00 Ry     beta= 0.20
     Davidson diagonalization with overlap
     ethr =  3.24E-07,  avg # of iterations =  1.0

     total cpu time spent up to now is     1468.1 secs

     total energy              =   -7568.84508438 Ry
     estimated scf accuracy    <       0.00113720 Ry

     iteration # 57     ecut=    80.00 Ry     beta= 0.20
     Davidson diagonalization with overlap
     ethr =  3.24E-07,  avg # of iterations =  1.0

     total cpu time spent up to now is     1476.8 secs

     total energy              =   -7568.84511658 Ry
     estimated scf accuracy    <       0.00150360 Ry

     iteration # 58     ecut=    80.00 Ry     beta= 0.20
     Davidson diagonalization with overlap
     ethr =  3.24E-07,  avg # of iterations =  1.0

     total cpu time spent up to now is     1485.5 secs

     total energy              =   -7568.84522147 Ry
     estimated scf accuracy    <       0.00107640 Ry

     iteration # 59     ecut=    80.00 Ry     beta= 0.20
     Davidson diagonalization with overlap
     ethr =  3.08E-07,  avg # of iterations =  1.0

     total cpu time spent up to now is     1494.3 secs

     total energy              =   -7568.84533093 Ry
     estimated scf accuracy    <       0.00084582 Ry

     iteration # 60     ecut=    80.00 Ry     beta= 0.20
     Davidson diagonalization with overlap
     ethr =  2.42E-07,  avg # of iterations =  1.0

     total cpu time spent up to now is     1503.1 secs

     total energy              =   -7568.84540360 Ry
     estimated scf accuracy    <       0.00149205 Ry

     iteration # 61     ecut=    80.00 Ry     beta= 0.20
     Davidson diagonalization with overlap
     ethr =  2.42E-07,  avg # of iterations =  1.0

     total cpu time spent up to now is     1511.8 secs

     total energy              =   -7568.84547962 Ry
     estimated scf accuracy    <       0.00265746 Ry

     iteration # 62     ecut=    80.00 Ry     beta= 0.20
     Davidson diagonalization with overlap
     ethr =  2.42E-07,  avg # of iterations =  1.0

     total cpu time spent up to now is     1520.6 secs

     total energy              =   -7568.84562890 Ry
     estimated scf accuracy    <       0.00082908 Ry

     iteration # 63     ecut=    80.00 Ry     beta= 0.20
     Davidson diagonalization with overlap
     ethr =  2.37E-07,  avg # of iterations =  1.4

     total cpu time spent up to now is     1529.7 secs

     total energy              =   -7568.84571251 Ry
     estimated scf accuracy    <       0.00068624 Ry

     iteration # 64     ecut=    80.00 Ry     beta= 0.20
     Davidson diagonalization with overlap
     ethr =  1.96E-07,  avg # of iterations =  2.0

     total cpu time spent up to now is     1540.1 secs

     total energy              =   -7568.84580666 Ry
     estimated scf accuracy    <       0.00267017 Ry

     iteration # 65     ecut=    80.00 Ry     beta= 0.20
     Davidson diagonalization with overlap
     ethr =  1.96E-07,  avg # of iterations =  1.0

     total cpu time spent up to now is     1548.8 secs

     total energy              =   -7568.84577316 Ry
     estimated scf accuracy    <       0.00243797 Ry

     iteration # 66     ecut=    80.00 Ry     beta= 0.20
     Davidson diagonalization with overlap
     ethr =  1.96E-07,  avg # of iterations =  1.0

     total cpu time spent up to now is     1557.6 secs

     total energy              =   -7568.84564139 Ry
     estimated scf accuracy    <       0.00802833 Ry

     iteration # 67     ecut=    80.00 Ry     beta= 0.20
     Davidson diagonalization with overlap
     ethr =  1.96E-07,  avg # of iterations =  1.0

     total cpu time spent up to now is     1566.3 secs

     total energy              =   -7568.84570586 Ry
     estimated scf accuracy    <       0.00270861 Ry

     iteration # 68     ecut=    80.00 Ry     beta= 0.20
     Davidson diagonalization with overlap
     ethr =  1.96E-07,  avg # of iterations =  1.0

     total cpu time spent up to now is     1575.1 secs

     total energy              =   -7568.84565189 Ry
     estimated scf accuracy    <       0.00364560 Ry

     iteration # 69     ecut=    80.00 Ry     beta= 0.20
     Davidson diagonalization with overlap
     ethr =  1.96E-07,  avg # of iterations =  2.0

     total cpu time spent up to now is     1584.9 secs

     total energy              =   -7568.84559814 Ry
     estimated scf accuracy    <       0.00477471 Ry

     iteration # 70     ecut=    80.00 Ry     beta= 0.20
     Davidson diagonalization with overlap
     ethr =  1.96E-07,  avg # of iterations =  1.0

     total cpu time spent up to now is     1593.7 secs

     total energy              =   -7568.84572976 Ry
     estimated scf accuracy    <       0.00162435 Ry

     iteration # 71     ecut=    80.00 Ry     beta= 0.20
     Davidson diagonalization with overlap
     ethr =  1.96E-07,  avg # of iterations =  2.0

     total cpu time spent up to now is     1603.8 secs

     total energy              =   -7568.84578838 Ry
     estimated scf accuracy    <       0.00078275 Ry

     iteration # 72     ecut=    80.00 Ry     beta= 0.20
     Davidson diagonalization with overlap
     ethr =  1.96E-07,  avg # of iterations =  1.0

     total cpu time spent up to now is     1612.6 secs

     total energy              =   -7568.84580065 Ry
     estimated scf accuracy    <       0.00043077 Ry

     iteration # 73     ecut=    80.00 Ry     beta= 0.20
     Davidson diagonalization with overlap
     ethr =  1.23E-07,  avg # of iterations =  1.0

     total cpu time spent up to now is     1621.3 secs

     total energy              =   -7568.84580467 Ry
     estimated scf accuracy    <       0.00023852 Ry

     iteration # 74     ecut=    80.00 Ry     beta= 0.20
     Davidson diagonalization with overlap
     ethr =  6.81E-08,  avg # of iterations =  1.0

     total cpu time spent up to now is     1630.1 secs

     total energy              =   -7568.84581099 Ry
     estimated scf accuracy    <       0.00016742 Ry

     iteration # 75     ecut=    80.00 Ry     beta= 0.20
     Davidson diagonalization with overlap
     ethr =  4.78E-08,  avg # of iterations =  1.0

     total cpu time spent up to now is     1638.9 secs

     total energy              =   -7568.84581169 Ry
     estimated scf accuracy    <       0.00017760 Ry

     iteration # 76     ecut=    80.00 Ry     beta= 0.20
     Davidson diagonalization with overlap
     ethr =  4.78E-08,  avg # of iterations =  1.0

     total cpu time spent up to now is     1647.6 secs

     total energy              =   -7568.84579601 Ry
     estimated scf accuracy    <       0.00011944 Ry

     iteration # 77     ecut=    80.00 Ry     beta= 0.20
     Davidson diagonalization with overlap
     ethr =  3.41E-08,  avg # of iterations =  2.0

     total cpu time spent up to now is     1658.6 secs

     total energy              =   -7568.84581941 Ry
     estimated scf accuracy    <       0.00009066 Ry

     iteration # 78     ecut=    80.00 Ry     beta= 0.20
     Davidson diagonalization with overlap
     ethr =  2.59E-08,  avg # of iterations =  2.0

     total cpu time spent up to now is     1668.8 secs

     total energy              =   -7568.84582454 Ry
     estimated scf accuracy    <       0.00005023 Ry

     iteration # 79     ecut=    80.00 Ry     beta= 0.20
     Davidson diagonalization with overlap
     ethr =  1.44E-08,  avg # of iterations =  1.0

     total cpu time spent up to now is     1677.6 secs

     total energy              =   -7568.84582282 Ry
     estimated scf accuracy    <       0.00010821 Ry

     iteration # 80     ecut=    80.00 Ry     beta= 0.20
     Davidson diagonalization with overlap
     ethr =  1.44E-08,  avg # of iterations =  1.0

     total cpu time spent up to now is     1686.3 secs

     total energy              =   -7568.84582186 Ry
     estimated scf accuracy    <       0.00012156 Ry

     iteration # 81     ecut=    80.00 Ry     beta= 0.20
     Davidson diagonalization with overlap
     ethr =  1.44E-08,  avg # of iterations =  1.0

     total cpu time spent up to now is     1695.1 secs

     total energy              =   -7568.84582241 Ry
     estimated scf accuracy    <       0.00024465 Ry

     iteration # 82     ecut=    80.00 Ry     beta= 0.20
     Davidson diagonalization with overlap
     ethr =  1.44E-08,  avg # of iterations =  1.0

     total cpu time spent up to now is     1703.8 secs

     End of self-consistent calculation

          k = 0.0000 0.0000 0.0000 ( 24267 PWs)   bands (ev):

   -90.1139 -90.1082 -90.0425 -90.0381 -90.0325 -90.0027 -89.9945 -89.9921
   -89.9901 -89.9726 -89.9702 -89.9511 -89.9423 -89.7360 -89.7131 -62.2277
   -62.2273 -62.2256 -62.2243 -62.1820 -62.1760 -62.1666 -62.1584 -50.7371
   -50.7282 -50.6702 -50.6190 -50.5726 -50.5318 -50.5297 -50.5023 -50.4970
   -50.4931 -50.4910 -50.4734 -50.4704 -50.4480 -50.4336 -50.4206 -50.4119
   -50.3844 -50.3745 -50.3658 -50.3582 -50.3563 -50.3541 -50.3504 -50.3364
   -50.3307 -50.3298 -50.3239 -50.3206 -50.3188 -50.3120 -50.2717 -50.2714
   -50.2696 -50.2666 -50.2655 -50.2420 -50.2400 -50.2072 -50.1969 -50.1716
   -50.1659 -50.1508 -49.9183 -49.8982 -29.0007 -28.9987 -28.9936 -28.9933
   -28.9892 -28.9890 -28.9861 -28.9846 -28.9787 -28.9753 -28.9715 -28.9705
   -28.9495 -28.9464 -28.9354 -28.9297 -28.9293 -28.9264 -28.9224 -28.9212
   -28.9147 -28.9144 -28.9134 -28.9107   4.4650   5.0214   5.4075   6.8883
     7.2612   8.4859   8.4934   8.9428   9.1933   9.3278   9.4552   9.5343
     9.5485   9.5513   9.5690   9.5791   9.6058   9.7581   9.7713   9.8277
     9.8783   9.8925   9.9763  10.0374  10.0660  10.3296  10.3438  10.3557
    10.3598  10.4013  10.4294  10.4438  10.4577  10.5585  10.6538  10.8491
    10.8907  10.9163  10.9369  10.9897  11.0652  11.0991  11.1570  11.2055
    11.5219  11.5257  11.6523  11.7608  11.7840  11.8542  11.8747  11.8801
    12.0067  12.0344  12.0723  12.1766  12.2252  12.2339  12.2473  12.2555
    12.2580  12.2655  12.2752  12.2834  12.2986  12.3175  12.3471  12.3622
    12.3671  12.3861  12.4008  12.4199  12.4234  12.5708  12.7347  12.8170
    12.9139  13.0163  13.1763  13.3784  13.3974  13.3993  13.8281  13.9100
    14.0747  14.0930  14.1414  14.1889  14.2034  14.2259  14.4701  14.5074
    14.5546  15.4272  15.5373  15.8710  15.8838  15.9449  16.2529  16.4562
    16.4988  16.9558  17.0308  17.4405  17.5341  17.6333  17.8265  17.8934
    18.0504  18.5474  18.6938  18.8858  19.1347  19.3276  19.7445  19.7927
    19.8307  20.0926

          k =-0.0010 0.3823 0.0005 ( 24221 PWs)   bands (ev):

   -90.1137 -90.1080 -90.0387 -90.0340 -90.0255 -90.0101 -89.9959 -89.9946
   -89.9944 -89.9726 -89.9704 -89.9509 -89.9422 -89.7360 -89.7130 -62.2276
   -62.2272 -62.2255 -62.2242 -62.1822 -62.1761 -62.1667 -62.1585 -50.7056
   -50.6972 -50.6309 -50.6160 -50.5792 -50.5473 -50.5396 -50.4941 -50.4883
   -50.4838 -50.4809 -50.4790 -50.4549 -50.4490 -50.4294 -50.4276 -50.4054
   -50.3761 -50.3666 -50.3618 -50.3571 -50.3534 -50.3493 -50.3485 -50.3448
   -50.3382 -50.3362 -50.3316 -50.3305 -50.3223 -50.3154 -50.2964 -50.2931
   -50.2827 -50.2795 -50.2782 -50.2522 -50.2515 -50.2072 -50.1968 -50.1715
   -50.1658 -50.1507 -49.9185 -49.8978 -29.0016 -28.9995 -28.9944 -28.9943
   -28.9899 -28.9883 -28.9859 -28.9850 -28.9770 -28.9745 -28.9720 -28.9714
   -28.9500 -28.9463 -28.9345 -28.9299 -28.9285 -28.9271 -28.9230 -28.9204
   -28.9153 -28.9138 -28.9127 -28.9097   5.4718   6.0107   6.3455   7.7055
     8.0080   8.1832   8.4616   8.7416   9.0638   9.1226   9.3242   9.3322
     9.4858   9.5890   9.6239   9.6415   9.7538   9.7940   9.8871   9.8887
     9.9308  10.1236  10.1722  10.1991  10.2256  10.2888  10.3331  10.3444
    10.3967  10.4329  10.4504  10.5156  10.5830  10.5945  10.6312  10.6717
    10.7484  10.8143  10.8632  10.8918  11.0219  11.0310  11.0374  11.0800
    11.1174  11.1477  11.1700  11.2567  11.3811  11.4337  11.4822  11.5058
    11.5587  11.6631  11.6845  11.7658  11.7771  11.8365  11.8477  11.8493
    11.9272  11.9370  12.0069  12.0540  12.0869  12.1025  12.1554  12.2282
    12.2728  12.2869  12.3018  12.3436  12.3550  12.3782  12.3831  12.4545
    12.4916  12.5701  12.6319  12.6479  12.7495  12.7659  12.9058  13.1875
    13.2279  13.5625  13.5973  13.7393  14.0409  14.0553  14.1993  14.2753
    14.3947  14.4972  14.5808  15.1722  15.7375  16.3116  16.3760  17.5899
    17.8063  18.0349  18.2411  18.8314  18.9336  19.1656  19.2119  19.2377
    19.3647  19.8227  20.3109  20.4460  20.4519  21.0648  21.1329  21.3847
    21.8825  22.2213

          k = 0.3306 0.1906-0.0026 ( 24222 PWs)   bands (ev):

   -90.1137 -90.1080 -90.0405 -90.0358 -90.0276 -90.0046 -89.9980 -89.9896
   -89.9872 -89.9781 -89.9751 -89.9507 -89.9420 -89.7310 -89.7180 -62.2276
   -62.2272 -62.2255 -62.2242 -62.1821 -62.1761 -62.1667 -62.1585 -50.7100
   -50.7032 -50.6344 -50.6139 -50.5702 -50.5310 -50.5281 -50.5071 -50.5058
   -50.4855 -50.4759 -50.4703 -50.4517 -50.4470 -50.4371 -50.4189 -50.4112
   -50.3798 -50.3685 -50.3622 -50.3544 -50.3535 -50.3503 -50.3442 -50.3434
   -50.3362 -50.3340 -50.3276 -50.3161 -50.3144 -50.3103 -50.2889 -50.2887
   -50.2848 -50.2786 -50.2782 -50.2589 -50.2528 -50.2156 -50.2070 -50.1966
   -50.1654 -50.1542 -49.9143 -49.9021 -29.0007 -28.9987 -28.9943 -28.9942
   -28.9899 -28.9884 -28.9863 -28.9845 -28.9787 -28.9758 -28.9725 -28.9715
   -28.9487 -28.9455 -28.9355 -28.9293 -28.9291 -28.9259 -28.9224 -28.9214
   -28.9146 -28.9140 -28.9134 -28.9098   5.4707   6.0056   6.3781   7.7925
     8.0099   8.1598   8.4439   8.6714   9.0589   9.1160   9.3288   9.4569
     9.5013   9.5212   9.6589   9.7598   9.7620   9.8129   9.8800   9.9064
     9.9470  10.1435  10.1597  10.2150  10.2481  10.3114  10.3420  10.4000
    10.4258  10.4450  10.5237  10.5493  10.5862  10.6018  10.6662  10.7552
    10.7853  10.8305  10.8560  10.9323  10.9416  10.9817  11.0339  11.0632
    11.1518  11.1959  11.2167  11.2932  11.3492  11.4317  11.4460  11.4859
    11.4979  11.6172  11.6480  11.6798  11.7240  11.7652  11.8238  11.8376
    11.8635  11.8778  11.9541  11.9983  12.0462  12.0859  12.0888  12.1106
    12.1658  12.2401  12.2592  12.2874  12.3246  12.3790  12.3860  12.4266
    12.4409  12.4637  12.5444  12.5690  12.7470  12.7536  12.9001  13.0862
    13.2022  13.6855  13.7272  13.9216  14.0273  14.0779  14.2110  14.3088
    14.3577  14.7169  15.1311  15.4449  15.8002  15.9813  16.1407  17.3876
    17.8876  18.0133  18.0528  18.9056  19.0048  19.0340  19.3358  19.3998
    19.4372  19.9160  20.3536  20.4073  20.4703  20.9888  21.1111  21.3311
    21.8795  22.1430

          k = 0.3296 0.5729-0.0021 ( 24155 PWs)   bands (ev):

   -90.1136 -90.1079 -90.0383 -90.0335 -90.0224 -90.0106 -89.9973 -89.9928
   -89.9906 -89.9770 -89.9742 -89.9506 -89.9420 -89.7310 -89.7180 -62.2276
   -62.2272 -62.2254 -62.2241 -62.1822 -62.1761 -62.1667 -62.1585 -50.6900
   -50.6831 -50.6127 -50.6082 -50.5594 -50.5479 -50.5476 -50.5041 -50.4967
   -50.4916 -50.4742 -50.4701 -50.4508 -50.4462 -50.4337 -50.4149 -50.4050
   -50.3747 -50.3697 -50.3632 -50.3585 -50.3540 -50.3505 -50.3483 -50.3432
   -50.3362 -50.3324 -50.3204 -50.3152 -50.3137 -50.3097 -50.3093 -50.2900
   -50.2873 -50.2838 -50.2823 -50.2736 -50.2729 -50.2155 -50.2069 -50.1965
   -50.1654 -50.1542 -49.9144 -49.9018 -29.0013 -28.9992 -28.9946 -28.9945
   -28.9910 -28.9876 -28.9871 -28.9836 -28.9776 -28.9747 -28.9735 -28.9721
   -28.9489 -28.9454 -28.9354 -28.9295 -28.9289 -28.9257 -28.9234 -28.9200
   -28.9156 -28.9136 -28.9122 -28.9095   7.0315   7.3374   7.5671   7.6007
     7.6734   8.0315   8.1483   8.1644   8.3931   9.0311   9.0773   9.1459
     9.1725   9.2196   9.5616   9.6877   9.9021   9.9436   9.9754  10.0025
    10.0642  10.1379  10.2671  10.2738  10.3077  10.3189  10.4032  10.4117
    10.4813  10.5108  10.5196  10.5440  10.5645  10.5769  10.5985  10.6178
    10.6805  10.7315  10.7436  10.7534  10.7897  10.8025  10.8790  10.9931
    11.0079  11.0440  11.0944  11.1614  11.2936  11.2959  11.3304  11.3859
    11.4125  11.4219  11.4944  11.5950  11.6016  11.6700  11.7058  11.7549
    11.7880  11.8451  11.9130  11.9211  11.9257  11.9644  11.9936  12.0028
    12.0330  12.0372  12.0884  12.1007  12.1329  12.2023  12.2941  12.3756
    12.4129  12.4395  12.5587  12.5624  12.5810  12.6302  12.7626  12.8106
    12.8379  12.9136  13.0402  13.2152  13.3258  13.3814  14.7241  14.7715
    14.7923  14.9147  15.3237  15.7084  17.4927  17.6598  17.7688  17.9006
    18.0162  18.6324  18.6509  18.6813  18.7422  18.8414  19.0967  19.4171
    19.6374  19.6984  19.7341  20.4715  20.5815  20.9671  21.0121  21.1144
    21.7985  22.9937

          k = 0.3316-0.1917-0.0030 ( 24223 PWs)   bands (ev):

   -90.1137 -90.1080 -90.0400 -90.0355 -90.0275 -90.0035 -89.9991 -89.9913
   -89.9883 -89.9773 -89.9738 -89.9507 -89.9420 -89.7310 -89.7180 -62.2276
   -62.2272 -62.2255 -62.2242 -62.1821 -62.1761 -62.1667 -62.1585 -50.7084
   -50.7002 -50.6325 -50.6142 -50.5714 -50.5345 -50.5276 -50.5071 -50.5015
   -50.4842 -50.4767 -50.4714 -50.4527 -50.4484 -50.4362 -50.4226 -50.4098
   -50.3788 -50.3667 -50.3610 -50.3558 -50.3537 -50.3504 -50.3447 -50.3428
   -50.3359 -50.3340 -50.3264 -50.3158 -50.3142 -50.3110 -50.2920 -50.2905
   -50.2878 -50.2812 -50.2793 -50.2532 -50.2526 -50.2156 -50.2069 -50.1966
   -50.1654 -50.1542 -49.9143 -49.9022 -29.0009 -28.9988 -28.9943 -28.9940
   -28.9901 -28.9883 -28.9869 -28.9840 -28.9787 -28.9758 -28.9725 -28.9715
   -28.9488 -28.9455 -28.9355 -28.9296 -28.9291 -28.9255 -28.9231 -28.9207
   -28.9150 -28.9140 -28.9130 -28.9098   5.4795   6.0144   6.3852   7.8005
     8.0162   8.1804   8.4614   8.6832   9.0610   9.1269   9.3434   9.4636
     9.5058   9.5232   9.6608   9.7515   9.7641   9.8025   9.8842   9.9045
     9.9330  10.1490  10.1566  10.2189  10.2472  10.3175  10.3350  10.3949
    10.4286  10.4409  10.5223  10.5513  10.5786  10.6002  10.6658  10.7526
    10.7873  10.8269  10.8515  10.9305  10.9365  10.9788  11.0372  11.0650
    11.1576  11.1933  11.2186  11.2920  11.3501  11.4337  11.4435  11.4810
    11.5030  11.6183  11.6448  11.6761  11.7295  11.7637  11.8234  11.8393
    11.8655  11.8800  11.9549  11.9908  12.0468  12.0833  12.0885  12.1136
    12.1699  12.2373  12.2527  12.2790  12.3204  12.3724  12.3835  12.4221
    12.4377  12.4566  12.5453  12.5707  12.7524  12.7542  12.8949  13.0792
    13.2066  13.6794  13.7354  13.9041  14.0124  14.0439  14.1755  14.2802
    14.3282  14.6904  15.0863  15.4571  15.8054  15.9917  16.1202  17.3614
    17.8645  17.9941  18.0597  18.8959  18.9952  19.0146  19.3044  19.3933
    19.4243  19.9331  20.3495  20.4048  20.4633  20.9866  21.1218  21.3776
    21.8797  22.1778

     the Fermi energy is    12.9417 ev

!    total energy              =   -7568.84582112 Ry
     total all-electron energy =    -48829.489583 Ry
     estimated scf accuracy    <       0.00000894 Ry
     smearing contrib. (-TS)   =       0.09377625 Ry
     internal energy E=F+TS    =   -7568.93959737 Ry

     The total energy is F=E-TS. E is the sum of the following terms:
     one-electron contribution =   -4494.04154951 Ry
     hartree contribution      =    2392.46465933 Ry
     xc contribution           =    -656.47824547 Ry
     ewald contribution        =   -3324.92540896 Ry
     one-center paw contrib.   =   -1485.95905275 Ry

     convergence has been achieved in  82 iterations

     Forces acting on atoms (cartesian axes, Ry/au):

     atom    1 type  1   force =     0.00092168    0.00077907    0.00319911
     atom    2 type  1   force =    -0.00086446   -0.00102607    0.00482795
     atom    3 type  1   force =    -0.00027369   -0.00049651   -0.00256691
     atom    4 type  1   force =     0.00000865   -0.00073969    0.00026438
     atom    5 type  1   force =    -0.00307350    0.00208457   -0.00012484
     atom    6 type  1   force =    -0.00056587    0.00329211    0.00710634
     atom    7 type  1   force =     0.00080910   -0.00206444   -0.00669490
     atom    8 type  1   force =    -0.00320762   -0.00099914    0.00278043
     atom    9 type  2   force =    -0.00035304    0.00915709   -0.01313807
     atom   10 type  2   force =     0.00387515   -0.00051408    0.00165027
     atom   11 type  2   force =     0.00271766   -0.00396336    0.00399532
     atom   12 type  2   force =    -0.00185795    0.00793558    0.01500995
     atom   13 type  2   force =     0.00835519   -0.00290006   -0.00056916
     atom   14 type  2   force =     0.00289647    0.01421724   -0.00180571
     atom   15 type  2   force =    -0.00727434   -0.00046824    0.00304159
     atom   16 type  2   force =     0.00800625   -0.00174178   -0.00451218
     atom   17 type  2   force =    -0.00816460   -0.00875249    0.00039461
     atom   18 type  2   force =    -0.00044919   -0.00280845   -0.00674016
     atom   19 type  2   force =     0.00489322   -0.00006238   -0.00125242
     atom   20 type  2   force =     0.00057063   -0.00459536    0.00336520
     atom   21 type  2   force =    -0.00213042   -0.00232610   -0.00279775
     atom   22 type  2   force =    -0.00559368   -0.00339744   -0.00451784
     atom   23 type  2   force =     0.00075436   -0.00061007   -0.00091520
     The non-local contrib.  to forces
     atom    1 type  1   force =     0.00658575    0.04633104    0.01840147
     atom    2 type  1   force =    -0.00016679   -0.00167101    0.02140468
     atom    3 type  1   force =    -0.00362073    0.00495339   -0.00921957
     atom    4 type  1   force =    -0.00424356    0.04724454   -0.00198440
     atom    5 type  1   force =    -0.01669589    0.00492026   -0.00543922
     atom    6 type  1   force =    -0.00013751   -0.01499894    0.01755039
     atom    7 type  1   force =     0.00002840   -0.03962411   -0.01003983
     atom    8 type  1   force =    -0.02193643   -0.00914412    0.01658940
     atom    9 type  2   force =     0.00486394   -0.16072867    0.03520802
     atom   10 type  2   force =    -0.02991891    0.02903234    0.05597108
     atom   11 type  2   force =    -0.02847133    0.06925718   -0.05993461
     atom   12 type  2   force =     0.03550288   -0.11838870   -0.03384937
     atom   13 type  2   force =     0.08368405   -0.10474199   -0.00459002
     atom   14 type  2   force =    -0.01521136    0.05113472    0.00980203
     atom   15 type  2   force =    -0.15034261    0.13906022    0.00645945
     atom   16 type  2   force =     0.10996702    0.20135064    0.01233134
     atom   17 type  2   force =    -0.11448321   -0.03397867    0.01174751
     atom   18 type  2   force =    -0.00045284    0.05004032    0.07641866
     atom   19 type  2   force =    -0.01169166    0.01849439    0.01782057
     atom   20 type  2   force =    -0.00355354    0.05201903   -0.05766942
     atom   21 type  2   force =    -0.01034640    0.02645744   -0.01443527
     atom   22 type  2   force =     0.00012679    0.02227329    0.02767678
     atom   23 type  2   force =     0.01648481    0.02452940   -0.01553863
     The ionic contribution  to forces
     atom    1 type  1   force =     0.17986546    3.05176557  -23.19346133
     atom    2 type  1   force =     0.05792010   -0.10854570    9.43382413
     atom    3 type  1   force =    -0.05028804    0.11558348   -9.26864663
     atom    4 type  1   force =    -0.13687753    2.85245088   23.61074398
     atom    5 type  1   force =    -0.54534143    0.17160198   -6.01555436
     atom    6 type  1   force =     0.05426380   -0.03320383   20.23085852
     atom    7 type  1   force =     0.02049281   -0.70478254  -19.80554192
     atom    8 type  1   force =    -0.76840355   -0.24281291    6.33699277
     atom    9 type  2   force =    -0.40438473   -9.65742093  -44.92078375
     atom   10 type  2   force =     0.61610966    0.25572877   15.14305317
     atom   11 type  2   force =     0.24571315    0.08988646  -14.22247397
     atom   12 type  2   force =     0.27713619   -9.99510960   45.59992106
     atom   13 type  2   force =    12.77192363   -7.14389260   -0.50432719
     atom   14 type  2   force =     0.87531320   15.17450954    0.09120335
     atom   15 type  2   force =   -12.28071310    7.75405348    0.60815916
     atom   16 type  2   force =    12.31832858    8.24579920   -0.53468665
     atom   17 type  2   force =   -13.01820448   -7.93578906    0.20636308
     atom   18 type  2   force =    -0.17876070   -0.24956640  -28.85514669
     atom   19 type  2   force =    -0.01721995   -0.34686893   28.77295170
     atom   20 type  2   force =     0.22289990   -0.18652281   28.16028973
     atom   21 type  2   force =    -0.83656322   -0.25909148  -29.83024489
     atom   22 type  2   force =    -0.26784264   -0.55046783   28.47491163
     atom   23 type  2   force =     0.86463290   -0.29730475  -29.51840492
     The local contribution  to forces
     atom    1 type  1   force =    -0.18548458   -3.09724048   23.17779715
     atom    2 type  1   force =    -0.05854534    0.10922998   -9.45286418
     atom    3 type  1   force =     0.05367752   -0.12106673    9.27504620
     atom    4 type  1   force =     0.14124691   -2.90025823  -23.60592671
     atom    5 type  1   force =     0.55887281   -0.17429839    6.02023293
     atom    6 type  1   force =    -0.05487987    0.05161056  -20.23791657
     atom    7 type  1   force =    -0.01970541    0.74220572   19.80899297
     atom    8 type  1   force =     0.78720347    0.25092564   -6.35364351
     atom    9 type  2   force =     0.39875998    9.82242981   44.87960667
     atom   10 type  2   force =    -0.58562873   -0.28355900  -15.19715040
     atom   11 type  2   force =    -0.21666862   -0.15933037   14.27939574
     atom   12 type  2   force =    -0.31087341   10.11727630  -45.55121773
     atom   13 type  2   force =   -12.84514893    7.24131078    0.50574035
     atom   14 type  2   force =    -0.85780359  -15.21328098   -0.10529483
     atom   15 type  2   force =    12.42069545   -7.89043057   -0.60728430
     atom   16 type  2   force =   -12.41934569   -8.44196866    0.52214425
     atom   17 type  2   force =    13.12108647    7.96145828   -0.21994950
     atom   18 type  2   force =     0.17864186    0.20003737   28.77743919
     atom   19 type  2   force =     0.03217143    0.32919020  -28.79108352
     atom   20 type  2   force =    -0.21922650    0.13276663  -28.10408439
     atom   21 type  2   force =     0.84408962    0.23143696   29.84073592
     atom   22 type  2   force =     0.26270513    0.52582629  -28.50578842
     atom   23 type  2   force =    -0.87965531    0.27370512   29.53164747
     The core correction contribution to forces
     atom    1 type  1   force =    -0.00002690   -0.00015367   -0.00015167
     atom    2 type  1   force =     0.00000427    0.00001244   -0.00011587
     atom    3 type  1   force =     0.00001667   -0.00001888    0.00007018
     atom    4 type  1   force =     0.00001792   -0.00015357    0.00007006
     atom    5 type  1   force =     0.00007879   -0.00002836    0.00002744
     atom    6 type  1   force =     0.00000333    0.00003484   -0.00004557
     atom    7 type  1   force =    -0.00000520    0.00015362    0.00000973
     atom    8 type  1   force =     0.00009834    0.00003747   -0.00007379
     atom    9 type  2   force =    -0.00039799    0.00502765   -0.00825861
     atom   10 type  2   force =     0.00190755   -0.00139251   -0.00679542
     atom   11 type  2   force =     0.00166594   -0.00370054    0.00737209
     atom   12 type  2   force =    -0.00194746    0.00229346    0.00828389
     atom   13 type  2   force =    -0.00223325    0.00479332   -0.00010958
     atom   14 type  2   force =     0.00102022    0.00058101   -0.00035304
     atom   15 type  2   force =     0.00380388   -0.00309512   -0.00071932
     atom   16 type  2   force =    -0.00118336   -0.00673889   -0.00053540
     atom   17 type  2   force =     0.00377121    0.00025647   -0.00057910
     atom   18 type  2   force =    -0.00003459   -0.00319479   -0.00567434
     atom   19 type  2   force =     0.00058359   -0.00112209   -0.00069507
     atom   20 type  2   force =     0.00036151   -0.00310969    0.00482770
     atom   21 type  2   force =     0.00079603   -0.00124196    0.00037128
     atom   22 type  2   force =    -0.00011080   -0.00107468   -0.00108618
     atom   23 type  2   force =    -0.00092921   -0.00153621    0.00055446
     The Hubbard contrib.    to forces
     atom    1 type  1   force =     0.00000000    0.00000000    0.00000000
     atom    2 type  1   force =     0.00000000    0.00000000    0.00000000
     atom    3 type  1   force =     0.00000000    0.00000000    0.00000000
     atom    4 type  1   force =     0.00000000    0.00000000    0.00000000
     atom    5 type  1   force =     0.00000000    0.00000000    0.00000000
     atom    6 type  1   force =     0.00000000    0.00000000    0.00000000
     atom    7 type  1   force =     0.00000000    0.00000000    0.00000000
     atom    8 type  1   force =     0.00000000    0.00000000    0.00000000
     atom    9 type  2   force =     0.00000000    0.00000000    0.00000000
     atom   10 type  2   force =     0.00000000    0.00000000    0.00000000
     atom   11 type  2   force =     0.00000000    0.00000000    0.00000000
     atom   12 type  2   force =     0.00000000    0.00000000    0.00000000
     atom   13 type  2   force =     0.00000000    0.00000000    0.00000000
     atom   14 type  2   force =     0.00000000    0.00000000    0.00000000
     atom   15 type  2   force =     0.00000000    0.00000000    0.00000000
     atom   16 type  2   force =     0.00000000    0.00000000    0.00000000
     atom   17 type  2   force =     0.00000000    0.00000000    0.00000000
     atom   18 type  2   force =     0.00000000    0.00000000    0.00000000
     atom   19 type  2   force =     0.00000000    0.00000000    0.00000000
     atom   20 type  2   force =     0.00000000    0.00000000    0.00000000
     atom   21 type  2   force =     0.00000000    0.00000000    0.00000000
     atom   22 type  2   force =     0.00000000    0.00000000    0.00000000
     atom   23 type  2   force =     0.00000000    0.00000000    0.00000000
     The SCF correction term to forces
     atom    1 type  1   force =    -0.00012175    0.00011526    0.00054909
     atom    2 type  1   force =    -0.00018040   -0.00001312    0.00251481
     atom    3 type  1   force =    -0.00016280    0.00009089    0.00011852
     atom    4 type  1   force =    -0.00023879    0.00001534   -0.00270294
     atom    5 type  1   force =    -0.00009148   -0.00007226    0.00054398
     atom    6 type  1   force =     0.00008068   -0.00011186   -0.00340481
     atom    7 type  1   force =    -0.00010520    0.00002153   -0.00018024
     atom    8 type  1   force =    -0.00027316    0.00003343    0.00285117
     atom    9 type  2   force =     0.00070207   -0.00011211    0.00102520
     atom   10 type  2   force =     0.00130188   -0.00028503    0.00650744
     atom   11 type  2   force =     0.00037484   -0.00003744   -0.00042833
     atom   12 type  2   force =    -0.00177985    0.00190277   -0.00819229
     atom   13 type  2   force =     0.00002600   -0.00033091    0.00265289
     atom   14 type  2   force =    -0.00052570    0.00131161    0.00277238
     atom   15 type  2   force =    -0.00082166   -0.00001760   -0.00363780
     atom   16 type  2   force =     0.00013601   -0.00014541   -0.00383012
     atom   17 type  2   force =    -0.00043828   -0.00066086    0.00274822
     atom   18 type  2   force =     0.00005338   -0.00008629    0.00015863
     atom   19 type  2   force =     0.00094612    0.00028271   -0.00031049
     atom   20 type  2   force =    -0.00001442    0.00029014   -0.00006281
     atom   21 type  2   force =    -0.00021015    0.00015160    0.00071082
     atom   22 type  2   force =    -0.00057587    0.00008414   -0.00029605
     atom   23 type  2   force =     0.00011748    0.00003502    0.00076203

     Total force =     0.039676     Total SCF correction =     0.014512
     SCF correction compared to forces is large: reduce conv_thr to get better values


     Computing stress (Cartesian axis) and pressure

          total   stress  (Ry/bohr**3)                   (kbar)     P=        4.68
   0.00006515  -0.00002296  -0.00003334            9.58       -3.38       -4.91
  -0.00002296   0.00002475  -0.00000162           -3.38        3.64       -0.24
  -0.00003334  -0.00000162   0.00000558           -4.91       -0.24        0.82

     Energy error            =      1.4E-02 Ry
     Gradient error          =      1.5E-02 Ry/Bohr
     Cell gradient error     =      9.6E+00 kbar

     number of scf cycles    =   2
     number of bfgs steps    =   1

     enthalpy           old  =   -7568.8317701981 Ry
     enthalpy           new  =   -7568.8458211209 Ry

     CASE: enthalpy          _new < enthalpy          _old

     new trust radius        =       0.0306919210 bohr
     new conv_thr            =       0.0000100000 Ry

     new unit-cell volume =   2046.88274 a.u.^3 (   303.31673 Ang^3 )
     density =      5.88433 g/cm^3

CELL_PARAMETERS (angstrom)
   4.742385216   0.008446121  -0.010228770
  -2.367854703   4.096448682   0.010620193
   0.110681658  -0.019718863  15.596881245

ATOMIC_POSITIONS (crystal)
Mg            0.9986606176        0.9988980306        0.4054126280
Mg            0.0006569561       -0.0000067134        0.9066306467
Mg            0.9997992440        0.9987404397        0.5927056514
Mg            0.9992785830        0.9975350796        0.0933004660
Mg            0.3329279741        0.6635509945        0.6559427897
Mg            0.6652702640        0.3317816136        0.1561634332
Mg            0.6675453591        0.3364558763        0.3433107710
Mg            0.3352189553        0.6665194364        0.8436388401
Ni            0.3341878659        0.6689862021        0.3742910729
Ni            0.6651069306        0.3316472860        0.8753436811
Ni            0.6645537404        0.3329853295        0.6246452174
Ni            0.3361823620        0.6701155692        0.1256767335
Ni            0.8312539358        0.1610060691        0.7495590943
Ni            0.8324783001        0.6676229826        0.7501885649
Ni            0.1598532271        0.8297419028        0.2496193352
Ni            0.6693145484        0.8333179273        0.2502354335
Ni            0.3269737349        0.1629151721        0.7501238084
Ni            0.4990698896        0.9982247739        0.5002840299
Ni            0.4999365848        0.4989383839        0.0003423582
Ni            0.5007753569       -0.0001316697        1.0000214745
Ni            0.5003606739        0.4996450008        0.4996549618
Ni            0.0003523578        0.4997851956        0.0006318679
Ni            0.9990665385        0.4983351173        0.4996491403



     Writing config-only to output data dir ./C36/out_logs/C36_out_8/laves_C36.save/
     NEW-OLD atomic charge density approx. for the potential

     Check: negative core charge=   -0.000010
     extrapolated charge  351.73846, renormalised to  350.00000

     total cpu time spent up to now is     1728.8 secs

     Self-consistent Calculation

     iteration #  1     ecut=    80.00 Ry     beta= 0.20
     Davidson diagonalization with overlap
     ethr =  1.00E-06,  avg # of iterations = 12.8

     total cpu time spent up to now is     1756.6 secs

     total energy              =   -7562.75752103 Ry
     estimated scf accuracy    <      22.15771130 Ry

     iteration #  2     ecut=    80.00 Ry     beta= 0.20
     Davidson diagonalization with overlap
     ethr =  6.33E-03,  avg # of iterations =  4.8

     total cpu time spent up to now is     1768.8 secs

     total energy              =   -7548.93212487 Ry
     estimated scf accuracy    <    1277.28053417 Ry

     iteration #  3     ecut=    80.00 Ry     beta= 0.20
     Davidson diagonalization with overlap
     ethr =  6.33E-03,  avg # of iterations =  4.4

     total cpu time spent up to now is     1779.7 secs

     total energy              =   -7567.85759063 Ry
     estimated scf accuracy    <      30.32693352 Ry

     iteration #  4     ecut=    80.00 Ry     beta= 0.20
     Davidson diagonalization with overlap
     ethr =  6.33E-03,  avg # of iterations =  1.6

     total cpu time spent up to now is     1789.0 secs

     total energy              =   -7567.83173904 Ry
     estimated scf accuracy    <      92.98877641 Ry

     iteration #  5     ecut=    80.00 Ry     beta= 0.20
     Davidson diagonalization with overlap
     ethr =  6.33E-03,  avg # of iterations =  1.0

     total cpu time spent up to now is     1797.6 secs

     total energy              =   -7568.96704832 Ry
     estimated scf accuracy    <      14.88701686 Ry

     iteration #  6     ecut=    80.00 Ry     beta= 0.20
     Davidson diagonalization with overlap
     ethr =  4.25E-03,  avg # of iterations =  1.0

     total cpu time spent up to now is     1806.3 secs

     total energy              =   -7569.00117778 Ry
     estimated scf accuracy    <       5.79422579 Ry

     iteration #  7     ecut=    80.00 Ry     beta= 0.20
     Davidson diagonalization with overlap
     ethr =  1.66E-03,  avg # of iterations =  2.0

     total cpu time spent up to now is     1815.4 secs

     total energy              =   -7568.85407219 Ry
     estimated scf accuracy    <       3.83425679 Ry

     iteration #  8     ecut=    80.00 Ry     beta= 0.20
     Davidson diagonalization with overlap
     ethr =  1.10E-03,  avg # of iterations =  1.2

     total cpu time spent up to now is     1824.3 secs

     total energy              =   -7568.76831330 Ry
     estimated scf accuracy    <       2.11591963 Ry

     iteration #  9     ecut=    80.00 Ry     beta= 0.20
     Davidson diagonalization with overlap
     ethr =  6.05E-04,  avg # of iterations =  1.4

     total cpu time spent up to now is     1833.4 secs

     total energy              =   -7568.86010808 Ry
     estimated scf accuracy    <       0.81410369 Ry

     iteration # 10     ecut=    80.00 Ry     beta= 0.20
     Davidson diagonalization with overlap
     ethr =  2.33E-04,  avg # of iterations =  4.2

     total cpu time spent up to now is     1843.5 secs

     total energy              =   -7568.85354301 Ry
     estimated scf accuracy    <       0.32728571 Ry

     iteration # 11     ecut=    80.00 Ry     beta= 0.20
     Davidson diagonalization with overlap
     ethr =  9.35E-05,  avg # of iterations =  5.6

     total cpu time spent up to now is     1854.1 secs

     total energy              =   -7568.84667773 Ry
     estimated scf accuracy    <       0.06333674 Ry

     iteration # 12     ecut=    80.00 Ry     beta= 0.20
     Davidson diagonalization with overlap
     ethr =  1.81E-05,  avg # of iterations =  7.2

     total cpu time spent up to now is     1865.1 secs

     total energy              =   -7568.84491239 Ry
     estimated scf accuracy    <       0.03662560 Ry

     iteration # 13     ecut=    80.00 Ry     beta= 0.20
     Davidson diagonalization with overlap
     ethr =  1.05E-05,  avg # of iterations =  4.0

     total cpu time spent up to now is     1875.2 secs

     total energy              =   -7568.84618653 Ry
     estimated scf accuracy    <       0.02734541 Ry

     iteration # 14     ecut=    80.00 Ry     beta= 0.20
     Davidson diagonalization with overlap
     ethr =  7.81E-06,  avg # of iterations =  1.2

     total cpu time spent up to now is     1884.1 secs

     total energy              =   -7568.84425932 Ry
     estimated scf accuracy    <       0.04664113 Ry

     iteration # 15     ecut=    80.00 Ry     beta= 0.20
     Davidson diagonalization with overlap
     ethr =  7.81E-06,  avg # of iterations =  1.0

     total cpu time spent up to now is     1892.9 secs

     total energy              =   -7568.84561828 Ry
     estimated scf accuracy    <       0.01555691 Ry

     iteration # 16     ecut=    80.00 Ry     beta= 0.20
     Davidson diagonalization with overlap
     ethr =  4.44E-06,  avg # of iterations =  1.6

     total cpu time spent up to now is     1902.2 secs

     total energy              =   -7568.84577819 Ry
     estimated scf accuracy    <       0.01406519 Ry

     iteration # 17     ecut=    80.00 Ry     beta= 0.20
     Davidson diagonalization with overlap
     ethr =  4.02E-06,  avg # of iterations =  1.0

     total cpu time spent up to now is     1911.0 secs

     total energy              =   -7568.84546435 Ry
     estimated scf accuracy    <       0.00890023 Ry

     iteration # 18     ecut=    80.00 Ry     beta= 0.20
     Davidson diagonalization with overlap
     ethr =  2.54E-06,  avg # of iterations =  2.2

     total cpu time spent up to now is     1920.6 secs

     total energy              =   -7568.84617036 Ry
     estimated scf accuracy    <       0.02367010 Ry

     iteration # 19     ecut=    80.00 Ry     beta= 0.20
     Davidson diagonalization with overlap
     ethr =  2.54E-06,  avg # of iterations =  1.0

     total cpu time spent up to now is     1929.4 secs

     total energy              =   -7568.84499307 Ry
     estimated scf accuracy    <       0.01201317 Ry

     iteration # 20     ecut=    80.00 Ry     beta= 0.20
     Davidson diagonalization with overlap
     ethr =  2.54E-06,  avg # of iterations =  1.2

     total cpu time spent up to now is     1938.3 secs

     total energy              =   -7568.84580402 Ry
     estimated scf accuracy    <       0.01253051 Ry

     iteration # 21     ecut=    80.00 Ry     beta= 0.20
     Davidson diagonalization with overlap
     ethr =  2.54E-06,  avg # of iterations =  2.0

     total cpu time spent up to now is     1948.2 secs

     total energy              =   -7568.84678212 Ry
     estimated scf accuracy    <       0.01482777 Ry

     iteration # 22     ecut=    80.00 Ry     beta= 0.20
     Davidson diagonalization with overlap
     ethr =  2.54E-06,  avg # of iterations =  1.0

     total cpu time spent up to now is     1956.9 secs

     total energy              =   -7568.84688065 Ry
     estimated scf accuracy    <       0.02793103 Ry

     iteration # 23     ecut=    80.00 Ry     beta= 0.20
     Davidson diagonalization with overlap
     ethr =  2.54E-06,  avg # of iterations =  1.0

     total cpu time spent up to now is     1965.7 secs

     total energy              =   -7568.84624130 Ry
     estimated scf accuracy    <       0.02808527 Ry

     iteration # 24     ecut=    80.00 Ry     beta= 0.20
     Davidson diagonalization with overlap
     ethr =  2.54E-06,  avg # of iterations =  1.0

     total cpu time spent up to now is     1974.5 secs

     total energy              =   -7568.84473214 Ry
     estimated scf accuracy    <       0.01592514 Ry

     iteration # 25     ecut=    80.00 Ry     beta= 0.20
     Davidson diagonalization with overlap
     ethr =  2.54E-06,  avg # of iterations =  2.0

     total cpu time spent up to now is     1984.2 secs

     total energy              =   -7568.84516499 Ry
     estimated scf accuracy    <       0.02168178 Ry

     iteration # 26     ecut=    80.00 Ry     beta= 0.20
     Davidson diagonalization with overlap
     ethr =  2.54E-06,  avg # of iterations =  1.0

     total cpu time spent up to now is     1993.0 secs

     total energy              =   -7568.84601473 Ry
     estimated scf accuracy    <       0.01421562 Ry

     iteration # 27     ecut=    80.00 Ry     beta= 0.20
     Davidson diagonalization with overlap
     ethr =  2.54E-06,  avg # of iterations =  1.0

     total cpu time spent up to now is     2001.8 secs

     total energy              =   -7568.84613809 Ry
     estimated scf accuracy    <       0.02058298 Ry

     iteration # 28     ecut=    80.00 Ry     beta= 0.20
     Davidson diagonalization with overlap
     ethr =  2.54E-06,  avg # of iterations =  1.0

     total cpu time spent up to now is     2010.5 secs

     total energy              =   -7568.84675465 Ry
     estimated scf accuracy    <       0.00774659 Ry

     iteration # 29     ecut=    80.00 Ry     beta= 0.20
     Davidson diagonalization with overlap
     ethr =  2.21E-06,  avg # of iterations =  1.0

     total cpu time spent up to now is     2019.3 secs

     total energy              =   -7568.84708952 Ry
     estimated scf accuracy    <       0.00950972 Ry

     iteration # 30     ecut=    80.00 Ry     beta= 0.20
     Davidson diagonalization with overlap
     ethr =  2.21E-06,  avg # of iterations =  1.0

     total cpu time spent up to now is     2028.0 secs

     total energy              =   -7568.84705111 Ry
     estimated scf accuracy    <       0.00309902 Ry

     iteration # 31     ecut=    80.00 Ry     beta= 0.20
     Davidson diagonalization with overlap
     ethr =  8.85E-07,  avg # of iterations =  1.0

     total cpu time spent up to now is     2036.8 secs

     total energy              =   -7568.84709547 Ry
     estimated scf accuracy    <       0.00090071 Ry

     iteration # 32     ecut=    80.00 Ry     beta= 0.20
     Davidson diagonalization with overlap
     ethr =  2.57E-07,  avg # of iterations =  1.0

     total cpu time spent up to now is     2045.6 secs

     total energy              =   -7568.84724024 Ry
     estimated scf accuracy    <       0.00086999 Ry

     iteration # 33     ecut=    80.00 Ry     beta= 0.20
     Davidson diagonalization with overlap
     ethr =  2.49E-07,  avg # of iterations =  2.0

     total cpu time spent up to now is     2055.4 secs

     total energy              =   -7568.84739787 Ry
     estimated scf accuracy    <       0.00186417 Ry

     iteration # 34     ecut=    80.00 Ry     beta= 0.20
     Davidson diagonalization with overlap
     ethr =  2.49E-07,  avg # of iterations =  1.2

     total cpu time spent up to now is     2064.3 secs

     total energy              =   -7568.84744841 Ry
     estimated scf accuracy    <       0.00316682 Ry

     iteration # 35     ecut=    80.00 Ry     beta= 0.20
     Davidson diagonalization with overlap
     ethr =  2.49E-07,  avg # of iterations =  1.0

     total cpu time spent up to now is     2073.1 secs

     total energy              =   -7568.84747460 Ry
     estimated scf accuracy    <       0.00193334 Ry

     iteration # 36     ecut=    80.00 Ry     beta= 0.20
     Davidson diagonalization with overlap
     ethr =  2.49E-07,  avg # of iterations =  1.0

     total cpu time spent up to now is     2081.8 secs

     total energy              =   -7568.84758741 Ry
     estimated scf accuracy    <       0.00024368 Ry

     iteration # 37     ecut=    80.00 Ry     beta= 0.20
     Davidson diagonalization with overlap
     ethr =  6.96E-08,  avg # of iterations =  2.0

     total cpu time spent up to now is     2092.5 secs

     total energy              =   -7568.84770101 Ry
     estimated scf accuracy    <       0.00254179 Ry

     iteration # 38     ecut=    80.00 Ry     beta= 0.20
     Davidson diagonalization with overlap
     ethr =  6.96E-08,  avg # of iterations =  1.0

     total cpu time spent up to now is     2101.3 secs

     total energy              =   -7568.84769746 Ry
     estimated scf accuracy    <       0.00175426 Ry

     iteration # 39     ecut=    80.00 Ry     beta= 0.20
     Davidson diagonalization with overlap
     ethr =  6.96E-08,  avg # of iterations =  1.0

     total cpu time spent up to now is     2110.0 secs

     total energy              =   -7568.84769143 Ry
     estimated scf accuracy    <       0.00115921 Ry

     iteration # 40     ecut=    80.00 Ry     beta= 0.20
     Davidson diagonalization with overlap
     ethr =  6.96E-08,  avg # of iterations =  1.0

     total cpu time spent up to now is     2118.8 secs

     total energy              =   -7568.84774164 Ry
     estimated scf accuracy    <       0.00088735 Ry

     iteration # 41     ecut=    80.00 Ry     beta= 0.20
     Davidson diagonalization with overlap
     ethr =  6.96E-08,  avg # of iterations =  1.0

     total cpu time spent up to now is     2127.5 secs

     total energy              =   -7568.84776157 Ry
     estimated scf accuracy    <       0.00068628 Ry

     iteration # 42     ecut=    80.00 Ry     beta= 0.20
     Davidson diagonalization with overlap
     ethr =  6.96E-08,  avg # of iterations =  1.0

     total cpu time spent up to now is     2136.3 secs

     total energy              =   -7568.84778330 Ry
     estimated scf accuracy    <       0.00057993 Ry

     iteration # 43     ecut=    80.00 Ry     beta= 0.20
     Davidson diagonalization with overlap
     ethr =  6.96E-08,  avg # of iterations =  1.0

     total cpu time spent up to now is     2145.0 secs

     total energy              =   -7568.84786119 Ry
     estimated scf accuracy    <       0.00056734 Ry

     iteration # 44     ecut=    80.00 Ry     beta= 0.20
     Davidson diagonalization with overlap
     ethr =  6.96E-08,  avg # of iterations =  1.2

     total cpu time spent up to now is     2154.0 secs

     total energy              =   -7568.84789943 Ry
     estimated scf accuracy    <       0.00054457 Ry

     iteration # 45     ecut=    80.00 Ry     beta= 0.20
     Davidson diagonalization with overlap
     ethr =  6.96E-08,  avg # of iterations =  1.0

     total cpu time spent up to now is     2162.8 secs

     total energy              =   -7568.84794392 Ry
     estimated scf accuracy    <       0.00049254 Ry

     iteration # 46     ecut=    80.00 Ry     beta= 0.20
     Davidson diagonalization with overlap
     ethr =  6.96E-08,  avg # of iterations =  1.0

     total cpu time spent up to now is     2171.5 secs

     total energy              =   -7568.84796400 Ry
     estimated scf accuracy    <       0.00036022 Ry

     iteration # 47     ecut=    80.00 Ry     beta= 0.20
     Davidson diagonalization with overlap
     ethr =  6.96E-08,  avg # of iterations =  1.0

     total cpu time spent up to now is     2180.3 secs

     total energy              =   -7568.84803909 Ry
     estimated scf accuracy    <       0.00042099 Ry

     iteration # 48     ecut=    80.00 Ry     beta= 0.20
     Davidson diagonalization with overlap
     ethr =  6.96E-08,  avg # of iterations =  2.0

     total cpu time spent up to now is     2190.5 secs

     total energy              =   -7568.84799045 Ry
     estimated scf accuracy    <       0.00026638 Ry

     iteration # 49     ecut=    80.00 Ry     beta= 0.20
     Davidson diagonalization with overlap
     ethr =  6.96E-08,  avg # of iterations =  2.0

     total cpu time spent up to now is     2200.3 secs

     total energy              =   -7568.84807080 Ry
     estimated scf accuracy    <       0.00023315 Ry

     iteration # 50     ecut=    80.00 Ry     beta= 0.20
     Davidson diagonalization with overlap
     ethr =  6.66E-08,  avg # of iterations =  2.0

     total cpu time spent up to now is     2210.8 secs

     total energy              =   -7568.84811695 Ry
     estimated scf accuracy    <       0.00024421 Ry

     iteration # 51     ecut=    80.00 Ry     beta= 0.20
     Davidson diagonalization with overlap
     ethr =  6.66E-08,  avg # of iterations =  1.4

     total cpu time spent up to now is     2219.9 secs

     total energy              =   -7568.84813423 Ry
     estimated scf accuracy    <       0.00040396 Ry

     iteration # 52     ecut=    80.00 Ry     beta= 0.20
     Davidson diagonalization with overlap
     ethr =  6.66E-08,  avg # of iterations =  2.0

     total cpu time spent up to now is     2230.9 secs

     total energy              =   -7568.84818017 Ry
     estimated scf accuracy    <       0.00106027 Ry

     iteration # 53     ecut=    80.00 Ry     beta= 0.20
     Davidson diagonalization with overlap
     ethr =  6.66E-08,  avg # of iterations =  2.0

     total cpu time spent up to now is     2240.7 secs

     total energy              =   -7568.84819398 Ry
     estimated scf accuracy    <       0.00075962 Ry

     iteration # 54     ecut=    80.00 Ry     beta= 0.20
     Davidson diagonalization with overlap
     ethr =  6.66E-08,  avg # of iterations =  1.0

     total cpu time spent up to now is     2249.5 secs

     total energy              =   -7568.84819691 Ry
     estimated scf accuracy    <       0.00041338 Ry

     iteration # 55     ecut=    80.00 Ry     beta= 0.20
     Davidson diagonalization with overlap
     ethr =  6.66E-08,  avg # of iterations =  1.0

     total cpu time spent up to now is     2258.3 secs

     total energy              =   -7568.84819650 Ry
     estimated scf accuracy    <       0.00032874 Ry

     iteration # 56     ecut=    80.00 Ry     beta= 0.20
     Davidson diagonalization with overlap
     ethr =  6.66E-08,  avg # of iterations =  1.0

     total cpu time spent up to now is     2267.0 secs

     total energy              =   -7568.84818609 Ry
     estimated scf accuracy    <       0.00035473 Ry

     iteration # 57     ecut=    80.00 Ry     beta= 0.20
     Davidson diagonalization with overlap
     ethr =  6.66E-08,  avg # of iterations =  1.2

     total cpu time spent up to now is     2276.0 secs

     total energy              =   -7568.84818118 Ry
     estimated scf accuracy    <       0.00012145 Ry

     iteration # 58     ecut=    80.00 Ry     beta= 0.20
     Davidson diagonalization with overlap
     ethr =  3.47E-08,  avg # of iterations =  2.0

     total cpu time spent up to now is     2286.2 secs

     total energy              =   -7568.84819125 Ry
     estimated scf accuracy    <       0.00004342 Ry

     iteration # 59     ecut=    80.00 Ry     beta= 0.20
     Davidson diagonalization with overlap
     ethr =  1.24E-08,  avg # of iterations =  1.2

     total cpu time spent up to now is     2295.2 secs

     total energy              =   -7568.84819199 Ry
     estimated scf accuracy    <       0.00003087 Ry

     iteration # 60     ecut=    80.00 Ry     beta= 0.20
     Davidson diagonalization with overlap
     ethr =  8.82E-09,  avg # of iterations =  2.0

     total cpu time spent up to now is     2305.0 secs

     total energy              =   -7568.84819276 Ry
     estimated scf accuracy    <       0.00001791 Ry

     iteration # 61     ecut=    80.00 Ry     beta= 0.20
     Davidson diagonalization with overlap
     ethr =  5.12E-09,  avg # of iterations =  1.0

     total cpu time spent up to now is     2313.8 secs

     total energy              =   -7568.84819169 Ry
     estimated scf accuracy    <       0.00006893 Ry

     iteration # 62     ecut=    80.00 Ry     beta= 0.20
     Davidson diagonalization with overlap
     ethr =  5.12E-09,  avg # of iterations =  1.0

     total cpu time spent up to now is     2322.5 secs

     total energy              =   -7568.84818911 Ry
     estimated scf accuracy    <       0.00023714 Ry

     iteration # 63     ecut=    80.00 Ry     beta= 0.20
     Davidson diagonalization with overlap
     ethr =  5.12E-09,  avg # of iterations =  1.0

     total cpu time spent up to now is     2331.3 secs

     total energy              =   -7568.84819214 Ry
     estimated scf accuracy    <       0.00002845 Ry

     iteration # 64     ecut=    80.00 Ry     beta= 0.20
     Davidson diagonalization with overlap
     ethr =  5.12E-09,  avg # of iterations =  1.0

     total cpu time spent up to now is     2340.0 secs

     End of self-consistent calculation

          k = 0.0000 0.0000 0.0000 ( 24267 PWs)   bands (ev):

   -90.1824 -90.1803 -90.1174 -90.1125 -90.1076 -90.0781 -90.0704 -90.0616
   -90.0594 -90.0427 -90.0420 -90.0239 -90.0203 -89.8200 -89.7982 -62.3190
   -62.3172 -62.3166 -62.3126 -62.2722 -62.2667 -62.2523 -62.2467 -50.8037
   -50.7946 -50.7407 -50.6872 -50.6445 -50.6021 -50.6001 -50.5768 -50.5727
   -50.5646 -50.5618 -50.5467 -50.5453 -50.5176 -50.5044 -50.4916 -50.4843
   -50.4572 -50.4489 -50.4393 -50.4328 -50.4304 -50.4256 -50.4231 -50.4104
   -50.4018 -50.4010 -50.4002 -50.3968 -50.3947 -50.3876 -50.3483 -50.3436
   -50.3409 -50.3401 -50.3373 -50.3166 -50.3126 -50.2790 -50.2741 -50.2557
   -50.2521 -50.2373 -49.9998 -49.9810 -29.0914 -29.0892 -29.0855 -29.0824
   -29.0782 -29.0778 -29.0739 -29.0727 -29.0693 -29.0655 -29.0629 -29.0595
   -29.0400 -29.0365 -29.0253 -29.0198 -29.0194 -29.0159 -29.0081 -29.0069
   -29.0025 -29.0023 -29.0015 -28.9993   4.4163   4.9731   5.3508   6.8251
     7.2073   8.4421   8.4495   8.8902   9.1494   9.2696   9.3984   9.4819
     9.4974   9.4995   9.5166   9.5231   9.5538   9.7013   9.7113   9.7655
     9.8229   9.8320   9.9099   9.9771  10.0081  10.2554  10.2826  10.2945
    10.2997  10.3393  10.3706  10.3751  10.3955  10.4879  10.5841  10.7805
    10.8235  10.8561  10.8631  10.9300  11.0032  11.0187  11.0833  11.1302
    11.4468  11.4533  11.5849  11.6890  11.7021  11.7749  11.7971  11.7995
    11.9237  11.9648  11.9998  12.0934  12.1484  12.1589  12.1730  12.1783
    12.1825  12.1863  12.1984  12.2042  12.2148  12.2372  12.2712  12.2807
    12.2831  12.3089  12.3204  12.3333  12.3444  12.4910  12.6443  12.7435
    12.8379  12.9290  13.0823  13.2878  13.3088  13.3115  13.7654  13.8187
    13.9935  14.0048  14.0356  14.0981  14.1095  14.1487  14.3858  14.4063
    14.4513  15.3312  15.4332  15.7806  15.8016  15.8442  16.1642  16.3480
    16.4047  16.8710  16.9180  17.3407  17.4312  17.5367  17.7063  17.7739
    17.9311  18.4501  18.5802  18.7880  19.0443  19.2083  19.6490  19.6805
    19.7085  19.9648

          k =-0.0007 0.3818 0.0005 ( 24221 PWs)   bands (ev):

   -90.1821 -90.1801 -90.1141 -90.1090 -90.1010 -90.0851 -90.0704 -90.0650
   -90.0630 -90.0428 -90.0420 -90.0237 -90.0201 -89.8200 -89.7982 -62.3189
   -62.3172 -62.3165 -62.3125 -62.2724 -62.2668 -62.2524 -62.2468 -50.7714
   -50.7642 -50.7003 -50.6846 -50.6528 -50.6183 -50.6127 -50.5691 -50.5646
   -50.5539 -50.5526 -50.5511 -50.5246 -50.5241 -50.4998 -50.4987 -50.4784
   -50.4488 -50.4421 -50.4361 -50.4322 -50.4263 -50.4235 -50.4231 -50.4184
   -50.4139 -50.4102 -50.4027 -50.4010 -50.3977 -50.3907 -50.3671 -50.3633
   -50.3594 -50.3519 -50.3499 -50.3263 -50.3232 -50.2789 -50.2741 -50.2556
   -50.2520 -50.2372 -50.0000 -49.9806 -29.0923 -29.0900 -29.0864 -29.0832
   -29.0787 -29.0773 -29.0737 -29.0730 -29.0678 -29.0652 -29.0629 -29.0603
   -29.0404 -29.0366 -29.0244 -29.0201 -29.0187 -29.0164 -29.0089 -29.0062
   -29.0034 -29.0015 -29.0007 -28.9984   5.4208   5.9603   6.2858   7.6413
     7.9535   8.1291   8.4085   8.6895   9.0176   9.0663   9.2723   9.2760
     9.4290   9.5332   9.5685   9.5810   9.6987   9.7352   9.8311   9.8359
     9.8669  10.0609  10.1159  10.1327  10.1570  10.2230  10.2725  10.2837
    10.3249  10.3748  10.3855  10.4533  10.5146  10.5331  10.5615  10.6069
    10.6758  10.7483  10.7937  10.8238  10.9563  10.9585  10.9660  11.0046
    11.0494  11.0804  11.1010  11.1896  11.3098  11.3646  11.4044  11.4396
    11.4743  11.5865  11.6018  11.6886  11.7058  11.7599  11.7673  11.7719
    11.8531  11.8643  11.9239  11.9773  12.0098  12.0285  12.0861  12.1441
    12.1955  12.2078  12.2234  12.2650  12.2723  12.2963  12.3034  12.3732
    12.4082  12.4874  12.5505  12.5719  12.6619  12.6819  12.8321  13.1117
    13.1335  13.4837  13.5050  13.6390  13.9442  13.9535  14.1045  14.1759
    14.3004  14.3955  14.4780  15.1072  15.6577  16.2094  16.2753  17.4860
    17.6985  17.9430  18.1352  18.7260  18.8247  19.0588  19.1030  19.1216
    19.2511  19.7216  20.2133  20.3288  20.3314  20.9599  21.0142  21.2782
    21.7603  22.1010

          k = 0.3298 0.1906-0.0021 ( 24222 PWs)   bands (ev):

   -90.1821 -90.1802 -90.1156 -90.1105 -90.1031 -90.0789 -90.0744 -90.0586
   -90.0562 -90.0479 -90.0475 -90.0235 -90.0199 -89.8151 -89.8030 -62.3189
   -62.3172 -62.3165 -62.3126 -62.2723 -62.2668 -62.2524 -62.2468 -50.7765
   -50.7700 -50.7047 -50.6830 -50.6452 -50.6015 -50.5994 -50.5778 -50.5754
   -50.5590 -50.5503 -50.5453 -50.5265 -50.5169 -50.5081 -50.4914 -50.4842
   -50.4523 -50.4410 -50.4346 -50.4290 -50.4280 -50.4237 -50.4179 -50.4167
   -50.4110 -50.4077 -50.4027 -50.3915 -50.3871 -50.3845 -50.3655 -50.3610
   -50.3578 -50.3519 -50.3494 -50.3315 -50.3256 -50.2980 -50.2786 -50.2738
   -50.2507 -50.2408 -49.9957 -49.9851 -29.0915 -29.0892 -29.0862 -29.0831
   -29.0787 -29.0773 -29.0742 -29.0725 -29.0694 -29.0660 -29.0638 -29.0604
   -29.0393 -29.0357 -29.0254 -29.0195 -29.0193 -29.0154 -29.0082 -29.0070
   -29.0027 -29.0016 -29.0015 -28.9984   5.4190   5.9543   6.3183   7.7276
     7.9545   8.1018   8.3881   8.6153   9.0119   9.0613   9.2764   9.4033
     9.4528   9.4620   9.5997   9.7038   9.7069   9.7570   9.8277   9.8412
     9.8863  10.0828  10.0970  10.1436  10.1842  10.2496  10.2821  10.3417
    10.3672  10.3783  10.4568  10.4874  10.5206  10.5406  10.5959  10.6918
    10.7127  10.7620  10.7824  10.8624  10.8695  10.9099  10.9624  10.9933
    11.0802  11.1228  11.1408  11.2221  11.2734  11.3562  11.3712  11.4106
    11.4207  11.5399  11.5719  11.6043  11.6444  11.6890  11.7472  11.7634
    11.7862  11.7989  11.8742  11.9251  11.9645  12.0100  12.0116  12.0342
    12.0908  12.1686  12.1836  12.2086  12.2485  12.2976  12.3070  12.3459
    12.3628  12.3847  12.4646  12.4913  12.6639  12.6717  12.8219  12.9997
    13.1122  13.5963  13.6551  13.8270  13.9346  13.9799  14.1163  14.2106
    14.2646  14.6339  15.0255  15.3793  15.7115  15.8872  16.0383  17.2862
    17.7904  17.9071  17.9621  18.7989  18.8990  18.9280  19.2254  19.2951
    19.3190  19.8180  20.2486  20.2848  20.3577  20.8822  20.9948  21.2198
    21.7537  22.0266

          k = 0.3291 0.5724-0.0016 ( 24155 PWs)   bands (ev):

   -90.1819 -90.1801 -90.1138 -90.1087 -90.0982 -90.0854 -90.0730 -90.0613
   -90.0591 -90.0470 -90.0465 -90.0234 -90.0199 -89.8151 -89.8030 -62.3188
   -62.3171 -62.3164 -62.3125 -62.2724 -62.2668 -62.2524 -62.2469 -50.7553
   -50.7516 -50.6811 -50.6797 -50.6311 -50.6271 -50.6169 -50.5746 -50.5675
   -50.5629 -50.5484 -50.5448 -50.5205 -50.5186 -50.5048 -50.4871 -50.4814
   -50.4470 -50.4430 -50.4361 -50.4313 -50.4287 -50.4244 -50.4217 -50.4164
   -50.4114 -50.4062 -50.3970 -50.3901 -50.3866 -50.3842 -50.3839 -50.3615
   -50.3587 -50.3566 -50.3541 -50.3472 -50.3439 -50.2978 -50.2785 -50.2737
   -50.2506 -50.2408 -49.9957 -49.9847 -29.0920 -29.0897 -29.0867 -29.0833
   -29.0797 -29.0765 -29.0750 -29.0716 -29.0684 -29.0651 -29.0645 -29.0610
   -29.0395 -29.0357 -29.0252 -29.0196 -29.0191 -29.0152 -29.0092 -29.0058
   -29.0036 -29.0013 -29.0004 -28.9982   6.9838   7.2762   7.4948   7.5455
     7.6182   7.9646   8.0830   8.0942   8.3356   8.9771   9.0246   9.0829
     9.1123   9.1515   9.4999   9.6472   9.8399   9.8866   9.9219   9.9466
    10.0135  10.0930  10.1986  10.2178  10.2359  10.2549  10.3372  10.3478
    10.4196  10.4378  10.4526  10.4762  10.4840  10.5150  10.5370  10.5649
    10.6104  10.6708  10.6841  10.6854  10.7234  10.7373  10.8117  10.9176
    10.9400  10.9764  11.0185  11.0884  11.2205  11.2225  11.2554  11.3118
    11.3350  11.3557  11.4163  11.5103  11.5153  11.5912  11.6201  11.6700
    11.7217  11.7735  11.8367  11.8419  11.8511  11.8911  11.9186  11.9281
    11.9541  11.9669  12.0193  12.0264  12.0531  12.1220  12.2262  12.2989
    12.3359  12.3584  12.4799  12.4815  12.4946  12.5561  12.6788  12.7265
    12.7546  12.8303  12.9486  13.1413  13.2473  13.2871  14.6338  14.6859
    14.7019  14.8358  15.2481  15.6236  17.3875  17.5536  17.6675  17.8079
    17.9145  18.5316  18.5425  18.5681  18.6411  18.7320  19.0056  19.3107
    19.5261  19.5858  19.6251  20.3747  20.4643  20.8507  20.8868  20.9933
    21.6654  22.8861

          k = 0.3304-0.1911-0.0026 ( 24223 PWs)   bands (ev):

   -90.1821 -90.1802 -90.1154 -90.1104 -90.1028 -90.0799 -90.0738 -90.0597
   -90.0569 -90.0470 -90.0470 -90.0235 -90.0200 -89.8151 -89.8030 -62.3189
   -62.3172 -62.3165 -62.3126 -62.2723 -62.2668 -62.2524 -62.2468 -50.7751
   -50.7685 -50.7034 -50.6834 -50.6457 -50.6035 -50.5991 -50.5762 -50.5743
   -50.5591 -50.5509 -50.5460 -50.5266 -50.5186 -50.5068 -50.4941 -50.4826
   -50.4515 -50.4399 -50.4340 -50.4296 -50.4283 -50.4238 -50.4179 -50.4166
   -50.4110 -50.4076 -50.4029 -50.3912 -50.3872 -50.3847 -50.3659 -50.3632
   -50.3592 -50.3538 -50.3501 -50.3277 -50.3254 -50.2980 -50.2786 -50.2738
   -50.2506 -50.2408 -49.9956 -49.9851 -29.0917 -29.0893 -29.0861 -29.0830
   -29.0790 -29.0772 -29.0746 -29.0721 -29.0693 -29.0659 -29.0638 -29.0604
   -29.0393 -29.0357 -29.0254 -29.0197 -29.0193 -29.0153 -29.0086 -29.0066
   -29.0031 -29.0016 -29.0012 -28.9985   5.4243   5.9595   6.3224   7.7320
     7.9582   8.1142   8.3983   8.6218   9.0129   9.0679   9.2866   9.4075
     9.4560   9.4626   9.6011   9.7015   9.7060   9.7501   9.8302   9.8405
     9.8778  10.0884  10.0938  10.1471  10.1830  10.2524  10.2771  10.3381
    10.3679  10.3745  10.4550  10.4885  10.5161  10.5394  10.5972  10.6899
    10.7132  10.7605  10.7800  10.8611  10.8657  10.9081  10.9665  10.9951
    11.0828  11.1203  11.1428  11.2196  11.2726  11.3576  11.3693  11.4069
    11.4240  11.5402  11.5705  11.6031  11.6489  11.6870  11.7479  11.7648
    11.7863  11.7993  11.8742  11.9177  11.9653  12.0102  12.0122  12.0343
    12.0948  12.1661  12.1798  12.2044  12.2466  12.2945  12.3064  12.3437
    12.3612  12.3796  12.4652  12.4925  12.6681  12.6720  12.8191  12.9956
    13.1149  13.5915  13.6606  13.8163  13.9265  13.9609  14.0952  14.1948
    14.2467  14.6187  14.9984  15.3849  15.7131  15.8942  16.0275  17.2719
    17.7780  17.8964  17.9664  18.7913  18.8980  18.9154  19.2062  19.2905
    19.3113  19.8278  20.2451  20.2835  20.3537  20.8810  20.9993  21.2483
    21.7537  22.0496

     the Fermi energy is    12.8583 ev

!    total energy              =   -7568.84818745 Ry
     total all-electron energy =    -48829.491950 Ry
     estimated scf accuracy    <       0.00000712 Ry
     smearing contrib. (-TS)   =       0.09480250 Ry
     internal energy E=F+TS    =   -7568.94298995 Ry

     The total energy is F=E-TS. E is the sum of the following terms:
     one-electron contribution =   -4495.31654069 Ry
     hartree contribution      =    2392.09005973 Ry
     xc contribution           =    -656.40816133 Ry
     ewald contribution        =   -3323.35547233 Ry
     one-center paw contrib.   =   -1485.95287533 Ry

     convergence has been achieved in  64 iterations

     Forces acting on atoms (cartesian axes, Ry/au):

     atom    1 type  1   force =     0.00055718    0.00084170    0.00265510
     atom    2 type  1   force =    -0.00050576   -0.00081635    0.00335556
     atom    3 type  1   force =    -0.00040111   -0.00056526   -0.00223461
     atom    4 type  1   force =    -0.00030617    0.00024788    0.00065597
     atom    5 type  1   force =    -0.00216750    0.00157660   -0.00057411
     atom    6 type  1   force =    -0.00026018    0.00261095    0.00569034
     atom    7 type  1   force =     0.00032357   -0.00150602   -0.00465304
     atom    8 type  1   force =    -0.00236724   -0.00081538    0.00130072
     atom    9 type  2   force =    -0.00043577    0.00669142   -0.00844687
     atom   10 type  2   force =     0.00257224   -0.00113611   -0.00152268
     atom   11 type  2   force =     0.00179805   -0.00308389    0.00218098
     atom   12 type  2   force =    -0.00096630    0.00481217    0.00848369
     atom   13 type  2   force =     0.00079545    0.00171303    0.00044781
     atom   14 type  2   force =     0.00184052    0.00264346   -0.00123468
     atom   15 type  2   force =    -0.00357157    0.00035589    0.00202652
     atom   16 type  2   force =     0.00478005   -0.00124815   -0.00253906
     atom   17 type  2   force =     0.00041162   -0.00188450   -0.00008494
     atom   18 type  2   force =    -0.00044358   -0.00123352   -0.00473057
     atom   19 type  2   force =    -0.00042048    0.00002691    0.00157432
     atom   20 type  2   force =    -0.00007899   -0.00429627    0.00301501
     atom   21 type  2   force =    -0.00123415   -0.00237239   -0.00284208
     atom   22 type  2   force =    -0.00018043   -0.00162250   -0.00078651
     atom   23 type  2   force =     0.00026054   -0.00093969   -0.00173688
     The non-local contrib.  to forces
     atom    1 type  1   force =     0.00493649    0.04648784    0.01622806
     atom    2 type  1   force =    -0.00008710   -0.00010942    0.02066707
     atom    3 type  1   force =    -0.00323741    0.00413096   -0.01185000
     atom    4 type  1   force =    -0.00253255    0.05003107   -0.00302951
     atom    5 type  1   force =    -0.01206152    0.00159866   -0.00509914
     atom    6 type  1   force =    -0.00070880   -0.01732282    0.01478607
     atom    7 type  1   force =    -0.00131979   -0.03720926   -0.00811843
     atom    8 type  1   force =    -0.01540469   -0.00962939    0.01212289
     atom    9 type  2   force =     0.00219362   -0.13495668    0.03756188
     atom   10 type  2   force =    -0.01831331    0.02947235    0.05422945
     atom   11 type  2   force =    -0.02654263    0.05710688   -0.05252834
     atom   12 type  2   force =     0.03134478   -0.10594218   -0.03740913
     atom   13 type  2   force =     0.07570869   -0.09869967   -0.00281134
     atom   14 type  2   force =    -0.02310932    0.07479670    0.00790492
     atom   15 type  2   force =    -0.14916719    0.13154913    0.00679472
     atom   16 type  2   force =     0.11817746    0.18130202    0.01103164
     atom   17 type  2   force =    -0.10550636   -0.04776972    0.01006019
     atom   18 type  2   force =     0.00006611    0.05245262    0.07341898
     atom   19 type  2   force =    -0.01550371    0.02199773    0.01572763
     atom   20 type  2   force =    -0.00430228    0.05133042   -0.06098611
     atom   21 type  2   force =    -0.00887743    0.02681554   -0.00992217
     atom   22 type  2   force =     0.00441779    0.02526540    0.02034160
     atom   23 type  2   force =     0.01508424    0.02498877   -0.01128664
     The ionic contribution  to forces
     atom    1 type  1   force =     0.10202492    3.04930432  -22.78033050
     atom    2 type  1   force =     0.05909148   -0.01171274    9.38363162
     atom    3 type  1   force =    -0.06855582    0.11525763   -9.31918679
     atom    4 type  1   force =    -0.04174682    2.99246633   23.14330697
     atom    5 type  1   force =    -0.38215630    0.05026478   -5.99141222
     atom    6 type  1   force =     0.05189432   -0.10065683   19.66525622
     atom    7 type  1   force =    -0.05148674   -0.62758450  -19.28875807
     atom    8 type  1   force =    -0.51830446   -0.27990473    6.15721215
     atom    9 type  2   force =    -0.32656047   -9.89002562  -43.55244743
     atom   10 type  2   force =     0.44414210    0.16172788   14.15018014
     atom   11 type  2   force =     0.09429411    0.10755973  -14.12810163
     atom   12 type  2   force =     0.23482489  -10.31297244   43.74775134
     atom   13 type  2   force =    11.42337594   -6.34905520   -0.36497757
     atom   14 type  2   force =     0.55100761   13.23519996    0.08982089
     atom   15 type  2   force =   -11.91192961    7.90432556    0.46225464
     atom   16 type  2   force =    11.96331827    8.32574016   -0.26957833
     atom   17 type  2   force =   -11.50817405   -6.73646367    0.20104496
     atom   18 type  2   force =    -0.17365688    0.00615795  -28.26565272
     atom   19 type  2   force =    -0.71396676   -0.25312756   28.82987758
     atom   20 type  2   force =     0.15761540   -0.37155272   27.94295902
     atom   21 type  2   force =    -0.74290027   -0.33905593  -29.34353812
     atom   22 type  2   force =     0.65463265   -0.31252150   28.62997049
     atom   23 type  2   force =     0.70321649   -0.36337083  -29.09928262
     The local contribution  to forces
     atom    1 type  1   force =    -0.10621822   -3.09487187   22.76554268
     atom    2 type  1   force =    -0.05951660    0.01096884   -9.39998380
     atom    3 type  1   force =     0.07140851   -0.12004177    9.32733807
     atom    4 type  1   force =     0.04418508   -3.04206801  -23.13889038
     atom    5 type  1   force =     0.39201271   -0.05017590    5.99565465
     atom    6 type  1   force =    -0.05134787    0.12048206  -19.67395497
     atom    7 type  1   force =     0.05321890    0.66288134   19.29209683
     atom    8 type  1   force =     0.53128021    0.28865572   -6.16689163
     atom    9 type  2   force =     0.32358211   10.02802089   43.51516807
     atom   10 type  2   force =    -0.42541678   -0.19055536  -14.19762995
     atom   11 type  2   force =    -0.06809416   -0.16463981   14.17359601
     atom   12 type  2   force =    -0.26556343   10.42083119  -43.71147937
     atom   13 type  2   force =   -11.49729658    6.44479129    0.37051343
     atom   14 type  2   force =    -0.52823883  -13.30730441   -0.09652092
     atom   15 type  2   force =    12.05638717   -8.03370716   -0.46562206
     atom   16 type  2   force =   -12.07770667   -8.50288301    0.25845247
     atom   17 type  2   force =    11.61130435    6.78183821   -0.20878420
     atom   18 type  2   force =     0.17319711   -0.05743762   28.18833684
     atom   19 type  2   force =     0.72708555    0.23253040  -28.84096134
     atom   20 type  2   force =    -0.15399004    0.31956983  -27.88217205
     atom   21 type  2   force =     0.74938391    0.31231461   29.34561698
     atom   22 type  2   force =    -0.65793975    0.28744063  -28.64755416
     atom   23 type  2   force =    -0.71653971    0.34005665   29.10320915
     The core correction contribution to forces
     atom    1 type  1   force =    -0.00001995   -0.00015527   -0.00013799
     atom    2 type  1   force =     0.00000132    0.00000659   -0.00011522
     atom    3 type  1   force =     0.00001543   -0.00001504    0.00008107
     atom    4 type  1   force =     0.00001337   -0.00016895    0.00007535
     atom    5 type  1   force =     0.00005700   -0.00001349    0.00002789
     atom    6 type  1   force =     0.00000302    0.00004751   -0.00002312
     atom    7 type  1   force =     0.00000140    0.00014375   -0.00000568
     atom    8 type  1   force =     0.00007124    0.00003848   -0.00006071
     atom    9 type  2   force =    -0.00017788    0.00331466   -0.00843126
     atom   10 type  2   force =     0.00116461   -0.00146510   -0.00692291
     atom   11 type  2   force =     0.00158679   -0.00298483    0.00688139
     atom   12 type  2   force =    -0.00190081    0.00147624    0.00841273
     atom   13 type  2   force =    -0.00175893    0.00450986   -0.00020869
     atom   14 type  2   force =     0.00165742   -0.00135689   -0.00030108
     atom   15 type  2   force =     0.00374207   -0.00256603   -0.00063586
     atom   16 type  2   force =    -0.00179765   -0.00533289   -0.00051918
     atom   17 type  2   force =     0.00336738    0.00131814   -0.00045649
     atom   18 type  2   force =    -0.00005615   -0.00333570   -0.00548280
     atom   19 type  2   force =     0.00083064   -0.00124837   -0.00051925
     atom   20 type  2   force =     0.00041029   -0.00311258    0.00503017
     atom   21 type  2   force =     0.00066076   -0.00133606    0.00008668
     atom   22 type  2   force =    -0.00024851   -0.00123106   -0.00058505
     atom   23 type  2   force =    -0.00083609   -0.00155586    0.00030527
     The Hubbard contrib.    to forces
     atom    1 type  1   force =     0.00000000    0.00000000    0.00000000
     atom    2 type  1   force =     0.00000000    0.00000000    0.00000000
     atom    3 type  1   force =     0.00000000    0.00000000    0.00000000
     atom    4 type  1   force =     0.00000000    0.00000000    0.00000000
     atom    5 type  1   force =     0.00000000    0.00000000    0.00000000
     atom    6 type  1   force =     0.00000000    0.00000000    0.00000000
     atom    7 type  1   force =     0.00000000    0.00000000    0.00000000
     atom    8 type  1   force =     0.00000000    0.00000000    0.00000000
     atom    9 type  2   force =     0.00000000    0.00000000    0.00000000
     atom   10 type  2   force =     0.00000000    0.00000000    0.00000000
     atom   11 type  2   force =     0.00000000    0.00000000    0.00000000
     atom   12 type  2   force =     0.00000000    0.00000000    0.00000000
     atom   13 type  2   force =     0.00000000    0.00000000    0.00000000
     atom   14 type  2   force =     0.00000000    0.00000000    0.00000000
     atom   15 type  2   force =     0.00000000    0.00000000    0.00000000
     atom   16 type  2   force =     0.00000000    0.00000000    0.00000000
     atom   17 type  2   force =     0.00000000    0.00000000    0.00000000
     atom   18 type  2   force =     0.00000000    0.00000000    0.00000000
     atom   19 type  2   force =     0.00000000    0.00000000    0.00000000
     atom   20 type  2   force =     0.00000000    0.00000000    0.00000000
     atom   21 type  2   force =     0.00000000    0.00000000    0.00000000
     atom   22 type  2   force =     0.00000000    0.00000000    0.00000000
     atom   23 type  2   force =     0.00000000    0.00000000    0.00000000
     The SCF correction term to forces
     atom    1 type  1   force =    -0.00014109    0.00004873    0.00135070
     atom    2 type  1   force =     0.00003013    0.00000244   -0.00084625
     atom    3 type  1   force =    -0.00000683    0.00007500    0.00138089
     atom    4 type  1   force =    -0.00020027   -0.00004051   -0.00080861
     atom    5 type  1   force =     0.00000559   -0.00012541    0.00025257
     atom    6 type  1   force =    -0.00007587    0.00003307   -0.00037599
     atom    7 type  1   force =    -0.00006523    0.00023469    0.00013017
     atom    8 type  1   force =     0.00001544   -0.00000341   -0.00108411
     atom    9 type  2   force =     0.00055182    0.00031022   -0.00030027
     atom   10 type  2   force =     0.00102060   -0.00034384   -0.00138155
     atom   11 type  2   force =     0.00057892   -0.00015382    0.00233140
     atom   12 type  2   force =     0.00035325    0.00139140    0.00120599
     atom   13 type  2   force =     0.00079131    0.00013879   -0.00207017
     atom   14 type  2   force =     0.00054863    0.00128014   -0.00214064
     atom   15 type  2   force =    -0.00257903    0.00072643   -0.00076705
     atom   16 type  2   force =     0.00281361   -0.00010238   -0.00192779
     atom   17 type  2   force =    -0.00055472   -0.00083541   -0.00195154
     atom   18 type  2   force =     0.00003121    0.00090127    0.00464701
     atom   19 type  2   force =     0.00115877   -0.00015324   -0.00255245
     atom   20 type  2   force =     0.00021262   -0.00055917   -0.00181815
     atom   21 type  2   force =     0.00052385   -0.00113851    0.00491241
     atom   22 type  2   force =    -0.00101764   -0.00060394   -0.00296153
     atom   23 type  2   force =    -0.00063940   -0.00108639    0.00531582

     Total force =     0.022118     Total SCF correction =     0.012445
     SCF correction compared to forces is large: reduce conv_thr to get better values


     Computing stress (Cartesian axis) and pressure

          total   stress  (Ry/bohr**3)                   (kbar)     P=       -2.93
  -0.00000298  -0.00001233  -0.00001935           -0.44       -1.81       -2.85
  -0.00001233  -0.00002038  -0.00000059           -1.81       -3.00       -0.09
  -0.00001935  -0.00000059  -0.00003648           -2.85       -0.09       -5.37

     Energy error            =      2.4E-03 Ry
     Gradient error          =      8.5E-03 Ry/Bohr
     Cell gradient error     =      5.4E+00 kbar

     number of scf cycles    =   3
     number of bfgs steps    =   2

     enthalpy           old  =   -7568.8458211209 Ry
     enthalpy           new  =   -7568.8481874465 Ry

     CASE: enthalpy          _new < enthalpy          _old

     new trust radius        =       0.0266703102 bohr
     new conv_thr            =       0.0000084837 Ry

     new unit-cell volume =   2048.06964 a.u.^3 (   303.49261 Ang^3 )
     density =      5.88092 g/cm^3

CELL_PARAMETERS (angstrom)
   4.748931015   0.004517116  -0.016213295
  -2.374534134   4.098551113   0.013371762
   0.091138285  -0.020686687  15.583794874

ATOMIC_POSITIONS (crystal)
Mg            0.9989330261        0.9991304884        0.4056139025
Mg            0.0003829185       -0.0002480637        0.9068966469
Mg            0.9996483108        0.9985926519        0.5925419397
Mg            0.9992338771        0.9975243328        0.0933511329
Mg            0.3325816394        0.6640357151        0.6559107775
Mg            0.6655678090        0.3325675113        0.1566206547
Mg            0.6674470447        0.3359932696        0.3429268567
Mg            0.3344671713        0.6662834527        0.8437572178
Ni            0.3351341920        0.6710281980        0.3735630632
Ni            0.6656972940        0.3313814793        0.8753322835
Ni            0.6645880336        0.3320513680        0.6248439363
Ni            0.3364927004        0.6717227859        0.1264522173
Ni            0.8321520083        0.1610049611        0.7495642339
Ni            0.8339888182        0.6695310556        0.7500817556
Ni            0.1587363117        0.8297854645        0.2497893854
Ni            0.6705548253        0.8329210944        0.2500061664
Ni            0.3256849493        0.1617069015        0.7501269371
Ni            0.4987376224        0.9977271162        0.4999000126
Ni            0.5002823141        0.4988857091        0.0003780399
Ni            0.5002261337       -0.0012820863        1.0002416770
Ni            0.4996719123        0.4990074753        0.4994487528
Ni           -0.0004608791        0.4991573336        0.0004835153
Ni            0.9990759668        0.4981017858        0.4995408948



     Writing config-only to output data dir ./C36/out_logs/C36_out_8/laves_C36.save/
     NEW-OLD atomic charge density approx. for the potential

     Check: negative core charge=   -0.000010
     extrapolated charge  350.20283, renormalised to  350.00000

     total cpu time spent up to now is     2365.3 secs

     Self-consistent Calculation

     iteration #  1     ecut=    80.00 Ry     beta= 0.20
     Davidson diagonalization with overlap
     ethr =  1.00E-06,  avg # of iterations =  9.8

     total cpu time spent up to now is     2389.3 secs

     total energy              =   -7568.32633607 Ry
     estimated scf accuracy    <       8.84374607 Ry

     iteration #  2     ecut=    80.00 Ry     beta= 0.20
     Davidson diagonalization with overlap
     ethr =  2.53E-03,  avg # of iterations =  2.0

     total cpu time spent up to now is     2399.5 secs

     total energy              =   -7564.30568686 Ry
     estimated scf accuracy    <     100.11411842 Ry

     iteration #  3     ecut=    80.00 Ry     beta= 0.20
     Davidson diagonalization with overlap
     ethr =  2.53E-03,  avg # of iterations =  3.2

     total cpu time spent up to now is     2409.7 secs

     total energy              =   -7566.13491355 Ry
     estimated scf accuracy    <     150.51650858 Ry

     iteration #  4     ecut=    80.00 Ry     beta= 0.20
     Davidson diagonalization with overlap
     ethr =  2.53E-03,  avg # of iterations =  2.0

     total cpu time spent up to now is     2419.4 secs

     total energy              =   -7568.25247693 Ry
     estimated scf accuracy    <      31.62540291 Ry

     iteration #  5     ecut=    80.00 Ry     beta= 0.20
     Davidson diagonalization with overlap
     ethr =  2.53E-03,  avg # of iterations =  1.0

     total cpu time spent up to now is     2428.1 secs

     total energy              =   -7568.77764180 Ry
     estimated scf accuracy    <       6.97249737 Ry

     iteration #  6     ecut=    80.00 Ry     beta= 0.20
     Davidson diagonalization with overlap
     ethr =  1.99E-03,  avg # of iterations =  1.0

     total cpu time spent up to now is     2436.8 secs

     total energy              =   -7568.77586149 Ry
     estimated scf accuracy    <      10.95376117 Ry

     iteration #  7     ecut=    80.00 Ry     beta= 0.20
     Davidson diagonalization with overlap
     ethr =  1.99E-03,  avg # of iterations =  1.0

     total cpu time spent up to now is     2445.5 secs

     total energy              =   -7568.84091420 Ry
     estimated scf accuracy    <       1.31068933 Ry

     iteration #  8     ecut=    80.00 Ry     beta= 0.20
     Davidson diagonalization with overlap
     ethr =  3.74E-04,  avg # of iterations =  1.0

     total cpu time spent up to now is     2454.3 secs

     total energy              =   -7568.83006403 Ry
     estimated scf accuracy    <       0.57184883 Ry

     iteration #  9     ecut=    80.00 Ry     beta= 0.20
     Davidson diagonalization with overlap
     ethr =  1.63E-04,  avg # of iterations =  1.0

     total cpu time spent up to now is     2463.0 secs

     total energy              =   -7568.85310538 Ry
     estimated scf accuracy    <       0.40636885 Ry

     iteration # 10     ecut=    80.00 Ry     beta= 0.20
     Davidson diagonalization with overlap
     ethr =  1.16E-04,  avg # of iterations =  1.0

     total cpu time spent up to now is     2471.8 secs

     total energy              =   -7568.84550505 Ry
     estimated scf accuracy    <       0.21516896 Ry

     iteration # 11     ecut=    80.00 Ry     beta= 0.20
     Davidson diagonalization with overlap
     ethr =  6.15E-05,  avg # of iterations =  1.0

     total cpu time spent up to now is     2480.5 secs

     total energy              =   -7568.84714661 Ry
     estimated scf accuracy    <       0.05018969 Ry

     iteration # 12     ecut=    80.00 Ry     beta= 0.20
     Davidson diagonalization with overlap
     ethr =  1.43E-05,  avg # of iterations =  1.6

     total cpu time spent up to now is     2489.9 secs

     total energy              =   -7568.84729894 Ry
     estimated scf accuracy    <       0.03031929 Ry

     iteration # 13     ecut=    80.00 Ry     beta= 0.20
     Davidson diagonalization with overlap
     ethr =  8.66E-06,  avg # of iterations =  1.4

     total cpu time spent up to now is     2499.1 secs

     total energy              =   -7568.84642846 Ry
     estimated scf accuracy    <       0.01915838 Ry

     iteration # 14     ecut=    80.00 Ry     beta= 0.20
     Davidson diagonalization with overlap
     ethr =  5.47E-06,  avg # of iterations =  1.6

     total cpu time spent up to now is     2508.4 secs

     total energy              =   -7568.84716484 Ry
     estimated scf accuracy    <       0.01685723 Ry

     iteration # 15     ecut=    80.00 Ry     beta= 0.20
     Davidson diagonalization with overlap
     ethr =  4.82E-06,  avg # of iterations =  1.4

     total cpu time spent up to now is     2517.6 secs

     total energy              =   -7568.84963000 Ry
     estimated scf accuracy    <       0.03566356 Ry

     iteration # 16     ecut=    80.00 Ry     beta= 0.20
     Davidson diagonalization with overlap
     ethr =  4.82E-06,  avg # of iterations =  1.4

     total cpu time spent up to now is     2526.8 secs

     total energy              =   -7568.84382615 Ry
     estimated scf accuracy    <       0.04797326 Ry

     iteration # 17     ecut=    80.00 Ry     beta= 0.20
     Davidson diagonalization with overlap
     ethr =  4.82E-06,  avg # of iterations =  2.4

     total cpu time spent up to now is     2537.8 secs

     total energy              =   -7568.84941669 Ry
     estimated scf accuracy    <       0.12324893 Ry

     iteration # 18     ecut=    80.00 Ry     beta= 0.20
     Davidson diagonalization with overlap
     ethr =  4.82E-06,  avg # of iterations =  1.0

     total cpu time spent up to now is     2546.6 secs

     total energy              =   -7568.84715030 Ry
     estimated scf accuracy    <       0.11772421 Ry

     iteration # 19     ecut=    80.00 Ry     beta= 0.20
     Davidson diagonalization with overlap
     ethr =  4.82E-06,  avg # of iterations =  2.0

     total cpu time spent up to now is     2556.4 secs

     total energy              =   -7568.84742413 Ry
     estimated scf accuracy    <       0.04311419 Ry

     iteration # 20     ecut=    80.00 Ry     beta= 0.20
     Davidson diagonalization with overlap
     ethr =  4.82E-06,  avg # of iterations =  1.2

     total cpu time spent up to now is     2565.4 secs

     total energy              =   -7568.84786518 Ry
     estimated scf accuracy    <       0.09459578 Ry

     iteration # 21     ecut=    80.00 Ry     beta= 0.20
     Davidson diagonalization with overlap
     ethr =  4.82E-06,  avg # of iterations =  1.0

     total cpu time spent up to now is     2574.1 secs

     total energy              =   -7568.84827327 Ry
     estimated scf accuracy    <       0.05561012 Ry

     iteration # 22     ecut=    80.00 Ry     beta= 0.20
     Davidson diagonalization with overlap
     ethr =  4.82E-06,  avg # of iterations =  1.0

     total cpu time spent up to now is     2582.9 secs

     total energy              =   -7568.84807525 Ry
     estimated scf accuracy    <       0.04950783 Ry

     iteration # 23     ecut=    80.00 Ry     beta= 0.20
     Davidson diagonalization with overlap
     ethr =  4.82E-06,  avg # of iterations =  1.0

     total cpu time spent up to now is     2591.6 secs

     total energy              =   -7568.84773985 Ry
     estimated scf accuracy    <       0.02988725 Ry

     iteration # 24     ecut=    80.00 Ry     beta= 0.20
     Davidson diagonalization with overlap
     ethr =  4.82E-06,  avg # of iterations =  1.0

     total cpu time spent up to now is     2600.4 secs

     total energy              =   -7568.84808423 Ry
     estimated scf accuracy    <       0.00644587 Ry

     iteration # 25     ecut=    80.00 Ry     beta= 0.20
     Davidson diagonalization with overlap
     ethr =  1.84E-06,  avg # of iterations =  1.0

     total cpu time spent up to now is     2609.1 secs

     total energy              =   -7568.84827452 Ry
     estimated scf accuracy    <       0.00551447 Ry

     iteration # 26     ecut=    80.00 Ry     beta= 0.20
     Davidson diagonalization with overlap
     ethr =  1.58E-06,  avg # of iterations =  1.0

     total cpu time spent up to now is     2617.9 secs

     total energy              =   -7568.84831497 Ry
     estimated scf accuracy    <       0.00414465 Ry

     iteration # 27     ecut=    80.00 Ry     beta= 0.20
     Davidson diagonalization with overlap
     ethr =  1.18E-06,  avg # of iterations =  1.0

     total cpu time spent up to now is     2626.6 secs

     total energy              =   -7568.84836616 Ry
     estimated scf accuracy    <       0.00274861 Ry

     iteration # 28     ecut=    80.00 Ry     beta= 0.20
     Davidson diagonalization with overlap
     ethr =  7.85E-07,  avg # of iterations =  1.0

     total cpu time spent up to now is     2635.4 secs

     total energy              =   -7568.84845658 Ry
     estimated scf accuracy    <       0.00462714 Ry

     iteration # 29     ecut=    80.00 Ry     beta= 0.20
     Davidson diagonalization with overlap
     ethr =  7.85E-07,  avg # of iterations =  1.0

     total cpu time spent up to now is     2644.2 secs

     total energy              =   -7568.84845997 Ry
     estimated scf accuracy    <       0.00295942 Ry

     iteration # 30     ecut=    80.00 Ry     beta= 0.20
     Davidson diagonalization with overlap
     ethr =  7.85E-07,  avg # of iterations =  1.0

     total cpu time spent up to now is     2652.9 secs

     total energy              =   -7568.84863183 Ry
     estimated scf accuracy    <       0.00040097 Ry

     iteration # 31     ecut=    80.00 Ry     beta= 0.20
     Davidson diagonalization with overlap
     ethr =  1.15E-07,  avg # of iterations =  2.0

     total cpu time spent up to now is     2663.6 secs

     total energy              =   -7568.84871424 Ry
     estimated scf accuracy    <       0.00073045 Ry

     iteration # 32     ecut=    80.00 Ry     beta= 0.20
     Davidson diagonalization with overlap
     ethr =  1.15E-07,  avg # of iterations =  1.0

     total cpu time spent up to now is     2672.3 secs

     total energy              =   -7568.84873044 Ry
     estimated scf accuracy    <       0.00085042 Ry

     iteration # 33     ecut=    80.00 Ry     beta= 0.20
     Davidson diagonalization with overlap
     ethr =  1.15E-07,  avg # of iterations =  1.0

     total cpu time spent up to now is     2681.1 secs

     total energy              =   -7568.84877537 Ry
     estimated scf accuracy    <       0.00056519 Ry

     iteration # 34     ecut=    80.00 Ry     beta= 0.20
     Davidson diagonalization with overlap
     ethr =  1.15E-07,  avg # of iterations =  1.0

     total cpu time spent up to now is     2689.9 secs

     total energy              =   -7568.84877733 Ry
     estimated scf accuracy    <       0.00067810 Ry

     iteration # 35     ecut=    80.00 Ry     beta= 0.20
     Davidson diagonalization with overlap
     ethr =  1.15E-07,  avg # of iterations =  1.0

     total cpu time spent up to now is     2698.7 secs

     total energy              =   -7568.84878850 Ry
     estimated scf accuracy    <       0.00057292 Ry

     iteration # 36     ecut=    80.00 Ry     beta= 0.20
     Davidson diagonalization with overlap
     ethr =  1.15E-07,  avg # of iterations =  1.0

     total cpu time spent up to now is     2707.5 secs

     total energy              =   -7568.84879623 Ry
     estimated scf accuracy    <       0.00057261 Ry

     iteration # 37     ecut=    80.00 Ry     beta= 0.20
     Davidson diagonalization with overlap
     ethr =  1.15E-07,  avg # of iterations =  1.0

     total cpu time spent up to now is     2716.3 secs

     total energy              =   -7568.84885527 Ry
     estimated scf accuracy    <       0.00049820 Ry

     iteration # 38     ecut=    80.00 Ry     beta= 0.20
     Davidson diagonalization with overlap
     ethr =  1.15E-07,  avg # of iterations =  1.0

     total cpu time spent up to now is     2725.0 secs

     total energy              =   -7568.84891047 Ry
     estimated scf accuracy    <       0.00042064 Ry

     iteration # 39     ecut=    80.00 Ry     beta= 0.20
     Davidson diagonalization with overlap
     ethr =  1.15E-07,  avg # of iterations =  1.0

     total cpu time spent up to now is     2733.8 secs

     total energy              =   -7568.84896235 Ry
     estimated scf accuracy    <       0.00033240 Ry

     iteration # 40     ecut=    80.00 Ry     beta= 0.20
     Davidson diagonalization with overlap
     ethr =  9.50E-08,  avg # of iterations =  1.0

     total cpu time spent up to now is     2742.6 secs

     total energy              =   -7568.84897544 Ry
     estimated scf accuracy    <       0.00028762 Ry

     iteration # 41     ecut=    80.00 Ry     beta= 0.20
     Davidson diagonalization with overlap
     ethr =  8.22E-08,  avg # of iterations =  1.0

     total cpu time spent up to now is     2751.4 secs

     total energy              =   -7568.84896101 Ry
     estimated scf accuracy    <       0.00025458 Ry

     iteration # 42     ecut=    80.00 Ry     beta= 0.20
     Davidson diagonalization with overlap
     ethr =  7.27E-08,  avg # of iterations =  1.0

     total cpu time spent up to now is     2760.2 secs

     total energy              =   -7568.84903513 Ry
     estimated scf accuracy    <       0.00028376 Ry

     iteration # 43     ecut=    80.00 Ry     beta= 0.20
     Davidson diagonalization with overlap
     ethr =  7.27E-08,  avg # of iterations =  2.0

     total cpu time spent up to now is     2771.2 secs

     total energy              =   -7568.84911712 Ry
     estimated scf accuracy    <       0.00017292 Ry

     iteration # 44     ecut=    80.00 Ry     beta= 0.20
     Davidson diagonalization with overlap
     ethr =  4.94E-08,  avg # of iterations =  2.0

     total cpu time spent up to now is     2781.4 secs

     total energy              =   -7568.84912968 Ry
     estimated scf accuracy    <       0.00033599 Ry

     iteration # 45     ecut=    80.00 Ry     beta= 0.20
     Davidson diagonalization with overlap
     ethr =  4.94E-08,  avg # of iterations =  1.0

     total cpu time spent up to now is     2790.2 secs

     total energy              =   -7568.84913190 Ry
     estimated scf accuracy    <       0.00047025 Ry

     iteration # 46     ecut=    80.00 Ry     beta= 0.20
     Davidson diagonalization with overlap
     ethr =  4.94E-08,  avg # of iterations =  1.0

     total cpu time spent up to now is     2799.0 secs

     total energy              =   -7568.84912886 Ry
     estimated scf accuracy    <       0.00045859 Ry

     iteration # 47     ecut=    80.00 Ry     beta= 0.20
     Davidson diagonalization with overlap
     ethr =  4.94E-08,  avg # of iterations =  1.0

     total cpu time spent up to now is     2807.8 secs

     total energy              =   -7568.84912900 Ry
     estimated scf accuracy    <       0.00043533 Ry

     iteration # 48     ecut=    80.00 Ry     beta= 0.20
     Davidson diagonalization with overlap
     ethr =  4.94E-08,  avg # of iterations =  1.0

     total cpu time spent up to now is     2816.6 secs

     total energy              =   -7568.84912735 Ry
     estimated scf accuracy    <       0.00040422 Ry

     iteration # 49     ecut=    80.00 Ry     beta= 0.20
     Davidson diagonalization with overlap
     ethr =  4.94E-08,  avg # of iterations =  1.0

     total cpu time spent up to now is     2825.4 secs

     total energy              =   -7568.84912994 Ry
     estimated scf accuracy    <       0.00036107 Ry

     iteration # 50     ecut=    80.00 Ry     beta= 0.20
     Davidson diagonalization with overlap
     ethr =  4.94E-08,  avg # of iterations =  1.0

     total cpu time spent up to now is     2834.1 secs

     total energy              =   -7568.84911776 Ry
     estimated scf accuracy    <       0.00027459 Ry

     iteration # 51     ecut=    80.00 Ry     beta= 0.20
     Davidson diagonalization with overlap
     ethr =  4.94E-08,  avg # of iterations =  1.0

     total cpu time spent up to now is     2842.9 secs

     total energy              =   -7568.84911477 Ry
     estimated scf accuracy    <       0.00062358 Ry

     iteration # 52     ecut=    80.00 Ry     beta= 0.20
     Davidson diagonalization with overlap
     ethr =  4.94E-08,  avg # of iterations =  1.0

     total cpu time spent up to now is     2851.7 secs

     total energy              =   -7568.84911889 Ry
     estimated scf accuracy    <       0.00022467 Ry

     iteration # 53     ecut=    80.00 Ry     beta= 0.20
     Davidson diagonalization with overlap
     ethr =  4.94E-08,  avg # of iterations =  1.0

     total cpu time spent up to now is     2860.5 secs

     total energy              =   -7568.84912071 Ry
     estimated scf accuracy    <       0.00020268 Ry

     iteration # 54     ecut=    80.00 Ry     beta= 0.20
     Davidson diagonalization with overlap
     ethr =  4.94E-08,  avg # of iterations =  1.0

     total cpu time spent up to now is     2869.3 secs

     total energy              =   -7568.84911604 Ry
     estimated scf accuracy    <       0.00020513 Ry

     iteration # 55     ecut=    80.00 Ry     beta= 0.20
     Davidson diagonalization with overlap
     ethr =  4.94E-08,  avg # of iterations =  1.0

     total cpu time spent up to now is     2878.1 secs

     total energy              =   -7568.84910463 Ry
     estimated scf accuracy    <       0.00020932 Ry

     iteration # 56     ecut=    80.00 Ry     beta= 0.20
     Davidson diagonalization with overlap
     ethr =  4.94E-08,  avg # of iterations =  1.0

     total cpu time spent up to now is     2886.9 secs

     total energy              =   -7568.84912136 Ry
     estimated scf accuracy    <       0.00028167 Ry

     iteration # 57     ecut=    80.00 Ry     beta= 0.20
     Davidson diagonalization with overlap
     ethr =  4.94E-08,  avg # of iterations =  1.2

     total cpu time spent up to now is     2895.9 secs

     total energy              =   -7568.84912768 Ry
     estimated scf accuracy    <       0.00014554 Ry

     iteration # 58     ecut=    80.00 Ry     beta= 0.20
     Davidson diagonalization with overlap
     ethr =  4.16E-08,  avg # of iterations =  1.0

     total cpu time spent up to now is     2904.6 secs

     total energy              =   -7568.84912976 Ry
     estimated scf accuracy    <       0.00025502 Ry

     iteration # 59     ecut=    80.00 Ry     beta= 0.20
     Davidson diagonalization with overlap
     ethr =  4.16E-08,  avg # of iterations =  1.2

     total cpu time spent up to now is     2913.6 secs

     total energy              =   -7568.84912808 Ry
     estimated scf accuracy    <       0.00011110 Ry

     iteration # 60     ecut=    80.00 Ry     beta= 0.20
     Davidson diagonalization with overlap
     ethr =  3.17E-08,  avg # of iterations =  2.0

     total cpu time spent up to now is     2923.4 secs

     total energy              =   -7568.84912966 Ry
     estimated scf accuracy    <       0.00022606 Ry

     iteration # 61     ecut=    80.00 Ry     beta= 0.20
     Davidson diagonalization with overlap
     ethr =  3.17E-08,  avg # of iterations =  1.0

     total cpu time spent up to now is     2932.2 secs

     total energy              =   -7568.84913839 Ry
     estimated scf accuracy    <       0.00002307 Ry

     iteration # 62     ecut=    80.00 Ry     beta= 0.20
     Davidson diagonalization with overlap
     ethr =  6.59E-09,  avg # of iterations =  1.0

     total cpu time spent up to now is     2941.0 secs

     total energy              =   -7568.84913730 Ry
     estimated scf accuracy    <       0.00014904 Ry

     iteration # 63     ecut=    80.00 Ry     beta= 0.20
     Davidson diagonalization with overlap
     ethr =  6.59E-09,  avg # of iterations =  1.0

     total cpu time spent up to now is     2949.8 secs

     total energy              =   -7568.84913901 Ry
     estimated scf accuracy    <       0.00001183 Ry

     iteration # 64     ecut=    80.00 Ry     beta= 0.20
     Davidson diagonalization with overlap
     ethr =  3.38E-09,  avg # of iterations =  1.0

     total cpu time spent up to now is     2958.5 secs

     total energy              =   -7568.84913896 Ry
     estimated scf accuracy    <       0.00000934 Ry

     iteration # 65     ecut=    80.00 Ry     beta= 0.20
     Davidson diagonalization with overlap
     ethr =  2.67E-09,  avg # of iterations =  1.0

     total cpu time spent up to now is     2967.3 secs

     total energy              =   -7568.84913900 Ry
     estimated scf accuracy    <       0.00000968 Ry

     iteration # 66     ecut=    80.00 Ry     beta= 0.20
     Davidson diagonalization with overlap
     ethr =  2.67E-09,  avg # of iterations =  1.0

     total cpu time spent up to now is     2976.1 secs

     total energy              =   -7568.84913881 Ry
     estimated scf accuracy    <       0.00001833 Ry

     iteration # 67     ecut=    80.00 Ry     beta= 0.20
     Davidson diagonalization with overlap
     ethr =  2.67E-09,  avg # of iterations =  1.0

     total cpu time spent up to now is     2984.8 secs

     End of self-consistent calculation

          k = 0.0000 0.0000 0.0000 ( 24267 PWs)   bands (ev):

   -90.1887 -90.1864 -90.1261 -90.1212 -90.1162 -90.0868 -90.0802 -90.0664
   -90.0646 -90.0488 -90.0476 -90.0307 -90.0294 -89.8393 -89.8177 -62.3298
   -62.3277 -62.3274 -62.3238 -62.2813 -62.2781 -62.2613 -62.2575 -50.8085
   -50.7983 -50.7482 -50.6927 -50.6515 -50.6071 -50.6044 -50.5862 -50.5820
   -50.5714 -50.5668 -50.5546 -50.5541 -50.5233 -50.5117 -50.4977 -50.4917
   -50.4644 -50.4600 -50.4478 -50.4437 -50.4377 -50.4332 -50.4304 -50.4190
   -50.4103 -50.4078 -50.4063 -50.4057 -50.4051 -50.3968 -50.3575 -50.3498
   -50.3480 -50.3473 -50.3452 -50.3247 -50.3219 -50.2875 -50.2833 -50.2729
   -50.2709 -50.2576 -50.0177 -49.9993 -29.1020 -29.0996 -29.0977 -29.0933
   -29.0885 -29.0881 -29.0847 -29.0838 -29.0792 -29.0760 -29.0738 -29.0705
   -29.0499 -29.0481 -29.0341 -29.0306 -29.0292 -29.0271 -29.0171 -29.0158
   -29.0132 -29.0121 -29.0121 -29.0099   4.4144   4.9736   5.3430   6.8153
     7.2087   8.4437   8.4556   8.8871   9.1523   9.2654   9.3932   9.4809
     9.4971   9.4994   9.5162   9.5209   9.5549   9.6966   9.7060   9.7581
     9.8200   9.8248   9.8977   9.9714  10.0054  10.2356  10.2766  10.2872
    10.2967  10.3332  10.3615  10.3705  10.3906  10.4722  10.5729  10.7705
    10.8151  10.8485  10.8565  10.9297  10.9991  11.0029  11.0712  11.1187
    11.4367  11.4485  11.5820  11.6831  11.6867  11.7610  11.7854  11.7861
    11.9077  11.9631  11.9951  12.0791  12.1396  12.1525  12.1672  12.1691
    12.1739  12.1751  12.1921  12.1935  12.2016  12.2275  12.2633  12.2667
    12.2680  12.3035  12.3100  12.3154  12.3367  12.4817  12.6251  12.7401
    12.8336  12.9170  13.0651  13.2746  13.2964  13.2991  13.7739  13.8043
    13.9845  13.9889  14.0094  14.0846  14.0930  14.1481  14.3770  14.3833
    14.4258  15.3143  15.4098  15.7672  15.7952  15.8277  16.1573  16.3225
    16.3994  16.8661  16.8896  17.3290  17.4165  17.5279  17.6815  17.7494
    17.9066  18.4411  18.5569  18.7769  19.0412  19.1953  19.6420  19.6679
    19.6852  19.9456

          k =-0.0004 0.3818 0.0005 ( 24221 PWs)   bands (ev):

   -90.1883 -90.1862 -90.1231 -90.1180 -90.1098 -90.0936 -90.0802 -90.0696
   -90.0681 -90.0488 -90.0475 -90.0306 -90.0293 -89.8393 -89.8177 -62.3297
   -62.3276 -62.3273 -62.3237 -62.2814 -62.2782 -62.2613 -62.2575 -50.7759
   -50.7680 -50.7069 -50.6897 -50.6609 -50.6236 -50.6191 -50.5786 -50.5735
   -50.5613 -50.5577 -50.5565 -50.5333 -50.5304 -50.5058 -50.5054 -50.4859
   -50.4559 -50.4545 -50.4447 -50.4414 -50.4339 -50.4324 -50.4318 -50.4279
   -50.4221 -50.4189 -50.4089 -50.4081 -50.4072 -50.3997 -50.3727 -50.3707
   -50.3690 -50.3588 -50.3570 -50.3340 -50.3318 -50.2875 -50.2833 -50.2728
   -50.2708 -50.2575 -50.0179 -49.9989 -29.1028 -29.1003 -29.0985 -29.0940
   -29.0889 -29.0877 -29.0846 -29.0840 -29.0779 -29.0761 -29.0734 -29.0713
   -29.0502 -29.0481 -29.0332 -29.0298 -29.0295 -29.0275 -29.0179 -29.0151
   -29.0141 -29.0114 -29.0113 -29.0090   5.4192   5.9612   6.2772   7.6327
     7.9547   8.1278   8.4093   8.6886   9.0217   9.0625   9.2655   9.2752
     9.4241   9.5304   9.5659   9.5758   9.6966   9.7321   9.8291   9.8355
     9.8591  10.0522  10.1127  10.1239  10.1448  10.2128  10.2677  10.2792
    10.3114  10.3727  10.3791  10.4473  10.5042  10.5308  10.5504  10.6000
    10.6618  10.7413  10.7849  10.8161  10.9427  10.9532  10.9586  10.9930
    11.0424  11.0756  11.0960  11.1854  11.3019  11.3588  11.3911  11.4365
    11.4559  11.5744  11.5847  11.6757  11.6995  11.7492  11.7528  11.7616
    11.8458  11.8573  11.9074  11.9698  11.9990  12.0203  12.0835  12.1266
    12.1862  12.1970  12.2175  12.2547  12.2609  12.2820  12.2961  12.3618
    12.3952  12.4750  12.5413  12.5670  12.6462  12.6709  12.8303  13.1099
    13.1161  13.4817  13.4901  13.6181  13.9266  13.9296  14.0882  14.1572
    14.2812  14.3760  14.4566  15.1178  15.6587  16.1884  16.2641  17.4755
    17.6758  17.9407  18.1176  18.7080  18.8094  19.0458  19.0876  19.1013
    19.2297  19.7158  20.2062  20.3074  20.3146  20.9449  20.9983  21.2679
    21.7419  22.0857

          k = 0.3295 0.1909-0.0017 ( 24222 PWs)   bands (ev):

   -90.1883 -90.1862 -90.1244 -90.1193 -90.1116 -90.0878 -90.0841 -90.0630
   -90.0616 -90.0542 -90.0528 -90.0304 -90.0291 -89.8347 -89.8223 -62.3297
   -62.3276 -62.3273 -62.3237 -62.2814 -62.2782 -62.2613 -62.2575 -50.7810
   -50.7738 -50.7117 -50.6887 -50.6542 -50.6068 -50.6048 -50.5828 -50.5797
   -50.5677 -50.5583 -50.5533 -50.5354 -50.5230 -50.5151 -50.4986 -50.4913
   -50.4589 -50.4483 -50.4422 -50.4375 -50.4367 -50.4327 -50.4263 -50.4251
   -50.4240 -50.4171 -50.4119 -50.4022 -50.3940 -50.3920 -50.3742 -50.3683
   -50.3653 -50.3595 -50.3578 -50.3381 -50.3342 -50.3133 -50.2860 -50.2832
   -50.2702 -50.2609 -50.0137 -50.0032 -29.1021 -29.0996 -29.0983 -29.0939
   -29.0890 -29.0877 -29.0851 -29.0835 -29.0793 -29.0764 -29.0747 -29.0714
   -29.0492 -29.0473 -29.0342 -29.0308 -29.0287 -29.0265 -29.0173 -29.0158
   -29.0134 -29.0122 -29.0113 -29.0090   5.4170   5.9545   6.3101   7.7183
     7.9552   8.0983   8.3870   8.6109   9.0155   9.0593   9.2761   9.4010
     9.4524   9.4584   9.5961   9.7009   9.7053   9.7556   9.8275   9.8323
     9.8809  10.0784  10.0889  10.1298  10.1758  10.2438  10.2781  10.3377
    10.3646  10.3687  10.4469  10.4844  10.5117  10.5380  10.5837  10.6859
    10.7002  10.7521  10.7685  10.8528  10.8577  10.9002  10.9517  10.9850
    11.0699  11.1131  11.1285  11.2141  11.2601  11.3448  11.3595  11.3998
    11.4073  11.5277  11.5616  11.5952  11.6289  11.6769  11.7360  11.7549
    11.7743  11.7876  11.8617  11.9173  11.9515  11.9986  12.0030  12.0274
    12.0825  12.1656  12.1761  12.1998  12.2412  12.2867  12.2979  12.3354
    12.3545  12.3771  12.4555  12.4843  12.6540  12.6624  12.8155  12.9886
    13.0998  13.5833  13.6594  13.8102  13.9185  13.9591  14.0994  14.1928
    14.2500  14.6275  14.9996  15.3926  15.7053  15.8774  16.0190  17.2761
    17.7797  17.8861  17.9605  18.7778  18.8879  18.9188  19.2074  19.2808
    19.2931  19.8156  20.2372  20.2606  20.3437  20.8672  20.9814  21.2064
    21.7319  22.0149

          k = 0.3291 0.5726-0.0012 ( 24155 PWs)   bands (ev):

   -90.1882 -90.1861 -90.1229 -90.1177 -90.1068 -90.0945 -90.0825 -90.0655
   -90.0640 -90.0533 -90.0521 -90.0303 -90.0290 -89.8347 -89.8223 -62.3296
   -62.3276 -62.3272 -62.3237 -62.2814 -62.2783 -62.2614 -62.2576 -50.7598
   -50.7562 -50.6870 -50.6852 -50.6453 -50.6311 -50.6212 -50.5810 -50.5733
   -50.5686 -50.5560 -50.5518 -50.5273 -50.5259 -50.5117 -50.4944 -50.4900
   -50.4534 -50.4505 -50.4432 -50.4397 -50.4379 -50.4340 -50.4306 -50.4253
   -50.4244 -50.4154 -50.4064 -50.4004 -50.3933 -50.3923 -50.3914 -50.3676
   -50.3657 -50.3640 -50.3622 -50.3547 -50.3524 -50.3132 -50.2860 -50.2830
   -50.2701 -50.2609 -50.0138 -50.0028 -29.1025 -29.1000 -29.0988 -29.0941
   -29.0900 -29.0869 -29.0859 -29.0827 -29.0784 -29.0758 -29.0752 -29.0719
   -29.0493 -29.0472 -29.0341 -29.0308 -29.0285 -29.0263 -29.0181 -29.0148
   -29.0143 -29.0111 -29.0111 -29.0088   6.9851   7.2688   7.4827   7.5454
     7.6177   7.9532   8.0721   8.0822   8.3326   8.9755   9.0245   9.0754
     9.1091   9.1411   9.4940   9.6514   9.8322   9.8869   9.9185   9.9456
    10.0138  10.0969  10.1879  10.2184  10.2243  10.2484  10.3291  10.3399
    10.4141  10.4267  10.4453  10.4685  10.4727  10.5115  10.5331  10.5662
    10.5994  10.6629  10.6742  10.6832  10.7168  10.7309  10.8028  10.9027
    10.9319  10.9697  11.0028  11.0749  11.2084  11.2103  11.2433  11.2993
    11.3219  11.3518  11.4047  11.4910  11.4998  11.5772  11.6038  11.6514
    11.7175  11.7641  11.8262  11.8313  11.8412  11.8839  11.9098  11.9206
    11.9429  11.9626  12.0161  12.0187  12.0421  12.1096  12.2263  12.2913
    12.3290  12.3474  12.4709  12.4725  12.4838  12.5514  12.6676  12.7152
    12.7441  12.8195  12.9345  13.1403  13.2437  13.2708  14.6223  14.6799
    14.6923  14.8367  15.2543  15.6243  17.3681  17.5346  17.6539  17.7998
    17.8994  18.5118  18.5304  18.5480  18.6331  18.7126  19.0073  19.2958
    19.5127  19.5663  19.6100  20.3716  20.4458  20.8359  20.8666  20.9741
    21.6421  22.8782

          k = 0.3298-0.1909-0.0022 ( 24223 PWs)   bands (ev):

   -90.1883 -90.1862 -90.1243 -90.1193 -90.1113 -90.0892 -90.0830 -90.0635
   -90.0617 -90.0538 -90.0528 -90.0304 -90.0291 -89.8347 -89.8223 -62.3297
   -62.3276 -62.3273 -62.3237 -62.2814 -62.2782 -62.2613 -62.2575 -50.7803
   -50.7733 -50.7111 -50.6890 -50.6545 -50.6075 -50.6044 -50.5815 -50.5803
   -50.5685 -50.5585 -50.5535 -50.5348 -50.5246 -50.5139 -50.5004 -50.4899
   -50.4585 -50.4478 -50.4421 -50.4380 -50.4368 -50.4329 -50.4267 -50.4246
   -50.4240 -50.4170 -50.4120 -50.4022 -50.3939 -50.3920 -50.3744 -50.3692
   -50.3659 -50.3602 -50.3576 -50.3364 -50.3345 -50.3133 -50.2860 -50.2831
   -50.2702 -50.2609 -50.0137 -50.0032 -29.1023 -29.0997 -29.0982 -29.0939
   -29.0893 -29.0875 -29.0854 -29.0832 -29.0793 -29.0764 -29.0747 -29.0714
   -29.0492 -29.0473 -29.0342 -29.0308 -29.0287 -29.0265 -29.0174 -29.0157
   -29.0137 -29.0119 -29.0113 -29.0090   5.4191   5.9566   6.3115   7.7196
     7.9566   8.1031   8.3903   8.6125   9.0153   9.0617   9.2819   9.4028
     9.4537   9.4585   9.5972   9.7018   9.7040   9.7527   9.8278   9.8325
     9.8784  10.0811  10.0874  10.1327  10.1751  10.2434  10.2759  10.3355
    10.3632  10.3664  10.4452  10.4841  10.5110  10.5373  10.5865  10.6846
    10.6997  10.7523  10.7674  10.8524  10.8558  10.8992  10.9554  10.9874
    11.0698  11.1111  11.1302  11.2109  11.2585  11.3457  11.3586  11.3976
    11.4091  11.5268  11.5624  11.5956  11.6316  11.6754  11.7377  11.7554
    11.7727  11.7867  11.8609  11.9104  11.9515  12.0000  12.0036  12.0264
    12.0868  12.1633  12.1746  12.1989  12.2414  12.2860  12.2986  12.3352
    12.3542  12.3737  12.4556  12.4847  12.6566  12.6625  12.8152  12.9867
    13.1010  13.5811  13.6610  13.8062  13.9166  13.9529  14.0914  14.1880
    14.2434  14.6228  14.9892  15.3924  15.7040  15.8813  16.0166  17.2722
    17.7769  17.8830  17.9623  18.7754  18.8894  18.9146  19.1998  19.2795
    19.2900  19.8187  20.2352  20.2601  20.3413  20.8663  20.9814  21.2175
    21.7317  22.0263

     the Fermi energy is    12.8488 ev

!    total energy              =   -7568.84913315 Ry
     total all-electron energy =    -48829.492895 Ry
     estimated scf accuracy    <       0.00000714 Ry
     smearing contrib. (-TS)   =       0.09486326 Ry
     internal energy E=F+TS    =   -7568.94399641 Ry

     The total energy is F=E-TS. E is the sum of the following terms:
     one-electron contribution =   -4489.09442306 Ry
     hartree contribution      =    2388.86356598 Ry
     xc contribution           =    -656.39600478 Ry
     ewald contribution        =   -3326.36556505 Ry
     one-center paw contrib.   =   -1485.95156950 Ry

     convergence has been achieved in  67 iterations

     Forces acting on atoms (cartesian axes, Ry/au):

     atom    1 type  1   force =     0.00046287    0.00076088    0.00117100
     atom    2 type  1   force =    -0.00006909   -0.00086176    0.00164607
     atom    3 type  1   force =    -0.00034954   -0.00075147   -0.00118897
     atom    4 type  1   force =    -0.00029534    0.00100597    0.00108145
     atom    5 type  1   force =    -0.00108839    0.00098434    0.00003809
     atom    6 type  1   force =     0.00029275    0.00177092    0.00382392
     atom    7 type  1   force =     0.00013548   -0.00112708   -0.00305144
     atom    8 type  1   force =    -0.00136725   -0.00074770    0.00056160
     atom    9 type  2   force =    -0.00016460    0.00378295   -0.00377364
     atom   10 type  2   force =     0.00045417   -0.00099362   -0.00274768
     atom   11 type  2   force =     0.00083264   -0.00207686   -0.00027553
     atom   12 type  2   force =    -0.00088190    0.00193765    0.00267562
     atom   13 type  2   force =    -0.00252466    0.00282067    0.00149900
     atom   14 type  2   force =     0.00045802   -0.00365732   -0.00023060
     atom   15 type  2   force =    -0.00098888    0.00135131    0.00101970
     atom   16 type  2   force =     0.00197205    0.00011224   -0.00080960
     atom   17 type  2   force =     0.00447304    0.00252226   -0.00001531
     atom   18 type  2   force =    -0.00010942   -0.00002650   -0.00363229
     atom   19 type  2   force =    -0.00235533   -0.00072544    0.00265610
     atom   20 type  2   force =    -0.00052536   -0.00245382    0.00253889
     atom   21 type  2   force =    -0.00025949   -0.00203312   -0.00285173
     atom   22 type  2   force =     0.00230036   -0.00091926    0.00194034
     atom   23 type  2   force =    -0.00040214   -0.00067522   -0.00207500
     The non-local contrib.  to forces
     atom    1 type  1   force =     0.00317862    0.04670450    0.01298410
     atom    2 type  1   force =    -0.00000736    0.00048038    0.01909220
     atom    3 type  1   force =    -0.00283345    0.00292761   -0.01293776
     atom    4 type  1   force =    -0.00092902    0.05205966   -0.00416834
     atom    5 type  1   force =    -0.00727788   -0.00166372   -0.00416648
     atom    6 type  1   force =    -0.00099464   -0.02013444    0.01115294
     atom    7 type  1   force =    -0.00226213   -0.03439632   -0.00656526
     atom    8 type  1   force =    -0.00876699   -0.00978968    0.00863253
     atom    9 type  2   force =    -0.00189350   -0.11440155    0.04054520
     atom   10 type  2   force =    -0.00235168    0.02768173    0.05224843
     atom   11 type  2   force =    -0.02259641    0.04326140   -0.04655491
     atom   12 type  2   force =     0.01988325   -0.09776282   -0.03972347
     atom   13 type  2   force =     0.07668002   -0.09364404   -0.00184916
     atom   14 type  2   force =    -0.01532635    0.07971731    0.00558531
     atom   15 type  2   force =    -0.14618549    0.12640631    0.00647531
     atom   16 type  2   force =     0.13135946    0.15582101    0.00756161
     atom   17 type  2   force =    -0.10434655   -0.06184149    0.00851983
     atom   18 type  2   force =     0.00074937    0.05482826    0.07527722
     atom   19 type  2   force =    -0.01505278    0.02460189    0.01262415
     atom   20 type  2   force =    -0.00444998    0.05326086   -0.06644439
     atom   21 type  2   force =    -0.00852736    0.02728995   -0.00617753
     atom   22 type  2   force =     0.00680242    0.02698916    0.01421961
     atom   23 type  2   force =     0.01452001    0.02547385   -0.00730209
     The ionic contribution  to forces
     atom    1 type  1   force =     0.01994063    3.04623619  -22.43046077
     atom    2 type  1   force =     0.05820410    0.04222968    9.29951334
     atom    3 type  1   force =    -0.08605028    0.10012495   -9.29233854
     atom    4 type  1   force =     0.04518953    3.10006437   22.70577095
     atom    5 type  1   force =    -0.21706897   -0.06544606   -5.97225796
     atom    6 type  1   force =     0.05435576   -0.17736224   19.10557536
     atom    7 type  1   force =    -0.11100959   -0.53534773  -18.83063635
     atom    8 type  1   force =    -0.26593632   -0.30388352    6.02189644
     atom    9 type  2   force =    -0.23800478  -10.15072711  -42.26623093
     atom   10 type  2   force =     0.26333128    0.11097600   13.75903597
     atom   11 type  2   force =    -0.04751314    0.14247607  -14.23477943
     atom   12 type  2   force =     0.18316132  -10.59493484   42.18537123
     atom   13 type  2   force =    10.87743556   -6.03435238   -0.24171072
     atom   14 type  2   force =     0.22508272   12.25011621    0.08261249
     atom   15 type  2   force =   -11.64720077    8.08080406    0.28285419
     atom   16 type  2   force =    11.70231384    8.42336028   -0.04531525
     atom   17 type  2   force =   -10.80104123   -6.02602940    0.18915037
     atom   18 type  2   force =    -0.15699395    0.17083442  -27.67498767
     atom   19 type  2   force =    -0.94916275   -0.32312840   28.69701441
     atom   20 type  2   force =     0.10591873   -0.23361490   27.59856470
     atom   21 type  2   force =    -0.68858381   -0.37073572  -28.86724901
     atom   22 type  2   force =     1.09891466   -0.25642464   28.61373996
     atom   23 type  2   force =     0.57471745   -0.39523529  -28.68513279
     The local contribution  to forces
     atom    1 type  1   force =    -0.02273494   -3.09201870   22.41910774
     atom    2 type  1   force =    -0.05829849   -0.04344060   -9.31266412
     atom    3 type  1   force =     0.08845694   -0.10371946    9.30023967
     atom    4 type  1   force =    -0.04463431   -3.15086809  -22.70070272
     atom    5 type  1   force =     0.22310571    0.06799959    5.97293659
     atom    6 type  1   force =    -0.05309577    0.19918351  -19.11385985
     atom    7 type  1   force =     0.11334406    0.56856681   18.83495536
     atom    8 type  1   force =     0.27313444    0.31289652   -6.02674748
     atom    9 type  2   force =     0.23947721   10.26518461   42.23447411
     atom   10 type  2   force =    -0.26070051   -0.13861979  -13.79886727
     atom   11 type  2   force =     0.06899923   -0.18502509   14.26605711
     atom   12 type  2   force =    -0.20213965   10.69245083  -42.15603622
     atom   13 type  2   force =   -10.95532227    6.12655893    0.24402084
     atom   14 type  2   force =    -0.21136154  -12.33275742   -0.08918905
     atom   15 type  2   force =    11.78969692   -8.20376607   -0.28867028
     atom   16 type  2   force =   -11.82983534   -8.57547413    0.03743771
     atom   17 type  2   force =    10.90698028    6.08829918   -0.19855966
     atom   18 type  2   force =     0.15618792   -0.22169123   27.60015150
     atom   19 type  2   force =     0.96060830    0.29946513  -28.70187862
     atom   20 type  2   force =    -0.10247473    0.18187414  -27.53117682
     atom   21 type  2   force =     0.69675722    0.34343730   28.86865402
     atom   22 type  2   force =    -1.10224123    0.23057843  -28.62071609
     atom   23 type  2   force =    -0.58906443    0.37051395   28.68735400
     The core correction contribution to forces
     atom    1 type  1   force =    -0.00001234   -0.00015613   -0.00012243
     atom    2 type  1   force =    -0.00000167    0.00000421   -0.00010964
     atom    3 type  1   force =     0.00001394   -0.00000997    0.00008586
     atom    4 type  1   force =     0.00000886   -0.00017993    0.00007886
     atom    5 type  1   force =     0.00003437    0.00000195    0.00002978
     atom    6 type  1   force =     0.00000188    0.00006187    0.00000113
     atom    7 type  1   force =     0.00000632    0.00013148   -0.00002026
     atom    8 type  1   force =     0.00004318    0.00003847   -0.00004970
     atom    9 type  2   force =     0.00013002    0.00203826   -0.00861634
     atom   10 type  2   force =     0.00014378   -0.00137359   -0.00691035
     atom   11 type  2   force =     0.00137680   -0.00216806    0.00647764
     atom   12 type  2   force =    -0.00122620    0.00101073    0.00854357
     atom   13 type  2   force =    -0.00180572    0.00424871   -0.00020762
     atom   14 type  2   force =     0.00113123   -0.00177382   -0.00020146
     atom   15 type  2   force =     0.00352004   -0.00221816   -0.00048239
     atom   16 type  2   force =    -0.00272376   -0.00360962   -0.00039663
     atom   17 type  2   force =     0.00343321    0.00228598   -0.00033848
     atom   18 type  2   force =    -0.00009199   -0.00347898   -0.00572131
     atom   19 type  2   force =     0.00084479   -0.00137105   -0.00027165
     atom   20 type  2   force =     0.00042086   -0.00328692    0.00539411
     atom   21 type  2   force =     0.00057078   -0.00147404   -0.00022744
     atom   22 type  2   force =    -0.00032495   -0.00137729   -0.00022771
     atom   23 type  2   force =    -0.00078186   -0.00159727   -0.00000311
     The Hubbard contrib.    to forces
     atom    1 type  1   force =     0.00000000    0.00000000    0.00000000
     atom    2 type  1   force =     0.00000000    0.00000000    0.00000000
     atom    3 type  1   force =     0.00000000    0.00000000    0.00000000
     atom    4 type  1   force =     0.00000000    0.00000000    0.00000000
     atom    5 type  1   force =     0.00000000    0.00000000    0.00000000
     atom    6 type  1   force =     0.00000000    0.00000000    0.00000000
     atom    7 type  1   force =     0.00000000    0.00000000    0.00000000
     atom    8 type  1   force =     0.00000000    0.00000000    0.00000000
     atom    9 type  2   force =     0.00000000    0.00000000    0.00000000
     atom   10 type  2   force =     0.00000000    0.00000000    0.00000000
     atom   11 type  2   force =     0.00000000    0.00000000    0.00000000
     atom   12 type  2   force =     0.00000000    0.00000000    0.00000000
     atom   13 type  2   force =     0.00000000    0.00000000    0.00000000
     atom   14 type  2   force =     0.00000000    0.00000000    0.00000000
     atom   15 type  2   force =     0.00000000    0.00000000    0.00000000
     atom   16 type  2   force =     0.00000000    0.00000000    0.00000000
     atom   17 type  2   force =     0.00000000    0.00000000    0.00000000
     atom   18 type  2   force =     0.00000000    0.00000000    0.00000000
     atom   19 type  2   force =     0.00000000    0.00000000    0.00000000
     atom   20 type  2   force =     0.00000000    0.00000000    0.00000000
     atom   21 type  2   force =     0.00000000    0.00000000    0.00000000
     atom   22 type  2   force =     0.00000000    0.00000000    0.00000000
     atom   23 type  2   force =     0.00000000    0.00000000    0.00000000
     The SCF correction term to forces
     atom    1 type  1   force =     0.00000663    0.00000181   -0.00031557
     atom    2 type  1   force =    -0.00004993   -0.00012864   -0.00416364
     atom    3 type  1   force =    -0.00002094   -0.00006782    0.00378387
     atom    4 type  1   force =    -0.00001466   -0.00006325    0.00012476
     atom    5 type  1   force =     0.00003412    0.00009936    0.00351822
     atom    6 type  1   force =    -0.00005873    0.00002901    0.00097642
     atom    7 type  1   force =    -0.00002744   -0.00007453   -0.00076287
     atom    8 type  1   force =     0.00007418   -0.00000271   -0.00314813
     atom    9 type  2   force =     0.00004219    0.00169552   -0.00392360
     atom   10 type  2   force =    -0.00005296    0.00034882   -0.00823239
     atom   11 type  2   force =     0.00048190   -0.00061440    0.00854611
     atom   12 type  2   force =    -0.00064487    0.00118054    0.00454258
     atom   13 type  2   force =     0.00040348    0.00001623    0.00126773
     atom   14 type  2   force =     0.00084768    0.00104718    0.00098417
     atom   15 type  2   force =    -0.00090385    0.00013196    0.00086494
     atom   16 type  2   force =     0.00077358    0.00002148   -0.00007497
     atom   17 type  2   force =    -0.00063693   -0.00018522    0.00123469
     atom   18 type  2   force =    -0.00004503   -0.00051218    0.00167004
     atom   19 type  2   force =     0.00032286   -0.00028623   -0.00481011
     atom   20 type  2   force =    -0.00002450   -0.00068022   -0.00377665
     atom   21 type  2   force =    -0.00056058   -0.00054383    0.00217029
     atom   22 type  2   force =    -0.00093480   -0.00067813   -0.00505338
     atom   23 type  2   force =     0.00012243    0.00017632    0.00303106

     Total force =     0.015121     Total SCF correction =     0.018142
     SCF correction compared to forces is large: reduce conv_thr to get better values


     Computing stress (Cartesian axis) and pressure

          total   stress  (Ry/bohr**3)                   (kbar)     P=       -4.36
  -0.00002827  -0.00000328  -0.00000617           -4.16       -0.48       -0.91
  -0.00000328  -0.00002777   0.00000051           -0.48       -4.08        0.08
  -0.00000617   0.00000051  -0.00003291           -0.91        0.08       -4.84

     Energy error            =      9.5E-04 Ry
     Gradient error          =      4.5E-03 Ry/Bohr
     Cell gradient error     =      4.8E+00 kbar

     number of scf cycles    =   4
     number of bfgs steps    =   3

     enthalpy           old  =   -7568.8481874465 Ry
     enthalpy           new  =   -7568.8491331471 Ry

     CASE: enthalpy          _new < enthalpy          _old

     new trust radius        =       0.0185887587 bohr
     new conv_thr            =       0.0000044730 Ry

     new unit-cell volume =   2044.49894 a.u.^3 (   302.96348 Ang^3 )
     density =      5.89119 g/cm^3

CELL_PARAMETERS (angstrom)
   4.748913527   0.002246932  -0.019813509
  -2.376495435   4.097153661   0.015121666
   0.079243877  -0.020878000  15.566272764

ATOMIC_POSITIONS (crystal)
Mg            0.9991873950        0.9993592850        0.4057474262
Mg            0.0001782892       -0.0005041502        0.9070810675
Mg            0.9994734266        0.9983995651        0.5924235680
Mg            0.9992616292        0.9976872783        0.0934253663
Mg            0.3323554627        0.6644141095        0.6559041025
Mg            0.6658890462        0.3332086894        0.1569916939
Mg            0.6673401929        0.3355973243        0.3426212721
Mg            0.3338765384        0.6660532680        0.8438348525
Ni            0.3358477786        0.6725451414        0.3730743338
Ni            0.6659380226        0.3311119482        0.8752252793
Ni            0.6645532642        0.3312923312        0.6249149188
Ni            0.3365918215        0.6727608538        0.1269180991
Ni            0.8324819764        0.1613872065        0.7496321347
Ni            0.8345013406        0.6699164369        0.7500262974
Ni            0.1581989304        0.8300408867        0.2499088107
Ni            0.6714262279        0.8327822318        0.2498684921
Ni            0.3258195156        0.1615172613        0.7501288380
Ni            0.4985821596        0.9974902360        0.4995675616
Ni            0.5000908520        0.4987080649        0.0004976244
Ni            0.4997284874       -0.0021464511        1.0004478054
Ni            0.4991698078        0.4983969691        0.4992319879
Ni           -0.0006463703        0.4986938458        0.0004964476
Ni            0.9989782055        0.4978976681        0.4994040201



     Writing config-only to output data dir ./C36/out_logs/C36_out_8/laves_C36.save/
     NEW-OLD atomic charge density approx. for the potential

     Check: negative core charge=   -0.000010
     extrapolated charge  349.38875, renormalised to  350.00000

     total cpu time spent up to now is     3009.9 secs

     Self-consistent Calculation

     iteration #  1     ecut=    80.00 Ry     beta= 0.20
     Davidson diagonalization with overlap
     ethr =  1.00E-06,  avg # of iterations = 11.0

     total cpu time spent up to now is     3033.0 secs

     total energy              =   -7568.24119733 Ry
     estimated scf accuracy    <       5.83559403 Ry

     iteration #  2     ecut=    80.00 Ry     beta= 0.20
     Davidson diagonalization with overlap
     ethr =  1.67E-03,  avg # of iterations =  3.0

     total cpu time spent up to now is     3043.3 secs

     total energy              =   -7564.82775916 Ry
     estimated scf accuracy    <     186.45717862 Ry

     iteration #  3     ecut=    80.00 Ry     beta= 0.20
     Davidson diagonalization with overlap
     ethr =  1.67E-03,  avg # of iterations =  3.0

     total cpu time spent up to now is     3053.4 secs

     total energy              =   -7567.93413919 Ry
     estimated scf accuracy    <      21.19644339 Ry

     iteration #  4     ecut=    80.00 Ry     beta= 0.20
     Davidson diagonalization with overlap
     ethr =  1.67E-03,  avg # of iterations =  1.6

     total cpu time spent up to now is     3062.8 secs

     total energy              =   -7568.00741252 Ry
     estimated scf accuracy    <      34.30016743 Ry

     iteration #  5     ecut=    80.00 Ry     beta= 0.20
     Davidson diagonalization with overlap
     ethr =  1.67E-03,  avg # of iterations =  1.0

     total cpu time spent up to now is     3071.5 secs

     total energy              =   -7568.81971925 Ry
     estimated scf accuracy    <       1.52226215 Ry

     iteration #  6     ecut=    80.00 Ry     beta= 0.20
     Davidson diagonalization with overlap
     ethr =  4.35E-04,  avg # of iterations =  1.0

     total cpu time spent up to now is     3080.2 secs

     total energy              =   -7568.79292622 Ry
     estimated scf accuracy    <       2.71869203 Ry

     iteration #  7     ecut=    80.00 Ry     beta= 0.20
     Davidson diagonalization with overlap
     ethr =  4.35E-04,  avg # of iterations =  1.0

     total cpu time spent up to now is     3089.0 secs

     total energy              =   -7568.79818455 Ry
     estimated scf accuracy    <       5.23213982 Ry

     iteration #  8     ecut=    80.00 Ry     beta= 0.20
     Davidson diagonalization with overlap
     ethr =  4.35E-04,  avg # of iterations =  1.0

     total cpu time spent up to now is     3097.7 secs

     total energy              =   -7568.84971792 Ry
     estimated scf accuracy    <       0.40018419 Ry

     iteration #  9     ecut=    80.00 Ry     beta= 0.20
     Davidson diagonalization with overlap
     ethr =  1.14E-04,  avg # of iterations =  1.0

     total cpu time spent up to now is     3106.5 secs

     total energy              =   -7568.84849832 Ry
     estimated scf accuracy    <       0.13182627 Ry

     iteration # 10     ecut=    80.00 Ry     beta= 0.20
     Davidson diagonalization with overlap
     ethr =  3.77E-05,  avg # of iterations =  1.0

     total cpu time spent up to now is     3115.2 secs

     total energy              =   -7568.84781829 Ry
     estimated scf accuracy    <       0.04292275 Ry

     iteration # 11     ecut=    80.00 Ry     beta= 0.20
     Davidson diagonalization with overlap
     ethr =  1.23E-05,  avg # of iterations =  2.4

     total cpu time spent up to now is     3124.9 secs

     total energy              =   -7568.84742093 Ry
     estimated scf accuracy    <       0.01902706 Ry

     iteration # 12     ecut=    80.00 Ry     beta= 0.20
     Davidson diagonalization with overlap
     ethr =  5.44E-06,  avg # of iterations =  2.8

     total cpu time spent up to now is     3134.7 secs

     total energy              =   -7568.84707354 Ry
     estimated scf accuracy    <       0.01235220 Ry

     iteration # 13     ecut=    80.00 Ry     beta= 0.20
     Davidson diagonalization with overlap
     ethr =  3.53E-06,  avg # of iterations =  3.6

     total cpu time spent up to now is     3144.5 secs

     total energy              =   -7568.84700179 Ry
     estimated scf accuracy    <       0.01371229 Ry

     iteration # 14     ecut=    80.00 Ry     beta= 0.20
     Davidson diagonalization with overlap
     ethr =  3.53E-06,  avg # of iterations =  1.0

     total cpu time spent up to now is     3153.2 secs

     total energy              =   -7568.84732782 Ry
     estimated scf accuracy    <       0.02011853 Ry

     iteration # 15     ecut=    80.00 Ry     beta= 0.20
     Davidson diagonalization with overlap
     ethr =  3.53E-06,  avg # of iterations =  1.4

     total cpu time spent up to now is     3162.4 secs

     total energy              =   -7568.84704687 Ry
     estimated scf accuracy    <       0.02639936 Ry

     iteration # 16     ecut=    80.00 Ry     beta= 0.20
     Davidson diagonalization with overlap
     ethr =  3.53E-06,  avg # of iterations =  1.0

     total cpu time spent up to now is     3171.1 secs

     total energy              =   -7568.84770028 Ry
     estimated scf accuracy    <       0.00827033 Ry

     iteration # 17     ecut=    80.00 Ry     beta= 0.20
     Davidson diagonalization with overlap
     ethr =  2.36E-06,  avg # of iterations =  1.0

     total cpu time spent up to now is     3179.9 secs

     total energy              =   -7568.84805909 Ry
     estimated scf accuracy    <       0.01110932 Ry

     iteration # 18     ecut=    80.00 Ry     beta= 0.20
     Davidson diagonalization with overlap
     ethr =  2.36E-06,  avg # of iterations =  2.0

     total cpu time spent up to now is     3189.9 secs

     total energy              =   -7568.84892179 Ry
     estimated scf accuracy    <       0.02843205 Ry

     iteration # 19     ecut=    80.00 Ry     beta= 0.20
     Davidson diagonalization with overlap
     ethr =  2.36E-06,  avg # of iterations =  1.0

     total cpu time spent up to now is     3198.7 secs

     total energy              =   -7568.84859771 Ry
     estimated scf accuracy    <       0.02485683 Ry

     iteration # 20     ecut=    80.00 Ry     beta= 0.20
     Davidson diagonalization with overlap
     ethr =  2.36E-06,  avg # of iterations =  1.0

     total cpu time spent up to now is     3207.5 secs

     total energy              =   -7568.84830549 Ry
     estimated scf accuracy    <       0.01953857 Ry

     iteration # 21     ecut=    80.00 Ry     beta= 0.20
     Davidson diagonalization with overlap
     ethr =  2.36E-06,  avg # of iterations =  2.0

     total cpu time spent up to now is     3217.2 secs

     total energy              =   -7568.84771559 Ry
     estimated scf accuracy    <       0.08340565 Ry

     iteration # 22     ecut=    80.00 Ry     beta= 0.20
     Davidson diagonalization with overlap
     ethr =  2.36E-06,  avg # of iterations =  1.0

     total cpu time spent up to now is     3226.0 secs

     total energy              =   -7568.84899909 Ry
     estimated scf accuracy    <       0.00448245 Ry

     iteration # 23     ecut=    80.00 Ry     beta= 0.20
     Davidson diagonalization with overlap
     ethr =  1.28E-06,  avg # of iterations =  2.0

     total cpu time spent up to now is     3236.5 secs

     total energy              =   -7568.84932603 Ry
     estimated scf accuracy    <       0.01731187 Ry

     iteration # 24     ecut=    80.00 Ry     beta= 0.20
     Davidson diagonalization with overlap
     ethr =  1.28E-06,  avg # of iterations =  1.0

     total cpu time spent up to now is     3245.2 secs

     total energy              =   -7568.84919473 Ry
     estimated scf accuracy    <       0.00928045 Ry

     iteration # 25     ecut=    80.00 Ry     beta= 0.20
     Davidson diagonalization with overlap
     ethr =  1.28E-06,  avg # of iterations =  1.0

     total cpu time spent up to now is     3254.0 secs

     total energy              =   -7568.84938189 Ry
     estimated scf accuracy    <       0.00369903 Ry

     iteration # 26     ecut=    80.00 Ry     beta= 0.20
     Davidson diagonalization with overlap
     ethr =  1.06E-06,  avg # of iterations =  1.4

     total cpu time spent up to now is     3263.2 secs

     total energy              =   -7568.84912891 Ry
     estimated scf accuracy    <       0.01000242 Ry

     iteration # 27     ecut=    80.00 Ry     beta= 0.20
     Davidson diagonalization with overlap
     ethr =  1.06E-06,  avg # of iterations =  2.0

     total cpu time spent up to now is     3273.0 secs

     total energy              =   -7568.84935338 Ry
     estimated scf accuracy    <       0.00121701 Ry

     iteration # 28     ecut=    80.00 Ry     beta= 0.20
     Davidson diagonalization with overlap
     ethr =  3.48E-07,  avg # of iterations =  1.8

     total cpu time spent up to now is     3282.6 secs

     total energy              =   -7568.84942109 Ry
     estimated scf accuracy    <       0.00211544 Ry

     iteration # 29     ecut=    80.00 Ry     beta= 0.20
     Davidson diagonalization with overlap
     ethr =  3.48E-07,  avg # of iterations =  1.0

     total cpu time spent up to now is     3291.3 secs

     total energy              =   -7568.84941419 Ry
     estimated scf accuracy    <       0.00054739 Ry

     iteration # 30     ecut=    80.00 Ry     beta= 0.20
     Davidson diagonalization with overlap
     ethr =  1.56E-07,  avg # of iterations =  1.0

     total cpu time spent up to now is     3300.1 secs

     total energy              =   -7568.84944472 Ry
     estimated scf accuracy    <       0.00030431 Ry

     iteration # 31     ecut=    80.00 Ry     beta= 0.20
     Davidson diagonalization with overlap
     ethr =  8.69E-08,  avg # of iterations =  1.0

     total cpu time spent up to now is     3308.9 secs

     total energy              =   -7568.84946672 Ry
     estimated scf accuracy    <       0.00027267 Ry

     iteration # 32     ecut=    80.00 Ry     beta= 0.20
     Davidson diagonalization with overlap
     ethr =  7.79E-08,  avg # of iterations =  1.0

     total cpu time spent up to now is     3317.6 secs

     total energy              =   -7568.84948543 Ry
     estimated scf accuracy    <       0.00021518 Ry

     iteration # 33     ecut=    80.00 Ry     beta= 0.20
     Davidson diagonalization with overlap
     ethr =  6.15E-08,  avg # of iterations =  1.0

     total cpu time spent up to now is     3326.4 secs

     total energy              =   -7568.84951427 Ry
     estimated scf accuracy    <       0.00015207 Ry

     iteration # 34     ecut=    80.00 Ry     beta= 0.20
     Davidson diagonalization with overlap
     ethr =  4.34E-08,  avg # of iterations =  2.0

     total cpu time spent up to now is     3336.2 secs

     total energy              =   -7568.84952265 Ry
     estimated scf accuracy    <       0.00008088 Ry

     iteration # 35     ecut=    80.00 Ry     beta= 0.20
     Davidson diagonalization with overlap
     ethr =  2.31E-08,  avg # of iterations =  1.0

     total cpu time spent up to now is     3344.9 secs

     total energy              =   -7568.84951550 Ry
     estimated scf accuracy    <       0.00009823 Ry

     iteration # 36     ecut=    80.00 Ry     beta= 0.20
     Davidson diagonalization with overlap
     ethr =  2.31E-08,  avg # of iterations =  1.0

     total cpu time spent up to now is     3353.7 secs

     total energy              =   -7568.84951968 Ry
     estimated scf accuracy    <       0.00008238 Ry

     iteration # 37     ecut=    80.00 Ry     beta= 0.20
     Davidson diagonalization with overlap
     ethr =  2.31E-08,  avg # of iterations =  1.0

     total cpu time spent up to now is     3362.5 secs

     total energy              =   -7568.84952481 Ry
     estimated scf accuracy    <       0.00006533 Ry

     iteration # 38     ecut=    80.00 Ry     beta= 0.20
     Davidson diagonalization with overlap
     ethr =  1.87E-08,  avg # of iterations =  1.0

     total cpu time spent up to now is     3371.2 secs

     total energy              =   -7568.84952807 Ry
     estimated scf accuracy    <       0.00006902 Ry

     iteration # 39     ecut=    80.00 Ry     beta= 0.20
     Davidson diagonalization with overlap
     ethr =  1.87E-08,  avg # of iterations =  1.0

     total cpu time spent up to now is     3380.0 secs

     total energy              =   -7568.84953634 Ry
     estimated scf accuracy    <       0.00005273 Ry

     iteration # 40     ecut=    80.00 Ry     beta= 0.20
     Davidson diagonalization with overlap
     ethr =  1.51E-08,  avg # of iterations =  2.0

     total cpu time spent up to now is     3391.0 secs

     total energy              =   -7568.84954648 Ry
     estimated scf accuracy    <       0.00002682 Ry

     iteration # 41     ecut=    80.00 Ry     beta= 0.20
     Davidson diagonalization with overlap
     ethr =  7.66E-09,  avg # of iterations =  2.0

     total cpu time spent up to now is     3401.0 secs

     total energy              =   -7568.84954368 Ry
     estimated scf accuracy    <       0.00005013 Ry

     iteration # 42     ecut=    80.00 Ry     beta= 0.20
     Davidson diagonalization with overlap
     ethr =  7.66E-09,  avg # of iterations =  2.0

     total cpu time spent up to now is     3412.0 secs

     total energy              =   -7568.84955212 Ry
     estimated scf accuracy    <       0.00001452 Ry

     iteration # 43     ecut=    80.00 Ry     beta= 0.20
     Davidson diagonalization with overlap
     ethr =  4.15E-09,  avg # of iterations =  1.0

     total cpu time spent up to now is     3420.7 secs

     total energy              =   -7568.84955149 Ry
     estimated scf accuracy    <       0.00000834 Ry

     iteration # 44     ecut=    80.00 Ry     beta= 0.20
     Davidson diagonalization with overlap
     ethr =  2.38E-09,  avg # of iterations =  2.0

     total cpu time spent up to now is     3431.5 secs

     total energy              =   -7568.84955227 Ry
     estimated scf accuracy    <       0.00002523 Ry

     iteration # 45     ecut=    80.00 Ry     beta= 0.20
     Davidson diagonalization with overlap
     ethr =  2.38E-09,  avg # of iterations =  1.0

     total cpu time spent up to now is     3440.2 secs

     total energy              =   -7568.84955277 Ry
     estimated scf accuracy    <       0.00001113 Ry

     iteration # 46     ecut=    80.00 Ry     beta= 0.20
     Davidson diagonalization with overlap
     ethr =  2.38E-09,  avg # of iterations =  1.0

     total cpu time spent up to now is     3448.9 secs

     End of self-consistent calculation

          k = 0.0000 0.0000 0.0000 ( 24267 PWs)   bands (ev):

   -90.1614 -90.1594 -90.0991 -90.0961 -90.0907 -90.0614 -90.0549 -90.0368
   -90.0349 -90.0192 -90.0173 -90.0058 -90.0045 -89.8202 -89.7986 -62.2974
   -62.2956 -62.2952 -62.2931 -62.2469 -62.2448 -62.2294 -62.2274 -50.7811
   -50.7699 -50.7221 -50.6658 -50.6240 -50.5784 -50.5768 -50.5614 -50.5577
   -50.5444 -50.5379 -50.5283 -50.5269 -50.4968 -50.4859 -50.4706 -50.4655
   -50.4384 -50.4366 -50.4215 -50.4187 -50.4109 -50.4063 -50.4044 -50.3940
   -50.3849 -50.3809 -50.3805 -50.3786 -50.3766 -50.3721 -50.3323 -50.3210
   -50.3190 -50.3188 -50.3170 -50.2967 -50.2941 -50.2657 -50.2583 -50.2515
   -50.2492 -50.2393 -49.9983 -49.9800 -29.0695 -29.0671 -29.0666 -29.0620
   -29.0566 -29.0562 -29.0539 -29.0533 -29.0462 -29.0436 -29.0415 -29.0393
   -29.0166 -29.0153 -28.9997 -28.9972 -28.9955 -28.9942 -28.9852 -28.9840
   -28.9832 -28.9820 -28.9799 -28.9791   4.4359   4.9980   5.3605   6.8340
     7.2356   8.4669   8.4835   8.9089   9.1764   9.2881   9.4151   9.5054
     9.5224   9.5242   9.5415   9.5458   9.5817   9.7188   9.7288   9.7802
     9.8435   9.8464   9.9154   9.9948  10.0311  10.2493  10.2997  10.3082
    10.3218  10.3557  10.3807  10.3980  10.4158  10.4879  10.5932  10.7923
    10.8374  10.8678  10.8847  10.9577  11.0185  11.0296  11.0935  11.1411
    11.4624  11.4765  11.6107  11.7079  11.7110  11.7835  11.8091  11.8099
    11.9312  11.9939  12.0246  12.1030  12.1655  12.1820  12.1965  12.1972
    12.2021  12.2023  12.2201  12.2216  12.2282  12.2554  12.2906  12.2910
    12.2924  12.3331  12.3387  12.3390  12.3659  12.5093  12.6474  12.7705
    12.8654  12.9450  13.0914  13.3024  13.3267  13.3291  13.8127  13.8326
    14.0113  14.0126  14.0356  14.1143  14.1202  14.1839  14.4046  14.4100
    14.4468  15.3420  15.4330  15.7965  15.8273  15.8591  16.1921  16.3478
    16.4374  16.9001  16.9132  17.3626  17.4498  17.5649  17.7125  17.7812
    17.9366  18.4780  18.5860  18.8110  19.0814  19.2383  19.6800  19.7091
    19.7161  19.9853

          k =-0.0002 0.3820 0.0005 ( 24221 PWs)   bands (ev):

   -90.1610 -90.1593 -90.0962 -90.0931 -90.0844 -90.0681 -90.0550 -90.0399
   -90.0381 -90.0192 -90.0173 -90.0056 -90.0043 -89.8202 -89.7986 -62.2973
   -62.2955 -62.2951 -62.2930 -62.2470 -62.2449 -62.2295 -62.2275 -50.7482
   -50.7395 -50.6802 -50.6625 -50.6338 -50.5954 -50.5916 -50.5542 -50.5489
   -50.5349 -50.5296 -50.5275 -50.5060 -50.5041 -50.4788 -50.4784 -50.4591
   -50.4326 -50.4291 -50.4184 -50.4160 -50.4080 -50.4065 -50.4063 -50.4028
   -50.3968 -50.3938 -50.3843 -50.3801 -50.3779 -50.3750 -50.3440 -50.3439
   -50.3421 -50.3301 -50.3282 -50.3058 -50.3033 -50.2657 -50.2583 -50.2514
   -50.2491 -50.2392 -49.9985 -49.9795 -29.0703 -29.0678 -29.0674 -29.0627
   -29.0570 -29.0558 -29.0540 -29.0532 -29.0450 -29.0439 -29.0409 -29.0401
   -29.0168 -29.0153 -28.9989 -28.9965 -28.9959 -28.9946 -28.9860 -28.9840
   -28.9832 -28.9813 -28.9791 -28.9782   5.4420   5.9871   6.2952   7.6534
     7.9818   8.1523   8.4364   8.7126   9.0487   9.0856   9.2844   9.2994
     9.4460   9.5546   9.5899   9.5995   9.7212   9.7577   9.8550   9.8604
     9.8814  10.0723  10.1365  10.1461  10.1646  10.2333  10.2918  10.3039
    10.3309  10.3991  10.4029  10.4702  10.5248  10.5571  10.5717  10.6240
    10.6811  10.7656  10.8090  10.8395  10.9625  10.9797  10.9823  11.0168
    11.0670  11.1026  11.1240  11.2128  11.3278  11.3855  11.4136  11.4640
    11.4771  11.5974  11.6053  11.6990  11.7264  11.7749  11.7761  11.7878
    11.8731  11.8835  11.9299  11.9979  12.0243  12.0462  12.1120  12.1476
    12.2138  12.2251  12.2475  12.2805  12.2888  12.3074  12.3240  12.3893
    12.4220  12.5006  12.5700  12.5977  12.6711  12.6984  12.8637  13.1415
    13.1444  13.5161  13.5176  13.6433  13.9520  13.9542  14.1170  14.1851
    14.3057  14.4034  14.4832  15.1588  15.6970  16.2154  16.2992  17.5140
    17.7028  17.9809  18.1490  18.7398  18.8439  19.0830  19.1180  19.1394
    19.2615  19.7572  20.2455  20.3405  20.3539  20.9779  21.0370  21.3077
    21.7797  22.1268

          k = 0.3296 0.1912-0.0014 ( 24222 PWs)   bands (ev):

   -90.1610 -90.1593 -90.0974 -90.0944 -90.0862 -90.0622 -90.0591 -90.0334
   -90.0318 -90.0246 -90.0225 -90.0053 -90.0041 -89.8157 -89.8031 -62.2973
   -62.2955 -62.2951 -62.2930 -62.2470 -62.2449 -62.2295 -62.2275 -50.7532
   -50.7454 -50.6854 -50.6619 -50.6274 -50.5791 -50.5774 -50.5537 -50.5511
   -50.5417 -50.5317 -50.5263 -50.5094 -50.4967 -50.4891 -50.4722 -50.4644
   -50.4326 -50.4215 -50.4160 -50.4123 -50.4107 -50.4073 -50.4023 -50.4009
   -50.3993 -50.3928 -50.3863 -50.3764 -50.3660 -50.3641 -50.3492 -50.3399
   -50.3371 -50.3313 -50.3296 -50.3096 -50.3064 -50.2903 -50.2628 -50.2581
   -50.2505 -50.2423 -49.9944 -49.9839 -29.0698 -29.0672 -29.0670 -29.0626
   -29.0571 -29.0557 -29.0544 -29.0528 -29.0464 -29.0439 -29.0424 -29.0402
   -29.0159 -29.0145 -28.9999 -28.9975 -28.9950 -28.9935 -28.9855 -28.9839
   -28.9833 -28.9820 -28.9792 -28.9783   5.4399   5.9802   6.3287   7.7387
     7.9822   8.1228   8.4134   8.6328   9.0422   9.0836   9.3012   9.4242
     9.4740   9.4835   9.6213   9.7257   9.7297   9.7819   9.8520   9.8535
     9.9044  10.1028  10.1105  10.1491  10.1971  10.2678  10.3030  10.3607
    10.3890  10.3916  10.4681  10.5107  10.5339  10.5650  10.6035  10.7101
    10.7218  10.7743  10.7881  10.8752  10.8801  10.9240  10.9742  11.0099
    11.0924  11.1374  11.1517  11.2395  11.2816  11.3686  11.3831  11.4246
    11.4292  11.5516  11.5871  11.6209  11.6497  11.7005  11.7614  11.7813
    11.7977  11.8130  11.8867  11.9430  11.9764  12.0217  12.0312  12.0554
    12.1094  12.1963  12.2042  12.2286  12.2687  12.3136  12.3248  12.3626
    12.3826  12.4061  12.4836  12.5133  12.6829  12.6914  12.8452  13.0172
    13.1295  13.6124  13.6971  13.8371  13.9455  13.9841  14.1262  14.2198
    14.2789  14.6605  15.0211  15.4384  15.7405  15.9107  16.0465  17.3128
    17.8139  17.9138  18.0008  18.8079  18.9250  18.9593  19.2394  19.3156
    19.3220  19.8592  20.2764  20.2929  20.3824  20.9016  21.0215  21.2457
    21.7681  22.0582

          k = 0.3294 0.5731-0.0009 ( 24155 PWs)   bands (ev):

   -90.1608 -90.1592 -90.0959 -90.0929 -90.0813 -90.0692 -90.0571 -90.0357
   -90.0340 -90.0239 -90.0219 -90.0052 -90.0040 -89.8157 -89.8031 -62.2972
   -62.2955 -62.2950 -62.2929 -62.2471 -62.2449 -62.2295 -62.2276 -50.7321
   -50.7280 -50.6600 -50.6585 -50.6199 -50.6026 -50.5926 -50.5543 -50.5458
   -50.5413 -50.5291 -50.5236 -50.5006 -50.5001 -50.4850 -50.4673 -50.4634
   -50.4270 -50.4253 -50.4162 -50.4140 -50.4119 -50.4093 -50.4053 -50.4042
   -50.3989 -50.3911 -50.3812 -50.3744 -50.3671 -50.3653 -50.3635 -50.3388
   -50.3371 -50.3359 -50.3340 -50.3265 -50.3241 -50.2902 -50.2628 -50.2580
   -50.2504 -50.2423 -49.9944 -49.9835 -29.0701 -29.0677 -29.0675 -29.0628
   -29.0581 -29.0552 -29.0549 -29.0520 -29.0456 -29.0435 -29.0427 -29.0407
   -29.0159 -29.0144 -28.9998 -28.9975 -28.9948 -28.9934 -28.9862 -28.9842
   -28.9829 -28.9810 -28.9789 -28.9780   7.0092   7.2903   7.5053   7.5723
     7.6445   7.9723   8.0899   8.1044   8.3561   8.9994   9.0497   9.0980
     9.1345   9.1614   9.5171   9.6753   9.8534   9.9152   9.9401   9.9717
    10.0381  10.1217  10.2122  10.2449  10.2469  10.2727  10.3520  10.3638
    10.4383  10.4514  10.4692  10.4933  10.4974  10.5368  10.5593  10.5922
    10.6214  10.6835  10.6956  10.7088  10.7419  10.7544  10.8251  10.9229
    10.9556  10.9941  11.0221  11.0955  11.2301  11.2314  11.2668  11.3212
    11.3446  11.3788  11.4294  11.5093  11.5244  11.5990  11.6275  11.6718
    11.7448  11.7879  11.8518  11.8575  11.8675  11.9121  11.9351  11.9483
    11.9683  11.9921  12.0448  12.0457  12.0684  12.1339  12.2582  12.3188
    12.3575  12.3735  12.4991  12.5019  12.5120  12.5813  12.6962  12.7438
    12.7721  12.8472  12.9630  13.1740  13.2767  13.2980  14.6527  14.7133
    14.7247  14.8735  15.2970  15.6654  17.3989  17.5654  17.6874  17.8355
    17.9331  18.5417  18.5669  18.5775  18.6725  18.7429  19.0526  19.3295
    19.5522  19.5979  19.6441  20.4149  20.4819  20.8747  20.9043  21.0106
    21.6805  22.9213

          k = 0.3297-0.1908-0.0019 ( 24223 PWs)   bands (ev):

   -90.1610 -90.1593 -90.0974 -90.0944 -90.0859 -90.0642 -90.0574 -90.0336
   -90.0316 -90.0245 -90.0227 -90.0053 -90.0041 -89.8157 -89.8031 -62.2973
   -62.2955 -62.2951 -62.2930 -62.2470 -62.2449 -62.2295 -62.2275 -50.7530
   -50.7454 -50.6852 -50.6622 -50.6276 -50.5790 -50.5772 -50.5534 -50.5519
   -50.5429 -50.5316 -50.5262 -50.5082 -50.4981 -50.4879 -50.4732 -50.4633
   -50.4322 -50.4214 -50.4162 -50.4121 -50.4111 -50.4076 -50.4025 -50.4012
   -50.3987 -50.3927 -50.3868 -50.3764 -50.3659 -50.3640 -50.3489 -50.3403
   -50.3370 -50.3316 -50.3289 -50.3087 -50.3071 -50.2903 -50.2628 -50.2581
   -50.2505 -50.2423 -49.9943 -49.9839 -29.0699 -29.0672 -29.0670 -29.0626
   -29.0573 -29.0556 -29.0545 -29.0527 -29.0463 -29.0439 -29.0424 -29.0402
   -29.0159 -29.0145 -28.9999 -28.9974 -28.9950 -28.9936 -28.9855 -28.9839
   -28.9836 -28.9818 -28.9792 -28.9783   5.4401   5.9803   6.3285   7.7383
     7.9822   8.1231   8.4128   8.6316   9.0415   9.0836   9.3042   9.4247
     9.4743   9.4832   9.6223   9.7262   9.7303   9.7815   9.8511   9.8542
     9.9053  10.1036  10.1101  10.1517  10.1967  10.2657  10.3026  10.3592
    10.3851  10.3917  10.4667  10.5098  10.5353  10.5645  10.6070  10.7092
    10.7209  10.7751  10.7879  10.8766  10.8781  10.9232  10.9772  11.0126
    11.0911  11.1358  11.1527  11.2361  11.2800  11.3689  11.3829  11.4229
    11.4303  11.5496  11.5887  11.6224  11.6514  11.7001  11.7634  11.7812
    11.7950  11.8116  11.8857  11.9368  11.9756  12.0232  12.0318  12.0546
    12.1137  12.1943  12.2043  12.2293  12.2700  12.3140  12.3263  12.3638
    12.3833  12.4038  12.4835  12.5132  12.6845  12.6914  12.8464  13.0170
    13.1298  13.6118  13.6965  13.8370  13.9472  13.9850  14.1256  14.2212
    14.2790  14.6615  15.0203  15.4349  15.7379  15.9127  16.0487  17.3148
    17.8165  17.9149  18.0009  18.8093  18.9261  18.9608  19.2386  19.3174
    19.3214  19.8586  20.2755  20.2926  20.3808  20.9008  21.0192  21.2462
    21.7679  22.0620

     the Fermi energy is    12.8781 ev

!    total energy              =   -7568.84955112 Ry
     total all-electron energy =    -48829.493313 Ry
     estimated scf accuracy    <       0.00000351 Ry
     smearing contrib. (-TS)   =       0.09447060 Ry
     internal energy E=F+TS    =   -7568.94402172 Ry

     The total energy is F=E-TS. E is the sum of the following terms:
     one-electron contribution =   -4480.89843493 Ry
     hartree contribution      =    2385.13343589 Ry
     xc contribution           =    -656.41689898 Ry
     ewald contribution        =   -3330.80857131 Ry
     one-center paw contrib.   =   -1485.95355239 Ry

     convergence has been achieved in  46 iterations

     Forces acting on atoms (cartesian axes, Ry/au):

     atom    1 type  1   force =     0.00005098    0.00076397    0.00016135
     atom    2 type  1   force =    -0.00005276   -0.00081256    0.00184837
     atom    3 type  1   force =    -0.00054544   -0.00069364   -0.00143223
     atom    4 type  1   force =    -0.00053309    0.00146857    0.00148485
     atom    5 type  1   force =    -0.00057455    0.00050527   -0.00079588
     atom    6 type  1   force =     0.00032815    0.00133606    0.00220605
     atom    7 type  1   force =    -0.00017092   -0.00041582   -0.00189606
     atom    8 type  1   force =    -0.00089453   -0.00056406    0.00098283
     atom    9 type  2   force =    -0.00012232    0.00118754   -0.00041097
     atom   10 type  2   force =     0.00012294   -0.00119810   -0.00044911
     atom   11 type  2   force =     0.00040427   -0.00168644   -0.00259254
     atom   12 type  2   force =    -0.00053378   -0.00009018   -0.00077861
     atom   13 type  2   force =    -0.00167820    0.00256219    0.00161621
     atom   14 type  2   force =    -0.00032296   -0.00382803   -0.00027253
     atom   15 type  2   force =     0.00008335    0.00240036    0.00015785
     atom   16 type  2   force =     0.00113194    0.00099127   -0.00004033
     atom   17 type  2   force =     0.00466671    0.00282143   -0.00035236
     atom   18 type  2   force =    -0.00015321    0.00034032   -0.00252714
     atom   19 type  2   force =    -0.00171959   -0.00141248    0.00379825
     atom   20 type  2   force =    -0.00080108   -0.00039402    0.00202187
     atom   21 type  2   force =    -0.00008674   -0.00126425   -0.00277820
     atom   22 type  2   force =     0.00193691   -0.00121521    0.00330103
     atom   23 type  2   force =    -0.00053607   -0.00080218   -0.00325270
     The non-local contrib.  to forces
     atom    1 type  1   force =     0.00175402    0.04684866    0.01065444
     atom    2 type  1   force =    -0.00008552    0.00028612    0.01867211
     atom    3 type  1   force =    -0.00254771    0.00198902   -0.01369095
     atom    4 type  1   force =    -0.00015487    0.05239790   -0.00464023
     atom    5 type  1   force =    -0.00408926   -0.00390403   -0.00558441
     atom    6 type  1   force =    -0.00131512   -0.02217935    0.00816591
     atom    7 type  1   force =    -0.00257197   -0.03159685   -0.00555872
     atom    8 type  1   force =    -0.00456825   -0.00941968    0.00791150
     atom    9 type  2   force =    -0.00355162   -0.10984431    0.04694785
     atom   10 type  2   force =     0.00330341    0.02730972    0.05154597
     atom   11 type  2   force =    -0.02082394    0.03713308   -0.04563948
     atom   12 type  2   force =     0.00950255   -0.09690769   -0.04429289
     atom   13 type  2   force =     0.07707251   -0.09208587   -0.00150547
     atom   14 type  2   force =    -0.00847029    0.07849899    0.00489590
     atom   15 type  2   force =    -0.14070827    0.12190018    0.00420426
     atom   16 type  2   force =     0.13241327    0.14424201    0.00632450
     atom   17 type  2   force =    -0.10144704   -0.06454286    0.00726203
     atom   18 type  2   force =     0.00152699    0.05715060    0.08324211
     atom   19 type  2   force =    -0.01490059    0.02684895    0.00795070
     atom   20 type  2   force =    -0.00400683    0.05832026   -0.07394903
     atom   21 type  2   force =    -0.00833784    0.02976797   -0.00136302
     atom   22 type  2   force =     0.00789462    0.02984404    0.00966063
     atom   23 type  2   force =     0.01449180    0.02766218   -0.00128194
     The ionic contribution  to forces
     atom    1 type  1   force =    -0.04087998    3.04241869  -22.20013988
     atom    2 type  1   force =     0.04971317    0.04673373    9.20118326
     atom    3 type  1   force =    -0.09739638    0.08419663   -9.18969361
     atom    4 type  1   force =     0.08914346    3.13359666   22.40580023
     atom    5 type  1   force =    -0.11254950   -0.13920236   -5.98158835
     atom    6 type  1   force =     0.05096342   -0.23047247   18.71757471
     atom    7 type  1   force =    -0.13989842   -0.44597378  -18.53678022
     atom    8 type  1   force =    -0.10976139   -0.30262145    5.95650798
     atom    9 type  2   force =    -0.17547043  -10.34891381  -41.43347260
     atom   10 type  2   force =     0.15670650    0.10405371   13.89780107
     atom   11 type  2   force =    -0.12277401    0.16674418  -14.36382858
     atom   12 type  2   force =     0.16243342  -10.74458522   41.32375641
     atom   13 type  2   force =    11.01726348   -6.11691941   -0.21839776
     atom   14 type  2   force =     0.04540631   12.23405879    0.01309042
     atom   15 type  2   force =   -11.51052697    8.20451130    0.14150086
     atom   16 type  2   force =    11.55920702    8.48133852    0.05591647
     atom   17 type  2   force =   -10.87668553   -5.91188231    0.11925319
     atom   18 type  2   force =    -0.12762376    0.20425236  -27.18538823
     atom   19 type  2   force =    -0.83891305   -0.42843611   28.44051111
     atom   20 type  2   force =     0.09389322    0.01769306   27.21614815
     atom   21 type  2   force =    -0.71051711   -0.34901097  -28.46618797
     atom   22 type  2   force =     1.09423779   -0.32593698   28.40846816
     atom   23 type  2   force =     0.54402874   -0.37564276  -28.32203483
     The local contribution  to forces
     atom    1 type  1   force =     0.03933963   -3.08843653   22.19069978
     atom    2 type  1   force =    -0.04965739   -0.04784443   -9.21624764
     atom    3 type  1   force =     0.09946710   -0.08684234    9.20035635
     atom    4 type  1   force =    -0.08946316   -3.18439827  -22.40078207
     atom    5 type  1   force =     0.11597814    0.14358180    5.98482809
     atom    6 type  1   force =    -0.04924038    0.25377561  -18.72445698
     atom    7 type  1   force =     0.14235283    0.47686948   18.54176307
     atom    8 type  1   force =     0.11338478    0.31137465   -5.96195816
     atom    9 type  2   force =     0.17859674   10.45838057   41.39742176
     atom   10 type  2   force =    -0.16009165   -0.13098976  -13.93918975
     atom   11 type  2   force =     0.14246634   -0.20336404   14.39713786
     atom   12 type  2   force =    -0.17150647   10.84040876  -41.29169445
     atom   13 type  2   force =   -11.09476426    6.20653089    0.22070229
     atom   14 type  2   force =    -0.03847075  -12.31553843   -0.01826166
     atom   15 type  2   force =    11.64787091   -8.32199159   -0.14466140
     atom   16 type  2   force =   -11.68773060   -8.62141487   -0.06073105
     atom   17 type  2   force =    10.97890316    5.97704892   -0.12718157
     atom   18 type  2   force =     0.12607399   -0.25718522   27.10563779
     atom   19 type  2   force =     0.85157411    0.40185091  -28.44526623
     atom   20 type  2   force =    -0.09087424   -0.07202589  -27.14607010
     atom   21 type  2   force =     0.71862555    0.31979140   28.46518830
     atom   22 type  2   force =    -1.09996267    0.29722063  -28.41469921
     atom   23 type  2   force =    -0.55827512    0.34897866   28.32070927
     The core correction contribution to forces
     atom    1 type  1   force =    -0.00000612   -0.00015594   -0.00011030
     atom    2 type  1   force =    -0.00000271    0.00000505   -0.00010336
     atom    3 type  1   force =     0.00001284   -0.00000614    0.00008477
     atom    4 type  1   force =     0.00000653   -0.00018217    0.00008063
     atom    5 type  1   force =     0.00001898    0.00001287    0.00003452
     atom    6 type  1   force =     0.00000216    0.00007195    0.00001913
     atom    7 type  1   force =     0.00000822    0.00011880   -0.00003017
     atom    8 type  1   force =     0.00002482    0.00003655   -0.00004464
     atom    9 type  2   force =     0.00024360    0.00196121   -0.00913833
     atom   10 type  2   force =    -0.00019817   -0.00136003   -0.00680572
     atom   11 type  2   force =     0.00131166   -0.00188414    0.00638239
     atom   12 type  2   force =    -0.00059157    0.00108318    0.00893059
     atom   13 type  2   force =    -0.00176202    0.00417424   -0.00017263
     atom   14 type  2   force =     0.00067206   -0.00164158   -0.00022404
     atom   15 type  2   force =     0.00312124   -0.00189561   -0.00025230
     atom   16 type  2   force =    -0.00276281   -0.00286714   -0.00044652
     atom   17 type  2   force =     0.00322218    0.00243226   -0.00027023
     atom   18 type  2   force =    -0.00013516   -0.00363967   -0.00643538
     atom   19 type  2   force =     0.00087231   -0.00152877    0.00009452
     atom   20 type  2   force =     0.00038010   -0.00367235    0.00595833
     atom   21 type  2   force =     0.00049459   -0.00175203   -0.00063991
     atom   22 type  2   force =    -0.00037191   -0.00163901    0.00003654
     atom   23 type  2   force =    -0.00077166   -0.00173277   -0.00045151
     The Hubbard contrib.    to forces
     atom    1 type  1   force =     0.00000000    0.00000000    0.00000000
     atom    2 type  1   force =     0.00000000    0.00000000    0.00000000
     atom    3 type  1   force =     0.00000000    0.00000000    0.00000000
     atom    4 type  1   force =     0.00000000    0.00000000    0.00000000
     atom    5 type  1   force =     0.00000000    0.00000000    0.00000000
     atom    6 type  1   force =     0.00000000    0.00000000    0.00000000
     atom    7 type  1   force =     0.00000000    0.00000000    0.00000000
     atom    8 type  1   force =     0.00000000    0.00000000    0.00000000
     atom    9 type  2   force =     0.00000000    0.00000000    0.00000000
     atom   10 type  2   force =     0.00000000    0.00000000    0.00000000
     atom   11 type  2   force =     0.00000000    0.00000000    0.00000000
     atom   12 type  2   force =     0.00000000    0.00000000    0.00000000
     atom   13 type  2   force =     0.00000000    0.00000000    0.00000000
     atom   14 type  2   force =     0.00000000    0.00000000    0.00000000
     atom   15 type  2   force =     0.00000000    0.00000000    0.00000000
     atom   16 type  2   force =     0.00000000    0.00000000    0.00000000
     atom   17 type  2   force =     0.00000000    0.00000000    0.00000000
     atom   18 type  2   force =     0.00000000    0.00000000    0.00000000
     atom   19 type  2   force =     0.00000000    0.00000000    0.00000000
     atom   20 type  2   force =     0.00000000    0.00000000    0.00000000
     atom   21 type  2   force =     0.00000000    0.00000000    0.00000000
     atom   22 type  2   force =     0.00000000    0.00000000    0.00000000
     atom   23 type  2   force =     0.00000000    0.00000000    0.00000000
     The SCF correction term to forces
     atom    1 type  1   force =    -0.00007654    0.00000438   -0.00092109
     atom    2 type  1   force =     0.00005972   -0.00007774   -0.00163441
     atom    3 type  1   force =    -0.00000126   -0.00011551    0.00153281
     atom    4 type  1   force =     0.00001498   -0.00003026    0.00104788
     atom    5 type  1   force =     0.00014712   -0.00006773    0.00153587
     atom    6 type  1   force =    -0.00000190    0.00005561    0.00092488
     atom    7 type  1   force =     0.00001844    0.00008182   -0.00126843
     atom    8 type  1   force =     0.00010554   -0.00001885   -0.00141226
     atom    9 type  2   force =     0.00013942   -0.00048083   -0.00214806
     atom   10 type  2   force =     0.00048288   -0.00029645   -0.00377910
     atom   11 type  2   force =     0.00030426   -0.00040024    0.00337687
     atom   12 type  2   force =    -0.00029168   -0.00017392    0.00254332
     atom   13 type  2   force =     0.00059212    0.00077763    0.00101136
     atom   14 type  2   force =     0.00061974    0.00070949    0.00024845
     atom   15 type  2   force =     0.00040646   -0.00020864   -0.00061198
     atom   16 type  2   force =     0.00008509   -0.00039195   -0.00108214
     atom   17 type  2   force =     0.00075395   -0.00031928    0.00060581
     atom   18 type  2   force =     0.00008476   -0.00032246    0.00043817
     atom   19 type  2   force =    -0.00027234   -0.00023216    0.00052974
     atom   20 type  2   force =    -0.00011330   -0.00079382   -0.00004389
     atom   21 type  2   force =    -0.00027190   -0.00014532    0.00024598
     atom   22 type  2   force =     0.00021912   -0.00078860   -0.00014350
     atom   23 type  2   force =     0.00007020   -0.00015220   -0.00017210

     Total force =     0.013130     Total SCF correction =     0.007727
     SCF correction compared to forces is large: reduce conv_thr to get better values


     Computing stress (Cartesian axis) and pressure

          total   stress  (Ry/bohr**3)                   (kbar)     P=       -0.63
  -0.00000896   0.00000239   0.00000174           -1.32        0.35        0.26
   0.00000239  -0.00000393   0.00000096            0.35       -0.58        0.14
   0.00000174   0.00000096   0.00000007            0.26        0.14        0.01

     Energy error            =      4.2E-04 Ry
     Gradient error          =      4.7E-03 Ry/Bohr
     Cell gradient error     =      1.3E+00 kbar

     number of scf cycles    =   5
     number of bfgs steps    =   4

     enthalpy           old  =   -7568.8491331471 Ry
     enthalpy           new  =   -7568.8495511212 Ry

     CASE: enthalpy          _new < enthalpy          _old

     new trust radius        =       0.0136945211 bohr
     new conv_thr            =       0.0000041797 Ry

     new unit-cell volume =   2042.72990 a.u.^3 (   302.70134 Ang^3 )
     density =      5.89629 g/cm^3

CELL_PARAMETERS (angstrom)
   4.748754110   0.001096596  -0.021959413
  -2.377415669   4.096397273   0.016289104
   0.072130241  -0.020512787  15.558378866

ATOMIC_POSITIONS (crystal)
Mg            0.9994228981        0.9996459798        0.4058421864
Mg           -0.0000464812       -0.0008146997        0.9072984455
Mg            0.9992149985        0.9981555837        0.5922731333
Mg            0.9993171121        0.9980501682        0.0935439909
Mg            0.3321573128        0.6647517889        0.6558548765
Mg            0.6662578518        0.3338716762        0.1573362657
Mg            0.6672141697        0.3352742233        0.3423312936
Mg            0.3332941129        0.6658065563        0.8439396375
Ni            0.3363944339        0.6737399155        0.3727315250
Ni            0.6660359930        0.3307182059        0.8751619336
Ni            0.6644531915        0.3304839973        0.6248376680
Ni            0.3365690823        0.6734352673        0.1271978614
Ni            0.8327446811        0.1620390849        0.7497464969
Ni            0.8345453257        0.6696624988        0.7499720179
Ni            0.1580447226        0.8306419497        0.2499938360
Ni            0.6722958007        0.8328644060        0.2497711927
Ni            0.3267209246        0.1617811430        0.7501104392
Ni            0.4984764871        0.9973756124        0.4992326310
Ni            0.4996358761        0.4983343372        0.0007516553
Ni            0.4992564929       -0.0027545580        1.0006756382
Ni            0.4987153601        0.4977886841        0.4989615143
Ni           -0.0006710937        0.4981424124        0.0006501924
Ni            0.9987747471        0.4976157668        0.4991575686



     Writing config-only to output data dir ./C36/out_logs/C36_out_8/laves_C36.save/
     NEW-OLD atomic charge density approx. for the potential

     Check: negative core charge=   -0.000010
     extrapolated charge  349.69690, renormalised to  350.00000

     total cpu time spent up to now is     3474.0 secs

     Self-consistent Calculation

     iteration #  1     ecut=    80.00 Ry     beta= 0.20
     Davidson diagonalization with overlap
     ethr =  1.00E-06,  avg # of iterations =  8.0

     total cpu time spent up to now is     3495.9 secs

     total energy              =   -7568.54832524 Ry
     estimated scf accuracy    <       6.65156056 Ry

     iteration #  2     ecut=    80.00 Ry     beta= 0.20
     Davidson diagonalization with overlap
     ethr =  1.90E-03,  avg # of iterations =  2.0

     total cpu time spent up to now is     3505.7 secs

     total energy              =   -7565.77765970 Ry
     estimated scf accuracy    <      62.24006700 Ry

     iteration #  3     ecut=    80.00 Ry     beta= 0.20
     Davidson diagonalization with overlap
     ethr =  1.90E-03,  avg # of iterations =  3.0

     total cpu time spent up to now is     3515.7 secs

     total energy              =   -7567.19567703 Ry
     estimated scf accuracy    <      93.62825601 Ry

     iteration #  4     ecut=    80.00 Ry     beta= 0.20
     Davidson diagonalization with overlap
     ethr =  1.90E-03,  avg # of iterations =  2.0

     total cpu time spent up to now is     3525.4 secs

     total energy              =   -7568.35171851 Ry
     estimated scf accuracy    <      25.44729408 Ry

     iteration #  5     ecut=    80.00 Ry     beta= 0.20
     Davidson diagonalization with overlap
     ethr =  1.90E-03,  avg # of iterations =  1.0

     total cpu time spent up to now is     3534.1 secs

     total energy              =   -7568.78543484 Ry
     estimated scf accuracy    <       2.54124110 Ry

     iteration #  6     ecut=    80.00 Ry     beta= 0.20
     Davidson diagonalization with overlap
     ethr =  7.26E-04,  avg # of iterations =  1.0

     total cpu time spent up to now is     3542.8 secs

     total energy              =   -7568.70754706 Ry
     estimated scf accuracy    <      17.19070739 Ry

     iteration #  7     ecut=    80.00 Ry     beta= 0.20
     Davidson diagonalization with overlap
     ethr =  7.26E-04,  avg # of iterations =  1.0

     total cpu time spent up to now is     3551.5 secs

     total energy              =   -7568.85054769 Ry
     estimated scf accuracy    <       1.10175649 Ry

     iteration #  8     ecut=    80.00 Ry     beta= 0.20
     Davidson diagonalization with overlap
     ethr =  3.15E-04,  avg # of iterations =  1.0

     total cpu time spent up to now is     3560.2 secs

     total energy              =   -7568.85300435 Ry
     estimated scf accuracy    <       0.38267897 Ry

     iteration #  9     ecut=    80.00 Ry     beta= 0.20
     Davidson diagonalization with overlap
     ethr =  1.09E-04,  avg # of iterations =  1.0

     total cpu time spent up to now is     3568.9 secs

     total energy              =   -7568.85068791 Ry
     estimated scf accuracy    <       0.20940157 Ry

     iteration # 10     ecut=    80.00 Ry     beta= 0.20
     Davidson diagonalization with overlap
     ethr =  5.98E-05,  avg # of iterations =  1.0

     total cpu time spent up to now is     3577.6 secs

     total energy              =   -7568.84898121 Ry
     estimated scf accuracy    <       0.10810673 Ry

     iteration # 11     ecut=    80.00 Ry     beta= 0.20
     Davidson diagonalization with overlap
     ethr =  3.09E-05,  avg # of iterations =  1.0

     total cpu time spent up to now is     3586.3 secs

     total energy              =   -7568.84833008 Ry
     estimated scf accuracy    <       0.05676163 Ry

     iteration # 12     ecut=    80.00 Ry     beta= 0.20
     Davidson diagonalization with overlap
     ethr =  1.62E-05,  avg # of iterations =  1.2

     total cpu time spent up to now is     3595.3 secs

     total energy              =   -7568.84770045 Ry
     estimated scf accuracy    <       0.04228981 Ry

     iteration # 13     ecut=    80.00 Ry     beta= 0.20
     Davidson diagonalization with overlap
     ethr =  1.21E-05,  avg # of iterations =  1.0

     total cpu time spent up to now is     3604.0 secs

     total energy              =   -7568.84708916 Ry
     estimated scf accuracy    <       0.02729995 Ry

     iteration # 14     ecut=    80.00 Ry     beta= 0.20
     Davidson diagonalization with overlap
     ethr =  7.80E-06,  avg # of iterations =  1.2

     total cpu time spent up to now is     3613.0 secs

     total energy              =   -7568.84786835 Ry
     estimated scf accuracy    <       0.01744983 Ry

     iteration # 15     ecut=    80.00 Ry     beta= 0.20
     Davidson diagonalization with overlap
     ethr =  4.99E-06,  avg # of iterations =  1.0

     total cpu time spent up to now is     3621.7 secs

     total energy              =   -7568.84628971 Ry
     estimated scf accuracy    <       0.04155449 Ry

     iteration # 16     ecut=    80.00 Ry     beta= 0.20
     Davidson diagonalization with overlap
     ethr =  4.99E-06,  avg # of iterations =  1.0

     total cpu time spent up to now is     3630.4 secs

     total energy              =   -7568.84786440 Ry
     estimated scf accuracy    <       0.04788009 Ry

     iteration # 17     ecut=    80.00 Ry     beta= 0.20
     Davidson diagonalization with overlap
     ethr =  4.99E-06,  avg # of iterations =  1.0

     total cpu time spent up to now is     3639.1 secs

     total energy              =   -7568.84697073 Ry
     estimated scf accuracy    <       0.03518533 Ry

     iteration # 18     ecut=    80.00 Ry     beta= 0.20
     Davidson diagonalization with overlap
     ethr =  4.99E-06,  avg # of iterations =  1.0

     total cpu time spent up to now is     3647.9 secs

     total energy              =   -7568.84788512 Ry
     estimated scf accuracy    <       0.00400708 Ry

     iteration # 19     ecut=    80.00 Ry     beta= 0.20
     Davidson diagonalization with overlap
     ethr =  1.14E-06,  avg # of iterations =  2.0

     total cpu time spent up to now is     3657.6 secs

     total energy              =   -7568.84835073 Ry
     estimated scf accuracy    <       0.00631181 Ry

     iteration # 20     ecut=    80.00 Ry     beta= 0.20
     Davidson diagonalization with overlap
     ethr =  1.14E-06,  avg # of iterations =  1.0

     total cpu time spent up to now is     3666.3 secs

     total energy              =   -7568.84858936 Ry
     estimated scf accuracy    <       0.00277619 Ry

     iteration # 21     ecut=    80.00 Ry     beta= 0.20
     Davidson diagonalization with overlap
     ethr =  7.93E-07,  avg # of iterations =  1.0

     total cpu time spent up to now is     3675.0 secs

     total energy              =   -7568.84864429 Ry
     estimated scf accuracy    <       0.00274877 Ry

     iteration # 22     ecut=    80.00 Ry     beta= 0.20
     Davidson diagonalization with overlap
     ethr =  7.85E-07,  avg # of iterations =  1.0

     total cpu time spent up to now is     3683.7 secs

     total energy              =   -7568.84892351 Ry
     estimated scf accuracy    <       0.00385007 Ry

     iteration # 23     ecut=    80.00 Ry     beta= 0.20
     Davidson diagonalization with overlap
     ethr =  7.85E-07,  avg # of iterations =  1.0

     total cpu time spent up to now is     3692.4 secs

     total energy              =   -7568.84892453 Ry
     estimated scf accuracy    <       0.00685733 Ry

     iteration # 24     ecut=    80.00 Ry     beta= 0.20
     Davidson diagonalization with overlap
     ethr =  7.85E-07,  avg # of iterations =  1.0

     total cpu time spent up to now is     3701.2 secs

     total energy              =   -7568.84885384 Ry
     estimated scf accuracy    <       0.00541568 Ry

     iteration # 25     ecut=    80.00 Ry     beta= 0.20
     Davidson diagonalization with overlap
     ethr =  7.85E-07,  avg # of iterations =  1.0

     total cpu time spent up to now is     3709.9 secs

     total energy              =   -7568.84892619 Ry
     estimated scf accuracy    <       0.00875076 Ry

     iteration # 26     ecut=    80.00 Ry     beta= 0.20
     Davidson diagonalization with overlap
     ethr =  7.85E-07,  avg # of iterations =  1.0

     total cpu time spent up to now is     3718.6 secs

     total energy              =   -7568.84912239 Ry
     estimated scf accuracy    <       0.00949648 Ry

     iteration # 27     ecut=    80.00 Ry     beta= 0.20
     Davidson diagonalization with overlap
     ethr =  7.85E-07,  avg # of iterations =  1.0

     total cpu time spent up to now is     3727.4 secs

     total energy              =   -7568.84905706 Ry
     estimated scf accuracy    <       0.01471475 Ry

     iteration # 28     ecut=    80.00 Ry     beta= 0.20
     Davidson diagonalization with overlap
     ethr =  7.85E-07,  avg # of iterations =  1.0

     total cpu time spent up to now is     3736.1 secs

     total energy              =   -7568.84916620 Ry
     estimated scf accuracy    <       0.01307713 Ry

     iteration # 29     ecut=    80.00 Ry     beta= 0.20
     Davidson diagonalization with overlap
     ethr =  7.85E-07,  avg # of iterations =  1.0

     total cpu time spent up to now is     3744.8 secs

     total energy              =   -7568.84918932 Ry
     estimated scf accuracy    <       0.00269254 Ry

     iteration # 30     ecut=    80.00 Ry     beta= 0.20
     Davidson diagonalization with overlap
     ethr =  7.69E-07,  avg # of iterations =  1.0

     total cpu time spent up to now is     3753.5 secs

     total energy              =   -7568.84929508 Ry
     estimated scf accuracy    <       0.00229561 Ry

     iteration # 31     ecut=    80.00 Ry     beta= 0.20
     Davidson diagonalization with overlap
     ethr =  6.56E-07,  avg # of iterations =  1.0

     total cpu time spent up to now is     3762.3 secs

     total energy              =   -7568.84939121 Ry
     estimated scf accuracy    <       0.00141077 Ry

     iteration # 32     ecut=    80.00 Ry     beta= 0.20
     Davidson diagonalization with overlap
     ethr =  4.03E-07,  avg # of iterations =  1.0

     total cpu time spent up to now is     3771.0 secs

     total energy              =   -7568.84942251 Ry
     estimated scf accuracy    <       0.00089610 Ry

     iteration # 33     ecut=    80.00 Ry     beta= 0.20
     Davidson diagonalization with overlap
     ethr =  2.56E-07,  avg # of iterations =  1.0

     total cpu time spent up to now is     3779.7 secs

     total energy              =   -7568.84958370 Ry
     estimated scf accuracy    <       0.00057216 Ry

     iteration # 34     ecut=    80.00 Ry     beta= 0.20
     Davidson diagonalization with overlap
     ethr =  1.63E-07,  avg # of iterations =  2.0

     total cpu time spent up to now is     3790.2 secs

     total energy              =   -7568.84963632 Ry
     estimated scf accuracy    <       0.00053870 Ry

     iteration # 35     ecut=    80.00 Ry     beta= 0.20
     Davidson diagonalization with overlap
     ethr =  1.54E-07,  avg # of iterations =  1.0

     total cpu time spent up to now is     3798.9 secs

     total energy              =   -7568.84964381 Ry
     estimated scf accuracy    <       0.00038780 Ry

     iteration # 36     ecut=    80.00 Ry     beta= 0.20
     Davidson diagonalization with overlap
     ethr =  1.11E-07,  avg # of iterations =  1.0

     total cpu time spent up to now is     3807.7 secs

     total energy              =   -7568.84963427 Ry
     estimated scf accuracy    <       0.00029142 Ry

     iteration # 37     ecut=    80.00 Ry     beta= 0.20
     Davidson diagonalization with overlap
     ethr =  8.33E-08,  avg # of iterations =  1.0

     total cpu time spent up to now is     3816.4 secs

     total energy              =   -7568.84966759 Ry
     estimated scf accuracy    <       0.00028571 Ry

     iteration # 38     ecut=    80.00 Ry     beta= 0.20
     Davidson diagonalization with overlap
     ethr =  8.16E-08,  avg # of iterations =  1.0

     total cpu time spent up to now is     3825.1 secs

     total energy              =   -7568.84969866 Ry
     estimated scf accuracy    <       0.00023828 Ry

     iteration # 39     ecut=    80.00 Ry     beta= 0.20
     Davidson diagonalization with overlap
     ethr =  6.81E-08,  avg # of iterations =  1.0

     total cpu time spent up to now is     3833.9 secs

     total energy              =   -7568.84972532 Ry
     estimated scf accuracy    <       0.00019619 Ry

     iteration # 40     ecut=    80.00 Ry     beta= 0.20
     Davidson diagonalization with overlap
     ethr =  5.61E-08,  avg # of iterations =  1.0

     total cpu time spent up to now is     3842.6 secs

     total energy              =   -7568.84973324 Ry
     estimated scf accuracy    <       0.00017635 Ry

     iteration # 41     ecut=    80.00 Ry     beta= 0.20
     Davidson diagonalization with overlap
     ethr =  5.04E-08,  avg # of iterations =  1.0

     total cpu time spent up to now is     3851.4 secs

     total energy              =   -7568.84976819 Ry
     estimated scf accuracy    <       0.00015624 Ry

     iteration # 42     ecut=    80.00 Ry     beta= 0.20
     Davidson diagonalization with overlap
     ethr =  4.46E-08,  avg # of iterations =  2.0

     total cpu time spent up to now is     3861.7 secs

     total energy              =   -7568.84978297 Ry
     estimated scf accuracy    <       0.00010116 Ry

     iteration # 43     ecut=    80.00 Ry     beta= 0.20
     Davidson diagonalization with overlap
     ethr =  2.89E-08,  avg # of iterations =  1.0

     total cpu time spent up to now is     3870.4 secs

     total energy              =   -7568.84978321 Ry
     estimated scf accuracy    <       0.00011987 Ry

     iteration # 44     ecut=    80.00 Ry     beta= 0.20
     Davidson diagonalization with overlap
     ethr =  2.89E-08,  avg # of iterations =  1.0

     total cpu time spent up to now is     3879.2 secs

     total energy              =   -7568.84978850 Ry
     estimated scf accuracy    <       0.00011982 Ry

     iteration # 45     ecut=    80.00 Ry     beta= 0.20
     Davidson diagonalization with overlap
     ethr =  2.89E-08,  avg # of iterations =  1.0

     total cpu time spent up to now is     3887.9 secs

     total energy              =   -7568.84978849 Ry
     estimated scf accuracy    <       0.00007742 Ry

     iteration # 46     ecut=    80.00 Ry     beta= 0.20
     Davidson diagonalization with overlap
     ethr =  2.21E-08,  avg # of iterations =  1.0

     total cpu time spent up to now is     3896.6 secs

     total energy              =   -7568.84978996 Ry
     estimated scf accuracy    <       0.00006531 Ry

     iteration # 47     ecut=    80.00 Ry     beta= 0.20
     Davidson diagonalization with overlap
     ethr =  1.87E-08,  avg # of iterations =  1.0

     total cpu time spent up to now is     3905.4 secs

     total energy              =   -7568.84979851 Ry
     estimated scf accuracy    <       0.00006444 Ry

     iteration # 48     ecut=    80.00 Ry     beta= 0.20
     Davidson diagonalization with overlap
     ethr =  1.84E-08,  avg # of iterations =  2.0

     total cpu time spent up to now is     3916.0 secs

     total energy              =   -7568.84980637 Ry
     estimated scf accuracy    <       0.00007315 Ry

     iteration # 49     ecut=    80.00 Ry     beta= 0.20
     Davidson diagonalization with overlap
     ethr =  1.84E-08,  avg # of iterations =  1.0

     total cpu time spent up to now is     3924.7 secs

     total energy              =   -7568.84980818 Ry
     estimated scf accuracy    <       0.00003672 Ry

     iteration # 50     ecut=    80.00 Ry     beta= 0.20
     Davidson diagonalization with overlap
     ethr =  1.05E-08,  avg # of iterations =  1.2

     total cpu time spent up to now is     3933.7 secs

     total energy              =   -7568.84980731 Ry
     estimated scf accuracy    <       0.00003159 Ry

     iteration # 51     ecut=    80.00 Ry     beta= 0.20
     Davidson diagonalization with overlap
     ethr =  9.03E-09,  avg # of iterations =  1.0

     total cpu time spent up to now is     3942.4 secs

     total energy              =   -7568.84980675 Ry
     estimated scf accuracy    <       0.00017826 Ry

     iteration # 52     ecut=    80.00 Ry     beta= 0.20
     Davidson diagonalization with overlap
     ethr =  9.03E-09,  avg # of iterations =  1.0

     total cpu time spent up to now is     3951.1 secs

     total energy              =   -7568.84980825 Ry
     estimated scf accuracy    <       0.00002533 Ry

     iteration # 53     ecut=    80.00 Ry     beta= 0.20
     Davidson diagonalization with overlap
     ethr =  7.24E-09,  avg # of iterations =  1.0

     total cpu time spent up to now is     3959.9 secs

     total energy              =   -7568.84980776 Ry
     estimated scf accuracy    <       0.00004417 Ry

     iteration # 54     ecut=    80.00 Ry     beta= 0.20
     Davidson diagonalization with overlap
     ethr =  7.24E-09,  avg # of iterations =  1.0

     total cpu time spent up to now is     3968.6 secs

     total energy              =   -7568.84980905 Ry
     estimated scf accuracy    <       0.00002294 Ry

     iteration # 55     ecut=    80.00 Ry     beta= 0.20
     Davidson diagonalization with overlap
     ethr =  6.55E-09,  avg # of iterations =  1.0

     total cpu time spent up to now is     3977.3 secs

     End of self-consistent calculation

          k = 0.0000 0.0000 0.0000 ( 24267 PWs)   bands (ev):

   -90.1473 -90.1446 -90.0851 -90.0838 -90.0759 -90.0466 -90.0416 -90.0206
   -90.0192 -90.0028 -90.0011 -89.9962 -89.9937 -89.8123 -89.7906 -62.2808
   -62.2807 -62.2791 -62.2785 -62.2277 -62.2260 -62.2154 -62.2151 -50.7664
   -50.7551 -50.7080 -50.6522 -50.6095 -50.5649 -50.5633 -50.5495 -50.5464
   -50.5298 -50.5222 -50.5134 -50.5116 -50.4824 -50.4725 -50.4558 -50.4514
   -50.4270 -50.4236 -50.4077 -50.4065 -50.3976 -50.3927 -50.3900 -50.3817
   -50.3701 -50.3694 -50.3657 -50.3629 -50.3610 -50.3609 -50.3177 -50.3052
   -50.3037 -50.3034 -50.3025 -50.2816 -50.2797 -50.2573 -50.2482 -50.2420
   -50.2399 -50.2311 -49.9902 -49.9716 -29.0527 -29.0510 -29.0502 -29.0475
   -29.0418 -29.0416 -29.0398 -29.0395 -29.0289 -29.0265 -29.0250 -29.0248
   -28.9988 -28.9976 -28.9804 -28.9786 -28.9775 -28.9765 -28.9711 -28.9707
   -28.9698 -28.9696 -28.9648 -28.9643   4.4484   5.0105   5.3680   6.8422
     7.2493   8.4798   8.4985   8.9195   9.1873   9.3002   9.4259   9.5189
     9.5360   9.5369   9.5545   9.5591   9.5960   9.7316   9.7403   9.7913
     9.8552   9.8593   9.9243  10.0074  10.0456  10.2535  10.3109  10.3177
    10.3344  10.3657  10.3902  10.4132  10.4290  10.4939  10.6020  10.8036
    10.8475  10.8765  10.8993  10.9704  11.0279  11.0441  11.1045  11.1524
    11.4757  11.4911  11.6248  11.7174  11.7253  11.7951  11.8198  11.8222
    11.9439  12.0100  12.0399  12.1153  12.1800  12.1977  12.2103  12.2129
    12.2168  12.2172  12.2361  12.2367  12.2429  12.2699  12.3016  12.3020
    12.3074  12.3464  12.3509  12.3545  12.3825  12.5224  12.6575  12.7847
    12.8811  12.9592  13.1050  13.3180  13.3431  13.3446  13.8332  13.8489
    14.0213  14.0255  14.0501  14.1311  14.1363  14.2026  14.4168  14.4264
    14.4553  15.3546  15.4429  15.8120  15.8427  15.8774  16.2105  16.3601
    16.4580  16.9153  16.9254  17.3771  17.4665  17.5840  17.7278  17.7969
    17.9516  18.4960  18.5990  18.8276  19.1035  19.2598  19.6987  19.7279
    19.7318  20.0041

          k =-0.0001 0.3821 0.0005 ( 24221 PWs)   bands (ev):

   -90.1469 -90.1444 -90.0822 -90.0810 -90.0694 -90.0533 -90.0417 -90.0237
   -90.0223 -90.0028 -90.0011 -89.9959 -89.9935 -89.8123 -89.7906 -62.2807
   -62.2806 -62.2790 -62.2784 -62.2278 -62.2261 -62.2155 -62.2152 -50.7335
   -50.7244 -50.6665 -50.6490 -50.6192 -50.5812 -50.5772 -50.5433 -50.5377
   -50.5199 -50.5145 -50.5117 -50.4910 -50.4897 -50.4648 -50.4637 -50.4447
   -50.4234 -50.4141 -50.4048 -50.4033 -50.3938 -50.3932 -50.3923 -50.3902
   -50.3814 -50.3812 -50.3732 -50.3644 -50.3639 -50.3624 -50.3299 -50.3283
   -50.3272 -50.3145 -50.3129 -50.2904 -50.2884 -50.2573 -50.2483 -50.2419
   -50.2398 -50.2310 -49.9905 -49.9712 -29.0534 -29.0517 -29.0509 -29.0483
   -29.0423 -29.0410 -29.0402 -29.0392 -29.0277 -29.0271 -29.0258 -29.0240
   -28.9987 -28.9974 -28.9797 -28.9782 -28.9778 -28.9772 -28.9718 -28.9713
   -28.9691 -28.9688 -28.9640 -28.9635   5.4550   6.0005   6.3031   7.6631
     7.9955   8.1661   8.4508   8.7240   9.0623   9.0982   9.2920   9.3115
     9.4568   9.5662   9.6016   9.6134   9.7345   9.7711   9.8683   9.8725
     9.8938  10.0813  10.1496  10.1586  10.1744  10.2425  10.3043  10.3174
    10.3405  10.4125  10.4151  10.4818  10.5340  10.5702  10.5833  10.6357
    10.6901  10.7782  10.8222  10.8514  10.9724  10.9925  10.9934  11.0301
    11.0799  11.1171  11.1396  11.2271  11.3414  11.4003  11.4256  11.4771
    11.4890  11.6088  11.6161  11.7111  11.7401  11.7874  11.7890  11.8021
    11.8868  11.8956  11.9414  12.0127  12.0364  12.0587  12.1240  12.1568
    12.2282  12.2409  12.2626  12.2929  12.3040  12.3206  12.3373  12.4039
    12.4357  12.5127  12.5846  12.6127  12.6832  12.7118  12.8805  13.1547
    13.1613  13.5299  13.5340  13.6574  13.9636  13.9676  14.1328  14.1998
    14.3175  14.4181  14.4966  15.1771  15.7154  16.2284  16.3186  17.5339
    17.7160  17.9997  18.1652  18.7553  18.8611  19.1014  19.1327  19.1601
    19.2778  19.7780  20.2662  20.3571  20.3738  20.9922  21.0543  21.3286
    21.7979  22.1471

          k = 0.3296 0.1913-0.0013 ( 24222 PWs)   bands (ev):

   -90.1470 -90.1444 -90.0834 -90.0822 -90.0710 -90.0480 -90.0455 -90.0175
   -90.0162 -90.0082 -90.0065 -89.9954 -89.9931 -89.8079 -89.7950 -62.2807
   -62.2806 -62.2790 -62.2784 -62.2278 -62.2261 -62.2155 -62.2152 -50.7384
   -50.7305 -50.6716 -50.6487 -50.6126 -50.5663 -50.5644 -50.5381 -50.5366
   -50.5283 -50.5179 -50.5121 -50.4945 -50.4826 -50.4753 -50.4580 -50.4497
   -50.4177 -50.4083 -50.4023 -50.3976 -50.3971 -50.3957 -50.3921 -50.3876
   -50.3861 -50.3817 -50.3719 -50.3644 -50.3510 -50.3493 -50.3344 -50.3246
   -50.3222 -50.3162 -50.3148 -50.2939 -50.2921 -50.2804 -50.2538 -50.2479
   -50.2419 -50.2339 -49.9864 -49.9754 -29.0531 -29.0513 -29.0502 -29.0481
   -29.0425 -29.0410 -29.0405 -29.0389 -29.0291 -29.0269 -29.0259 -29.0256
   -28.9980 -28.9967 -28.9807 -28.9789 -28.9769 -28.9758 -28.9714 -28.9709
   -28.9697 -28.9695 -28.9641 -28.9636   5.4532   5.9934   6.3368   7.7481
     7.9959   8.1368   8.4274   8.6428   9.0557   9.0973   9.3152   9.4351
     9.4837   9.4960   9.6358   9.7379   9.7426   9.7957   9.8635   9.8645
     9.9171  10.1163  10.1217  10.1588  10.2080  10.2805  10.3161  10.3717
    10.3993  10.4051  10.4783  10.5245  10.5453  10.5786  10.6133  10.7220
    10.7330  10.7849  10.7969  10.8860  10.8918  10.9364  10.9856  11.0230
    11.1033  11.1498  11.1645  11.2523  11.2912  11.3815  11.3953  11.4376
    11.4401  11.5633  11.6012  11.6349  11.6590  11.7125  11.7744  11.7950
    11.8086  11.8264  11.8996  11.9541  11.9891  12.0326  12.0465  12.0693
    12.1229  12.2119  12.2187  12.2438  12.2828  12.3280  12.3378  12.3769
    12.3972  12.4206  12.4978  12.5281  12.6982  12.7059  12.8595  13.0318
    13.1456  13.6281  13.7146  13.8509  13.9594  13.9966  14.1402  14.2344
    14.2935  14.6777  15.0293  15.4621  15.7573  15.9273  16.0597  17.3311
    17.8308  17.9274  18.0192  18.8242  18.9436  18.9804  19.2544  19.3328
    19.3371  19.8809  20.2969  20.3087  20.4030  20.9166  21.0405  21.2667
    21.7855  22.0800

          k = 0.3295 0.5734-0.0008 ( 24155 PWs)   bands (ev):

   -90.1468 -90.1443 -90.0820 -90.0808 -90.0655 -90.0557 -90.0434 -90.0195
   -90.0182 -90.0076 -90.0060 -89.9953 -89.9930 -89.8079 -89.7950 -62.2807
   -62.2805 -62.2790 -62.2784 -62.2278 -62.2261 -62.2155 -62.2152 -50.7175
   -50.7131 -50.6470 -50.6455 -50.6038 -50.5883 -50.5784 -50.5413 -50.5324
   -50.5280 -50.5147 -50.5084 -50.4865 -50.4857 -50.4709 -50.4523 -50.4488
   -50.4120 -50.4108 -50.4021 -50.4006 -50.3986 -50.3974 -50.3958 -50.3923
   -50.3859 -50.3800 -50.3658 -50.3624 -50.3533 -50.3502 -50.3487 -50.3231
   -50.3219 -50.3210 -50.3190 -50.3111 -50.3095 -50.2802 -50.2538 -50.2478
   -50.2418 -50.2339 -49.9864 -49.9750 -29.0532 -29.0520 -29.0506 -29.0483
   -29.0434 -29.0412 -29.0403 -29.0380 -29.0284 -29.0267 -29.0264 -29.0256
   -28.9979 -28.9966 -28.9807 -28.9790 -28.9768 -28.9757 -28.9721 -28.9716
   -28.9688 -28.9685 -28.9638 -28.9633   7.0216   7.3009   7.5212   7.5863
     7.6585   7.9828   8.0966   8.1161   8.3664   9.0116   9.0620   9.1094
     9.1479   9.1701   9.5289   9.6867   9.8629   9.9304   9.9485   9.9858
    10.0480  10.1318  10.2284  10.2577  10.2611  10.2868  10.3630  10.3779
    10.4519  10.4664  10.4830  10.5074  10.5130  10.5489  10.5730  10.6040
    10.6331  10.6914  10.7054  10.7221  10.7551  10.7671  10.8355  10.9325
    10.9684  11.0056  11.0303  11.1052  11.2395  11.2428  11.2800  11.3309
    11.3558  11.3919  11.4435  11.5167  11.5405  11.6092  11.6419  11.6819
    11.7577  11.7986  11.8647  11.8727  11.8808  11.9270  11.9467  11.9625
    11.9814  12.0067  12.0580  12.0585  12.0825  12.1453  12.2740  12.3321
    12.3713  12.3858  12.5150  12.5170  12.5262  12.5953  12.7113  12.7587
    12.7863  12.8611  12.9788  13.1906  13.2930  13.3118  14.6676  14.7295
    14.7405  14.8897  15.3192  15.6863  17.4171  17.5812  17.7045  17.8534
    17.9513  18.5581  18.5845  18.5906  18.6935  18.7567  19.0758  19.3442
    19.5728  19.6119  19.6592  20.4373  20.4997  20.8931  20.9236  21.0286
    21.6989  22.9428

          k = 0.3297-0.1908-0.0018 ( 24223 PWs)   bands (ev):

   -90.1470 -90.1444 -90.0835 -90.0822 -90.0706 -90.0504 -90.0434 -90.0173
   -90.0159 -90.0083 -90.0068 -89.9954 -89.9931 -89.8079 -89.7950 -62.2807
   -62.2806 -62.2790 -62.2784 -62.2278 -62.2261 -62.2155 -62.2152 -50.7385
   -50.7308 -50.6715 -50.6488 -50.6125 -50.5659 -50.5642 -50.5385 -50.5373
   -50.5296 -50.5175 -50.5118 -50.4934 -50.4837 -50.4743 -50.4584 -50.4490
   -50.4174 -50.4085 -50.4025 -50.3978 -50.3971 -50.3958 -50.3922 -50.3883
   -50.3856 -50.3814 -50.3726 -50.3644 -50.3509 -50.3493 -50.3339 -50.3244
   -50.3217 -50.3159 -50.3141 -50.2941 -50.2929 -50.2804 -50.2538 -50.2479
   -50.2419 -50.2339 -49.9863 -49.9754 -29.0532 -29.0512 -29.0503 -29.0481
   -29.0425 -29.0410 -29.0405 -29.0389 -29.0290 -29.0269 -29.0259 -29.0256
   -28.9980 -28.9968 -28.9807 -28.9788 -28.9769 -28.9759 -28.9714 -28.9710
   -28.9697 -28.9693 -28.9641 -28.9636   5.4522   5.9925   6.3359   7.7468
     7.9952   8.1348   8.4249   8.6405   9.0549   9.0957   9.3161   9.4349
     9.4839   9.4954   9.6365   9.7381   9.7441   9.7967   9.8624   9.8647
     9.9196  10.1158  10.1219  10.1610  10.2080  10.2778  10.3168  10.3708
    10.3957  10.4054  10.4774  10.5234  10.5478  10.5782  10.6171  10.7212
    10.7321  10.7859  10.7975  10.8880  10.8902  10.9357  10.9877  11.0255
    11.1017  11.1490  11.1648  11.2489  11.2901  11.3815  11.3955  11.4365
    11.4406  11.5610  11.6028  11.6369  11.6599  11.7128  11.7764  11.7946
    11.8057  11.8248  11.8989  11.9491  11.9878  12.0338  12.0469  12.0692
    12.1265  12.2103  12.2195  12.2452  12.2844  12.3287  12.3397  12.3786
    12.3982  12.4191  12.4974  12.5274  12.6989  12.7059  12.8616  13.0325
    13.1454  13.6284  13.7129  13.8527  13.9629  14.0012  14.1432  14.2389
    14.2971  14.6813  15.0336  15.4572  15.7546  15.9280  16.0640  17.3356
    17.8357  17.9304  18.0183  18.8275  18.9441  18.9848  19.2572  19.3356
    19.3387  19.8785  20.2969  20.3085  20.4018  20.9160  21.0372  21.2617
    21.7853  22.0787

     the Fermi energy is    12.8929 ev

!    total energy              =   -7568.84980779 Ry
     total all-electron energy =    -48829.493570 Ry
     estimated scf accuracy    <       0.00000394 Ry
     smearing contrib. (-TS)   =       0.09430548 Ry
     internal energy E=F+TS    =   -7568.94411326 Ry

     The total energy is F=E-TS. E is the sum of the following terms:
     one-electron contribution =   -4474.50037568 Ry
     hartree contribution      =    2382.10932855 Ry
     xc contribution           =    -656.42541932 Ry
     ewald contribution        =   -3334.17335851 Ry
     one-center paw contrib.   =   -1485.95428831 Ry

     convergence has been achieved in  55 iterations

     Forces acting on atoms (cartesian axes, Ry/au):

     atom    1 type  1   force =    -0.00013835    0.00047283   -0.00028567
     atom    2 type  1   force =    -0.00005615   -0.00094814    0.00223337
     atom    3 type  1   force =    -0.00055913   -0.00067787   -0.00165165
     atom    4 type  1   force =    -0.00055750    0.00139209    0.00152506
     atom    5 type  1   force =    -0.00014840   -0.00003067   -0.00158499
     atom    6 type  1   force =     0.00035118    0.00084164    0.00058992
     atom    7 type  1   force =    -0.00027785    0.00012806   -0.00043777
     atom    8 type  1   force =    -0.00037242   -0.00056356    0.00148998
     atom    9 type  2   force =     0.00009928    0.00009913    0.00011817
     atom   10 type  2   force =    -0.00034875   -0.00112262    0.00236414
     atom   11 type  2   force =     0.00017614   -0.00084544   -0.00416295
     atom   12 type  2   force =    -0.00021690   -0.00081895   -0.00127301
     atom   13 type  2   force =     0.00026685    0.00077117    0.00081607
     atom   14 type  2   force =    -0.00059943   -0.00267048   -0.00024412
     atom   15 type  2   force =     0.00142374    0.00317439   -0.00057537
     atom   16 type  2   force =    -0.00014033    0.00189691    0.00056037
     atom   17 type  2   force =     0.00202076    0.00206224   -0.00069735
     atom   18 type  2   force =    -0.00005602   -0.00002368   -0.00130082
     atom   19 type  2   force =    -0.00037286   -0.00175114    0.00323251
     atom   20 type  2   force =    -0.00061724    0.00108946    0.00111832
     atom   21 type  2   force =     0.00014097   -0.00063951   -0.00230152
     atom   22 type  2   force =     0.00063220   -0.00119072    0.00382553
     atom   23 type  2   force =    -0.00064980   -0.00064514   -0.00335823
     The non-local contrib.  to forces
     atom    1 type  1   force =     0.00056468    0.04641789    0.00887695
     atom    2 type  1   force =     0.00008731   -0.00057778    0.01748214
     atom    3 type  1   force =    -0.00206847    0.00098077   -0.01360500
     atom    4 type  1   force =     0.00028148    0.05113035   -0.00530983
     atom    5 type  1   force =    -0.00142325   -0.00581203   -0.00781966
     atom    6 type  1   force =    -0.00136197   -0.02392979    0.00565030
     atom    7 type  1   force =    -0.00233613   -0.02869612   -0.00451270
     atom    8 type  1   force =    -0.00105805   -0.00884875    0.00832183
     atom    9 type  2   force =    -0.00440726   -0.09901141    0.04018409
     atom   10 type  2   force =     0.01113205    0.02505589    0.04895886
     atom   11 type  2   force =    -0.01553742    0.02817901   -0.04413986
     atom   12 type  2   force =    -0.00089710   -0.09188239   -0.03755477
     atom   13 type  2   force =     0.08097717   -0.08779851   -0.00104462
     atom   14 type  2   force =    -0.00304135    0.08025433    0.00307068
     atom   15 type  2   force =    -0.13850684    0.11844630    0.00421960
     atom   16 type  2   force =     0.13479948    0.13567681    0.00310263
     atom   17 type  2   force =    -0.09413396   -0.06992929    0.00610732
     atom   18 type  2   force =     0.00222583    0.05777425    0.08797516
     atom   19 type  2   force =    -0.01339761    0.02846819    0.00419733
     atom   20 type  2   force =    -0.00338083    0.05906956   -0.07975138
     atom   21 type  2   force =    -0.00994035    0.02840014   -0.00225613
     atom   22 type  2   force =     0.00842804    0.03045394    0.00393500
     atom   23 type  2   force =     0.01541911    0.02820701    0.00173697
     The ionic contribution  to forces
     atom    1 type  1   force =    -0.08729940    3.01998220  -21.97890862
     atom    2 type  1   force =     0.04730472    0.01798313    8.99048453
     atom    3 type  1   force =    -0.09769283    0.06239627   -8.95746990
     atom    4 type  1   force =     0.11476648    3.10591700   22.11087761
     atom    5 type  1   force =    -0.03216034   -0.20013809   -5.94002749
     atom    6 type  1   force =     0.05271350   -0.27931388   18.39362797
     atom    7 type  1   force =    -0.14739595   -0.35907187  -18.29271611
     atom    8 type  1   force =     0.01135112   -0.29344719    5.87210407
     atom    9 type  2   force =    -0.12406410  -10.47480355  -40.83959353
     atom   10 type  2   force =     0.06176555    0.14538599   14.04790443
     atom   11 type  2   force =    -0.15319980    0.20044416  -14.29453093
     atom   12 type  2   force =     0.14420192  -10.78478386   40.80017956
     atom   13 type  2   force =    11.41762959   -6.32862428   -0.23266823
     atom   14 type  2   force =    -0.07523257   12.58974422   -0.06970301
     atom   15 type  2   force =   -11.35322153    8.28810765    0.03333437
     atom   16 type  2   force =    11.38329938    8.49654229    0.10599093
     atom   17 type  2   force =   -11.26001694   -6.05211674    0.04769972
     atom   18 type  2   force =    -0.10271742    0.16061274  -26.59889786
     atom   19 type  2   force =    -0.60550104   -0.49976312   27.94680791
     atom   20 type  2   force =     0.08959907    0.21448835   26.66375940
     atom   21 type  2   force =    -0.74580154   -0.29919351  -27.93127132
     atom   22 type  2   force =     0.92311934   -0.40241438   27.94997773
     atom   23 type  2   force =     0.53855281   -0.32793353  -27.82696124
     The local contribution  to forces
     atom    1 type  1   force =     0.08679277   -3.06581636   21.96977580
     atom    2 type  1   force =    -0.04734712   -0.01832464   -9.00711405
     atom    3 type  1   force =     0.09931358   -0.06398082    8.97057033
     atom    4 type  1   force =    -0.11541543   -3.15546120  -22.10491330
     atom    5 type  1   force =     0.03349092    0.20593607    5.94740569
     atom    6 type  1   force =    -0.05087909    0.30386925  -18.39865169
     atom    7 type  1   force =     0.14956392    0.38764212   18.29710648
     atom    8 type  1   force =    -0.01060155    0.30177254   -5.87957899
     atom    9 type  2   force =     0.12799327   10.57258089   40.80836857
     atom   10 type  2   force =    -0.07307378   -0.17021055  -14.09044932
     atom   11 type  2   force =     0.16755288   -0.22832988   14.33177079
     atom   12 type  2   force =    -0.14384142   10.87519468  -40.77301164
     atom   13 type  2   force =   -11.49697150    6.41294428    0.23548695
     atom   14 type  2   force =     0.07691461  -12.67088412    0.06782672
     atom   15 type  2   force =    11.49045952   -8.40241615   -0.03610273
     atom   16 type  2   force =   -11.51607648   -8.62841692   -0.10605742
     atom   17 type  2   force =    11.35389805    6.12165107   -0.05316898
     atom   18 type  2   force =     0.10064005   -0.21484471   26.51655521
     atom   19 type  2   force =     0.61817097    0.47106512  -27.95186457
     atom   20 type  2   force =    -0.08720895   -0.26812443  -26.59234925
     atom   21 type  2   force =     0.75510112    0.27194700   27.93213133
     atom   22 type  2   force =    -0.93099313    0.37276189  -27.95426692
     atom   23 type  2   force =    -0.55324062    0.30115029   27.82351566
     The core correction contribution to forces
     atom    1 type  1   force =    -0.00000111   -0.00015289   -0.00009895
     atom    2 type  1   force =    -0.00000412    0.00000829   -0.00009380
     atom    3 type  1   force =     0.00001076   -0.00000264    0.00007958
     atom    4 type  1   force =     0.00000441   -0.00017688    0.00008222
     atom    5 type  1   force =     0.00000628    0.00002246    0.00004028
     atom    6 type  1   force =     0.00000195    0.00008075    0.00003347
     atom    7 type  1   force =     0.00000768    0.00010560   -0.00003808
     atom    8 type  1   force =     0.00000923    0.00003398   -0.00004306
     atom    9 type  2   force =     0.00030618    0.00135435   -0.00866357
     atom   10 type  2   force =    -0.00072903   -0.00120755   -0.00651962
     atom   11 type  2   force =     0.00099260   -0.00138391    0.00618812
     atom   12 type  2   force =     0.00007467    0.00080183    0.00848184
     atom   13 type  2   force =    -0.00192422    0.00393021   -0.00012092
     atom   14 type  2   force =     0.00027129   -0.00167646   -0.00017206
     atom   15 type  2   force =     0.00302781   -0.00161891   -0.00020382
     atom   16 type  2   force =    -0.00293773   -0.00234896   -0.00032155
     atom   17 type  2   force =     0.00270375    0.00276792   -0.00022651
     atom   18 type  2   force =    -0.00017172   -0.00369286   -0.00688388
     atom   19 type  2   force =     0.00079388   -0.00168882    0.00044143
     atom   20 type  2   force =     0.00030288   -0.00374864    0.00638019
     atom   21 type  2   force =     0.00054686   -0.00174399   -0.00064429
     atom   22 type  2   force =    -0.00036980   -0.00179297    0.00041531
     atom   23 type  2   force =    -0.00083646   -0.00176602   -0.00074718
     The Hubbard contrib.    to forces
     atom    1 type  1   force =     0.00000000    0.00000000    0.00000000
     atom    2 type  1   force =     0.00000000    0.00000000    0.00000000
     atom    3 type  1   force =     0.00000000    0.00000000    0.00000000
     atom    4 type  1   force =     0.00000000    0.00000000    0.00000000
     atom    5 type  1   force =     0.00000000    0.00000000    0.00000000
     atom    6 type  1   force =     0.00000000    0.00000000    0.00000000
     atom    7 type  1   force =     0.00000000    0.00000000    0.00000000
     atom    8 type  1   force =     0.00000000    0.00000000    0.00000000
     atom    9 type  2   force =     0.00000000    0.00000000    0.00000000
     atom   10 type  2   force =     0.00000000    0.00000000    0.00000000
     atom   11 type  2   force =     0.00000000    0.00000000    0.00000000
     atom   12 type  2   force =     0.00000000    0.00000000    0.00000000
     atom   13 type  2   force =     0.00000000    0.00000000    0.00000000
     atom   14 type  2   force =     0.00000000    0.00000000    0.00000000
     atom   15 type  2   force =     0.00000000    0.00000000    0.00000000
     atom   16 type  2   force =     0.00000000    0.00000000    0.00000000
     atom   17 type  2   force =     0.00000000    0.00000000    0.00000000
     atom   18 type  2   force =     0.00000000    0.00000000    0.00000000
     atom   19 type  2   force =     0.00000000    0.00000000    0.00000000
     atom   20 type  2   force =     0.00000000    0.00000000    0.00000000
     atom   21 type  2   force =     0.00000000    0.00000000    0.00000000
     atom   22 type  2   force =     0.00000000    0.00000000    0.00000000
     atom   23 type  2   force =     0.00000000    0.00000000    0.00000000
     The SCF correction term to forces
     atom    1 type  1   force =    -0.00008545    0.00000356    0.00003229
     atom    2 type  1   force =     0.00001290   -0.00007556    0.00143768
     atom    3 type  1   force =    -0.00001234   -0.00010987   -0.00126353
     atom    4 type  1   force =    -0.00008461   -0.00005561    0.00075149
     atom    5 type  1   force =     0.00004782   -0.00007749   -0.00122068
     atom    6 type  1   force =    -0.00001337    0.00009688   -0.00010700
     atom    7 type  1   force =    -0.00000754    0.00010992   -0.00031424
     atom    8 type  1   force =     0.00003667   -0.00011258    0.00064926
     atom    9 type  2   force =     0.00038102   -0.00005957   -0.00021427
     atom   10 type  2   force =     0.00066630   -0.00018482    0.00243292
     atom   11 type  2   force =     0.00047770    0.00020676   -0.00348794
     atom   12 type  2   force =     0.00035487   -0.00018763    0.00059512
     atom   13 type  2   force =     0.00066565    0.00028105   -0.00087398
     atom   14 type  2   force =     0.00059842   -0.00014687   -0.00130332
     atom   15 type  2   force =    -0.00022539    0.00061708   -0.00185966
     atom   16 type  2   force =     0.00088486    0.00040526   -0.00219110
     atom   17 type  2   force =    -0.00032032   -0.00034915   -0.00114577
     atom   18 type  2   force =     0.00007708    0.00008847   -0.00008632
     atom   19 type  2   force =    -0.00032923    0.00012907    0.00361354
     atom   20 type  2   force =     0.00018041   -0.00063380    0.00304250
     atom   21 type  2   force =     0.00034472   -0.00008756   -0.00029799
     atom   22 type  2   force =     0.00055757   -0.00023763    0.00372755
     atom   23 type  2   force =    -0.00043482   -0.00034132   -0.00093932

     Total force =     0.011615     Total SCF correction =     0.008887
     SCF correction compared to forces is large: reduce conv_thr to get better values


     Computing stress (Cartesian axis) and pressure

          total   stress  (Ry/bohr**3)                   (kbar)     P=       -0.21
  -0.00000876   0.00000511   0.00000619           -1.29        0.75        0.91
   0.00000511  -0.00000085   0.00000128            0.75       -0.12        0.19
   0.00000619   0.00000128   0.00000538            0.91        0.19        0.79

     Energy error            =      2.6E-04 Ry
     Gradient error          =      4.2E-03 Ry/Bohr
     Cell gradient error     =      1.3E+00 kbar

     number of scf cycles    =   6
     number of bfgs steps    =   5

     enthalpy           old  =   -7568.8495511212 Ry
     enthalpy           new  =   -7568.8498077856 Ry

     CASE: enthalpy          _new < enthalpy          _old

     new trust radius        =       0.0180564465 bohr
     new conv_thr            =       0.0000025666 Ry

     new unit-cell volume =   2039.13626 a.u.^3 (   302.16882 Ang^3 )
     density =      5.90668 g/cm^3

CELL_PARAMETERS (angstrom)
   4.746113909   0.000599938  -0.023487959
  -2.376530356   4.094196497   0.017403484
   0.066952361  -0.019145668  15.548945825

ATOMIC_POSITIONS (crystal)
Mg            0.9997431876        1.0000985507        0.4059498634
Mg           -0.0004573585       -0.0014255352        0.9077074694
Mg            0.9987151979        0.9976962647        0.5919856857
Mg            0.9994237188        0.9987975572        0.0937790594
Mg            0.3318760783        0.6651621968        0.6556970458
Mg            0.6668776408        0.3348876571        0.1578000593
Mg            0.6670216737        0.3348966637        0.3419477704
Mg            0.3324238238        0.6653638260        0.8441619284
Ni            0.3371452620        0.6753146018        0.3722786610
Ni            0.6659595853        0.3299823267        0.8752351538
Ni            0.6642972022        0.3293012845        0.6244997018
Ni            0.3364370844        0.6741453168        0.1275052677
Ni            0.8332294910        0.1629553299        0.7499259907
Ni            0.8342374175        0.6688127837        0.7498899071
Ni            0.1585002626        0.8321042654        0.2500656335
Ni            0.6735519185        0.8334018214        0.2496810263
Ni            0.3283323612        0.1625196559        0.7500443116
Ni            0.4983211784        0.9971923558        0.4987396626
Ni            0.4988307224        0.4974845307        0.0012430752
Ni            0.4986730343       -0.0032841562        1.0010217400
Ni            0.4981091562        0.4968802947        0.4984915114
Ni           -0.0007599657        0.4971944304        0.0010608567
Ni            0.9983353273        0.4971279774        0.4986606188



     Writing config-only to output data dir ./C36/out_logs/C36_out_8/laves_C36.save/
     NEW-OLD atomic charge density approx. for the potential

     Check: negative core charge=   -0.000010
     extrapolated charge  349.38320, renormalised to  350.00000

     total cpu time spent up to now is     4002.4 secs

     Self-consistent Calculation

     iteration #  1     ecut=    80.00 Ry     beta= 0.20
     Davidson diagonalization with overlap
     ethr =  1.00E-06,  avg # of iterations = 10.8

     total cpu time spent up to now is     4027.8 secs

     total energy              =   -7567.91596820 Ry
     estimated scf accuracy    <      10.45945377 Ry

     iteration #  2     ecut=    80.00 Ry     beta= 0.20
     Davidson diagonalization with overlap
     ethr =  2.99E-03,  avg # of iterations =  2.6

     total cpu time spent up to now is     4038.5 secs

     total energy              =   -7562.20814757 Ry
     estimated scf accuracy    <     198.05502667 Ry

     iteration #  3     ecut=    80.00 Ry     beta= 0.20
     Davidson diagonalization with overlap
     ethr =  2.99E-03,  avg # of iterations =  3.0

     total cpu time spent up to now is     4048.6 secs

     total energy              =   -7567.49353776 Ry
     estimated scf accuracy    <      69.66564932 Ry

     iteration #  4     ecut=    80.00 Ry     beta= 0.20
     Davidson diagonalization with overlap
     ethr =  2.99E-03,  avg # of iterations =  1.2

     total cpu time spent up to now is     4057.5 secs

     total energy              =   -7568.65115605 Ry
     estimated scf accuracy    <      12.26469090 Ry

     iteration #  5     ecut=    80.00 Ry     beta= 0.20
     Davidson diagonalization with overlap
     ethr =  2.99E-03,  avg # of iterations =  1.0

     total cpu time spent up to now is     4066.3 secs

     total energy              =   -7568.68491366 Ry
     estimated scf accuracy    <      13.89303201 Ry

     iteration #  6     ecut=    80.00 Ry     beta= 0.20
     Davidson diagonalization with overlap
     ethr =  2.99E-03,  avg # of iterations =  1.0

     total cpu time spent up to now is     4075.0 secs

     total energy              =   -7568.81107291 Ry
     estimated scf accuracy    <       2.05059147 Ry

     iteration #  7     ecut=    80.00 Ry     beta= 0.20
     Davidson diagonalization with overlap
     ethr =  5.86E-04,  avg # of iterations =  1.0

     total cpu time spent up to now is     4083.7 secs

     total energy              =   -7568.87379090 Ry
     estimated scf accuracy    <       1.34218461 Ry

     iteration #  8     ecut=    80.00 Ry     beta= 0.20
     Davidson diagonalization with overlap
     ethr =  3.83E-04,  avg # of iterations =  1.0

     total cpu time spent up to now is     4092.4 secs

     total energy              =   -7568.85807954 Ry
     estimated scf accuracy    <       0.66974016 Ry

     iteration #  9     ecut=    80.00 Ry     beta= 0.20
     Davidson diagonalization with overlap
     ethr =  1.91E-04,  avg # of iterations =  1.0

     total cpu time spent up to now is     4101.1 secs

     total energy              =   -7568.85562249 Ry
     estimated scf accuracy    <       0.29397293 Ry

     iteration # 10     ecut=    80.00 Ry     beta= 0.20
     Davidson diagonalization with overlap
     ethr =  8.40E-05,  avg # of iterations =  1.0

     total cpu time spent up to now is     4109.9 secs

     total energy              =   -7568.85274747 Ry
     estimated scf accuracy    <       0.17839432 Ry

     iteration # 11     ecut=    80.00 Ry     beta= 0.20
     Davidson diagonalization with overlap
     ethr =  5.10E-05,  avg # of iterations =  1.0

     total cpu time spent up to now is     4118.6 secs

     total energy              =   -7568.84657366 Ry
     estimated scf accuracy    <       0.10284322 Ry

     iteration # 12     ecut=    80.00 Ry     beta= 0.20
     Davidson diagonalization with overlap
     ethr =  2.94E-05,  avg # of iterations =  1.0

     total cpu time spent up to now is     4127.3 secs

     total energy              =   -7568.84606959 Ry
     estimated scf accuracy    <       0.02297295 Ry

     iteration # 13     ecut=    80.00 Ry     beta= 0.20
     Davidson diagonalization with overlap
     ethr =  6.56E-06,  avg # of iterations =  1.6

     total cpu time spent up to now is     4136.8 secs

     total energy              =   -7568.84664434 Ry
     estimated scf accuracy    <       0.01923094 Ry

     iteration # 14     ecut=    80.00 Ry     beta= 0.20
     Davidson diagonalization with overlap
     ethr =  5.49E-06,  avg # of iterations =  1.0

     total cpu time spent up to now is     4145.5 secs

     total energy              =   -7568.84605564 Ry
     estimated scf accuracy    <       0.01506293 Ry

     iteration # 15     ecut=    80.00 Ry     beta= 0.20
     Davidson diagonalization with overlap
     ethr =  4.30E-06,  avg # of iterations =  1.4

     total cpu time spent up to now is     4154.6 secs

     total energy              =   -7568.84623501 Ry
     estimated scf accuracy    <       0.02324688 Ry

     iteration # 16     ecut=    80.00 Ry     beta= 0.20
     Davidson diagonalization with overlap
     ethr =  4.30E-06,  avg # of iterations =  1.0

     total cpu time spent up to now is     4163.4 secs

     total energy              =   -7568.84681943 Ry
     estimated scf accuracy    <       0.00946752 Ry

     iteration # 17     ecut=    80.00 Ry     beta= 0.20
     Davidson diagonalization with overlap
     ethr =  2.71E-06,  avg # of iterations =  1.2

     total cpu time spent up to now is     4172.3 secs

     total energy              =   -7568.84704829 Ry
     estimated scf accuracy    <       0.00718378 Ry

     iteration # 18     ecut=    80.00 Ry     beta= 0.20
     Davidson diagonalization with overlap
     ethr =  2.05E-06,  avg # of iterations =  1.0

     total cpu time spent up to now is     4181.1 secs

     total energy              =   -7568.84751748 Ry
     estimated scf accuracy    <       0.00402938 Ry

     iteration # 19     ecut=    80.00 Ry     beta= 0.20
     Davidson diagonalization with overlap
     ethr =  1.15E-06,  avg # of iterations =  1.0

     total cpu time spent up to now is     4189.8 secs

     total energy              =   -7568.84793732 Ry
     estimated scf accuracy    <       0.00481688 Ry

     iteration # 20     ecut=    80.00 Ry     beta= 0.20
     Davidson diagonalization with overlap
     ethr =  1.15E-06,  avg # of iterations =  1.0

     total cpu time spent up to now is     4198.6 secs

     total energy              =   -7568.84809042 Ry
     estimated scf accuracy    <       0.01536157 Ry

     iteration # 21     ecut=    80.00 Ry     beta= 0.20
     Davidson diagonalization with overlap
     ethr =  1.15E-06,  avg # of iterations =  1.0

     total cpu time spent up to now is     4207.3 secs

     total energy              =   -7568.84777689 Ry
     estimated scf accuracy    <       0.00457556 Ry

     iteration # 22     ecut=    80.00 Ry     beta= 0.20
     Davidson diagonalization with overlap
     ethr =  1.15E-06,  avg # of iterations =  1.0

     total cpu time spent up to now is     4216.0 secs

     total energy              =   -7568.84837305 Ry
     estimated scf accuracy    <       0.00257895 Ry

     iteration # 23     ecut=    80.00 Ry     beta= 0.20
     Davidson diagonalization with overlap
     ethr =  7.37E-07,  avg # of iterations =  2.0

     total cpu time spent up to now is     4226.2 secs

     total energy              =   -7568.84875495 Ry
     estimated scf accuracy    <       0.00487157 Ry

     iteration # 24     ecut=    80.00 Ry     beta= 0.20
     Davidson diagonalization with overlap
     ethr =  7.37E-07,  avg # of iterations =  1.0

     total cpu time spent up to now is     4235.0 secs

     total energy              =   -7568.84898402 Ry
     estimated scf accuracy    <       0.00135325 Ry

     iteration # 25     ecut=    80.00 Ry     beta= 0.20
     Davidson diagonalization with overlap
     ethr =  3.87E-07,  avg # of iterations =  1.0

     total cpu time spent up to now is     4243.7 secs

     total energy              =   -7568.84899979 Ry
     estimated scf accuracy    <       0.00039589 Ry

     iteration # 26     ecut=    80.00 Ry     beta= 0.20
     Davidson diagonalization with overlap
     ethr =  1.13E-07,  avg # of iterations =  2.0

     total cpu time spent up to now is     4253.5 secs

     total energy              =   -7568.84906674 Ry
     estimated scf accuracy    <       0.00016373 Ry

     iteration # 27     ecut=    80.00 Ry     beta= 0.20
     Davidson diagonalization with overlap
     ethr =  4.68E-08,  avg # of iterations =  2.0

     total cpu time spent up to now is     4264.1 secs

     total energy              =   -7568.84923303 Ry
     estimated scf accuracy    <       0.00194985 Ry

     iteration # 28     ecut=    80.00 Ry     beta= 0.20
     Davidson diagonalization with overlap
     ethr =  4.68E-08,  avg # of iterations =  2.0

     total cpu time spent up to now is     4274.7 secs

     total energy              =   -7568.84921455 Ry
     estimated scf accuracy    <       0.00333139 Ry

     iteration # 29     ecut=    80.00 Ry     beta= 0.20
     Davidson diagonalization with overlap
     ethr =  4.68E-08,  avg # of iterations =  2.0

     total cpu time spent up to now is     4284.7 secs

     total energy              =   -7568.84923549 Ry
     estimated scf accuracy    <       0.00156466 Ry

     iteration # 30     ecut=    80.00 Ry     beta= 0.20
     Davidson diagonalization with overlap
     ethr =  4.68E-08,  avg # of iterations =  1.0

     total cpu time spent up to now is     4293.4 secs

     total energy              =   -7568.84928429 Ry
     estimated scf accuracy    <       0.00171604 Ry

     iteration # 31     ecut=    80.00 Ry     beta= 0.20
     Davidson diagonalization with overlap
     ethr =  4.68E-08,  avg # of iterations =  1.0

     total cpu time spent up to now is     4302.2 secs

     total energy              =   -7568.84936772 Ry
     estimated scf accuracy    <       0.00144226 Ry

     iteration # 32     ecut=    80.00 Ry     beta= 0.20
     Davidson diagonalization with overlap
     ethr =  4.68E-08,  avg # of iterations =  1.0

     total cpu time spent up to now is     4310.9 secs

     total energy              =   -7568.84945949 Ry
     estimated scf accuracy    <       0.00121082 Ry

     iteration # 33     ecut=    80.00 Ry     beta= 0.20
     Davidson diagonalization with overlap
     ethr =  4.68E-08,  avg # of iterations =  1.0

     total cpu time spent up to now is     4319.7 secs

     total energy              =   -7568.84952374 Ry
     estimated scf accuracy    <       0.00077169 Ry

     iteration # 34     ecut=    80.00 Ry     beta= 0.20
     Davidson diagonalization with overlap
     ethr =  4.68E-08,  avg # of iterations =  1.0

     total cpu time spent up to now is     4328.4 secs

     total energy              =   -7568.84958949 Ry
     estimated scf accuracy    <       0.00086145 Ry

     iteration # 35     ecut=    80.00 Ry     beta= 0.20
     Davidson diagonalization with overlap
     ethr =  4.68E-08,  avg # of iterations =  1.0

     total cpu time spent up to now is     4337.2 secs

     total energy              =   -7568.84963178 Ry
     estimated scf accuracy    <       0.00071150 Ry

     iteration # 36     ecut=    80.00 Ry     beta= 0.20
     Davidson diagonalization with overlap
     ethr =  4.68E-08,  avg # of iterations =  1.0

     total cpu time spent up to now is     4345.9 secs

     total energy              =   -7568.84969435 Ry
     estimated scf accuracy    <       0.00056311 Ry

     iteration # 37     ecut=    80.00 Ry     beta= 0.20
     Davidson diagonalization with overlap
     ethr =  4.68E-08,  avg # of iterations =  1.0

     total cpu time spent up to now is     4354.7 secs

     total energy              =   -7568.84972749 Ry
     estimated scf accuracy    <       0.00047975 Ry

     iteration # 38     ecut=    80.00 Ry     beta= 0.20
     Davidson diagonalization with overlap
     ethr =  4.68E-08,  avg # of iterations =  1.0

     total cpu time spent up to now is     4363.4 secs

     total energy              =   -7568.84975383 Ry
     estimated scf accuracy    <       0.00044465 Ry

     iteration # 39     ecut=    80.00 Ry     beta= 0.20
     Davidson diagonalization with overlap
     ethr =  4.68E-08,  avg # of iterations =  1.0

     total cpu time spent up to now is     4372.2 secs

     total energy              =   -7568.84979776 Ry
     estimated scf accuracy    <       0.00037245 Ry

     iteration # 40     ecut=    80.00 Ry     beta= 0.20
     Davidson diagonalization with overlap
     ethr =  4.68E-08,  avg # of iterations =  1.0

     total cpu time spent up to now is     4380.9 secs

     total energy              =   -7568.84982092 Ry
     estimated scf accuracy    <       0.00030553 Ry

     iteration # 41     ecut=    80.00 Ry     beta= 0.20
     Davidson diagonalization with overlap
     ethr =  4.68E-08,  avg # of iterations =  1.0

     total cpu time spent up to now is     4389.7 secs

     total energy              =   -7568.84989105 Ry
     estimated scf accuracy    <       0.00028205 Ry

     iteration # 42     ecut=    80.00 Ry     beta= 0.20
     Davidson diagonalization with overlap
     ethr =  4.68E-08,  avg # of iterations =  2.0

     total cpu time spent up to now is     4401.1 secs

     total energy              =   -7568.84995836 Ry
     estimated scf accuracy    <       0.00024455 Ry

     iteration # 43     ecut=    80.00 Ry     beta= 0.20
     Davidson diagonalization with overlap
     ethr =  4.68E-08,  avg # of iterations =  1.0

     total cpu time spent up to now is     4409.8 secs

     total energy              =   -7568.84997840 Ry
     estimated scf accuracy    <       0.00064533 Ry

     iteration # 44     ecut=    80.00 Ry     beta= 0.20
     Davidson diagonalization with overlap
     ethr =  4.68E-08,  avg # of iterations =  2.0

     total cpu time spent up to now is     4419.6 secs

     total energy              =   -7568.84998429 Ry
     estimated scf accuracy    <       0.00036078 Ry

     iteration # 45     ecut=    80.00 Ry     beta= 0.20
     Davidson diagonalization with overlap
     ethr =  4.68E-08,  avg # of iterations =  1.0

     total cpu time spent up to now is     4428.3 secs

     total energy              =   -7568.84998229 Ry
     estimated scf accuracy    <       0.00032218 Ry

     iteration # 46     ecut=    80.00 Ry     beta= 0.20
     Davidson diagonalization with overlap
     ethr =  4.68E-08,  avg # of iterations =  1.0

     total cpu time spent up to now is     4437.1 secs

     total energy              =   -7568.84998231 Ry
     estimated scf accuracy    <       0.00032143 Ry

     iteration # 47     ecut=    80.00 Ry     beta= 0.20
     Davidson diagonalization with overlap
     ethr =  4.68E-08,  avg # of iterations =  1.0

     total cpu time spent up to now is     4445.8 secs

     total energy              =   -7568.84998182 Ry
     estimated scf accuracy    <       0.00032606 Ry

     iteration # 48     ecut=    80.00 Ry     beta= 0.20
     Davidson diagonalization with overlap
     ethr =  4.68E-08,  avg # of iterations =  1.0

     total cpu time spent up to now is     4454.6 secs

     total energy              =   -7568.84998322 Ry
     estimated scf accuracy    <       0.00031402 Ry

     iteration # 49     ecut=    80.00 Ry     beta= 0.20
     Davidson diagonalization with overlap
     ethr =  4.68E-08,  avg # of iterations =  1.0

     total cpu time spent up to now is     4463.4 secs

     total energy              =   -7568.84998610 Ry
     estimated scf accuracy    <       0.00027338 Ry

     iteration # 50     ecut=    80.00 Ry     beta= 0.20
     Davidson diagonalization with overlap
     ethr =  4.68E-08,  avg # of iterations =  1.0

     total cpu time spent up to now is     4472.1 secs

     total energy              =   -7568.84998199 Ry
     estimated scf accuracy    <       0.00028223 Ry

     iteration # 51     ecut=    80.00 Ry     beta= 0.20
     Davidson diagonalization with overlap
     ethr =  4.68E-08,  avg # of iterations =  1.0

     total cpu time spent up to now is     4480.9 secs

     total energy              =   -7568.84998902 Ry
     estimated scf accuracy    <       0.00039759 Ry

     iteration # 52     ecut=    80.00 Ry     beta= 0.20
     Davidson diagonalization with overlap
     ethr =  4.68E-08,  avg # of iterations =  1.0

     total cpu time spent up to now is     4489.6 secs

     total energy              =   -7568.84999319 Ry
     estimated scf accuracy    <       0.00014964 Ry

     iteration # 53     ecut=    80.00 Ry     beta= 0.20
     Davidson diagonalization with overlap
     ethr =  4.28E-08,  avg # of iterations =  1.0

     total cpu time spent up to now is     4498.4 secs

     total energy              =   -7568.84997676 Ry
     estimated scf accuracy    <       0.00006095 Ry

     iteration # 54     ecut=    80.00 Ry     beta= 0.20
     Davidson diagonalization with overlap
     ethr =  1.74E-08,  avg # of iterations =  2.0

     total cpu time spent up to now is     4509.8 secs

     total energy              =   -7568.85000389 Ry
     estimated scf accuracy    <       0.00000989 Ry

     iteration # 55     ecut=    80.00 Ry     beta= 0.20
     Davidson diagonalization with overlap
     ethr =  2.82E-09,  avg # of iterations =  2.0

     total cpu time spent up to now is     4520.5 secs

     total energy              =   -7568.85000494 Ry
     estimated scf accuracy    <       0.00000753 Ry

     iteration # 56     ecut=    80.00 Ry     beta= 0.20
     Davidson diagonalization with overlap
     ethr =  2.15E-09,  avg # of iterations =  1.4

     total cpu time spent up to now is     4529.6 secs

     End of self-consistent calculation

          k = 0.0000 0.0000 0.0000 ( 24267 PWs)   bands (ev):

   -90.1175 -90.1144 -90.0603 -90.0591 -90.0440 -90.0143 -90.0111 -89.9924
   -89.9921 -89.9738 -89.9735 -89.9727 -89.9710 -89.7922 -89.7699 -62.2516
   -62.2486 -62.2468 -62.2445 -62.1912 -62.1899 -62.1891 -62.1874 -50.7381
   -50.7283 -50.6798 -50.6245 -50.5800 -50.5412 -50.5383 -50.5251 -50.5224
   -50.4995 -50.4938 -50.4827 -50.4816 -50.4525 -50.4444 -50.4261 -50.4224
   -50.4058 -50.3946 -50.3823 -50.3801 -50.3724 -50.3670 -50.3592 -50.3542
   -50.3441 -50.3380 -50.3367 -50.3345 -50.3338 -50.3328 -50.2853 -50.2771
   -50.2764 -50.2759 -50.2755 -50.2539 -50.2537 -50.2364 -50.2251 -50.2197
   -50.2178 -50.2099 -49.9703 -49.9512 -29.0186 -29.0185 -29.0174 -29.0160
   -29.0128 -29.0124 -29.0096 -29.0094 -28.9950 -28.9944 -28.9919 -28.9909
   -28.9651 -28.9636 -28.9457 -28.9449 -28.9440 -28.9437 -28.9433 -28.9423
   -28.9422 -28.9409 -28.9330 -28.9318   4.4728   5.0311   5.3856   6.8597
     7.2737   8.5049   8.5219   8.9395   9.2085   9.3241   9.4469   9.5445
     9.5593   9.5607   9.5770   9.5834   9.6202   9.7592   9.7632   9.8134
     9.8776   9.8866   9.9462  10.0316  10.0724  10.2670  10.3319  10.3387
    10.3572  10.3858  10.4140  10.4407  10.4528  10.5106  10.6222  10.8278
    10.8702  10.8991  10.9266  10.9938  11.0498  11.0718  11.1292  11.1776
    11.5031  11.5204  11.6511  11.7399  11.7525  11.8211  11.8434  11.8478
    11.9717  12.0405  12.0685  12.1434  12.2122  12.2259  12.2371  12.2410
    12.2456  12.2479  12.2650  12.2699  12.2738  12.2984  12.3246  12.3268
    12.3354  12.3724  12.3769  12.3846  12.4154  12.5503  12.6815  12.8121
    12.9111  12.9891  13.1351  13.3538  13.3744  13.3746  13.8677  13.8841
    14.0469  14.0536  14.0810  14.1667  14.1720  14.2354  14.4458  14.4604
    14.4794  15.3830  15.4685  15.8448  15.8722  15.9163  16.2455  16.3924
    16.4962  16.9450  16.9563  17.4076  17.5015  17.6214  17.7635  17.8322
    17.9884  18.5316  18.6304  18.8611  19.1450  19.3027  19.7350  19.7634
    19.7707  20.0443

          k =-0.0000 0.3823 0.0005 ( 24221 PWs)   bands (ev):

   -90.1171 -90.1142 -90.0577 -90.0564 -90.0374 -90.0209 -90.0113 -89.9954
   -89.9951 -89.9738 -89.9735 -89.9725 -89.9708 -89.7922 -89.7699 -62.2515
   -62.2485 -62.2467 -62.2444 -62.1913 -62.1899 -62.1891 -62.1875 -50.7047
   -50.6962 -50.6397 -50.6231 -50.5901 -50.5556 -50.5498 -50.5202 -50.5141
   -50.4885 -50.4846 -50.4826 -50.4609 -50.4595 -50.4366 -50.4340 -50.4154
   -50.4026 -50.3856 -50.3785 -50.3764 -50.3689 -50.3654 -50.3635 -50.3608
   -50.3542 -50.3482 -50.3481 -50.3402 -50.3361 -50.3352 -50.3007 -50.3005
   -50.2983 -50.2864 -50.2854 -50.2623 -50.2616 -50.2363 -50.2253 -50.2197
   -50.2177 -50.2098 -49.9705 -49.9508 -29.0193 -29.0191 -29.0182 -29.0167
   -29.0135 -29.0117 -29.0103 -29.0089 -28.9959 -28.9933 -28.9929 -28.9898
   -28.9646 -28.9631 -28.9469 -28.9452 -28.9441 -28.9439 -28.9425 -28.9424
   -28.9416 -28.9401 -28.9323 -28.9311   5.4804   6.0227   6.3215   7.6827
     8.0201   8.1939   8.4750   8.7457   9.0851   9.1233   9.3096   9.3346
     9.4791   9.5874   9.6231   9.6414   9.7611   9.7951   9.8915   9.8949
     9.9215  10.1004  10.1765  10.1847  10.1951  10.2617  10.3286  10.3428
    10.3628  10.4357  10.4390  10.5062  10.5538  10.5942  10.6100  10.6579
    10.7121  10.8030  10.8486  10.8761  10.9961  11.0152  11.0178  11.0576
    11.1060  11.1457  11.1691  11.2546  11.3675  11.4300  11.4522  11.5027
    11.5154  11.6330  11.6424  11.7370  11.7675  11.8121  11.8165  11.8304
    11.9133  11.9201  11.9672  12.0418  12.0607  12.0852  12.1468  12.1798
    12.2570  12.2723  12.2919  12.3198  12.3346  12.3484  12.3641  12.4333
    12.4635  12.5391  12.6136  12.6416  12.7098  12.7396  12.9116  13.1837
    13.1923  13.5586  13.5660  13.6901  13.9917  13.9990  14.1659  14.2334
    14.3465  14.4495  14.5286  15.2071  15.7475  16.2596  16.3564  17.5734
    17.7479  18.0342  18.2005  18.7897  18.8968  19.1394  19.1687  19.2013
    19.3136  19.8168  20.3063  20.3956  20.4136  21.0242  21.0900  21.3703
    21.8369  22.1886

          k = 0.3298 0.1915-0.0012 ( 24222 PWs)   bands (ev):

   -90.1172 -90.1143 -90.0588 -90.0576 -90.0386 -90.0170 -90.0141 -89.9895
   -89.9891 -89.9793 -89.9792 -89.9716 -89.9701 -89.7880 -89.7742 -62.2515
   -62.2485 -62.2467 -62.2444 -62.1913 -62.1899 -62.1891 -62.1875 -50.7099
   -50.7030 -50.6441 -50.6222 -50.5822 -50.5421 -50.5395 -50.5105 -50.5096
   -50.4991 -50.4908 -50.4843 -50.4632 -50.4533 -50.4465 -50.4287 -50.4195
   -50.3888 -50.3844 -50.3746 -50.3740 -50.3711 -50.3682 -50.3647 -50.3601
   -50.3577 -50.3556 -50.3404 -50.3398 -50.3232 -50.3223 -50.3020 -50.2970
   -50.2950 -50.2886 -50.2881 -50.2664 -50.2657 -50.2577 -50.2321 -50.2249
   -50.2205 -50.2123 -49.9665 -49.9548 -29.0196 -29.0181 -29.0181 -29.0160
   -29.0135 -29.0119 -29.0104 -29.0087 -28.9960 -28.9946 -28.9925 -28.9914
   -28.9642 -28.9627 -28.9459 -28.9446 -28.9444 -28.9439 -28.9429 -28.9425
   -28.9418 -28.9403 -28.9324 -28.9312   5.4789   6.0155   6.3555   7.7678
     8.0204   8.1648   8.4514   8.6636   9.0789   9.1239   9.3415   9.4554
     9.5051   9.5191   9.6628   9.7592   9.7686   9.8198   9.8855   9.8869
     9.9440  10.1416  10.1454  10.1808  10.2324  10.3044  10.3414  10.3944
    10.4217  10.4298  10.4993  10.5501  10.5693  10.6029  10.6367  10.7455
    10.7576  10.8072  10.8172  10.9088  10.9158  10.9611  11.0101  11.0493
    11.1275  11.1766  11.1919  11.2774  11.3137  11.4097  11.4198  11.4636
    11.4652  11.5881  11.6296  11.6641  11.6809  11.7382  11.7995  11.8224
    11.8331  11.8541  11.9262  11.9765  12.0156  12.0573  12.0760  12.0965
    12.1505  12.2409  12.2466  12.2725  12.3119  12.3576  12.3656  12.4057
    12.4257  12.4495  12.5255  12.5572  12.7287  12.7351  12.8879  13.0622
    13.1775  13.6613  13.7449  13.8819  13.9895  14.0255  14.1721  14.2679
    14.3239  14.7112  15.0535  15.5009  15.7894  15.9601  16.0898  17.3676
    17.8649  17.9594  18.0520  18.8621  18.9809  19.0208  19.2891  19.3686
    19.3735  19.9196  20.3373  20.3468  20.4448  20.9492  21.0790  21.3085
    21.8248  22.1225

          k = 0.3298 0.5738-0.0007 ( 24155 PWs)   bands (ev):

   -90.1170 -90.1141 -90.0575 -90.0562 -90.0323 -90.0251 -90.0124 -89.9914
   -89.9910 -89.9788 -89.9787 -89.9716 -89.9700 -89.7880 -89.7742 -62.2515
   -62.2485 -62.2466 -62.2444 -62.1913 -62.1900 -62.1892 -62.1875 -50.6886
   -50.6845 -50.6223 -50.6208 -50.5693 -50.5616 -50.5525 -50.5145 -50.5069
   -50.5015 -50.4865 -50.4803 -50.4570 -50.4549 -50.4424 -50.4221 -50.4184
   -50.3837 -50.3801 -50.3770 -50.3759 -50.3741 -50.3721 -50.3707 -50.3638
   -50.3595 -50.3537 -50.3383 -50.3324 -50.3225 -50.3221 -50.3215 -50.2954
   -50.2953 -50.2935 -50.2915 -50.2834 -50.2833 -50.2576 -50.2321 -50.2248
   -50.2204 -50.2123 -49.9666 -49.9545 -29.0195 -29.0190 -29.0183 -29.0164
   -29.0144 -29.0112 -29.0111 -29.0078 -28.9966 -28.9940 -28.9926 -28.9912
   -28.9638 -28.9623 -28.9466 -28.9454 -28.9448 -28.9440 -28.9428 -28.9414
   -28.9411 -28.9399 -28.9321 -28.9309   7.0475   7.3225   7.5545   7.6100
     7.6833   8.0075   8.1144   8.1387   8.3865   9.0354   9.0850   9.1324
     9.1722   9.1893   9.5517   9.7117   9.8825   9.9553   9.9658  10.0118
    10.0674  10.1517  10.2578  10.2859  10.2872  10.3151  10.3841  10.4058
    10.4796  10.4945  10.5095  10.5351  10.5461  10.5722  10.5976  10.6263
    10.6575  10.7098  10.7254  10.7480  10.7804  10.7939  10.8573  10.9531
    10.9949  11.0290  11.0494  11.1267  11.2616  11.2677  11.3070  11.3524
    11.3799  11.4168  11.4722  11.5377  11.5753  11.6334  11.6729  11.7062
    11.7820  11.8212  11.8901  11.9046  11.9072  11.9546  11.9714  11.9894
    12.0093  12.0328  12.0825  12.0849  12.1112  12.1703  12.3028  12.3596
    12.3992  12.4118  12.5457  12.5466  12.5562  12.6229  12.7405  12.7876
    12.8158  12.8913  13.0107  13.2215  13.3235  13.3415  14.6986  14.7605
    14.7718  14.9183  15.3584  15.7220  17.4577  17.6154  17.7398  17.8878
    17.9890  18.5964  18.6179  18.6228  18.7349  18.7898  19.1146  19.3766
    19.6136  19.6445  19.6907  20.4799  20.5382  20.9328  20.9646  21.0665
    21.7392  22.9853

          k = 0.3299-0.1909-0.0017 ( 24223 PWs)   bands (ev):

   -90.1172 -90.1143 -90.0589 -90.0576 -90.0381 -90.0195 -90.0120 -89.9890
   -89.9888 -89.9797 -89.9795 -89.9716 -89.9701 -89.7880 -89.7742 -62.2515
   -62.2485 -62.2467 -62.2444 -62.1913 -62.1899 -62.1891 -62.1875 -50.7103
   -50.7034 -50.6441 -50.6221 -50.5818 -50.5418 -50.5392 -50.5110 -50.5104
   -50.5005 -50.4902 -50.4840 -50.4623 -50.4539 -50.4459 -50.4285 -50.4194
   -50.3888 -50.3847 -50.3746 -50.3741 -50.3715 -50.3683 -50.3642 -50.3602
   -50.3592 -50.3542 -50.3411 -50.3402 -50.3232 -50.3223 -50.3012 -50.2960
   -50.2940 -50.2878 -50.2876 -50.2671 -50.2671 -50.2577 -50.2321 -50.2249
   -50.2205 -50.2123 -49.9665 -49.9549 -29.0196 -29.0181 -29.0181 -29.0161
   -29.0132 -29.0121 -29.0102 -29.0089 -28.9960 -28.9946 -28.9925 -28.9914
   -28.9642 -28.9627 -28.9460 -28.9446 -28.9443 -28.9439 -28.9429 -28.9424
   -28.9418 -28.9405 -28.9324 -28.9312   5.4775   6.0140   6.3544   7.7661
     8.0194   8.1619   8.4482   8.6614   9.0784   9.1210   9.3401   9.4547
     9.5055   9.5184   9.6631   9.7593   9.7701   9.8216   9.8845   9.8866
     9.9468  10.1402  10.1460  10.1819  10.2328  10.3020  10.3430  10.3944
    10.4189  10.4305  10.4990  10.5490  10.5722  10.6025  10.6403  10.7450
    10.7572  10.8081  10.8189  10.9100  10.9154  10.9607  11.0106  11.0511
    11.1258  11.1767  11.1916  11.2747  11.3134  11.4092  11.4204  11.4633
    11.4650  11.5861  11.6306  11.6666  11.6810  11.7392  11.8009  11.8219
    11.8311  11.8525  11.9263  11.9740  12.0139  12.0578  12.0759  12.0976
    12.1527  12.2399  12.2476  12.2738  12.3131  12.3582  12.3666  12.4072
    12.4269  12.4489  12.5251  12.5559  12.7285  12.7349  12.8905  13.0634
    13.1768  13.6621  13.7431  13.8845  13.9932  14.0317  14.1764  14.2735
    14.3291  14.7156  15.0603  15.4964  15.7875  15.9594  16.0947  17.3725
    17.8702  17.9627  18.0501  18.8658  18.9808  19.0262  19.2942  19.3706
    19.3773  19.9168  20.3386  20.3462  20.4439  20.9492  21.0759  21.3009
    21.8245  22.1167

     the Fermi energy is    12.9226 ev

!    total energy              =   -7568.85000551 Ry
     total all-electron energy =    -48829.493768 Ry
     estimated scf accuracy    <       0.00000136 Ry
     smearing contrib. (-TS)   =       0.09396961 Ry
     internal energy E=F+TS    =   -7568.94397512 Ry

     The total energy is F=E-TS. E is the sum of the following terms:
     one-electron contribution =   -4463.60324614 Ry
     hartree contribution      =    2377.01585232 Ry
     xc contribution           =    -656.44586146 Ry
     ewald contribution        =   -3339.95454912 Ry
     one-center paw contrib.   =   -1485.95617073 Ry

     convergence has been achieved in  56 iterations

     Forces acting on atoms (cartesian axes, Ry/au):

     atom    1 type  1   force =    -0.00018024   -0.00002687   -0.00137522
     atom    2 type  1   force =     0.00001583   -0.00112125    0.00070967
     atom    3 type  1   force =    -0.00032083   -0.00057300   -0.00030047
     atom    4 type  1   force =    -0.00025591    0.00095281    0.00123316
     atom    5 type  1   force =     0.00052980   -0.00075317   -0.00100155
     atom    6 type  1   force =     0.00034092    0.00029992   -0.00129375
     atom    7 type  1   force =    -0.00015568    0.00103094    0.00114077
     atom    8 type  1   force =     0.00053758   -0.00050830    0.00075077
     atom    9 type  2   force =     0.00052174   -0.00262945    0.00178315
     atom   10 type  2   force =    -0.00154908   -0.00001832    0.00376600
     atom   11 type  2   force =    -0.00038899    0.00048436   -0.00255582
     atom   12 type  2   force =     0.00034771   -0.00174885   -0.00141976
     atom   13 type  2   force =     0.00315534   -0.00213572   -0.00055475
     atom   14 type  2   force =    -0.00089926    0.00196122   -0.00006542
     atom   15 type  2   force =     0.00268546    0.00282890   -0.00134380
     atom   16 type  2   force =    -0.00266384    0.00219710    0.00139694
     atom   17 type  2   force =    -0.00177119   -0.00039828   -0.00060564
     atom   18 type  2   force =     0.00009468   -0.00066638    0.00011328
     atom   19 type  2   force =     0.00154533   -0.00107406    0.00128993
     atom   20 type  2   force =    -0.00012775    0.00150441    0.00010389
     atom   21 type  2   force =     0.00011691    0.00063181   -0.00161465
     atom   22 type  2   force =    -0.00150674   -0.00039767    0.00206499
     atom   23 type  2   force =    -0.00007178    0.00015986   -0.00222172
     The non-local contrib.  to forces
     atom    1 type  1   force =    -0.00076104    0.04543053    0.00604854
     atom    2 type  1   force =     0.00057035   -0.00200434    0.01303334
     atom    3 type  1   force =    -0.00101218   -0.00033908   -0.01122027
     atom    4 type  1   force =     0.00067192    0.04789408   -0.00673973
     atom    5 type  1   force =     0.00184118   -0.00803970   -0.00984811
     atom    6 type  1   force =    -0.00120255   -0.02567839    0.00334149
     atom    7 type  1   force =    -0.00129346   -0.02378111   -0.00391214
     atom    8 type  1   force =     0.00299020   -0.00764580    0.00865972
     atom    9 type  2   force =    -0.00452258   -0.07792706    0.02418609
     atom   10 type  2   force =     0.02201891    0.01735727    0.04821488
     atom   11 type  2   force =    -0.00280835    0.01499456   -0.05130780
     atom   12 type  2   force =    -0.01346187   -0.08596204   -0.02780274
     atom   13 type  2   force =     0.08702807   -0.07206873    0.00415428
     atom   14 type  2   force =     0.00196110    0.07472588   -0.00047037
     atom   15 type  2   force =    -0.13777242    0.12706541    0.00536550
     atom   16 type  2   force =     0.14055248    0.13617758   -0.00265204
     atom   17 type  2   force =    -0.08224476   -0.07173142    0.00354050
     atom   18 type  2   force =     0.00295922    0.05861388    0.08989013
     atom   19 type  2   force =    -0.01424915    0.02496972    0.01474161
     atom   20 type  2   force =    -0.00370920    0.05936397   -0.08548687
     atom   21 type  2   force =    -0.01303954    0.02115255   -0.01930874
     atom   22 type  2   force =     0.01332928    0.02433306    0.00728728
     atom   23 type  2   force =     0.01522464    0.02523008   -0.01027558
     The ionic contribution  to forces
     atom    1 type  1   force =    -0.13686335    2.97994754  -21.65527087
     atom    2 type  1   force =     0.04930416   -0.04502352    8.52220155
     atom    3 type  1   force =    -0.08116882    0.03000952   -8.46508870
     atom    4 type  1   force =     0.13150363    3.01170555   21.66873399
     atom    5 type  1   force =     0.05677657   -0.26464292   -5.77731185
     atom    6 type  1   force =     0.05608479   -0.32385770   17.99328331
     atom    7 type  1   force =    -0.13281658   -0.21020316  -17.99120964
     atom    8 type  1   force =     0.13944027   -0.26268794    5.68427079
     atom    9 type  2   force =    -0.07064568  -10.63902093  -40.07174301
     atom   10 type  2   force =    -0.04606370    0.23461864   13.93458698
     atom   11 type  2   force =    -0.15291323    0.24847826  -13.78156249
     atom   12 type  2   force =     0.14160142  -10.78404522   40.20536079
     atom   13 type  2   force =    11.96438719   -6.63790770   -0.25295635
     atom   14 type  2   force =    -0.16694691   13.22885966   -0.16468012
     atom   15 type  2   force =   -11.23964794    8.39399365   -0.07513418
     atom   16 type  2   force =    11.22702457    8.49660072    0.10866534
     atom   17 type  2   force =   -11.84741355   -6.38559100   -0.02913113
     atom   18 type  2   force =    -0.07204620    0.02273334  -25.60943687
     atom   19 type  2   force =    -0.32126117   -0.49139863   27.02045750
     atom   20 type  2   force =     0.09517118    0.28865759   25.68843912
     atom   21 type  2   force =    -0.84353074   -0.20823727  -27.01349669
     atom   22 type  2   force =     0.66093318   -0.45196947   27.04091960
     atom   23 type  2   force =     0.58909090   -0.23101902  -26.97989706
     The local contribution  to forces
     atom    1 type  1   force =     0.13740392   -3.02519924   21.64752011
     atom    2 type  1   force =    -0.04983020    0.04588372   -8.53421151
     atom    3 type  1   force =     0.08182750   -0.03019361    8.47550221
     atom    4 type  1   force =    -0.13243867   -3.05839566  -21.66044620
     atom    5 type  1   force =    -0.05810454    0.27193831    5.78598853
     atom    6 type  1   force =    -0.05445203    0.34967620  -17.99712089
     atom    7 type  1   force =     0.13400111    0.23493715   17.99564997
     atom    8 type  1   force =    -0.14195627    0.26992113   -5.69194882
     atom    9 type  2   force =     0.07524612   10.71563362   40.05493009
     atom   10 type  2   force =     0.02486637   -0.25231007  -13.97236080
     atom   11 type  2   force =     0.15559586   -0.26333749   13.82290257
     atom   12 type  2   force =    -0.12952697   10.86882303  -40.18501234
     atom   13 type  2   force =   -12.04656805    6.70584769    0.24919898
     atom   14 type  2   force =     0.16456235  -13.30172537    0.16520684
     atom   15 type  2   force =    11.37705293   -8.51574995    0.06922167
     atom   16 type  2   force =   -11.36677640   -8.62777795   -0.10437175
     atom   17 type  2   force =    11.92739120    6.45430061    0.02520432
     atom   18 type  2   force =     0.06936082   -0.07826015   25.52432446
     atom   19 type  2   force =     0.33582534    0.46627288  -27.03185224
     atom   20 type  2   force =    -0.09208776   -0.34279418  -25.60843981
     atom   21 type  2   force =     0.85584892    0.18854903   27.02850239
     atom   22 type  2   force =    -0.67478645    0.42810764  -27.04460511
     atom   23 type  2   force =    -0.60356732    0.20736769   26.98571678
     The core correction contribution to forces
     atom    1 type  1   force =     0.00000468   -0.00014677   -0.00008287
     atom    2 type  1   force =    -0.00000645    0.00001363   -0.00007541
     atom    3 type  1   force =     0.00000597    0.00000186    0.00006951
     atom    4 type  1   force =     0.00000161   -0.00016250    0.00008609
     atom    5 type  1   force =    -0.00000914    0.00003419    0.00004845
     atom    6 type  1   force =     0.00000165    0.00008973    0.00004854
     atom    7 type  1   force =     0.00000375    0.00008283   -0.00004564
     atom    8 type  1   force =    -0.00000941    0.00002886   -0.00004275
     atom    9 type  2   force =     0.00030494    0.00010509   -0.00755792
     atom   10 type  2   force =    -0.00145500   -0.00071626   -0.00634660
     atom   11 type  2   force =     0.00019950   -0.00065547    0.00660788
     atom   12 type  2   force =     0.00084678    0.00049122    0.00786603
     atom   13 type  2   force =    -0.00219080    0.00291308   -0.00033810
     atom   14 type  2   force =    -0.00010081   -0.00120137   -0.00003003
     atom   15 type  2   force =     0.00307686   -0.00208096   -0.00023354
     atom   16 type  2   force =    -0.00332947   -0.00247923   -0.00002970
     atom   17 type  2   force =     0.00187801    0.00285300   -0.00012049
     atom   18 type  2   force =    -0.00020707   -0.00377805   -0.00717366
     atom   19 type  2   force =     0.00087448   -0.00154821   -0.00017885
     atom   20 type  2   force =     0.00027107   -0.00381362    0.00678687
     atom   21 type  2   force =     0.00068694   -0.00134677    0.00048045
     atom   22 type  2   force =    -0.00065535   -0.00155396    0.00021656
     atom   23 type  2   force =    -0.00084475   -0.00155469   -0.00006527
     The Hubbard contrib.    to forces
     atom    1 type  1   force =     0.00000000    0.00000000    0.00000000
     atom    2 type  1   force =     0.00000000    0.00000000    0.00000000
     atom    3 type  1   force =     0.00000000    0.00000000    0.00000000
     atom    4 type  1   force =     0.00000000    0.00000000    0.00000000
     atom    5 type  1   force =     0.00000000    0.00000000    0.00000000
     atom    6 type  1   force =     0.00000000    0.00000000    0.00000000
     atom    7 type  1   force =     0.00000000    0.00000000    0.00000000
     atom    8 type  1   force =     0.00000000    0.00000000    0.00000000
     atom    9 type  2   force =     0.00000000    0.00000000    0.00000000
     atom   10 type  2   force =     0.00000000    0.00000000    0.00000000
     atom   11 type  2   force =     0.00000000    0.00000000    0.00000000
     atom   12 type  2   force =     0.00000000    0.00000000    0.00000000
     atom   13 type  2   force =     0.00000000    0.00000000    0.00000000
     atom   14 type  2   force =     0.00000000    0.00000000    0.00000000
     atom   15 type  2   force =     0.00000000    0.00000000    0.00000000
     atom   16 type  2   force =     0.00000000    0.00000000    0.00000000
     atom   17 type  2   force =     0.00000000    0.00000000    0.00000000
     atom   18 type  2   force =     0.00000000    0.00000000    0.00000000
     atom   19 type  2   force =     0.00000000    0.00000000    0.00000000
     atom   20 type  2   force =     0.00000000    0.00000000    0.00000000
     atom   21 type  2   force =     0.00000000    0.00000000    0.00000000
     atom   22 type  2   force =     0.00000000    0.00000000    0.00000000
     atom   23 type  2   force =     0.00000000    0.00000000    0.00000000
     The SCF correction term to forces
     atom    1 type  1   force =     0.00003438   -0.00003190    0.00041352
     atom    2 type  1   force =    -0.00002320    0.00003629   -0.00023465
     atom    3 type  1   force =     0.00002552   -0.00002467    0.00044043
     atom    4 type  1   force =     0.00000443   -0.00006165   -0.00039735
     atom    5 type  1   force =     0.00002456   -0.00001602    0.00012507
     atom    6 type  1   force =    -0.00009210    0.00009711   -0.00084255
     atom    7 type  1   force =    -0.00005166    0.00002225    0.00066187
     atom    8 type  1   force =     0.00007162   -0.00009752   -0.00018451
     atom    9 type  2   force =     0.00013776   -0.00139314    0.00197155
     atom   10 type  2   force =    -0.00091683    0.00105912   -0.00032481
     atom   11 type  2   force =    -0.00046394    0.00103152    0.00080768
     atom   12 type  2   force =     0.00088718   -0.00102882   -0.00182785
     atom   13 type  2   force =     0.00049776   -0.00089304   -0.00060992
     atom   14 type  2   force =    -0.00037615    0.00132946   -0.00008810
     atom   15 type  2   force =    -0.00002514   -0.00037222   -0.00055960
     atom   16 type  2   force =    -0.00013619   -0.00029700   -0.00021125
     atom   17 type  2   force =    -0.00138326   -0.00020245   -0.00009520
     atom   18 type  2   force =     0.00002675    0.00005162    0.00251287
     atom   19 type  2   force =     0.00035465    0.00065722   -0.00187444
     atom   20 type  2   force =     0.00022580    0.00011768   -0.00119177
     atom   21 type  2   force =     0.00015016    0.00054129    0.00221158
     atom   22 type  2   force =    -0.00032857    0.00071208   -0.00174970
     atom   23 type  2   force =     0.00002359    0.00016283    0.00230306

     Total force =     0.011388     Total SCF correction =     0.006989
     SCF correction compared to forces is large: reduce conv_thr to get better values


     Computing stress (Cartesian axis) and pressure

          total   stress  (Ry/bohr**3)                   (kbar)     P=        1.75
   0.00000440   0.00000629   0.00000897            0.65        0.93        1.32
   0.00000629   0.00001146   0.00000084            0.93        1.69        0.12
   0.00000897   0.00000084   0.00001985            1.32        0.12        2.92

     Energy error            =      2.0E-04 Ry
     Gradient error          =      3.8E-03 Ry/Bohr
     Cell gradient error     =      2.9E+00 kbar

     number of scf cycles    =   7
     number of bfgs steps    =   6

     enthalpy           old  =   -7568.8498077856 Ry
     enthalpy           new  =   -7568.8500055136 Ry

     CASE: enthalpy          _new < enthalpy          _old

     new trust radius        =       0.0056622725 bohr
     new conv_thr            =       0.0000019773 Ry

     new unit-cell volume =   2039.82941 a.u.^3 (   302.27153 Ang^3 )
     density =      5.90468 g/cm^3

CELL_PARAMETERS (angstrom)
   4.745240329   0.001673060  -0.021924262
  -2.375162976   4.094194920   0.016727476
   0.072080125  -0.018732470  15.555059046

ATOMIC_POSITIONS (crystal)
Mg            0.9996972261        1.0000721782        0.4058897071
Mg           -0.0004852311       -0.0015188630        0.9076957417
Mg            0.9986702127        0.9976499937        0.5919962646
Mg            0.9994536004        0.9989065801        0.0938072835
Mg            0.3319258121        0.6650287655        0.6556738898
Mg            0.6668950598        0.3348360659        0.1577140997
Mg            0.6670700647        0.3350587951        0.3420215046
Mg            0.3325285222        0.6653349240        0.8441667518
Ni            0.3369426444        0.6748016956        0.3724151432
Ni            0.6657401728        0.3300092798        0.8753271857
Ni            0.6642817679        0.3294539768        0.6244109570
Ni            0.3363634106        0.6737703620        0.1273723536
Ni            0.8332721188        0.1627729191        0.7499120386
Ni            0.8340451463        0.6687329679        0.7499004868
Ni            0.1590319228        0.8323961129        0.2500088136
Ni            0.6732627966        0.8336753315        0.2497474741
Ni            0.3283891248        0.1626587516        0.7500274641
Ni            0.4983340879        0.9971863774        0.4987844926
Ni            0.4988400681        0.4973893151        0.0012822879
Ni            0.4987833185       -0.0030247502        1.0010033600
Ni            0.4982308370        0.4970121468        0.4984669069
Ni           -0.0007862358        0.4972384908        0.0011385553
Ni            0.9983375526        0.4971685832        0.4986092377



     Writing config-only to output data dir ./C36/out_logs/C36_out_8/laves_C36.save/
     NEW-OLD atomic charge density approx. for the potential

     Check: negative core charge=   -0.000010
     extrapolated charge  350.11893, renormalised to  350.00000

     total cpu time spent up to now is     4554.7 secs

     Self-consistent Calculation

     iteration #  1     ecut=    80.00 Ry     beta= 0.20
     Davidson diagonalization with overlap
     ethr =  1.00E-06,  avg # of iterations =  5.6

     total cpu time spent up to now is     4572.1 secs

     total energy              =   -7568.82169836 Ry
     estimated scf accuracy    <       1.50028465 Ry

     iteration #  2     ecut=    80.00 Ry     beta= 0.20
     Davidson diagonalization with overlap
     ethr =  4.29E-04,  avg # of iterations =  2.0

     total cpu time spent up to now is     4581.8 secs

     total energy              =   -7568.40852460 Ry
     estimated scf accuracy    <      12.92171812 Ry

     iteration #  3     ecut=    80.00 Ry     beta= 0.20
     Davidson diagonalization with overlap
     ethr =  4.29E-04,  avg # of iterations =  2.0

     total cpu time spent up to now is     4591.6 secs

     total energy              =   -7568.68901925 Ry
     estimated scf accuracy    <       6.22094485 Ry

     iteration #  4     ecut=    80.00 Ry     beta= 0.20
     Davidson diagonalization with overlap
     ethr =  4.29E-04,  avg # of iterations =  2.0

     total cpu time spent up to now is     4601.3 secs

     total energy              =   -7568.67368246 Ry
     estimated scf accuracy    <       9.51053637 Ry

     iteration #  5     ecut=    80.00 Ry     beta= 0.20
     Davidson diagonalization with overlap
     ethr =  4.29E-04,  avg # of iterations =  1.0

     total cpu time spent up to now is     4610.0 secs

     total energy              =   -7568.81470174 Ry
     estimated scf accuracy    <       3.81515978 Ry

     iteration #  6     ecut=    80.00 Ry     beta= 0.20
     Davidson diagonalization with overlap
     ethr =  4.29E-04,  avg # of iterations =  1.0

     total cpu time spent up to now is     4618.8 secs

     total energy              =   -7568.84145198 Ry
     estimated scf accuracy    <       1.43188915 Ry

     iteration #  7     ecut=    80.00 Ry     beta= 0.20
     Davidson diagonalization with overlap
     ethr =  4.09E-04,  avg # of iterations =  1.0

     total cpu time spent up to now is     4627.5 secs

     total energy              =   -7568.83755901 Ry
     estimated scf accuracy    <       0.46219476 Ry

     iteration #  8     ecut=    80.00 Ry     beta= 0.20
     Davidson diagonalization with overlap
     ethr =  1.32E-04,  avg # of iterations =  1.0

     total cpu time spent up to now is     4636.2 secs

     total energy              =   -7568.84640454 Ry
     estimated scf accuracy    <       0.03428517 Ry

     iteration #  9     ecut=    80.00 Ry     beta= 0.20
     Davidson diagonalization with overlap
     ethr =  9.80E-06,  avg # of iterations =  1.0

     total cpu time spent up to now is     4645.0 secs

     total energy              =   -7568.84767384 Ry
     estimated scf accuracy    <       0.00920353 Ry

     iteration # 10     ecut=    80.00 Ry     beta= 0.20
     Davidson diagonalization with overlap
     ethr =  2.63E-06,  avg # of iterations =  1.6

     total cpu time spent up to now is     4654.4 secs

     total energy              =   -7568.84824918 Ry
     estimated scf accuracy    <       0.00548089 Ry

     iteration # 11     ecut=    80.00 Ry     beta= 0.20
     Davidson diagonalization with overlap
     ethr =  1.57E-06,  avg # of iterations =  1.0

     total cpu time spent up to now is     4663.1 secs

     total energy              =   -7568.84832685 Ry
     estimated scf accuracy    <       0.00851796 Ry

     iteration # 12     ecut=    80.00 Ry     beta= 0.20
     Davidson diagonalization with overlap
     ethr =  1.57E-06,  avg # of iterations =  1.0

     total cpu time spent up to now is     4671.9 secs

     total energy              =   -7568.84843512 Ry
     estimated scf accuracy    <       0.00663339 Ry

     iteration # 13     ecut=    80.00 Ry     beta= 0.20
     Davidson diagonalization with overlap
     ethr =  1.57E-06,  avg # of iterations =  1.0

     total cpu time spent up to now is     4680.6 secs

     total energy              =   -7568.84859494 Ry
     estimated scf accuracy    <       0.00579318 Ry

     iteration # 14     ecut=    80.00 Ry     beta= 0.20
     Davidson diagonalization with overlap
     ethr =  1.57E-06,  avg # of iterations =  1.0

     total cpu time spent up to now is     4689.4 secs

     total energy              =   -7568.84867621 Ry
     estimated scf accuracy    <       0.00480027 Ry

     iteration # 15     ecut=    80.00 Ry     beta= 0.20
     Davidson diagonalization with overlap
     ethr =  1.37E-06,  avg # of iterations =  1.0

     total cpu time spent up to now is     4698.2 secs

     total energy              =   -7568.84923933 Ry
     estimated scf accuracy    <       0.01501559 Ry

     iteration # 16     ecut=    80.00 Ry     beta= 0.20
     Davidson diagonalization with overlap
     ethr =  1.37E-06,  avg # of iterations =  1.0

     total cpu time spent up to now is     4706.9 secs

     total energy              =   -7568.84929790 Ry
     estimated scf accuracy    <       0.02290710 Ry

     iteration # 17     ecut=    80.00 Ry     beta= 0.20
     Davidson diagonalization with overlap
     ethr =  1.37E-06,  avg # of iterations =  1.0

     total cpu time spent up to now is     4715.7 secs

     total energy              =   -7568.84962582 Ry
     estimated scf accuracy    <       0.01450624 Ry

     iteration # 18     ecut=    80.00 Ry     beta= 0.20
     Davidson diagonalization with overlap
     ethr =  1.37E-06,  avg # of iterations =  1.0

     total cpu time spent up to now is     4724.4 secs

     total energy              =   -7568.84932617 Ry
     estimated scf accuracy    <       0.01659272 Ry

     iteration # 19     ecut=    80.00 Ry     beta= 0.20
     Davidson diagonalization with overlap
     ethr =  1.37E-06,  avg # of iterations =  1.0

     total cpu time spent up to now is     4733.2 secs

     total energy              =   -7568.84940008 Ry
     estimated scf accuracy    <       0.01309375 Ry

     iteration # 20     ecut=    80.00 Ry     beta= 0.20
     Davidson diagonalization with overlap
     ethr =  1.37E-06,  avg # of iterations =  1.0

     total cpu time spent up to now is     4742.0 secs

     total energy              =   -7568.84874452 Ry
     estimated scf accuracy    <       0.01161107 Ry

     iteration # 21     ecut=    80.00 Ry     beta= 0.20
     Davidson diagonalization with overlap
     ethr =  1.37E-06,  avg # of iterations =  1.0

     total cpu time spent up to now is     4750.7 secs

     total energy              =   -7568.84932529 Ry
     estimated scf accuracy    <       0.03150634 Ry

     iteration # 22     ecut=    80.00 Ry     beta= 0.20
     Davidson diagonalization with overlap
     ethr =  1.37E-06,  avg # of iterations =  1.6

     total cpu time spent up to now is     4760.1 secs

     total energy              =   -7568.84987514 Ry
     estimated scf accuracy    <       0.00704204 Ry

     iteration # 23     ecut=    80.00 Ry     beta= 0.20
     Davidson diagonalization with overlap
     ethr =  1.37E-06,  avg # of iterations =  1.0

     total cpu time spent up to now is     4768.8 secs

     total energy              =   -7568.85001647 Ry
     estimated scf accuracy    <       0.01792233 Ry

     iteration # 24     ecut=    80.00 Ry     beta= 0.20
     Davidson diagonalization with overlap
     ethr =  1.37E-06,  avg # of iterations =  1.0

     total cpu time spent up to now is     4777.6 secs

     total energy              =   -7568.84975623 Ry
     estimated scf accuracy    <       0.02204417 Ry

     iteration # 25     ecut=    80.00 Ry     beta= 0.20
     Davidson diagonalization with overlap
     ethr =  1.37E-06,  avg # of iterations =  1.0

     total cpu time spent up to now is     4786.4 secs

     total energy              =   -7568.84898532 Ry
     estimated scf accuracy    <       0.01882183 Ry

     iteration # 26     ecut=    80.00 Ry     beta= 0.20
     Davidson diagonalization with overlap
     ethr =  1.37E-06,  avg # of iterations =  2.0

     total cpu time spent up to now is     4796.2 secs

     total energy              =   -7568.84933227 Ry
     estimated scf accuracy    <       0.01183166 Ry

     iteration # 27     ecut=    80.00 Ry     beta= 0.20
     Davidson diagonalization with overlap
     ethr =  1.37E-06,  avg # of iterations =  1.0

     total cpu time spent up to now is     4805.0 secs

     total energy              =   -7568.84966059 Ry
     estimated scf accuracy    <       0.00768513 Ry

     iteration # 28     ecut=    80.00 Ry     beta= 0.20
     Davidson diagonalization with overlap
     ethr =  1.37E-06,  avg # of iterations =  2.0

     total cpu time spent up to now is     4814.8 secs

     total energy              =   -7568.84958078 Ry
     estimated scf accuracy    <       0.00368087 Ry

     iteration # 29     ecut=    80.00 Ry     beta= 0.20
     Davidson diagonalization with overlap
     ethr =  1.05E-06,  avg # of iterations =  2.0

     total cpu time spent up to now is     4824.5 secs

     total energy              =   -7568.84977691 Ry
     estimated scf accuracy    <       0.00112823 Ry

     iteration # 30     ecut=    80.00 Ry     beta= 0.20
     Davidson diagonalization with overlap
     ethr =  3.22E-07,  avg # of iterations =  1.0

     total cpu time spent up to now is     4833.3 secs

     total energy              =   -7568.84990781 Ry
     estimated scf accuracy    <       0.00137062 Ry

     iteration # 31     ecut=    80.00 Ry     beta= 0.20
     Davidson diagonalization with overlap
     ethr =  3.22E-07,  avg # of iterations =  2.0

     total cpu time spent up to now is     4843.3 secs

     total energy              =   -7568.84991983 Ry
     estimated scf accuracy    <       0.00153843 Ry

     iteration # 32     ecut=    80.00 Ry     beta= 0.20
     Davidson diagonalization with overlap
     ethr =  3.22E-07,  avg # of iterations =  1.0

     total cpu time spent up to now is     4852.0 secs

     total energy              =   -7568.85001335 Ry
     estimated scf accuracy    <       0.00046606 Ry

     iteration # 33     ecut=    80.00 Ry     beta= 0.20
     Davidson diagonalization with overlap
     ethr =  1.33E-07,  avg # of iterations =  2.0

     total cpu time spent up to now is     4862.6 secs

     total energy              =   -7568.85007958 Ry
     estimated scf accuracy    <       0.00063377 Ry

     iteration # 34     ecut=    80.00 Ry     beta= 0.20
     Davidson diagonalization with overlap
     ethr =  1.33E-07,  avg # of iterations =  1.0

     total cpu time spent up to now is     4871.4 secs

     total energy              =   -7568.85007243 Ry
     estimated scf accuracy    <       0.00051239 Ry

     iteration # 35     ecut=    80.00 Ry     beta= 0.20
     Davidson diagonalization with overlap
     ethr =  1.33E-07,  avg # of iterations =  1.0

     total cpu time spent up to now is     4880.1 secs

     total energy              =   -7568.85009816 Ry
     estimated scf accuracy    <       0.00024001 Ry

     iteration # 36     ecut=    80.00 Ry     beta= 0.20
     Davidson diagonalization with overlap
     ethr =  6.86E-08,  avg # of iterations =  2.0

     total cpu time spent up to now is     4889.9 secs

     total energy              =   -7568.85011964 Ry
     estimated scf accuracy    <       0.00014430 Ry

     iteration # 37     ecut=    80.00 Ry     beta= 0.20
     Davidson diagonalization with overlap
     ethr =  4.12E-08,  avg # of iterations =  1.6

     total cpu time spent up to now is     4899.3 secs

     total energy              =   -7568.85012546 Ry
     estimated scf accuracy    <       0.00020302 Ry

     iteration # 38     ecut=    80.00 Ry     beta= 0.20
     Davidson diagonalization with overlap
     ethr =  4.12E-08,  avg # of iterations =  1.0

     total cpu time spent up to now is     4908.1 secs

     total energy              =   -7568.85013106 Ry
     estimated scf accuracy    <       0.00002751 Ry

     iteration # 39     ecut=    80.00 Ry     beta= 0.20
     Davidson diagonalization with overlap
     ethr =  7.86E-09,  avg # of iterations =  2.0

     total cpu time spent up to now is     4918.4 secs

     total energy              =   -7568.85013245 Ry
     estimated scf accuracy    <       0.00002512 Ry

     iteration # 40     ecut=    80.00 Ry     beta= 0.20
     Davidson diagonalization with overlap
     ethr =  7.18E-09,  avg # of iterations =  1.6

     total cpu time spent up to now is     4927.7 secs

     total energy              =   -7568.85013040 Ry
     estimated scf accuracy    <       0.00004739 Ry

     iteration # 41     ecut=    80.00 Ry     beta= 0.20
     Davidson diagonalization with overlap
     ethr =  7.18E-09,  avg # of iterations =  2.0

     total cpu time spent up to now is     4938.1 secs

     total energy              =   -7568.85013213 Ry
     estimated scf accuracy    <       0.00002164 Ry

     iteration # 42     ecut=    80.00 Ry     beta= 0.20
     Davidson diagonalization with overlap
     ethr =  6.18E-09,  avg # of iterations =  2.0

     total cpu time spent up to now is     4948.6 secs

     total energy              =   -7568.85013445 Ry
     estimated scf accuracy    <       0.00002019 Ry

     iteration # 43     ecut=    80.00 Ry     beta= 0.20
     Davidson diagonalization with overlap
     ethr =  5.77E-09,  avg # of iterations =  1.0

     total cpu time spent up to now is     4957.4 secs

     total energy              =   -7568.85013508 Ry
     estimated scf accuracy    <       0.00000838 Ry

     iteration # 44     ecut=    80.00 Ry     beta= 0.20
     Davidson diagonalization with overlap
     ethr =  2.39E-09,  avg # of iterations =  1.0

     total cpu time spent up to now is     4966.1 secs

     total energy              =   -7568.85013526 Ry
     estimated scf accuracy    <       0.00000236 Ry

     iteration # 45     ecut=    80.00 Ry     beta= 0.20
     Davidson diagonalization with overlap
     ethr =  6.73E-10,  avg # of iterations =  1.0

     total cpu time spent up to now is     4974.9 secs

     End of self-consistent calculation

          k = 0.0000 0.0000 0.0000 ( 24267 PWs)   bands (ev):

   -90.1221 -90.1191 -90.0656 -90.0648 -90.0483 -90.0185 -90.0152 -89.9987
   -89.9985 -89.9802 -89.9800 -89.9778 -89.9763 -89.7948 -89.7727 -62.2583
   -62.2559 -62.2520 -62.2498 -62.1971 -62.1959 -62.1950 -62.1938 -50.7434
   -50.7341 -50.6848 -50.6293 -50.5851 -50.5465 -50.5441 -50.5304 -50.5276
   -50.5045 -50.4997 -50.4880 -50.4863 -50.4570 -50.4488 -50.4311 -50.4271
   -50.4094 -50.3996 -50.3877 -50.3849 -50.3778 -50.3728 -50.3635 -50.3583
   -50.3489 -50.3425 -50.3415 -50.3405 -50.3399 -50.3376 -50.2896 -50.2831
   -50.2824 -50.2821 -50.2818 -50.2597 -50.2595 -50.2397 -50.2302 -50.2242
   -50.2211 -50.2129 -49.9732 -49.9543 -29.0242 -29.0239 -29.0233 -29.0213
   -29.0195 -29.0192 -29.0169 -29.0166 -29.0021 -28.9998 -28.9974 -28.9961
   -28.9708 -28.9695 -28.9516 -28.9508 -28.9505 -28.9496 -28.9496 -28.9485
   -28.9484 -28.9471 -28.9390 -28.9379   4.4690   5.0253   5.3820   6.8558
     7.2671   8.5008   8.5149   8.9347   9.2041   9.3195   9.4424   9.5400
     9.5537   9.5555   9.5718   9.5778   9.6139   9.7557   9.7590   9.8087
     9.8733   9.8833   9.9436  10.0271  10.0674  10.2652  10.3269  10.3349
    10.3521  10.3811  10.4115  10.4348  10.4473  10.5081  10.6186  10.8239
    10.8663  10.8966  10.9203  10.9875  11.0470  11.0657  11.1259  11.1738
    11.4981  11.5144  11.6445  11.7364  11.7462  11.8173  11.8392  11.8428
    11.9683  12.0335  12.0622  12.1399  12.2083  12.2197  12.2313  12.2349
    12.2399  12.2433  12.2599  12.2653  12.2686  12.2927  12.3210  12.3227
    12.3293  12.3663  12.3719  12.3789  12.4098  12.5449  12.6780  12.8056
    12.9042  12.9837  13.1308  13.3495  13.3687  13.3689  13.8577  13.8802
    14.0449  14.0485  14.0762  14.1623  14.1680  14.2272  14.4432  14.4549
    14.4765  15.3778  15.4650  15.8404  15.8655  15.9110  16.2379  16.3897
    16.4877  16.9377  16.9533  17.4006  17.4955  17.6137  17.7594  17.8276
    17.9844  18.5242  18.6259  18.8543  19.1367  19.2943  19.7274  19.7583
    19.7625  20.0367

          k =-0.0001 0.3823 0.0005 ( 24221 PWs)   bands (ev):

   -90.1217 -90.1189 -90.0629 -90.0621 -90.0417 -90.0252 -90.0155 -90.0018
   -90.0016 -89.9802 -89.9800 -89.9776 -89.9760 -89.7948 -89.7727 -62.2582
   -62.2558 -62.2519 -62.2497 -62.1972 -62.1960 -62.1951 -62.1939 -50.7098
   -50.7017 -50.6450 -50.6284 -50.5955 -50.5614 -50.5553 -50.5249 -50.5191
   -50.4932 -50.4899 -50.4882 -50.4661 -50.4639 -50.4415 -50.4389 -50.4202
   -50.4060 -50.3908 -50.3840 -50.3808 -50.3740 -50.3709 -50.3679 -50.3652
   -50.3584 -50.3527 -50.3526 -50.3452 -50.3421 -50.3415 -50.3069 -50.3067
   -50.3025 -50.2927 -50.2917 -50.2682 -50.2677 -50.2397 -50.2304 -50.2241
   -50.2210 -50.2128 -49.9734 -49.9539 -29.0251 -29.0246 -29.0240 -29.0220
   -29.0202 -29.0184 -29.0175 -29.0161 -29.0030 -28.9987 -28.9982 -28.9952
   -28.9704 -28.9690 -28.9528 -28.9517 -28.9501 -28.9498 -28.9489 -28.9487
   -28.9476 -28.9463 -28.9383 -28.9371   5.4764   6.0165   6.3179   7.6783
     8.0138   8.1899   8.4688   8.7405   9.0789   9.1192   9.3064   9.3297
     9.4751   9.5821   9.6177   9.6370   9.7570   9.7900   9.8858   9.8892
     9.9186  10.0968  10.1730  10.1802  10.1915  10.2576  10.3237  10.3378
    10.3596  10.4300  10.4342  10.5023  10.5499  10.5884  10.6069  10.6529
    10.7089  10.7982  10.8439  10.8717  10.9934  11.0102  11.0127  11.0529
    11.1016  11.1402  11.1629  11.2488  11.3621  11.4249  11.4482  11.4970
    11.5118  11.6288  11.6394  11.7331  11.7621  11.8078  11.8118  11.8252
    11.9076  11.9147  11.9640  12.0359  12.0554  12.0803  12.1407  12.1769
    12.2518  12.2673  12.2855  12.3155  12.3292  12.3437  12.3583  12.4283
    12.4585  12.5347  12.6077  12.6349  12.7053  12.7340  12.9039  13.1795
    13.1842  13.5538  13.5580  13.6867  13.9890  13.9947  14.1613  14.2294
    14.3437  14.4443  14.5252  15.1964  15.7380  16.2560  16.3487  17.5659
    17.7443  18.0247  18.1950  18.7847  18.8897  19.1330  19.1646  19.1931
    19.3086  19.8078  20.2986  20.3907  20.4059  21.0188  21.0818  21.3626
    21.8296  22.1805

          k = 0.3298 0.1914-0.0013 ( 24222 PWs)   bands (ev):

   -90.1218 -90.1189 -90.0641 -90.0633 -90.0429 -90.0212 -90.0183 -89.9957
   -89.9954 -89.9857 -89.9857 -89.9768 -89.9754 -89.7905 -89.7770 -62.2582
   -62.2558 -62.2519 -62.2497 -62.1972 -62.1960 -62.1951 -62.1939 -50.7151
   -50.7085 -50.6492 -50.6273 -50.5873 -50.5476 -50.5450 -50.5164 -50.5156
   -50.5038 -50.4962 -50.4898 -50.4678 -50.4577 -50.4510 -50.4335 -50.4244
   -50.3939 -50.3892 -50.3794 -50.3778 -50.3764 -50.3734 -50.3691 -50.3647
   -50.3619 -50.3599 -50.3453 -50.3442 -50.3291 -50.3285 -50.3064 -50.3030
   -50.3010 -50.2945 -50.2942 -50.2723 -50.2718 -50.2616 -50.2360 -50.2301
   -50.2241 -50.2157 -49.9693 -49.9580 -29.0249 -29.0247 -29.0232 -29.0214
   -29.0201 -29.0186 -29.0176 -29.0159 -29.0031 -29.0000 -28.9979 -28.9967
   -28.9699 -28.9686 -28.9519 -28.9508 -28.9505 -28.9498 -28.9494 -28.9487
   -28.9478 -28.9465 -28.9384 -28.9373   5.4749   6.0095   6.3517   7.7637
     8.0140   8.1607   8.4456   8.6592   9.0730   9.1193   9.3365   9.4503
     9.5015   9.5138   9.6576   9.7535   9.7646   9.8143   9.8810   9.8821
     9.9404  10.1369  10.1416  10.1772  10.2291  10.2993  10.3367  10.3902
    10.4180  10.4240  10.4955  10.5444  10.5658  10.5966  10.6332  10.7410
    10.7538  10.8032  10.8141  10.9049  10.9113  10.9561  11.0062  11.0444
    11.1236  11.1723  11.1880  11.2725  11.3100  11.4055  11.4154  11.4588
    11.4620  11.5836  11.6246  11.6595  11.6781  11.7341  11.7947  11.8176
    11.8289  11.8490  11.9215  11.9707  12.0107  12.0535  12.0700  12.0906
    12.1453  12.2338  12.2411  12.2665  12.3068  12.3526  12.3606  12.4006
    12.4200  12.4431  12.5200  12.5512  12.7229  12.7294  12.8819  13.0565
    13.1713  13.6563  13.7356  13.8778  13.9846  14.0222  14.1683  14.2640
    14.3189  14.7045  15.0510  15.4891  15.7819  15.9527  16.0852  17.3604
    17.8581  17.9553  18.0418  18.8588  18.9735  19.0123  19.2848  19.3630
    19.3681  19.9090  20.3298  20.3422  20.4379  20.9427  21.0710  21.3007
    21.8189  22.1135

          k = 0.3297 0.5736-0.0008 ( 24155 PWs)   bands (ev):

   -90.1216 -90.1188 -90.0627 -90.0619 -90.0366 -90.0293 -90.0166 -89.9976
   -89.9974 -89.9852 -89.9851 -89.9767 -89.9753 -89.7905 -89.7770 -62.2582
   -62.2558 -62.2519 -62.2496 -62.1973 -62.1960 -62.1951 -62.1940 -50.6936
   -50.6896 -50.6277 -50.6263 -50.5740 -50.5675 -50.5584 -50.5194 -50.5123
   -50.5069 -50.4919 -50.4863 -50.4613 -50.4594 -50.4472 -50.4271 -50.4232
   -50.3889 -50.3851 -50.3811 -50.3797 -50.3791 -50.3773 -50.3752 -50.3680
   -50.3641 -50.3580 -50.3434 -50.3369 -50.3283 -50.3278 -50.3265 -50.3014
   -50.3013 -50.2996 -50.2977 -50.2894 -50.2893 -50.2614 -50.2360 -50.2300
   -50.2240 -50.2157 -49.9694 -49.9577 -29.0251 -29.0245 -29.0242 -29.0218
   -29.0211 -29.0184 -29.0178 -29.0150 -29.0036 -28.9994 -28.9978 -28.9967
   -28.9696 -28.9683 -28.9525 -28.9514 -28.9514 -28.9501 -28.9487 -28.9476
   -28.9474 -28.9461 -28.9381 -28.9370   7.0443   7.3181   7.5513   7.6043
     7.6771   8.0049   8.1118   8.1343   8.3809   9.0307   9.0796   9.1281
     9.1666   9.1854   9.5473   9.7093   9.8781   9.9490   9.9608  10.0066
    10.0621  10.1467  10.2536  10.2811  10.2822  10.3108  10.3795  10.4012
    10.4760  10.4899  10.5046  10.5297  10.5414  10.5670  10.5918  10.6206
    10.6537  10.7064  10.7209  10.7430  10.7757  10.7898  10.8525  10.9497
    10.9908  11.0242  11.0462  11.1230  11.2586  11.2640  11.3030  11.3481
    11.3760  11.4103  11.4670  11.5363  11.5709  11.6302  11.6691  11.7033
    11.7760  11.8168  11.8848  11.8999  11.9019  11.9487  11.9668  11.9837
    12.0045  12.0261  12.0763  12.0795  12.1062  12.1661  12.2952  12.3542
    12.3932  12.4069  12.5396  12.5407  12.5509  12.6166  12.7350  12.7821
    12.8104  12.8864  13.0051  13.2141  13.3161  13.3365  14.6928  14.7532
    14.7646  14.9089  15.3485  15.7116  17.4538  17.6104  17.7332  17.8803
    17.9836  18.5925  18.6107  18.6172  18.7274  18.7848  19.1030  19.3704
    19.6062  19.6388  19.6835  20.4714  20.5315  20.9259  20.9574  21.0593
    21.7324  22.9771

          k = 0.3300-0.1909-0.0018 ( 24223 PWs)   bands (ev):

   -90.1218 -90.1189 -90.0641 -90.0633 -90.0424 -90.0236 -90.0163 -89.9953
   -89.9952 -89.9861 -89.9859 -89.9767 -89.9754 -89.7905 -89.7770 -62.2582
   -62.2558 -62.2519 -62.2497 -62.1972 -62.1960 -62.1951 -62.1939 -50.7153
   -50.7088 -50.6490 -50.6271 -50.5869 -50.5474 -50.5449 -50.5168 -50.5162
   -50.5050 -50.4958 -50.4896 -50.4671 -50.4583 -50.4504 -50.4333 -50.4243
   -50.3938 -50.3895 -50.3793 -50.3779 -50.3767 -50.3734 -50.3686 -50.3646
   -50.3636 -50.3585 -50.3456 -50.3451 -50.3291 -50.3285 -50.3056 -50.3024
   -50.3003 -50.2940 -50.2937 -50.2729 -50.2729 -50.2616 -50.2360 -50.2301
   -50.2241 -50.2157 -49.9693 -49.9581 -29.0249 -29.0247 -29.0232 -29.0214
   -29.0199 -29.0188 -29.0174 -29.0161 -29.0031 -29.0000 -28.9979 -28.9967
   -28.9699 -28.9686 -28.9520 -28.9508 -28.9505 -28.9498 -28.9494 -28.9486
   -28.9478 -28.9466 -28.9384 -28.9373   5.4743   6.0088   6.3513   7.7629
     8.0136   8.1599   8.4443   8.6585   9.0728   9.1176   9.3361   9.4501
     9.5022   9.5135   9.6578   9.7537   9.7651   9.8148   9.8806   9.8818
     9.9413  10.1364  10.1419  10.1783  10.2294  10.2980  10.3376  10.3901
    10.4154  10.4247  10.4951  10.5438  10.5677  10.5962  10.6360  10.7404
    10.7535  10.8037  10.8156  10.9059  10.9103  10.9557  11.0069  11.0457
    11.1225  11.1728  11.1878  11.2700  11.3098  11.4051  11.4158  11.4581
    11.4620  11.5824  11.6253  11.6613  11.6787  11.7348  11.7956  11.8173
    11.8277  11.8476  11.9218  11.9685  12.0094  12.0541  12.0700  12.0916
    12.1469  12.2329  12.2411  12.2670  12.3074  12.3526  12.3612  12.4014
    12.4207  12.4423  12.5197  12.5503  12.7230  12.7292  12.8837  13.0571
    13.1710  13.6564  13.7351  13.8784  13.9866  14.0250  14.1691  14.2666
    14.3209  14.7060  15.0533  15.4865  15.7806  15.9528  16.0879  17.3623
    17.8606  17.9564  18.0406  18.8603  18.9737  19.0148  19.2867  19.3646
    19.3697  19.9080  20.3309  20.3415  20.4369  20.9427  21.0691  21.2981
    21.8187  22.1109

     the Fermi energy is    12.9167 ev

!    total energy              =   -7568.85013505 Ry
     total all-electron energy =    -48829.493897 Ry
     estimated scf accuracy    <       0.00000116 Ry
     smearing contrib. (-TS)   =       0.09405684 Ry
     internal energy E=F+TS    =   -7568.94419188 Ry

     The total energy is F=E-TS. E is the sum of the following terms:
     one-electron contribution =   -4464.59991714 Ry
     hartree contribution      =    2377.44167927 Ry
     xc contribution           =    -656.44106305 Ry
     ewald contribution        =   -3339.38913822 Ry
     one-center paw contrib.   =   -1485.95575275 Ry

     convergence has been achieved in  45 iterations

     Forces acting on atoms (cartesian axes, Ry/au):

     atom    1 type  1   force =    -0.00016805    0.00000881   -0.00107798
     atom    2 type  1   force =    -0.00009423   -0.00100073    0.00072650
     atom    3 type  1   force =    -0.00030070   -0.00044740   -0.00046396
     atom    4 type  1   force =    -0.00024074    0.00078945    0.00116303
     atom    5 type  1   force =     0.00029189   -0.00059357   -0.00093219
     atom    6 type  1   force =     0.00018931    0.00053648   -0.00050143
     atom    7 type  1   force =    -0.00007571    0.00096048    0.00053100
     atom    8 type  1   force =     0.00030642   -0.00048547    0.00060241
     atom    9 type  2   force =     0.00030655   -0.00135809    0.00086260
     atom   10 type  2   force =    -0.00079437   -0.00002903    0.00318183
     atom   11 type  2   force =    -0.00002587    0.00032022   -0.00232959
     atom   12 type  2   force =     0.00027303   -0.00095734   -0.00057722
     atom   13 type  2   force =     0.00226388   -0.00118306   -0.00049513
     atom   14 type  2   force =     0.00002898    0.00127269   -0.00024014
     atom   15 type  2   force =     0.00174441    0.00236908   -0.00088406
     atom   16 type  2   force =    -0.00183120    0.00195826    0.00087223
     atom   17 type  2   force =    -0.00129255   -0.00093592   -0.00053918
     atom   18 type  2   force =     0.00004271   -0.00056255   -0.00009347
     atom   19 type  2   force =     0.00094067   -0.00083019    0.00111633
     atom   20 type  2   force =    -0.00017972    0.00079634    0.00031929
     atom   21 type  2   force =    -0.00001769    0.00001952   -0.00127278
     atom   22 type  2   force =    -0.00124351   -0.00056622    0.00175060
     atom   23 type  2   force =    -0.00012352   -0.00008175   -0.00171869
     The non-local contrib.  to forces
     atom    1 type  1   force =    -0.00029200    0.04514595    0.00649458
     atom    2 type  1   force =     0.00057317   -0.00170944    0.01301998
     atom    3 type  1   force =    -0.00089946    0.00005307   -0.01123978
     atom    4 type  1   force =     0.00030919    0.04702555   -0.00659728
     atom    5 type  1   force =     0.00090958   -0.00729589   -0.01011828
     atom    6 type  1   force =    -0.00104306   -0.02479679    0.00452245
     atom    7 type  1   force =    -0.00088574   -0.02408288   -0.00452972
     atom    8 type  1   force =     0.00145932   -0.00743538    0.00929297
     atom    9 type  2   force =    -0.00416723   -0.08562280    0.02942010
     atom   10 type  2   force =     0.01710461    0.02190822    0.04663497
     atom   11 type  2   force =    -0.00563668    0.02005640   -0.04771252
     atom   12 type  2   force =    -0.00994784   -0.09010407   -0.03260442
     atom   13 type  2   force =     0.08522331   -0.07567859    0.00189239
     atom   14 type  2   force =    -0.00225724    0.07830948    0.00060393
     atom   15 type  2   force =    -0.13868397    0.12254872    0.00537569
     atom   16 type  2   force =     0.13773801    0.13590741   -0.00176242
     atom   17 type  2   force =    -0.08816573   -0.07245350    0.00506489
     atom   18 type  2   force =     0.00310347    0.05858894    0.09358946
     atom   19 type  2   force =    -0.01391066    0.02747342    0.01052755
     atom   20 type  2   force =    -0.00242706    0.05865555   -0.08806398
     atom   21 type  2   force =    -0.01277877    0.02289627   -0.01624913
     atom   22 type  2   force =     0.01255438    0.02648778    0.00284015
     atom   23 type  2   force =     0.01599629    0.02580459   -0.00632123
     The ionic contribution  to forces
     atom    1 type  1   force =    -0.11469613    2.97425525  -21.68840930
     atom    2 type  1   force =     0.04958364   -0.04175503    8.48208853
     atom    3 type  1   force =    -0.07047472    0.03768371   -8.43047976
     atom    4 type  1   force =     0.11091170    2.97857312   21.71293258
     atom    5 type  1   force =     0.01978040   -0.24008623   -5.74602117
     atom    6 type  1   force =     0.05741753   -0.29701231   18.09307228
     atom    7 type  1   force =    -0.11283175   -0.21966393  -18.07172840
     atom    8 type  1   force =     0.07726201   -0.25390736    5.67783825
     atom    9 type  2   force =    -0.10872931  -10.58312451  -40.30840313
     atom   10 type  2   force =    -0.00079694    0.23810680   13.74522244
     atom   11 type  2   force =    -0.11889879    0.24621824  -13.60960434
     atom   12 type  2   force =     0.15864924  -10.73423527   40.42681979
     atom   13 type  2   force =    11.83876873   -6.55239789   -0.24735177
     atom   14 type  2   force =    -0.07927722   13.17155700   -0.14039419
     atom   15 type  2   force =   -11.36296561    8.36255808   -0.01629373
     atom   16 type  2   force =    11.35092699    8.47520705    0.04137742
     atom   17 type  2   force =   -11.77574587   -6.42786941   -0.00140393
     atom   18 type  2   force =    -0.07920072    0.02965449  -25.59763293
     atom   19 type  2   force =    -0.38034551   -0.43044664   26.96945890
     atom   20 type  2   force =     0.10638073    0.16749479   25.66334050
     atom   21 type  2   force =    -0.81758411   -0.23230456  -26.97151921
     atom   22 type  2   force =     0.66929143   -0.42073472   26.95282162
     atom   23 type  2   force =     0.58257426   -0.24777069  -26.93573044
     The local contribution  to forces
     atom    1 type  1   force =     0.11487140   -3.01924446   21.68033635
     atom    2 type  1   force =    -0.05026771    0.04239357   -8.49372171
     atom    3 type  1   force =     0.07106133   -0.03825020    8.44069908
     atom    4 type  1   force =    -0.11139641   -3.02469526  -21.70499324
     atom    5 type  1   force =    -0.02040718    0.24671404    5.75514095
     atom    6 type  1   force =    -0.05611950    0.32218164  -18.09798524
     atom    7 type  1   force =     0.11369196    0.24467844   18.07647763
     atom    8 type  1   force =    -0.07845474    0.26089833   -5.68587897
     atom    9 type  2   force =     0.11281999   10.66638158   40.28698345
     atom   10 type  2   force =    -0.01552485   -0.25918985  -13.78141887
     atom   11 type  2   force =     0.12419387   -0.26487241   13.64822229
     atom   12 type  2   force =    -0.14926936   10.82304510  -40.40247305
     atom   13 type  2   force =   -11.91989340    6.62364605    0.24630271
     atom   14 type  2   force =     0.08108795  -13.24726659    0.14062590
     atom   15 type  2   force =    11.50021476   -8.48112031    0.01023881
     atom   16 type  2   force =   -11.48724452   -8.60693640   -0.03892472
     atom   17 type  2   force =    11.86032298    6.49659498   -0.00291609
     atom   18 type  2   force =     0.07640490   -0.08519938   25.50954567
     atom   19 type  2   force =     0.39447604    0.40383486  -26.97823715
     atom   20 type  2   force =    -0.10424337   -0.22174848  -25.58125840
     atom   21 type  2   force =     0.82955842    0.21103283   26.98449614
     atom   22 type  2   force =    -0.68250061    0.39523465  -26.95404145
     atom   23 type  2   force =    -0.59760593    0.22354601   26.93898380
     The core correction contribution to forces
     atom    1 type  1   force =     0.00000261   -0.00014580   -0.00008586
     atom    2 type  1   force =    -0.00000585    0.00001220   -0.00007643
     atom    3 type  1   force =     0.00000538    0.00000006    0.00007064
     atom    4 type  1   force =     0.00000245   -0.00015838    0.00008644
     atom    5 type  1   force =    -0.00000460    0.00003087    0.00004888
     atom    6 type  1   force =     0.00000166    0.00008535    0.00004203
     atom    7 type  1   force =     0.00000175    0.00008407   -0.00004108
     atom    8 type  1   force =    -0.00000287    0.00002813   -0.00004559
     atom    9 type  2   force =     0.00028417    0.00052970   -0.00791642
     atom   10 type  2   force =    -0.00115011   -0.00099679   -0.00625948
     atom   11 type  2   force =     0.00038097   -0.00093678    0.00637926
     atom   12 type  2   force =     0.00066149    0.00071460    0.00820610
     atom   13 type  2   force =    -0.00207454    0.00313925   -0.00019748
     atom   14 type  2   force =     0.00017504   -0.00142600   -0.00009012
     atom   15 type  2   force =     0.00314316   -0.00174994   -0.00026930
     atom   16 type  2   force =    -0.00314464   -0.00244613   -0.00003730
     atom   17 type  2   force =     0.00224045    0.00290011   -0.00022735
     atom   18 type  2   force =    -0.00021517   -0.00379633   -0.00737949
     atom   19 type  2   force =     0.00084386   -0.00170742    0.00009459
     atom   20 type  2   force =     0.00018897   -0.00377818    0.00697097
     atom   21 type  2   force =     0.00068334   -0.00143265    0.00028646
     atom   22 type  2   force =    -0.00062168   -0.00167520    0.00052426
     atom   23 type  2   force =    -0.00089892   -0.00158980   -0.00032202
     The Hubbard contrib.    to forces
     atom    1 type  1   force =     0.00000000    0.00000000    0.00000000
     atom    2 type  1   force =     0.00000000    0.00000000    0.00000000
     atom    3 type  1   force =     0.00000000    0.00000000    0.00000000
     atom    4 type  1   force =     0.00000000    0.00000000    0.00000000
     atom    5 type  1   force =     0.00000000    0.00000000    0.00000000
     atom    6 type  1   force =     0.00000000    0.00000000    0.00000000
     atom    7 type  1   force =     0.00000000    0.00000000    0.00000000
     atom    8 type  1   force =     0.00000000    0.00000000    0.00000000
     atom    9 type  2   force =     0.00000000    0.00000000    0.00000000
     atom   10 type  2   force =     0.00000000    0.00000000    0.00000000
     atom   11 type  2   force =     0.00000000    0.00000000    0.00000000
     atom   12 type  2   force =     0.00000000    0.00000000    0.00000000
     atom   13 type  2   force =     0.00000000    0.00000000    0.00000000
     atom   14 type  2   force =     0.00000000    0.00000000    0.00000000
     atom   15 type  2   force =     0.00000000    0.00000000    0.00000000
     atom   16 type  2   force =     0.00000000    0.00000000    0.00000000
     atom   17 type  2   force =     0.00000000    0.00000000    0.00000000
     atom   18 type  2   force =     0.00000000    0.00000000    0.00000000
     atom   19 type  2   force =     0.00000000    0.00000000    0.00000000
     atom   20 type  2   force =     0.00000000    0.00000000    0.00000000
     atom   21 type  2   force =     0.00000000    0.00000000    0.00000000
     atom   22 type  2   force =     0.00000000    0.00000000    0.00000000
     atom   23 type  2   force =     0.00000000    0.00000000    0.00000000
     The SCF correction term to forces
     atom    1 type  1   force =    -0.00001051   -0.00000452    0.00060069
     atom    2 type  1   force =     0.00006594    0.00005557   -0.00056943
     atom    3 type  1   force =     0.00005018    0.00006356    0.00050029
     atom    4 type  1   force =    -0.00002425    0.00004203   -0.00025104
     atom    5 type  1   force =     0.00005712    0.00004125    0.00003186
     atom    6 type  1   force =    -0.00002390    0.00007619   -0.00013852
     atom    7 type  1   force =    -0.00000851   -0.00005762    0.00036700
     atom    8 type  1   force =     0.00008611   -0.00007158   -0.00058982
     atom    9 type  2   force =     0.00014234    0.00047555    0.00079303
     atom   10 type  2   force =    -0.00038365    0.00014021   -0.00098279
     atom   11 type  2   force =    -0.00002182   -0.00014763    0.00040014
     atom   12 type  2   force =     0.00022291   -0.00038010   -0.00051121
     atom   13 type  2   force =     0.00028319    0.00010572   -0.00112654
     atom   14 type  2   force =     0.00034387    0.00009642   -0.00097124
     atom   15 type  2   force =     0.00007949    0.00013014    0.00007891
     atom   16 type  2   force =    -0.00006361    0.00022393    0.00023368
     atom   17 type  2   force =     0.00009903   -0.00011049   -0.00104227
     atom   18 type  2   force =    -0.00000635    0.00018734    0.00179826
     atom   19 type  2   force =    -0.00007964    0.00001320   -0.00071313
     atom   20 type  2   force =    -0.00003557    0.00017026   -0.00065537
     atom   21 type  2   force =     0.00014684   -0.00017475    0.00172740
     atom   22 type  2   force =     0.00007639    0.00011888   -0.00037954
     atom   23 type  2   force =    -0.00014581   -0.00007424    0.00168563

     Total force =     0.008453     Total SCF correction =     0.004264
     SCF correction compared to forces is large: reduce conv_thr to get better values


     Computing stress (Cartesian axis) and pressure

          total   stress  (Ry/bohr**3)                   (kbar)     P=        0.46
  -0.00000076   0.00000375   0.00000531           -0.11        0.55        0.78
   0.00000375   0.00000320   0.00000050            0.55        0.47        0.07
   0.00000531   0.00000050   0.00000692            0.78        0.07        1.02

     Energy error            =      1.3E-04 Ry
     Gradient error          =      3.2E-03 Ry/Bohr
     Cell gradient error     =      1.0E+00 kbar

     number of scf cycles    =   8
     number of bfgs steps    =   7

     enthalpy           old  =   -7568.8500055136 Ry
     enthalpy           new  =   -7568.8501350453 Ry

     CASE: enthalpy          _new < enthalpy          _old

     new trust radius        =       0.0062300359 bohr
     new conv_thr            =       0.0000012953 Ry

     new unit-cell volume =   2039.57660 a.u.^3 (   302.23407 Ang^3 )
     density =      5.90541 g/cm^3

CELL_PARAMETERS (angstrom)
   4.743761966   0.002648448  -0.020645207
  -2.373578163   4.093613494   0.016251790
   0.076243873  -0.018089866  15.558335590

ATOMIC_POSITIONS (crystal)
Mg            0.9997053576        1.0001285801        0.4058356696
Mg           -0.0006293950       -0.0017816488        0.9077655212
Mg            0.9985127391        0.9975009314        0.5919488658
Mg            0.9995099471        0.9991828891        0.0938953311
Mg            0.3319121453        0.6649433305        0.6556128068
Mg            0.6670525031        0.3350250382        0.1577208278
Mg            0.6671179708        0.3352110474        0.3420210681
Mg            0.3324632549        0.6651946733        0.8442155274
Ni            0.3368813544        0.6745713719        0.3724635648
Ni            0.6655093757        0.3299151410        0.8754714293
Ni            0.6642652896        0.3294025894        0.6242403334
Ni            0.3362776653        0.6735320477        0.1273111845
Ni            0.8334863827        0.1627216157        0.7499200672
Ni            0.8339183838        0.6686123478        0.7498884400
Ni            0.1597266301        0.8330554197        0.2499597664
Ni            0.6731930553        0.8341441635        0.2498015016
Ni            0.3285907321        0.1627901367        0.7499926652
Ni            0.4982988661        0.9971071458        0.4987325004
Ni            0.4987245570        0.4971187649        0.0014191510
Ni            0.4987682553       -0.0028846596        1.0010578778
Ni            0.4982091871        0.4969426004        0.4983416867
Ni           -0.0009247843        0.4970691324        0.0013031848
Ni            0.9982545272        0.4971073413        0.4984530292



     Writing config-only to output data dir ./C36/out_logs/C36_out_8/laves_C36.save/
     NEW-OLD atomic charge density approx. for the potential

     Check: negative core charge=   -0.000010
     extrapolated charge  349.95662, renormalised to  350.00000

     total cpu time spent up to now is     5000.0 secs

     Self-consistent Calculation

     iteration #  1     ecut=    80.00 Ry     beta= 0.20
     Davidson diagonalization with overlap
     ethr =  1.00E-06,  avg # of iterations =  6.0

     total cpu time spent up to now is     5018.1 secs

     total energy              =   -7568.82467614 Ry
     estimated scf accuracy    <       2.30770615 Ry

     iteration #  2     ecut=    80.00 Ry     beta= 0.20
     Davidson diagonalization with overlap
     ethr =  6.59E-04,  avg # of iterations =  1.2

     total cpu time spent up to now is     5027.1 secs

     total energy              =   -7568.41735793 Ry
     estimated scf accuracy    <       2.99909334 Ry

     iteration #  3     ecut=    80.00 Ry     beta= 0.20
     Davidson diagonalization with overlap
     ethr =  6.59E-04,  avg # of iterations =  4.6

     total cpu time spent up to now is     5037.4 secs

     total energy              =   -7567.71798032 Ry
     estimated scf accuracy    <      93.25804814 Ry

     iteration #  4     ecut=    80.00 Ry     beta= 0.20
     Davidson diagonalization with overlap
     ethr =  6.59E-04,  avg # of iterations =  2.0

     total cpu time spent up to now is     5047.2 secs

     total energy              =   -7568.67449407 Ry
     estimated scf accuracy    <       7.79543917 Ry

     iteration #  5     ecut=    80.00 Ry     beta= 0.20
     Davidson diagonalization with overlap
     ethr =  6.59E-04,  avg # of iterations =  1.6

     total cpu time spent up to now is     5056.6 secs

     total energy              =   -7568.79819666 Ry
     estimated scf accuracy    <       1.82842043 Ry

     iteration #  6     ecut=    80.00 Ry     beta= 0.20
     Davidson diagonalization with overlap
     ethr =  5.22E-04,  avg # of iterations =  1.2

     total cpu time spent up to now is     5065.5 secs

     total energy              =   -7568.81009724 Ry
     estimated scf accuracy    <       2.61348676 Ry

     iteration #  7     ecut=    80.00 Ry     beta= 0.20
     Davidson diagonalization with overlap
     ethr =  5.22E-04,  avg # of iterations =  1.0

     total cpu time spent up to now is     5074.2 secs

     total energy              =   -7568.84250710 Ry
     estimated scf accuracy    <       0.10242217 Ry

     iteration #  8     ecut=    80.00 Ry     beta= 0.20
     Davidson diagonalization with overlap
     ethr =  2.93E-05,  avg # of iterations =  5.2

     total cpu time spent up to now is     5084.7 secs

     total energy              =   -7568.84594266 Ry
     estimated scf accuracy    <       0.02140888 Ry

     iteration #  9     ecut=    80.00 Ry     beta= 0.20
     Davidson diagonalization with overlap
     ethr =  6.12E-06,  avg # of iterations =  3.6

     total cpu time spent up to now is     5094.8 secs

     total energy              =   -7568.84679006 Ry
     estimated scf accuracy    <       0.02138678 Ry

     iteration # 10     ecut=    80.00 Ry     beta= 0.20
     Davidson diagonalization with overlap
     ethr =  6.11E-06,  avg # of iterations =  1.0

     total cpu time spent up to now is     5103.6 secs

     total energy              =   -7568.84752811 Ry
     estimated scf accuracy    <       0.00700168 Ry

     iteration # 11     ecut=    80.00 Ry     beta= 0.20
     Davidson diagonalization with overlap
     ethr =  2.00E-06,  avg # of iterations =  2.0

     total cpu time spent up to now is     5113.3 secs

     total energy              =   -7568.84785203 Ry
     estimated scf accuracy    <       0.00500588 Ry

     iteration # 12     ecut=    80.00 Ry     beta= 0.20
     Davidson diagonalization with overlap
     ethr =  1.43E-06,  avg # of iterations =  1.0

     total cpu time spent up to now is     5122.1 secs

     total energy              =   -7568.84803586 Ry
     estimated scf accuracy    <       0.00562656 Ry

     iteration # 13     ecut=    80.00 Ry     beta= 0.20
     Davidson diagonalization with overlap
     ethr =  1.43E-06,  avg # of iterations =  1.0

     total cpu time spent up to now is     5130.8 secs

     total energy              =   -7568.84823443 Ry
     estimated scf accuracy    <       0.00511764 Ry

     iteration # 14     ecut=    80.00 Ry     beta= 0.20
     Davidson diagonalization with overlap
     ethr =  1.43E-06,  avg # of iterations =  1.0

     total cpu time spent up to now is     5139.6 secs

     total energy              =   -7568.84901258 Ry
     estimated scf accuracy    <       0.00445175 Ry

     iteration # 15     ecut=    80.00 Ry     beta= 0.20
     Davidson diagonalization with overlap
     ethr =  1.27E-06,  avg # of iterations =  1.4

     total cpu time spent up to now is     5148.8 secs

     total energy              =   -7568.84954046 Ry
     estimated scf accuracy    <       0.00326337 Ry

     iteration # 16     ecut=    80.00 Ry     beta= 0.20
     Davidson diagonalization with overlap
     ethr =  9.32E-07,  avg # of iterations =  2.0

     total cpu time spent up to now is     5159.0 secs

     total energy              =   -7568.84908101 Ry
     estimated scf accuracy    <       0.00768132 Ry

     iteration # 17     ecut=    80.00 Ry     beta= 0.20
     Davidson diagonalization with overlap
     ethr =  9.32E-07,  avg # of iterations =  1.4

     total cpu time spent up to now is     5168.2 secs

     total energy              =   -7568.84936650 Ry
     estimated scf accuracy    <       0.00747382 Ry

     iteration # 18     ecut=    80.00 Ry     beta= 0.20
     Davidson diagonalization with overlap
     ethr =  9.32E-07,  avg # of iterations =  1.0

     total cpu time spent up to now is     5176.9 secs

     total energy              =   -7568.84945835 Ry
     estimated scf accuracy    <       0.00973597 Ry

     iteration # 19     ecut=    80.00 Ry     beta= 0.20
     Davidson diagonalization with overlap
     ethr =  9.32E-07,  avg # of iterations =  1.0

     total cpu time spent up to now is     5185.7 secs

     total energy              =   -7568.85002916 Ry
     estimated scf accuracy    <       0.01084139 Ry

     iteration # 20     ecut=    80.00 Ry     beta= 0.20
     Davidson diagonalization with overlap
     ethr =  9.32E-07,  avg # of iterations =  2.0

     total cpu time spent up to now is     5196.3 secs

     total energy              =   -7568.84749373 Ry
     estimated scf accuracy    <       0.07815393 Ry

     iteration # 21     ecut=    80.00 Ry     beta= 0.20
     Davidson diagonalization with overlap
     ethr =  9.32E-07,  avg # of iterations =  2.0

     total cpu time spent up to now is     5206.9 secs

     total energy              =   -7568.84921570 Ry
     estimated scf accuracy    <       0.00557072 Ry

     iteration # 22     ecut=    80.00 Ry     beta= 0.20
     Davidson diagonalization with overlap
     ethr =  9.32E-07,  avg # of iterations =  2.0

     total cpu time spent up to now is     5216.8 secs

     total energy              =   -7568.84940617 Ry
     estimated scf accuracy    <       0.01032148 Ry

     iteration # 23     ecut=    80.00 Ry     beta= 0.20
     Davidson diagonalization with overlap
     ethr =  9.32E-07,  avg # of iterations =  1.0

     total cpu time spent up to now is     5225.6 secs

     total energy              =   -7568.84954612 Ry
     estimated scf accuracy    <       0.01007212 Ry

     iteration # 24     ecut=    80.00 Ry     beta= 0.20
     Davidson diagonalization with overlap
     ethr =  9.32E-07,  avg # of iterations =  1.0

     total cpu time spent up to now is     5234.4 secs

     total energy              =   -7568.84954937 Ry
     estimated scf accuracy    <       0.01211980 Ry

     iteration # 25     ecut=    80.00 Ry     beta= 0.20
     Davidson diagonalization with overlap
     ethr =  9.32E-07,  avg # of iterations =  1.0

     total cpu time spent up to now is     5243.2 secs

     total energy              =   -7568.84879487 Ry
     estimated scf accuracy    <       0.01316192 Ry

     iteration # 26     ecut=    80.00 Ry     beta= 0.20
     Davidson diagonalization with overlap
     ethr =  9.32E-07,  avg # of iterations =  2.0

     total cpu time spent up to now is     5253.1 secs

     total energy              =   -7568.84896658 Ry
     estimated scf accuracy    <       0.00711396 Ry

     iteration # 27     ecut=    80.00 Ry     beta= 0.20
     Davidson diagonalization with overlap
     ethr =  9.32E-07,  avg # of iterations =  1.0

     total cpu time spent up to now is     5261.9 secs

     total energy              =   -7568.84859318 Ry
     estimated scf accuracy    <       0.00711790 Ry

     iteration # 28     ecut=    80.00 Ry     beta= 0.20
     Davidson diagonalization with overlap
     ethr =  9.32E-07,  avg # of iterations =  1.0

     total cpu time spent up to now is     5270.6 secs

     total energy              =   -7568.84870416 Ry
     estimated scf accuracy    <       0.00613950 Ry

     iteration # 29     ecut=    80.00 Ry     beta= 0.20
     Davidson diagonalization with overlap
     ethr =  9.32E-07,  avg # of iterations =  1.0

     total cpu time spent up to now is     5279.4 secs

     total energy              =   -7568.84844576 Ry
     estimated scf accuracy    <       0.00330017 Ry

     iteration # 30     ecut=    80.00 Ry     beta= 0.20
     Davidson diagonalization with overlap
     ethr =  9.32E-07,  avg # of iterations =  1.0

     total cpu time spent up to now is     5288.2 secs

     total energy              =   -7568.84887686 Ry
     estimated scf accuracy    <       0.01387052 Ry

     iteration # 31     ecut=    80.00 Ry     beta= 0.20
     Davidson diagonalization with overlap
     ethr =  9.32E-07,  avg # of iterations =  1.0

     total cpu time spent up to now is     5297.0 secs

     total energy              =   -7568.84949963 Ry
     estimated scf accuracy    <       0.00498602 Ry

     iteration # 32     ecut=    80.00 Ry     beta= 0.20
     Davidson diagonalization with overlap
     ethr =  9.32E-07,  avg # of iterations =  2.0

     total cpu time spent up to now is     5307.6 secs

     total energy              =   -7568.84989022 Ry
     estimated scf accuracy    <       0.01320172 Ry

     iteration # 33     ecut=    80.00 Ry     beta= 0.20
     Davidson diagonalization with overlap
     ethr =  9.32E-07,  avg # of iterations =  1.0

     total cpu time spent up to now is     5316.3 secs

     total energy              =   -7568.84997487 Ry
     estimated scf accuracy    <       0.00735111 Ry

     iteration # 34     ecut=    80.00 Ry     beta= 0.20
     Davidson diagonalization with overlap
     ethr =  9.32E-07,  avg # of iterations =  2.0

     total cpu time spent up to now is     5326.9 secs

     total energy              =   -7568.85021281 Ry
     estimated scf accuracy    <       0.01188987 Ry

     iteration # 35     ecut=    80.00 Ry     beta= 0.20
     Davidson diagonalization with overlap
     ethr =  9.32E-07,  avg # of iterations =  1.0

     total cpu time spent up to now is     5335.6 secs

     total energy              =   -7568.85021965 Ry
     estimated scf accuracy    <       0.00608416 Ry

     iteration # 36     ecut=    80.00 Ry     beta= 0.20
     Davidson diagonalization with overlap
     ethr =  9.32E-07,  avg # of iterations =  1.0

     total cpu time spent up to now is     5344.4 secs

     total energy              =   -7568.85024596 Ry
     estimated scf accuracy    <       0.00206625 Ry

     iteration # 37     ecut=    80.00 Ry     beta= 0.20
     Davidson diagonalization with overlap
     ethr =  5.90E-07,  avg # of iterations =  1.0

     total cpu time spent up to now is     5353.2 secs

     total energy              =   -7568.85020250 Ry
     estimated scf accuracy    <       0.00122536 Ry

     iteration # 38     ecut=    80.00 Ry     beta= 0.20
     Davidson diagonalization with overlap
     ethr =  3.50E-07,  avg # of iterations =  1.4

     total cpu time spent up to now is     5362.3 secs

     total energy              =   -7568.85021249 Ry
     estimated scf accuracy    <       0.00009091 Ry

     iteration # 39     ecut=    80.00 Ry     beta= 0.20
     Davidson diagonalization with overlap
     ethr =  2.60E-08,  avg # of iterations =  1.0

     total cpu time spent up to now is     5371.1 secs

     total energy              =   -7568.85021570 Ry
     estimated scf accuracy    <       0.00005443 Ry

     iteration # 40     ecut=    80.00 Ry     beta= 0.20
     Davidson diagonalization with overlap
     ethr =  1.56E-08,  avg # of iterations =  2.0

     total cpu time spent up to now is     5381.9 secs

     total energy              =   -7568.85024076 Ry
     estimated scf accuracy    <       0.00035929 Ry

     iteration # 41     ecut=    80.00 Ry     beta= 0.20
     Davidson diagonalization with overlap
     ethr =  1.56E-08,  avg # of iterations =  1.0

     total cpu time spent up to now is     5390.6 secs

     total energy              =   -7568.85023780 Ry
     estimated scf accuracy    <       0.00031053 Ry

     iteration # 42     ecut=    80.00 Ry     beta= 0.20
     Davidson diagonalization with overlap
     ethr =  1.56E-08,  avg # of iterations =  1.4

     total cpu time spent up to now is     5399.8 secs

     total energy              =   -7568.85023320 Ry
     estimated scf accuracy    <       0.00010068 Ry

     iteration # 43     ecut=    80.00 Ry     beta= 0.20
     Davidson diagonalization with overlap
     ethr =  1.56E-08,  avg # of iterations =  2.0

     total cpu time spent up to now is     5409.8 secs

     total energy              =   -7568.85023708 Ry
     estimated scf accuracy    <       0.00001258 Ry

     iteration # 44     ecut=    80.00 Ry     beta= 0.20
     Davidson diagonalization with overlap
     ethr =  3.59E-09,  avg # of iterations =  2.0

     total cpu time spent up to now is     5420.4 secs

     total energy              =   -7568.85023900 Ry
     estimated scf accuracy    <       0.00002679 Ry

     iteration # 45     ecut=    80.00 Ry     beta= 0.20
     Davidson diagonalization with overlap
     ethr =  3.59E-09,  avg # of iterations =  1.0

     total cpu time spent up to now is     5429.2 secs

     total energy              =   -7568.85023929 Ry
     estimated scf accuracy    <       0.00000992 Ry

     iteration # 46     ecut=    80.00 Ry     beta= 0.20
     Davidson diagonalization with overlap
     ethr =  2.83E-09,  avg # of iterations =  1.4

     total cpu time spent up to now is     5438.4 secs

     total energy              =   -7568.85023950 Ry
     estimated scf accuracy    <       0.00002359 Ry

     iteration # 47     ecut=    80.00 Ry     beta= 0.20
     Davidson diagonalization with overlap
     ethr =  2.83E-09,  avg # of iterations =  1.4

     total cpu time spent up to now is     5447.6 secs

     total energy              =   -7568.85024009 Ry
     estimated scf accuracy    <       0.00000267 Ry

     iteration # 48     ecut=    80.00 Ry     beta= 0.20
     Davidson diagonalization with overlap
     ethr =  7.62E-10,  avg # of iterations =  1.0

     total cpu time spent up to now is     5456.4 secs

     total energy              =   -7568.85024013 Ry
     estimated scf accuracy    <       0.00000133 Ry

     iteration # 49     ecut=    80.00 Ry     beta= 0.20
     Davidson diagonalization with overlap
     ethr =  3.80E-10,  avg # of iterations =  1.0

     total cpu time spent up to now is     5465.1 secs

     End of self-consistent calculation

          k = 0.0000 0.0000 0.0000 ( 24267 PWs)   bands (ev):

   -90.1183 -90.1159 -90.0648 -90.0638 -90.0448 -90.0147 -90.0122 -89.9983
   -89.9980 -89.9799 -89.9794 -89.9769 -89.9754 -89.7918 -89.7697 -62.2566
   -62.2545 -62.2488 -62.2465 -62.1949 -62.1940 -62.1925 -62.1912 -50.7417
   -50.7332 -50.6829 -50.6265 -50.5827 -50.5457 -50.5436 -50.5294 -50.5266
   -50.5023 -50.4986 -50.4861 -50.4832 -50.4535 -50.4456 -50.4282 -50.4240
   -50.4068 -50.3977 -50.3864 -50.3825 -50.3767 -50.3719 -50.3602 -50.3558
   -50.3470 -50.3409 -50.3398 -50.3390 -50.3383 -50.3343 -50.2860 -50.2823
   -50.2815 -50.2814 -50.2811 -50.2588 -50.2585 -50.2375 -50.2294 -50.2225
   -50.2177 -50.2102 -49.9711 -49.9523 -29.0225 -29.0207 -29.0200 -29.0181
   -29.0179 -29.0176 -29.0155 -29.0152 -29.0006 -28.9966 -28.9942 -28.9929
   -28.9680 -28.9667 -28.9502 -28.9494 -28.9493 -28.9484 -28.9472 -28.9461
   -28.9453 -28.9440 -28.9360 -28.9349   4.4713   5.0248   5.3834   6.8568
     7.2670   8.5031   8.5135   8.9353   9.2058   9.3210   9.4436   9.5419
     9.5538   9.5565   9.5721   9.5783   9.6137   9.7591   9.7610   9.8098
     9.8746   9.8872   9.9472  10.0286  10.0692  10.2673  10.3273  10.3368
    10.3528  10.3818  10.4156  10.4356  10.4477  10.5104  10.6206  10.8263
    10.8686  10.9004  10.9211  10.9875  11.0497  11.0667  11.1290  11.1764
    11.4999  11.5162  11.6448  11.7393  11.7466  11.8204  11.8417  11.8442
    11.9720  12.0341  12.0632  12.1433  12.2123  12.2205  12.2324  12.2359
    12.2416  12.2460  12.2619  12.2689  12.2713  12.2942  12.3230  12.3251
    12.3304  12.3668  12.3737  12.3808  12.4124  12.5469  12.6810  12.8067
    12.9053  12.9860  13.1342  13.3542  13.3707  13.3709  13.8567  13.8846
    14.0494  14.0510  14.0798  14.1667  14.1729  14.2276  14.4484  14.4582
    14.4802  15.3796  15.4686  15.8440  15.8669  15.9154  16.2395  16.3953
    16.4886  16.9373  16.9591  17.4019  17.4985  17.6155  17.7648  17.8324
    17.9900  18.5262  18.6300  18.8562  19.1390  19.2972  19.7293  19.7612
    19.7660  20.0399

          k =-0.0002 0.3823 0.0004 ( 24221 PWs)   bands (ev):

   -90.1179 -90.1157 -90.0622 -90.0610 -90.0383 -90.0214 -90.0123 -90.0014
   -90.0011 -89.9799 -89.9794 -89.9766 -89.9751 -89.7918 -89.7697 -62.2566
   -62.2544 -62.2487 -62.2465 -62.1950 -62.1941 -62.1925 -62.1913 -50.7075
   -50.6999 -50.6436 -50.6270 -50.5940 -50.5607 -50.5539 -50.5234 -50.5179
   -50.4902 -50.4879 -50.4867 -50.4640 -50.4602 -50.4389 -50.4360 -50.4174
   -50.4031 -50.3893 -50.3830 -50.3779 -50.3728 -50.3697 -50.3647 -50.3619
   -50.3561 -50.3504 -50.3487 -50.3440 -50.3414 -50.3407 -50.3062 -50.3061
   -50.2990 -50.2920 -50.2910 -50.2673 -50.2666 -50.2375 -50.2295 -50.2224
   -50.2176 -50.2100 -49.9713 -49.9519 -29.0234 -29.0215 -29.0207 -29.0188
   -29.0186 -29.0168 -29.0162 -29.0147 -29.0015 -28.9955 -28.9949 -28.9920
   -28.9675 -28.9662 -28.9514 -28.9505 -28.9485 -28.9476 -28.9476 -28.9465
   -28.9446 -28.9433 -28.9353 -28.9342   5.4788   6.0161   6.3195   7.6791
     8.0139   8.1932   8.4686   8.7412   9.0786   9.1216   9.3085   9.3311
     9.4772   9.5822   9.6178   9.6396   9.7599   9.7907   9.8861   9.8893
     9.9230  10.0985  10.1767  10.1821  10.1935  10.2586  10.3251  10.3392
    10.3624  10.4305  10.4355  10.5049  10.5512  10.5887  10.6107  10.6536
    10.7115  10.7998  10.8459  10.8736  10.9969  11.0111  11.0141  11.0548
    11.1040  11.1417  11.1639  11.2500  11.3632  11.4270  11.4511  11.4983
    11.5145  11.6310  11.6432  11.7358  11.7639  11.8097  11.8143  11.8270
    11.9088  11.9161  11.9675  12.0374  12.0564  12.0825  12.1413  12.1800
    12.2540  12.2697  12.2866  12.3180  12.3314  12.3460  12.3594  12.4307
    12.4606  12.5373  12.6094  12.6357  12.7077  12.7357  12.9043  13.1825
    13.1845  13.5563  13.5584  13.6914  13.9938  13.9984  14.1649  14.2337
    14.3483  14.4473  14.5303  15.1945  15.7370  16.2604  16.3508  17.5686
    17.7492  18.0248  18.1981  18.7883  18.8922  19.1365  19.1696  19.1956
    19.3128  19.8091  20.3009  20.3957  20.4085  21.0221  21.0836  21.3656
    21.8325  22.1831

          k = 0.3299 0.1913-0.0014 ( 24222 PWs)   bands (ev):

   -90.1179 -90.1158 -90.0633 -90.0622 -90.0392 -90.0184 -90.0144 -89.9952
   -89.9948 -89.9855 -89.9853 -89.9758 -89.9745 -89.7874 -89.7742 -62.2566
   -62.2545 -62.2487 -62.2465 -62.1950 -62.1941 -62.1925 -62.1913 -50.7132
   -50.7071 -50.6473 -50.6252 -50.5850 -50.5469 -50.5442 -50.5158 -50.5149
   -50.5016 -50.4948 -50.4883 -50.4645 -50.4544 -50.4476 -50.4304 -50.4213
   -50.3921 -50.3879 -50.3771 -50.3755 -50.3748 -50.3716 -50.3654 -50.3630
   -50.3592 -50.3567 -50.3439 -50.3412 -50.3282 -50.3276 -50.3025 -50.3021
   -50.3001 -50.2937 -50.2932 -50.2715 -50.2711 -50.2588 -50.2343 -50.2292
   -50.2218 -50.2131 -49.9672 -49.9561 -29.0232 -29.0214 -29.0200 -29.0186
   -29.0181 -29.0170 -29.0163 -29.0145 -29.0016 -28.9968 -28.9947 -28.9935
   -28.9670 -28.9658 -28.9504 -28.9496 -28.9491 -28.9482 -28.9472 -28.9461
   -28.9449 -28.9436 -28.9355 -28.9344   5.4774   6.0091   6.3532   7.7647
     8.0140   8.1638   8.4458   8.6606   9.0730   9.1215   9.3382   9.4506
     9.5038   9.5149   9.6589   9.7532   9.7675   9.8147   9.8819   9.8835
     9.9439  10.1385  10.1441  10.1794  10.2325  10.3004  10.3385  10.3923
    10.4202  10.4244  10.4970  10.5450  10.5684  10.5964  10.6358  10.7427
    10.7561  10.8053  10.8163  10.9068  10.9127  10.9574  11.0088  11.0459
    11.1260  11.1749  11.1910  11.2741  11.3122  11.4082  11.4172  11.4603
    11.4656  11.5857  11.6268  11.6624  11.6813  11.7367  11.7963  11.8196
    11.8315  11.8511  11.9237  11.9709  12.0128  12.0562  12.0714  12.0920
    12.1471  12.2340  12.2426  12.2676  12.3092  12.3550  12.3627  12.4029
    12.4217  12.4444  12.5217  12.5528  12.7248  12.7312  12.8835  13.0586
    13.1730  13.6596  13.7346  13.8819  13.9873  14.0267  14.1727  14.2686
    14.3217  14.7065  15.0551  15.4873  15.7828  15.9542  16.0886  17.3629
    17.8600  17.9600  18.0407  18.8648  18.9759  19.0142  19.2897  19.3667
    19.3724  19.9084  20.3326  20.3477  20.4419  20.9452  21.0735  21.3033
    21.8230  22.1156

          k = 0.3297 0.5736-0.0009 ( 24155 PWs)   bands (ev):

   -90.1177 -90.1157 -90.0620 -90.0608 -90.0329 -90.0260 -90.0132 -89.9973
   -89.9969 -89.9849 -89.9846 -89.9758 -89.9744 -89.7873 -89.7742 -62.2565
   -62.2544 -62.2487 -62.2464 -62.1951 -62.1942 -62.1926 -62.1913 -50.6910
   -50.6872 -50.6269 -50.6254 -50.5710 -50.5665 -50.5577 -50.5176 -50.5113
   -50.5054 -50.4903 -50.4853 -50.4575 -50.4562 -50.4445 -50.4244 -50.4202
   -50.3874 -50.3833 -50.3785 -50.3779 -50.3769 -50.3752 -50.3721 -50.3650
   -50.3624 -50.3552 -50.3420 -50.3332 -50.3275 -50.3269 -50.3230 -50.3007
   -50.3005 -50.2989 -50.2970 -50.2887 -50.2884 -50.2586 -50.2344 -50.2291
   -50.2217 -50.2131 -49.9672 -49.9557 -29.0234 -29.0213 -29.0209 -29.0195
   -29.0185 -29.0171 -29.0162 -29.0137 -29.0021 -28.9962 -28.9946 -28.9935
   -28.9667 -28.9654 -28.9514 -28.9504 -28.9489 -28.9478 -28.9470 -28.9461
   -28.9443 -28.9430 -28.9352 -28.9341   7.0483   7.3193   7.5556   7.6047
     7.6772   8.0086   8.1143   8.1358   8.3810   9.0324   9.0805   9.1297
     9.1670   9.1869   9.5489   9.7144   9.8788   9.9486   9.9607  10.0079
    10.0623  10.1479  10.2560  10.2824  10.2844  10.3137  10.3803  10.4030
    10.4794  10.4917  10.5060  10.5309  10.5442  10.5680  10.5923  10.6212
    10.6563  10.7087  10.7217  10.7451  10.7775  10.7924  10.8535  10.9518
    10.9936  11.0254  11.0485  11.1249  11.2617  11.2666  11.3059  11.3497
    11.3784  11.4103  11.4687  11.5410  11.5745  11.6335  11.6726  11.7069
    11.7763  11.8184  11.8860  11.9028  11.9036  11.9499  11.9688  11.9847
    12.0070  12.0261  12.0769  12.0812  12.1085  12.1686  12.2950  12.3558
    12.3945  12.4089  12.5408  12.5422  12.5534  12.6176  12.7368  12.7840
    12.8127  12.8893  13.0074  13.2147  13.3167  13.3391  14.6950  14.7540
    14.7659  14.9075  15.3489  15.7102  17.4597  17.6140  17.7359  17.8819
    17.9878  18.5978  18.6126  18.6208  18.7306  18.7890  19.1009  19.3734
    19.6093  19.6424  19.6854  20.4736  20.5351  20.9295  20.9610  21.0617
    21.7365  22.9798

          k = 0.3301-0.1910-0.0018 ( 24223 PWs)   bands (ev):

   -90.1179 -90.1158 -90.0633 -90.0622 -90.0389 -90.0198 -90.0132 -89.9950
   -89.9947 -89.9857 -89.9854 -89.9758 -89.9745 -89.7874 -89.7742 -62.2566
   -62.2545 -62.2487 -62.2465 -62.1950 -62.1941 -62.1925 -62.1913 -50.7132
   -50.7072 -50.6470 -50.6250 -50.5847 -50.5468 -50.5441 -50.5161 -50.5152
   -50.5022 -50.4946 -50.4883 -50.4643 -50.4548 -50.4474 -50.4303 -50.4214
   -50.3921 -50.3881 -50.3770 -50.3755 -50.3749 -50.3717 -50.3652 -50.3629
   -50.3604 -50.3558 -50.3440 -50.3417 -50.3282 -50.3276 -50.3021 -50.3018
   -50.2997 -50.2933 -50.2930 -50.2719 -50.2718 -50.2588 -50.2343 -50.2292
   -50.2217 -50.2131 -49.9671 -49.9562 -29.0232 -29.0215 -29.0199 -29.0184
   -29.0182 -29.0172 -29.0160 -29.0148 -29.0016 -28.9968 -28.9947 -28.9934
   -28.9670 -28.9658 -28.9505 -28.9496 -28.9491 -28.9482 -28.9472 -28.9461
   -28.9449 -28.9436 -28.9355 -28.9344   5.4776   6.0093   6.3535   7.7648
     8.0142   8.1649   8.4463   8.6613   9.0732   9.1206   9.3383   9.4508
     9.5048   9.5148   9.6591   9.7535   9.7670   9.8143   9.8823   9.8829
     9.9431  10.1386  10.1440  10.1803  10.2327  10.3000  10.3388  10.3922
    10.4183  10.4252  10.4966  10.5448  10.5695  10.5961  10.6379  10.7421
    10.7560  10.8053  10.8178  10.9074  10.9114  10.9571  11.0093  11.0468
    11.1254  11.1758  11.1908  11.2719  11.3124  11.4079  11.4174  11.4597
    11.4656  11.5853  11.6272  11.6633  11.6822  11.7372  11.7967  11.8196
    11.8313  11.8501  11.9243  11.9694  12.0117  12.0567  12.0714  12.0931
    12.1480  12.2333  12.2418  12.2673  12.3091  12.3544  12.3626  12.4028
    12.4219  12.4435  12.5213  12.5521  12.7251  12.7310  12.8846  13.0587
    13.1731  13.6590  13.7352  13.8807  13.9876  14.0263  14.1704  14.2682
    14.3210  14.7053  15.0534  15.4866  15.7822  15.9547  16.0892  17.3619
    17.8598  17.9591  18.0399  18.8646  18.9763  19.0141  19.2889  19.3675
    19.3725  19.9092  20.3337  20.3467  20.4407  20.9453  21.0729  21.3052
    21.8232  22.1153

     the Fermi energy is    12.9185 ev

!    total energy              =   -7568.85023982 Ry
     total all-electron energy =    -48829.494002 Ry
     estimated scf accuracy    <       0.00000095 Ry
     smearing contrib. (-TS)   =       0.09405684 Ry
     internal energy E=F+TS    =   -7568.94429666 Ry

     The total energy is F=E-TS. E is the sum of the following terms:
     one-electron contribution =   -4463.04131064 Ry
     hartree contribution      =    2376.69289699 Ry
     xc contribution           =    -656.44327281 Ry
     ewald contribution        =   -3340.19666109 Ry
     one-center paw contrib.   =   -1485.95594911 Ry

     convergence has been achieved in  49 iterations

     Forces acting on atoms (cartesian axes, Ry/au):

     atom    1 type  1   force =    -0.00009363   -0.00008142   -0.00114984
     atom    2 type  1   force =    -0.00016879   -0.00093718    0.00059966
     atom    3 type  1   force =    -0.00018545   -0.00040389   -0.00043100
     atom    4 type  1   force =    -0.00008894    0.00047727    0.00115455
     atom    5 type  1   force =     0.00024565   -0.00063682   -0.00058740
     atom    6 type  1   force =     0.00007532    0.00055076   -0.00018231
     atom    7 type  1   force =     0.00007697    0.00097721    0.00028346
     atom    8 type  1   force =     0.00029475   -0.00048666    0.00036723
     atom    9 type  2   force =     0.00015881   -0.00096249   -0.00046705
     atom   10 type  2   force =    -0.00029837    0.00006373    0.00170896
     atom   11 type  2   force =    -0.00005811    0.00034735   -0.00041856
     atom   12 type  2   force =     0.00031683   -0.00033439    0.00075890
     atom   13 type  2   force =     0.00158852   -0.00118528   -0.00046519
     atom   14 type  2   force =     0.00013314    0.00118100   -0.00024154
     atom   15 type  2   force =     0.00031445    0.00214490   -0.00030916
     atom   16 type  2   force =    -0.00074579    0.00204334    0.00017895
     atom   17 type  2   force =    -0.00117903   -0.00103418   -0.00034246
     atom   18 type  2   force =     0.00005068   -0.00074162   -0.00061056
     atom   19 type  2   force =     0.00077099   -0.00034595    0.00106693
     atom   20 type  2   force =    -0.00005435   -0.00030533    0.00060358
     atom   21 type  2   force =     0.00010951    0.00010898   -0.00108168
     atom   22 type  2   force =    -0.00117381   -0.00030790    0.00120341
     atom   23 type  2   force =    -0.00008935   -0.00013143   -0.00163889
     The non-local contrib.  to forces
     atom    1 type  1   force =    -0.00004572    0.04459292    0.00640243
     atom    2 type  1   force =     0.00064520   -0.00145331    0.01228667
     atom    3 type  1   force =    -0.00056990    0.00022944   -0.01109811
     atom    4 type  1   force =     0.00003282    0.04548499   -0.00673009
     atom    5 type  1   force =     0.00072115   -0.00695494   -0.01072199
     atom    6 type  1   force =    -0.00085366   -0.02420721    0.00537954
     atom    7 type  1   force =    -0.00030152   -0.02346170   -0.00519800
     atom    8 type  1   force =     0.00075643   -0.00696463    0.01011597
     atom    9 type  2   force =    -0.00280654   -0.08966257    0.03418874
     atom   10 type  2   force =     0.01044633    0.02338429    0.05075124
     atom   11 type  2   force =    -0.00510377    0.02197071   -0.05366317
     atom   12 type  2   force =    -0.00828730   -0.09395122   -0.03697024
     atom   13 type  2   force =     0.08673497   -0.07415919    0.00140475
     atom   14 type  2   force =    -0.00462141    0.07836662    0.00095715
     atom   15 type  2   force =    -0.13600394    0.12930676    0.00427234
     atom   16 type  2   force =     0.13374905    0.14399731   -0.00063059
     atom   17 type  2   force =    -0.08906258   -0.07077907    0.00495836
     atom   18 type  2   force =     0.00344004    0.05878972    0.09673419
     atom   19 type  2   force =    -0.01350167    0.02614191    0.01532220
     atom   20 type  2   force =    -0.00196080    0.05958772   -0.09063299
     atom   21 type  2   force =    -0.01232908    0.02340859   -0.02199479
     atom   22 type  2   force =     0.01299833    0.02590089    0.00856270
     atom   23 type  2   force =     0.01569266    0.02549056   -0.01285434
     The ionic contribution  to forces
     atom    1 type  1   force =    -0.10064008    2.95982696  -21.64970451
     atom    2 type  1   force =     0.05026138   -0.04179466    8.34458101
     atom    3 type  1   force =    -0.05567899    0.04034202   -8.29960900
     atom    4 type  1   force =     0.09432434    2.92808761   21.65976274
     atom    5 type  1   force =     0.00620379   -0.22683917   -5.67003782
     atom    6 type  1   force =     0.05916663   -0.27505115   18.11206680
     atom    7 type  1   force =    -0.09015173   -0.19983293  -18.09262981
     atom    8 type  1   force =     0.04385992   -0.23913668    5.62746168
     atom    9 type  2   force =    -0.13959684  -10.56117120  -40.39615269
     atom   10 type  2   force =     0.02091075    0.25188209   13.43204796
     atom   11 type  2   force =    -0.09177276    0.25301486  -13.28298180
     atom   12 type  2   force =     0.17497413  -10.69419134   40.50043688
     atom   13 type  2   force =    11.73272496   -6.48470677   -0.22538772
     atom   14 type  2   force =    -0.02609473   13.12764635   -0.11687082
     atom   15 type  2   force =   -11.49269212    8.35421468    0.02649934
     atom   16 type  2   force =    11.47497378    8.45770739   -0.02726821
     atom   17 type  2   force =   -11.71551820   -6.46697293    0.02822475
     atom   18 type  2   force =    -0.08018293    0.01756328  -25.37535667
     atom   19 type  2   force =    -0.42638897   -0.35854374   26.73234789
     atom   20 type  2   force =     0.11486282    0.03541671   25.43516687
     atom   21 type  2   force =    -0.80404315   -0.24497005  -26.73556634
     atom   22 type  2   force =     0.67199140   -0.38281933   26.68763463
     atom   23 type  2   force =     0.57850659   -0.24967202  -26.71466517
     The local contribution  to forces
     atom    1 type  1   force =     0.10063001   -3.00432240   21.64207632
     atom    2 type  1   force =    -0.05103645    0.04232417   -8.35515682
     atom    3 type  1   force =     0.05608566   -0.04096277    8.30946372
     atom    4 type  1   force =    -0.09442889   -2.97294523  -21.65210129
     atom    5 type  1   force =    -0.00667444    0.23314910    5.67961181
     atom    6 type  1   force =    -0.05823815    0.29985772  -18.11789761
     atom    7 type  1   force =     0.09051243    0.22432198   18.09801630
     atom    8 type  1   force =    -0.04431695    0.24559610   -5.63621113
     atom    9 type  2   force =     0.14227004   10.64903426   40.37000733
     atom   10 type  2   force =    -0.03121731   -0.27401629  -13.47250654
     atom   11 type  2   force =     0.09634085   -0.27356494   13.32796846
     atom   12 type  2   force =    -0.16701872   10.78702864  -40.47203381
     atom   13 type  2   force =   -11.81605128    6.55475409    0.22403239
     atom   14 type  2   force =     0.03041842  -13.20313662    0.11625805
     atom   15 type  2   force =    11.62580147   -8.47978185   -0.03115348
     atom   16 type  2   force =   -11.60589296   -8.59751089    0.02791287
     atom   17 type  2   force =    11.80068362    6.53382588   -0.03259824
     atom   18 type  2   force =     0.07699820   -0.07332615   25.28499318
     atom   19 type  2   force =     0.43975658    0.33396595  -26.74624229
     atom   20 type  2   force =    -0.11295274   -0.09177854  -25.35059331
     atom   21 type  2   force =     0.81557817    0.22330502   26.75494639
     atom   22 type  2   force =    -0.68539645    0.35842458  -26.69481318
     atom   23 type  2   force =    -0.59313459    0.22580362   26.72531856
     The core correction contribution to forces
     atom    1 type  1   force =     0.00000148   -0.00014352   -0.00008649
     atom    2 type  1   force =    -0.00000572    0.00001052   -0.00007468
     atom    3 type  1   force =     0.00000360   -0.00000108    0.00007090
     atom    4 type  1   force =     0.00000266   -0.00015145    0.00008828
     atom    5 type  1   force =    -0.00000361    0.00002952    0.00005055
     atom    6 type  1   force =     0.00000175    0.00008257    0.00003857
     atom    7 type  1   force =    -0.00000082    0.00008135   -0.00003814
     atom    8 type  1   force =    -0.00000023    0.00002639   -0.00004828
     atom    9 type  2   force =     0.00018384    0.00080777   -0.00831619
     atom   10 type  2   force =    -0.00070768   -0.00107946   -0.00656617
     atom   11 type  2   force =     0.00035876   -0.00104788    0.00681793
     atom   12 type  2   force =     0.00056593    0.00097150    0.00857364
     atom   13 type  2   force =    -0.00218043    0.00304725   -0.00015386
     atom   14 type  2   force =     0.00032972   -0.00141186   -0.00011411
     atom   15 type  2   force =     0.00295618   -0.00218671   -0.00021718
     atom   16 type  2   force =    -0.00283960   -0.00302576   -0.00008583
     atom   17 type  2   force =     0.00229985    0.00278337   -0.00022963
     atom   18 type  2   force =    -0.00023404   -0.00382873   -0.00758893
     atom   19 type  2   force =     0.00080723   -0.00161996   -0.00024832
     atom   20 type  2   force =     0.00015301   -0.00387130    0.00714828
     atom   21 type  2   force =     0.00065751   -0.00146156    0.00069710
     atom   22 type  2   force =    -0.00066069   -0.00163585    0.00013772
     atom   23 type  2   force =    -0.00088873   -0.00156170    0.00013190
     The Hubbard contrib.    to forces
     atom    1 type  1   force =     0.00000000    0.00000000    0.00000000
     atom    2 type  1   force =     0.00000000    0.00000000    0.00000000
     atom    3 type  1   force =     0.00000000    0.00000000    0.00000000
     atom    4 type  1   force =     0.00000000    0.00000000    0.00000000
     atom    5 type  1   force =     0.00000000    0.00000000    0.00000000
     atom    6 type  1   force =     0.00000000    0.00000000    0.00000000
     atom    7 type  1   force =     0.00000000    0.00000000    0.00000000
     atom    8 type  1   force =     0.00000000    0.00000000    0.00000000
     atom    9 type  2   force =     0.00000000    0.00000000    0.00000000
     atom   10 type  2   force =     0.00000000    0.00000000    0.00000000
     atom   11 type  2   force =     0.00000000    0.00000000    0.00000000
     atom   12 type  2   force =     0.00000000    0.00000000    0.00000000
     atom   13 type  2   force =     0.00000000    0.00000000    0.00000000
     atom   14 type  2   force =     0.00000000    0.00000000    0.00000000
     atom   15 type  2   force =     0.00000000    0.00000000    0.00000000
     atom   16 type  2   force =     0.00000000    0.00000000    0.00000000
     atom   17 type  2   force =     0.00000000    0.00000000    0.00000000
     atom   18 type  2   force =     0.00000000    0.00000000    0.00000000
     atom   19 type  2   force =     0.00000000    0.00000000    0.00000000
     atom   20 type  2   force =     0.00000000    0.00000000    0.00000000
     atom   21 type  2   force =     0.00000000    0.00000000    0.00000000
     atom   22 type  2   force =     0.00000000    0.00000000    0.00000000
     atom   23 type  2   force =     0.00000000    0.00000000    0.00000000
     The SCF correction term to forces
     atom    1 type  1   force =    -0.00003556    0.00000043    0.00017119
     atom    2 type  1   force =    -0.00002944    0.00001194   -0.00102774
     atom    3 type  1   force =    -0.00002207    0.00002433    0.00075027
     atom    4 type  1   force =    -0.00001612    0.00003718    0.00014370
     atom    5 type  1   force =     0.00000252    0.00001449    0.00051882
     atom    6 type  1   force =     0.00000250   -0.00009534    0.00023916
     atom    7 type  1   force =     0.00002237   -0.00009567    0.00014189
     atom    8 type  1   force =    -0.00000067    0.00002798   -0.00094222
     atom    9 type  2   force =     0.00011207    0.00006508   -0.00018546
     atom   10 type  2   force =     0.00027330   -0.00007107   -0.00200876
     atom   11 type  2   force =     0.00012257    0.00001043    0.00144880
     atom   12 type  2   force =     0.00008654   -0.00015615    0.00076121
     atom   13 type  2   force =     0.00036405   -0.00008483   -0.00035197
     atom   14 type  2   force =     0.00010490   -0.00024766   -0.00046302
     atom   15 type  2   force =     0.00025661    0.00062785    0.00029860
     atom   16 type  2   force =    -0.00073229    0.00091110    0.00025948
     atom   17 type  2   force =     0.00042204    0.00014440   -0.00068893
     atom   18 type  2   force =     0.00003317    0.00009609    0.00061643
     atom   19 type  2   force =     0.00010157   -0.00025428   -0.00010377
     atom   20 type  2   force =    -0.00015289    0.00037591   -0.00047649
     atom   21 type  2   force =     0.00024981   -0.00013719    0.00084475
     atom   22 type  2   force =    -0.00010265   -0.00014235   -0.00030968
     atom   23 type  2   force =    -0.00026152   -0.00015606    0.00043893

     Total force =     0.006348     Total SCF correction =     0.003886
     SCF correction compared to forces is large: reduce conv_thr to get better values


     Computing stress (Cartesian axis) and pressure

          total   stress  (Ry/bohr**3)                   (kbar)     P=        1.04
   0.00000693   0.00000137   0.00000215            1.02        0.20        0.32
   0.00000137   0.00000675  -0.00000006            0.20        0.99       -0.01
   0.00000215  -0.00000006   0.00000754            0.32       -0.01        1.11

     Energy error            =      1.0E-04 Ry
     Gradient error          =      2.1E-03 Ry/Bohr
     Cell gradient error     =      1.1E+00 kbar

     number of scf cycles    =   9
     number of bfgs steps    =   8

     enthalpy           old  =   -7568.8501350453 Ry
     enthalpy           new  =   -7568.8502398221 Ry

     CASE: enthalpy          _new < enthalpy          _old

     new trust radius        =       0.0093451143 bohr
     new conv_thr            =       0.0000010478 Ry

     new unit-cell volume =   2040.22369 a.u.^3 (   302.32996 Ang^3 )
     density =      5.90353 g/cm^3

CELL_PARAMETERS (angstrom)
   4.743222221   0.003540011  -0.019586661
  -2.372535317   4.093597489   0.015911381
   0.079706594  -0.017356076  15.563413278

ATOMIC_POSITIONS (crystal)
Mg            0.9997601122        1.0002428290        0.4057615543
Mg           -0.0009238898       -0.0022692809        0.9079182800
Mg            0.9982339621        0.9972220095        0.5918454156
Mg            0.9996028613        0.9996207871        0.0940584815
Mg            0.3318348108        0.6648463456        0.6555162914
Mg            0.6673556938        0.3354585959        0.1578040795
Mg            0.6672122337        0.3354189746        0.3419611096
Mg            0.3322509140        0.6649141792        0.8443084589
Ni            0.3369102906        0.6744906706        0.3723963219
Ni            0.6652487256        0.3297273130        0.8756624876
Ni            0.6642319540        0.3291977834        0.6240428707
Ni            0.3362071412        0.6734167892        0.1273595230
Ni            0.8338817594        0.1626144983        0.7499381588
Ni            0.8338805861        0.6686179754        0.7498551235
Ni            0.1605953166        0.8342039121        0.2499197951
Ni            0.6734023939        0.8349481498        0.2498378124
Ni            0.3287906675        0.1628697887        0.7499403261
Ni            0.4981846948        0.9968733280        0.4985670113
Ni            0.4985823504        0.4967008967        0.0016636032
Ni            0.4986060585       -0.0029510572        1.0011946845
Ni            0.4981150284        0.4967549170        0.4981007261
Ni           -0.0012450153        0.4967276011        0.0015555831
Ni            0.9981053498        0.4969629940        0.4981643019



     Writing config-only to output data dir ./C36/out_logs/C36_out_8/laves_C36.save/
     NEW-OLD atomic charge density approx. for the potential

     Check: negative core charge=   -0.000010
     extrapolated charge  350.11100, renormalised to  350.00000

     total cpu time spent up to now is     5490.2 secs

     Self-consistent Calculation

     iteration #  1     ecut=    80.00 Ry     beta= 0.20
     Davidson diagonalization with overlap
     ethr =  1.00E-06,  avg # of iterations =  7.0

     total cpu time spent up to now is     5510.0 secs

     total energy              =   -7568.71714001 Ry
     estimated scf accuracy    <       4.85834952 Ry

     iteration #  2     ecut=    80.00 Ry     beta= 0.20
     Davidson diagonalization with overlap
     ethr =  1.39E-03,  avg # of iterations =  2.0

     total cpu time spent up to now is     5519.8 secs

     total energy              =   -7567.71705292 Ry
     estimated scf accuracy    <      10.00954619 Ry

     iteration #  3     ecut=    80.00 Ry     beta= 0.20
     Davidson diagonalization with overlap
     ethr =  1.39E-03,  avg # of iterations =  3.4

     total cpu time spent up to now is     5530.0 secs

     total energy              =   -7566.94771040 Ry
     estimated scf accuracy    <     119.18507413 Ry

     iteration #  4     ecut=    80.00 Ry     beta= 0.20
     Davidson diagonalization with overlap
     ethr =  1.39E-03,  avg # of iterations =  2.0

     total cpu time spent up to now is     5539.7 secs

     total energy              =   -7568.52495296 Ry
     estimated scf accuracy    <      13.76435837 Ry

     iteration #  5     ecut=    80.00 Ry     beta= 0.20
     Davidson diagonalization with overlap
     ethr =  1.39E-03,  avg # of iterations =  1.0

     total cpu time spent up to now is     5548.5 secs

     total energy              =   -7568.81502181 Ry
     estimated scf accuracy    <       1.23988693 Ry

     iteration #  6     ecut=    80.00 Ry     beta= 0.20
     Davidson diagonalization with overlap
     ethr =  3.54E-04,  avg # of iterations =  2.6

     total cpu time spent up to now is     5558.4 secs

     total energy              =   -7568.78809204 Ry
     estimated scf accuracy    <       5.36896959 Ry

     iteration #  7     ecut=    80.00 Ry     beta= 0.20
     Davidson diagonalization with overlap
     ethr =  3.54E-04,  avg # of iterations =  1.0

     total cpu time spent up to now is     5567.2 secs

     total energy              =   -7568.83342897 Ry
     estimated scf accuracy    <       0.90947766 Ry

     iteration #  8     ecut=    80.00 Ry     beta= 0.20
     Davidson diagonalization with overlap
     ethr =  2.60E-04,  avg # of iterations =  1.0

     total cpu time spent up to now is     5575.9 secs

     total energy              =   -7568.84546780 Ry
     estimated scf accuracy    <       0.06402794 Ry

     iteration #  9     ecut=    80.00 Ry     beta= 0.20
     Davidson diagonalization with overlap
     ethr =  1.83E-05,  avg # of iterations =  3.4

     total cpu time spent up to now is     5586.0 secs

     total energy              =   -7568.84682318 Ry
     estimated scf accuracy    <       0.03456379 Ry

     iteration # 10     ecut=    80.00 Ry     beta= 0.20
     Davidson diagonalization with overlap
     ethr =  9.88E-06,  avg # of iterations =  1.4

     total cpu time spent up to now is     5595.2 secs

     total energy              =   -7568.84783942 Ry
     estimated scf accuracy    <       0.01212307 Ry

     iteration # 11     ecut=    80.00 Ry     beta= 0.20
     Davidson diagonalization with overlap
     ethr =  3.46E-06,  avg # of iterations =  3.0

     total cpu time spent up to now is     5605.2 secs

     total energy              =   -7568.84778162 Ry
     estimated scf accuracy    <       0.01423248 Ry

     iteration # 12     ecut=    80.00 Ry     beta= 0.20
     Davidson diagonalization with overlap
     ethr =  3.46E-06,  avg # of iterations =  1.0

     total cpu time spent up to now is     5614.0 secs

     total energy              =   -7568.84771233 Ry
     estimated scf accuracy    <       0.01163276 Ry

     iteration # 13     ecut=    80.00 Ry     beta= 0.20
     Davidson diagonalization with overlap
     ethr =  3.32E-06,  avg # of iterations =  1.0

     total cpu time spent up to now is     5622.8 secs

     total energy              =   -7568.84775369 Ry
     estimated scf accuracy    <       0.00665855 Ry

     iteration # 14     ecut=    80.00 Ry     beta= 0.20
     Davidson diagonalization with overlap
     ethr =  1.90E-06,  avg # of iterations =  1.0

     total cpu time spent up to now is     5631.5 secs

     total energy              =   -7568.84811398 Ry
     estimated scf accuracy    <       0.00494730 Ry

     iteration # 15     ecut=    80.00 Ry     beta= 0.20
     Davidson diagonalization with overlap
     ethr =  1.41E-06,  avg # of iterations =  1.0

     total cpu time spent up to now is     5640.3 secs

     total energy              =   -7568.84766893 Ry
     estimated scf accuracy    <       0.02202771 Ry

     iteration # 16     ecut=    80.00 Ry     beta= 0.20
     Davidson diagonalization with overlap
     ethr =  1.41E-06,  avg # of iterations =  2.0

     total cpu time spent up to now is     5651.0 secs

     total energy              =   -7568.84922467 Ry
     estimated scf accuracy    <       0.02457239 Ry

     iteration # 17     ecut=    80.00 Ry     beta= 0.20
     Davidson diagonalization with overlap
     ethr =  1.41E-06,  avg # of iterations =  1.0

     total cpu time spent up to now is     5659.8 secs

     total energy              =   -7568.84937928 Ry
     estimated scf accuracy    <       0.02359880 Ry

     iteration # 18     ecut=    80.00 Ry     beta= 0.20
     Davidson diagonalization with overlap
     ethr =  1.41E-06,  avg # of iterations =  1.0

     total cpu time spent up to now is     5668.6 secs

     total energy              =   -7568.84944420 Ry
     estimated scf accuracy    <       0.02685878 Ry

     iteration # 19     ecut=    80.00 Ry     beta= 0.20
     Davidson diagonalization with overlap
     ethr =  1.41E-06,  avg # of iterations =  1.0

     total cpu time spent up to now is     5677.4 secs

     total energy              =   -7568.84964930 Ry
     estimated scf accuracy    <       0.01920159 Ry

     iteration # 20     ecut=    80.00 Ry     beta= 0.20
     Davidson diagonalization with overlap
     ethr =  1.41E-06,  avg # of iterations =  1.0

     total cpu time spent up to now is     5686.1 secs

     total energy              =   -7568.84932746 Ry
     estimated scf accuracy    <       0.02369941 Ry

     iteration # 21     ecut=    80.00 Ry     beta= 0.20
     Davidson diagonalization with overlap
     ethr =  1.41E-06,  avg # of iterations =  1.0

     total cpu time spent up to now is     5695.0 secs

     total energy              =   -7568.84958889 Ry
     estimated scf accuracy    <       0.01030386 Ry

     iteration # 22     ecut=    80.00 Ry     beta= 0.20
     Davidson diagonalization with overlap
     ethr =  1.41E-06,  avg # of iterations =  1.0

     total cpu time spent up to now is     5703.8 secs

     total energy              =   -7568.84980126 Ry
     estimated scf accuracy    <       0.02011193 Ry

     iteration # 23     ecut=    80.00 Ry     beta= 0.20
     Davidson diagonalization with overlap
     ethr =  1.41E-06,  avg # of iterations =  1.0

     total cpu time spent up to now is     5712.5 secs

     total energy              =   -7568.84987300 Ry
     estimated scf accuracy    <       0.02411108 Ry

     iteration # 24     ecut=    80.00 Ry     beta= 0.20
     Davidson diagonalization with overlap
     ethr =  1.41E-06,  avg # of iterations =  1.0

     total cpu time spent up to now is     5721.3 secs

     total energy              =   -7568.84981911 Ry
     estimated scf accuracy    <       0.02714534 Ry

     iteration # 25     ecut=    80.00 Ry     beta= 0.20
     Davidson diagonalization with overlap
     ethr =  1.41E-06,  avg # of iterations =  1.0

     total cpu time spent up to now is     5730.1 secs

     total energy              =   -7568.84876987 Ry
     estimated scf accuracy    <       0.02379857 Ry

     iteration # 26     ecut=    80.00 Ry     beta= 0.20
     Davidson diagonalization with overlap
     ethr =  1.41E-06,  avg # of iterations =  2.0

     total cpu time spent up to now is     5740.7 secs

     total energy              =   -7568.84933510 Ry
     estimated scf accuracy    <       0.00681288 Ry

     iteration # 27     ecut=    80.00 Ry     beta= 0.20
     Davidson diagonalization with overlap
     ethr =  1.41E-06,  avg # of iterations =  1.2

     total cpu time spent up to now is     5749.7 secs

     total energy              =   -7568.84971199 Ry
     estimated scf accuracy    <       0.00233588 Ry

     iteration # 28     ecut=    80.00 Ry     beta= 0.20
     Davidson diagonalization with overlap
     ethr =  6.67E-07,  avg # of iterations =  2.0

     total cpu time spent up to now is     5760.3 secs

     total energy              =   -7568.84961948 Ry
     estimated scf accuracy    <       0.01639842 Ry

     iteration # 29     ecut=    80.00 Ry     beta= 0.20
     Davidson diagonalization with overlap
     ethr =  6.67E-07,  avg # of iterations =  2.0

     total cpu time spent up to now is     5770.9 secs

     total energy              =   -7568.84997503 Ry
     estimated scf accuracy    <       0.00045360 Ry

     iteration # 30     ecut=    80.00 Ry     beta= 0.20
     Davidson diagonalization with overlap
     ethr =  1.30E-07,  avg # of iterations =  1.2

     total cpu time spent up to now is     5779.8 secs

     total energy              =   -7568.85003100 Ry
     estimated scf accuracy    <       0.00055520 Ry

     iteration # 31     ecut=    80.00 Ry     beta= 0.20
     Davidson diagonalization with overlap
     ethr =  1.30E-07,  avg # of iterations =  1.0

     total cpu time spent up to now is     5788.6 secs

     total energy              =   -7568.85008041 Ry
     estimated scf accuracy    <       0.00080383 Ry

     iteration # 32     ecut=    80.00 Ry     beta= 0.20
     Davidson diagonalization with overlap
     ethr =  1.30E-07,  avg # of iterations =  1.0

     total cpu time spent up to now is     5797.4 secs

     total energy              =   -7568.85006746 Ry
     estimated scf accuracy    <       0.00075572 Ry

     iteration # 33     ecut=    80.00 Ry     beta= 0.20
     Davidson diagonalization with overlap
     ethr =  1.30E-07,  avg # of iterations =  1.0

     total cpu time spent up to now is     5806.1 secs

     total energy              =   -7568.85007305 Ry
     estimated scf accuracy    <       0.00052341 Ry

     iteration # 34     ecut=    80.00 Ry     beta= 0.20
     Davidson diagonalization with overlap
     ethr =  1.30E-07,  avg # of iterations =  1.0

     total cpu time spent up to now is     5814.9 secs

     total energy              =   -7568.85010723 Ry
     estimated scf accuracy    <       0.00040391 Ry

     iteration # 35     ecut=    80.00 Ry     beta= 0.20
     Davidson diagonalization with overlap
     ethr =  1.15E-07,  avg # of iterations =  1.0

     total cpu time spent up to now is     5823.7 secs

     total energy              =   -7568.85013670 Ry
     estimated scf accuracy    <       0.00044563 Ry

     iteration # 36     ecut=    80.00 Ry     beta= 0.20
     Davidson diagonalization with overlap
     ethr =  1.15E-07,  avg # of iterations =  1.0

     total cpu time spent up to now is     5832.4 secs

     total energy              =   -7568.85015675 Ry
     estimated scf accuracy    <       0.00039156 Ry

     iteration # 37     ecut=    80.00 Ry     beta= 0.20
     Davidson diagonalization with overlap
     ethr =  1.12E-07,  avg # of iterations =  1.0

     total cpu time spent up to now is     5841.2 secs

     total energy              =   -7568.85015008 Ry
     estimated scf accuracy    <       0.00029171 Ry

     iteration # 38     ecut=    80.00 Ry     beta= 0.20
     Davidson diagonalization with overlap
     ethr =  8.33E-08,  avg # of iterations =  1.0

     total cpu time spent up to now is     5850.0 secs

     total energy              =   -7568.85017011 Ry
     estimated scf accuracy    <       0.00040882 Ry

     iteration # 39     ecut=    80.00 Ry     beta= 0.20
     Davidson diagonalization with overlap
     ethr =  8.33E-08,  avg # of iterations =  1.0

     total cpu time spent up to now is     5858.8 secs

     total energy              =   -7568.85024329 Ry
     estimated scf accuracy    <       0.00047016 Ry

     iteration # 40     ecut=    80.00 Ry     beta= 0.20
     Davidson diagonalization with overlap
     ethr =  8.33E-08,  avg # of iterations =  2.0

     total cpu time spent up to now is     5869.2 secs

     total energy              =   -7568.85028116 Ry
     estimated scf accuracy    <       0.00025414 Ry

     iteration # 41     ecut=    80.00 Ry     beta= 0.20
     Davidson diagonalization with overlap
     ethr =  7.26E-08,  avg # of iterations =  1.0

     total cpu time spent up to now is     5877.9 secs

     total energy              =   -7568.85030771 Ry
     estimated scf accuracy    <       0.00018827 Ry

     iteration # 42     ecut=    80.00 Ry     beta= 0.20
     Davidson diagonalization with overlap
     ethr =  5.38E-08,  avg # of iterations =  2.0

     total cpu time spent up to now is     5888.2 secs

     total energy              =   -7568.85033476 Ry
     estimated scf accuracy    <       0.00022868 Ry

     iteration # 43     ecut=    80.00 Ry     beta= 0.20
     Davidson diagonalization with overlap
     ethr =  5.38E-08,  avg # of iterations =  2.0

     total cpu time spent up to now is     5897.9 secs

     total energy              =   -7568.85034211 Ry
     estimated scf accuracy    <       0.00037049 Ry

     iteration # 44     ecut=    80.00 Ry     beta= 0.20
     Davidson diagonalization with overlap
     ethr =  5.38E-08,  avg # of iterations =  1.0

     total cpu time spent up to now is     5906.7 secs

     total energy              =   -7568.85034532 Ry
     estimated scf accuracy    <       0.00022373 Ry

     iteration # 45     ecut=    80.00 Ry     beta= 0.20
     Davidson diagonalization with overlap
     ethr =  5.38E-08,  avg # of iterations =  1.0

     total cpu time spent up to now is     5915.4 secs

     total energy              =   -7568.85034854 Ry
     estimated scf accuracy    <       0.00009937 Ry

     iteration # 46     ecut=    80.00 Ry     beta= 0.20
     Davidson diagonalization with overlap
     ethr =  2.84E-08,  avg # of iterations =  1.0

     total cpu time spent up to now is     5924.2 secs

     total energy              =   -7568.85034807 Ry
     estimated scf accuracy    <       0.00008535 Ry

     iteration # 47     ecut=    80.00 Ry     beta= 0.20
     Davidson diagonalization with overlap
     ethr =  2.44E-08,  avg # of iterations =  1.4

     total cpu time spent up to now is     5933.4 secs

     total energy              =   -7568.85034187 Ry
     estimated scf accuracy    <       0.00003590 Ry

     iteration # 48     ecut=    80.00 Ry     beta= 0.20
     Davidson diagonalization with overlap
     ethr =  1.03E-08,  avg # of iterations =  2.0

     total cpu time spent up to now is     5944.0 secs

     total energy              =   -7568.85034337 Ry
     estimated scf accuracy    <       0.00005394 Ry

     iteration # 49     ecut=    80.00 Ry     beta= 0.20
     Davidson diagonalization with overlap
     ethr =  1.03E-08,  avg # of iterations =  1.2

     total cpu time spent up to now is     5953.0 secs

     total energy              =   -7568.85034651 Ry
     estimated scf accuracy    <       0.00005242 Ry

     iteration # 50     ecut=    80.00 Ry     beta= 0.20
     Davidson diagonalization with overlap
     ethr =  1.03E-08,  avg # of iterations =  1.0

     total cpu time spent up to now is     5961.8 secs

     total energy              =   -7568.85034820 Ry
     estimated scf accuracy    <       0.00001027 Ry

     iteration # 51     ecut=    80.00 Ry     beta= 0.20
     Davidson diagonalization with overlap
     ethr =  2.94E-09,  avg # of iterations =  2.0

     total cpu time spent up to now is     5972.8 secs

     total energy              =   -7568.85035034 Ry
     estimated scf accuracy    <       0.00000835 Ry

     iteration # 52     ecut=    80.00 Ry     beta= 0.20
     Davidson diagonalization with overlap
     ethr =  2.38E-09,  avg # of iterations =  2.0

     total cpu time spent up to now is     5982.6 secs

     total energy              =   -7568.85035066 Ry
     estimated scf accuracy    <       0.00000374 Ry

     iteration # 53     ecut=    80.00 Ry     beta= 0.20
     Davidson diagonalization with overlap
     ethr =  1.07E-09,  avg # of iterations =  1.2

     total cpu time spent up to now is     5991.5 secs

     total energy              =   -7568.85035084 Ry
     estimated scf accuracy    <       0.00000355 Ry

     iteration # 54     ecut=    80.00 Ry     beta= 0.20
     Davidson diagonalization with overlap
     ethr =  1.02E-09,  avg # of iterations =  2.0

     total cpu time spent up to now is     6001.3 secs

     total energy              =   -7568.85035085 Ry
     estimated scf accuracy    <       0.00000176 Ry

     iteration # 55     ecut=    80.00 Ry     beta= 0.20
     Davidson diagonalization with overlap
     ethr =  5.02E-10,  avg # of iterations =  2.0

     total cpu time spent up to now is     6011.5 secs

     total energy              =   -7568.85035082 Ry
     estimated scf accuracy    <       0.00000123 Ry

     iteration # 56     ecut=    80.00 Ry     beta= 0.20
     Davidson diagonalization with overlap
     ethr =  3.52E-10,  avg # of iterations =  2.0

     total cpu time spent up to now is     6022.4 secs

     total energy              =   -7568.85035106 Ry
     estimated scf accuracy    <       0.00000163 Ry

     iteration # 57     ecut=    80.00 Ry     beta= 0.20
     Davidson diagonalization with overlap
     ethr =  3.52E-10,  avg # of iterations =  2.0

     total cpu time spent up to now is     6032.1 secs

     End of self-consistent calculation

          k = 0.0000 0.0000 0.0000 ( 24267 PWs)   bands (ev):

   -90.1208 -90.1186 -90.0704 -90.0692 -90.0476 -90.0170 -90.0154 -90.0037
   -90.0035 -89.9851 -89.9847 -89.9831 -89.9813 -89.7967 -89.7747 -62.2641
   -62.2623 -62.2528 -62.2505 -62.2026 -62.2018 -62.1961 -62.1949 -50.7455
   -50.7378 -50.6868 -50.6296 -50.5865 -50.5517 -50.5495 -50.5348 -50.5321
   -50.5062 -50.5033 -50.4901 -50.4861 -50.4561 -50.4484 -50.4317 -50.4271
   -50.4118 -50.4022 -50.3918 -50.3860 -50.3822 -50.3774 -50.3629 -50.3600
   -50.3514 -50.3465 -50.3448 -50.3441 -50.3409 -50.3372 -50.2885 -50.2874
   -50.2868 -50.2866 -50.2864 -50.2638 -50.2636 -50.2428 -50.2353 -50.2278
   -50.2228 -50.2151 -49.9766 -49.9579 -29.0298 -29.0254 -29.0251 -29.0247
   -29.0242 -29.0233 -29.0230 -29.0220 -29.0082 -29.0007 -28.9981 -28.9969
   -28.9732 -28.9720 -28.9580 -28.9573 -28.9570 -28.9562 -28.9526 -28.9515
   -28.9490 -28.9477 -28.9403 -28.9392   4.4703   5.0202   5.3790   6.8519
     7.2618   8.5024   8.5086   8.9310   9.2036   9.3174   9.4398   9.5397
     9.5491   9.5530   9.5683   9.5745   9.6094   9.7569   9.7589   9.8058
     9.8704   9.8869   9.9456  10.0248  10.0666  10.2618  10.3216  10.3330
    10.3483  10.3765  10.4141  10.4315  10.4430  10.5058  10.6163  10.8228
    10.8648  10.8973  10.9161  10.9817  11.0457  11.0620  11.1265  11.1727
    11.4949  11.5117  11.6386  11.7348  11.7406  11.8162  11.8371  11.8382
    11.9688  12.0283  12.0582  12.1399  12.2101  12.2148  12.2266  12.2305
    12.2371  12.2423  12.2573  12.2658  12.2679  12.2889  12.3175  12.3201
    12.3250  12.3599  12.3684  12.3763  12.4088  12.5416  12.6753  12.8007
    12.8994  12.9806  13.1293  13.3515  13.3655  13.3657  13.8497  13.8817
    14.0450  14.0471  14.0759  14.1637  14.1707  14.2217  14.4451  14.4547
    14.4749  15.3717  15.4631  15.8391  15.8607  15.9129  16.2334  16.3914
    16.4810  16.9274  16.9564  17.3933  17.4922  17.6084  17.7603  17.8273
    17.9857  18.5192  18.6238  18.8488  19.1341  19.2895  19.7232  19.7539
    19.7592  20.0314

          k =-0.0003 0.3823 0.0004 ( 24221 PWs)   bands (ev):

   -90.1204 -90.1184 -90.0678 -90.0665 -90.0411 -90.0237 -90.0155 -90.0067
   -90.0065 -89.9851 -89.9847 -89.9828 -89.9811 -89.7967 -89.7747 -62.2640
   -62.2622 -62.2528 -62.2504 -62.2027 -62.2019 -62.1962 -62.1950 -50.7108
   -50.7037 -50.6483 -50.6316 -50.5988 -50.5661 -50.5586 -50.5290 -50.5236
   -50.4932 -50.4918 -50.4909 -50.4680 -50.4626 -50.4423 -50.4393 -50.4208
   -50.4081 -50.3942 -50.3884 -50.3810 -50.3782 -50.3750 -50.3674 -50.3648
   -50.3610 -50.3542 -50.3509 -50.3496 -50.3463 -50.3458 -50.3114 -50.3113
   -50.3017 -50.2972 -50.2963 -50.2722 -50.2717 -50.2428 -50.2354 -50.2277
   -50.2226 -50.2150 -49.9768 -49.9575 -29.0307 -29.0262 -29.0254 -29.0248
   -29.0243 -29.0240 -29.0227 -29.0224 -29.0091 -28.9996 -28.9988 -28.9961
   -28.9725 -28.9713 -28.9591 -28.9583 -28.9562 -28.9555 -28.9531 -28.9521
   -28.9483 -28.9470 -28.9397 -28.9386   5.4775   6.0114   6.3152   7.6739
     8.0090   8.1926   8.4640   8.7368   9.0744   9.1194   9.3049   9.3278
     9.4743   9.5771   9.6128   9.6376   9.7585   9.7869   9.8811   9.8846
     9.9230  10.0939  10.1761  10.1785  10.1894  10.2527  10.3212  10.3356
    10.3594  10.4257  10.4313  10.5023  10.5463  10.5835  10.6093  10.6486
    10.7076  10.7957  10.8420  10.8696  10.9935  11.0059  11.0101  11.0503
    11.1008  11.1376  11.1589  11.2455  11.3580  11.4234  11.4471  11.4938
    11.5101  11.6265  11.6404  11.7318  11.7596  11.8049  11.8097  11.8224
    11.9033  11.9107  11.9642  12.0322  12.0499  12.0779  12.1355  12.1763
    12.2495  12.2656  12.2805  12.3136  12.3267  12.3415  12.3536  12.4264
    12.4558  12.5324  12.6039  12.6294  12.7022  12.7299  12.8978  13.1758
    13.1786  13.5504  13.5517  13.6880  13.9902  13.9939  14.1612  14.2298
    14.3445  14.4424  14.5267  15.1859  15.7284  16.2554  16.3449  17.5624
    17.7449  18.0160  18.1922  18.7818  18.8851  19.1296  19.1652  19.1890
    19.3077  19.8011  20.2944  20.3905  20.4010  21.0159  21.0742  21.3593
    21.8241  22.1744

          k = 0.3299 0.1912-0.0015 ( 24222 PWs)   bands (ev):

   -90.1204 -90.1185 -90.0689 -90.0676 -90.0418 -90.0216 -90.0169 -90.0005
   -90.0002 -89.9909 -89.9907 -89.9819 -89.9804 -89.7922 -89.7793 -62.2640
   -62.2622 -62.2528 -62.2504 -62.2027 -62.2019 -62.1962 -62.1950 -50.7168
   -50.7112 -50.6515 -50.6291 -50.5891 -50.5528 -50.5498 -50.5211 -50.5203
   -50.5056 -50.4995 -50.4930 -50.4674 -50.4571 -50.4503 -50.4337 -50.4246
   -50.3968 -50.3933 -50.3817 -50.3805 -50.3788 -50.3766 -50.3684 -50.3679
   -50.3625 -50.3596 -50.3495 -50.3440 -50.3332 -50.3328 -50.3072 -50.3053
   -50.3049 -50.2987 -50.2984 -50.2767 -50.2763 -50.2641 -50.2399 -50.2351
   -50.2267 -50.2182 -49.9726 -49.9618 -29.0305 -29.0261 -29.0255 -29.0246
   -29.0241 -29.0240 -29.0224 -29.0220 -29.0092 -29.0009 -28.9988 -28.9974
   -28.9722 -28.9710 -28.9582 -28.9574 -28.9569 -28.9561 -28.9524 -28.9513
   -28.9488 -28.9475 -28.9398 -28.9388   5.4762   6.0044   6.3487   7.7598
     8.0089   8.1627   8.4414   8.6566   9.0691   9.1194   9.3355   9.4456
     9.5010   9.5117   9.6558   9.7475   9.7661   9.8107   9.8779   9.8793
     9.9431  10.1345  10.1411  10.1752  10.2309  10.2960  10.3355  10.3889
    10.4166  10.4197  10.4921  10.5404  10.5655  10.5907  10.6325  10.7390
    10.7519  10.8014  10.8115  10.9024  10.9079  10.9526  11.0050  11.0414
    11.1221  11.1713  11.1881  11.2691  11.3076  11.4044  11.4127  11.4556
    11.4623  11.5813  11.6226  11.6593  11.6774  11.7328  11.7916  11.8152
    11.8270  11.8466  11.9190  11.9640  12.0078  12.0520  12.0664  12.0866
    12.1423  12.2274  12.2376  12.2624  12.3051  12.3505  12.3580  12.3986
    12.4164  12.4388  12.5164  12.5477  12.7195  12.7255  12.8779  13.0530
    13.1669  13.6550  13.7265  13.8780  13.9821  14.0232  14.1696  14.2652
    14.3167  14.7016  15.0498  15.4792  15.7755  15.9471  16.0832  17.3564
    17.8533  17.9557  18.0302  18.8619  18.9693  19.0073  19.2845  19.3604
    19.3673  19.8979  20.3263  20.3428  20.4370  20.9380  21.0661  21.2959
    21.8160  22.1069

          k = 0.3296 0.5735-0.0010 ( 24155 PWs)   bands (ev):

   -90.1202 -90.1184 -90.0676 -90.0663 -90.0355 -90.0288 -90.0161 -90.0026
   -90.0023 -89.9902 -89.9900 -89.9819 -89.9803 -89.7922 -89.7793 -62.2640
   -62.2622 -62.2527 -62.2504 -62.2027 -62.2020 -62.1963 -62.1950 -50.6939
   -50.6903 -50.6323 -50.6306 -50.5749 -50.5714 -50.5631 -50.5224 -50.5168
   -50.5101 -50.4947 -50.4903 -50.4599 -50.4590 -50.4477 -50.4279 -50.4236
   -50.3924 -50.3883 -50.3831 -50.3821 -50.3812 -50.3799 -50.3748 -50.3684
   -50.3676 -50.3586 -50.3476 -50.3357 -50.3324 -50.3320 -50.3256 -50.3059
   -50.3057 -50.3040 -50.3022 -50.2937 -50.2936 -50.2640 -50.2400 -50.2350
   -50.2266 -50.2181 -49.9727 -49.9614 -29.0308 -29.0270 -29.0253 -29.0250
   -29.0248 -29.0237 -29.0225 -29.0214 -29.0098 -29.0003 -28.9986 -28.9975
   -28.9717 -28.9706 -28.9593 -28.9584 -28.9560 -28.9552 -28.9529 -28.9518
   -28.9482 -28.9470 -28.9395 -28.9384   7.0492   7.3150   7.5553   7.6006
     7.6727   8.0067   8.1101   8.1319   8.3751   9.0293   9.0763   9.1256
     9.1623   9.1824   9.5453   9.7171   9.8733   9.9434   9.9545  10.0048
    10.0574  10.1445  10.2527  10.2792  10.2809  10.3118  10.3751  10.3992
    10.4777  10.4875  10.5024  10.5264  10.5413  10.5635  10.5874  10.6168
    10.6534  10.7050  10.7163  10.7423  10.7742  10.7896  10.8478  10.9472
    10.9907  11.0206  11.0441  11.1200  11.2584  11.2628  11.3026  11.3445
    11.3740  11.4039  11.4640  11.5380  11.5716  11.6301  11.6694  11.7035
    11.7702  11.8131  11.8802  11.8984  11.8999  11.9446  11.9641  11.9795
    12.0029  12.0197  12.0710  12.0761  12.1042  12.1645  12.2881  12.3506
    12.3889  12.4040  12.5349  12.5364  12.5487  12.6115  12.7317  12.7787
    12.8078  12.8851  13.0018  13.2081  13.3102  13.3333  14.6882  14.7464
    14.7595  14.8983  15.3432  15.7005  17.4573  17.6083  17.7300  17.8750
    17.9839  18.5930  18.6047  18.6147  18.7254  18.7835  19.0896  19.3674
    19.6032  19.6360  19.6768  20.4664  20.5289  20.9224  20.9541  21.0532
    21.7287  22.9721

          k = 0.3302-0.1911-0.0019 ( 24223 PWs)   bands (ev):

   -90.1204 -90.1185 -90.0689 -90.0676 -90.0416 -90.0226 -90.0161 -90.0003
   -90.0002 -89.9910 -89.9907 -89.9819 -89.9804 -89.7922 -89.7793 -62.2640
   -62.2622 -62.2528 -62.2504 -62.2027 -62.2019 -62.1962 -62.1950 -50.7167
   -50.7112 -50.6510 -50.6289 -50.5888 -50.5529 -50.5499 -50.5214 -50.5204
   -50.5059 -50.4994 -50.4930 -50.4676 -50.4572 -50.4503 -50.4334 -50.4249
   -50.3968 -50.3934 -50.3816 -50.3805 -50.3787 -50.3767 -50.3683 -50.3676
   -50.3633 -50.3590 -50.3495 -50.3446 -50.3332 -50.3328 -50.3070 -50.3051
   -50.3045 -50.2985 -50.2982 -50.2770 -50.2770 -50.2641 -50.2399 -50.2351
   -50.2267 -50.2182 -49.9726 -49.9618 -29.0306 -29.0259 -29.0255 -29.0247
   -29.0240 -29.0238 -29.0226 -29.0220 -29.0092 -29.0009 -28.9988 -28.9974
   -28.9722 -28.9710 -28.9583 -28.9575 -28.9568 -28.9560 -28.9524 -28.9513
   -28.9488 -28.9475 -28.9398 -28.9388   5.4770   6.0052   6.3496   7.7606
     8.0095   8.1655   8.4435   8.6587   9.0697   9.1192   9.3359   9.4460
     9.5022   9.5120   9.6557   9.7478   9.7647   9.8093   9.8781   9.8794
     9.9406  10.1352  10.1407  10.1757  10.2311  10.2967  10.3352  10.3889
    10.4156  10.4207  10.4918  10.5406  10.5658  10.5905  10.6335  10.7384
    10.7521  10.8010  10.8129  10.9024  10.9067  10.9524  11.0053  11.0417
    11.1221  11.1726  11.1879  11.2675  11.3081  11.4042  11.4128  11.4551
    11.4624  11.5818  11.6226  11.6594  11.6783  11.7332  11.7913  11.8154
    11.8278  11.8460  11.9200  11.9635  12.0069  12.0524  12.0664  12.0879
    12.1421  12.2271  12.2361  12.2612  12.3043  12.3494  12.3574  12.3976
    12.4161  12.4379  12.5161  12.5471  12.7198  12.7254  12.8782  13.0526
    13.1673  13.6539  13.7282  13.8752  13.9806  14.0199  14.1645  14.2622
    14.3134  14.6977  15.0445  15.4804  15.7758  15.9478  16.0818  17.3526
    17.8505  17.9527  18.0298  18.8599  18.9696  19.0047  19.2810  19.3601
    19.3667  19.9003  20.3274  20.3415  20.4359  20.9382  21.0667  21.3019
    21.8164  22.1083

     the Fermi energy is    12.9128 ev

!    total energy              =   -7568.85035036 Ry
     total all-electron energy =    -48829.494113 Ry
     estimated scf accuracy    <       0.00000096 Ry
     smearing contrib. (-TS)   =       0.09415356 Ry
     internal energy E=F+TS    =   -7568.94450391 Ry

     The total energy is F=E-TS. E is the sum of the following terms:
     one-electron contribution =   -4460.20212625 Ry
     hartree contribution      =    2375.21908625 Ry
     xc contribution           =    -656.43920018 Ry
     ewald contribution        =   -3341.56662465 Ry
     one-center paw contrib.   =   -1485.95563907 Ry

     convergence has been achieved in  57 iterations

     Forces acting on atoms (cartesian axes, Ry/au):

     atom    1 type  1   force =    -0.00004891   -0.00012777   -0.00142858
     atom    2 type  1   force =    -0.00022982   -0.00070581    0.00103990
     atom    3 type  1   force =    -0.00003108   -0.00024459   -0.00109809
     atom    4 type  1   force =     0.00006976    0.00018319    0.00138002
     atom    5 type  1   force =     0.00023903   -0.00067133   -0.00084159
     atom    6 type  1   force =    -0.00009504    0.00067684    0.00015110
     atom    7 type  1   force =     0.00017565    0.00121330    0.00016457
     atom    8 type  1   force =     0.00035521   -0.00044251    0.00048166
     atom    9 type  2   force =     0.00009862   -0.00085491   -0.00111808
     atom   10 type  2   force =    -0.00029660    0.00001389    0.00095248
     atom   11 type  2   force =    -0.00003186    0.00032113   -0.00033219
     atom   12 type  2   force =     0.00033502    0.00001137    0.00148426
     atom   13 type  2   force =     0.00030725   -0.00053516   -0.00071123
     atom   14 type  2   force =     0.00042666    0.00067128   -0.00002647
     atom   15 type  2   force =    -0.00012527    0.00213945   -0.00009174
     atom   16 type  2   force =     0.00004052    0.00171074    0.00006473
     atom   17 type  2   force =    -0.00078972   -0.00124140    0.00011554
     atom   18 type  2   force =    -0.00001858   -0.00055475   -0.00031600
     atom   19 type  2   force =     0.00029857    0.00015447    0.00089247
     atom   20 type  2   force =     0.00023733   -0.00123930    0.00058110
     atom   21 type  2   force =     0.00013480   -0.00008035   -0.00102967
     atom   22 type  2   force =    -0.00091668   -0.00010488    0.00112445
     atom   23 type  2   force =    -0.00013487   -0.00029291   -0.00143863
     The non-local contrib.  to forces
     atom    1 type  1   force =     0.00006122    0.04373444    0.00601767
     atom    2 type  1   force =     0.00083674   -0.00081314    0.01179764
     atom    3 type  1   force =     0.00003730    0.00049669   -0.01178301
     atom    4 type  1   force =    -0.00013888    0.04339181   -0.00723466
     atom    5 type  1   force =     0.00096754   -0.00684842   -0.01240591
     atom    6 type  1   force =    -0.00062552   -0.02359718    0.00619966
     atom    7 type  1   force =     0.00039685   -0.02206036   -0.00610006
     atom    8 type  1   force =     0.00056860   -0.00626897    0.01149373
     atom    9 type  2   force =    -0.00154459   -0.09111414    0.03375754
     atom   10 type  2   force =     0.00686850    0.02508181    0.05426534
     atom   11 type  2   force =    -0.00322410    0.02252744   -0.05840660
     atom   12 type  2   force =    -0.00821822   -0.09704499   -0.03760373
     atom   13 type  2   force =     0.08939076   -0.07124565    0.00136521
     atom   14 type  2   force =    -0.00607021    0.07935851    0.00021010
     atom   15 type  2   force =    -0.13294238    0.14131510    0.00379871
     atom   16 type  2   force =     0.12984919    0.15515497   -0.00084112
     atom   17 type  2   force =    -0.08864429   -0.07052097    0.00413803
     atom   18 type  2   force =     0.00379540    0.05920918    0.09896088
     atom   19 type  2   force =    -0.01339121    0.02465699    0.02632108
     atom   20 type  2   force =    -0.00152158    0.06034390   -0.09359086
     atom   21 type  2   force =    -0.01232965    0.02261409   -0.03457669
     atom   22 type  2   force =     0.01435390    0.02436721    0.01750107
     atom   23 type  2   force =     0.01501161    0.02443462   -0.02743200
     The ionic contribution  to forces
     atom    1 type  1   force =    -0.09160194    2.93810917  -21.49595182
     atom    2 type  1   force =     0.05305059   -0.02834563    8.11133015
     atom    3 type  1   force =    -0.03461218    0.04763230   -8.08630349
     atom    4 type  1   force =     0.08233382    2.86752839   21.47424582
     atom    5 type  1   force =     0.00242694   -0.22170235   -5.56127465
     atom    6 type  1   force =     0.06220319   -0.25200113   18.03802436
     atom    7 type  1   force =    -0.06604324   -0.15703587  -18.03814145
     atom    8 type  1   force =     0.02548577   -0.21950698    5.53312979
     atom    9 type  2   force =    -0.16248788  -10.57255028  -40.28599972
     atom   10 type  2   force =     0.02794118    0.26205558   12.96246191
     atom   11 type  2   force =    -0.06350390    0.26197616  -12.87004290
     atom   12 type  2   force =     0.18298475  -10.67716891   40.34413474
     atom   13 type  2   force =    11.53687195   -6.35908142   -0.18076599
     atom   14 type  2   force =     0.02093745   12.97835577   -0.08528044
     atom   15 type  2   force =   -11.61553833    8.37032567    0.05921414
     atom   16 type  2   force =    11.59019866    8.44830402   -0.08650390
     atom   17 type  2   force =   -11.57733662   -6.46179287    0.06857173
     atom   18 type  2   force =    -0.08150424    0.03870881  -24.87793268
     atom   19 type  2   force =    -0.50139861   -0.28662479   26.28533144
     atom   20 type  2   force =     0.11957481   -0.09474697   24.96272923
     atom   21 type  2   force =    -0.77840765   -0.27538965  -26.24210096
     atom   22 type  2   force =     0.71287319   -0.34104880   26.21859115
     atom   23 type  2   force =     0.55555229   -0.26600023  -26.24746646
     The local contribution  to forces
     atom    1 type  1   force =     0.09148667   -2.98179947   21.48931601
     atom    2 type  1   force =    -0.05410355    0.02848343   -8.12296098
     atom    3 type  1   force =     0.03454600   -0.04833451    8.09855612
     atom    4 type  1   force =    -0.08214221   -2.91056284  -21.46724391
     atom    5 type  1   force =    -0.00315505    0.22787075    5.57405369
     atom    6 type  1   force =    -0.06169370    0.27613920  -18.04535078
     atom    7 type  1   force =     0.06581522    0.18019362   18.04462973
     atom    8 type  1   force =    -0.02571223    0.22536130   -5.54434888
     atom    9 type  2   force =     0.16398115   10.66188195   40.26054472
     atom   10 type  2   force =    -0.03472214   -0.28597118  -13.01037574
     atom   11 type  2   force =     0.06647393   -0.28307290   12.92422618
     atom   12 type  2   force =    -0.17495153   10.77309160  -40.31657191
     atom   13 type  2   force =   -11.62409340    6.42711419    0.17981940
     atom   14 type  2   force =    -0.01475897  -13.05584036    0.08609968
     atom   15 type  2   force =    11.74515475   -8.50705572   -0.06375830
     atom   16 type  2   force =   -11.71719607   -8.59808510    0.08644538
     atom   17 type  2   force =    11.66307436    6.52841055   -0.07136367
     atom   18 type  2   force =     0.07795892   -0.09423300   24.78923634
     atom   19 type  2   force =     0.51447632    0.26374431  -26.31308799
     atom   20 type  2   force =    -0.11793708    0.03751070  -24.87878529
     atom   21 type  2   force =     0.79043509    0.25410377   26.27725249
     atom   22 type  2   force =    -0.72753961    0.31818267  -26.23784523
     atom   23 type  2   force =    -0.56997093    0.24273673   26.27570149
     The core correction contribution to forces
     atom    1 type  1   force =     0.00000095   -0.00013989   -0.00008606
     atom    2 type  1   force =    -0.00000605    0.00000676   -0.00007077
     atom    3 type  1   force =     0.00000055   -0.00000279    0.00007144
     atom    4 type  1   force =     0.00000224   -0.00014217    0.00009266
     atom    5 type  1   force =    -0.00000455    0.00002935    0.00005369
     atom    6 type  1   force =     0.00000174    0.00008014    0.00003614
     atom    7 type  1   force =    -0.00000387    0.00007529   -0.00003476
     atom    8 type  1   force =     0.00000026    0.00002353   -0.00005087
     atom    9 type  2   force =     0.00010022    0.00087290   -0.00832954
     atom   10 type  2   force =    -0.00048535   -0.00117623   -0.00679931
     atom   11 type  2   force =     0.00025178   -0.00107873    0.00712069
     atom   12 type  2   force =     0.00057178    0.00113923    0.00865356
     atom   13 type  2   force =    -0.00233197    0.00286431   -0.00013455
     atom   14 type  2   force =     0.00041355   -0.00146643   -0.00008258
     atom   15 type  2   force =     0.00277397   -0.00294961   -0.00020126
     atom   16 type  2   force =    -0.00257800   -0.00379538   -0.00004691
     atom   17 type  2   force =     0.00228664    0.00276833   -0.00021049
     atom   18 type  2   force =    -0.00025173   -0.00388763   -0.00779379
     atom   19 type  2   force =     0.00078728   -0.00153194   -0.00094953
     atom   20 type  2   force =     0.00010787   -0.00396478    0.00740603
     atom   21 type  2   force =     0.00065794   -0.00141793    0.00155991
     atom   22 type  2   force =    -0.00075119   -0.00154648   -0.00041602
     atom   23 type  2   force =    -0.00086496   -0.00148752    0.00109691
     The Hubbard contrib.    to forces
     atom    1 type  1   force =     0.00000000    0.00000000    0.00000000
     atom    2 type  1   force =     0.00000000    0.00000000    0.00000000
     atom    3 type  1   force =     0.00000000    0.00000000    0.00000000
     atom    4 type  1   force =     0.00000000    0.00000000    0.00000000
     atom    5 type  1   force =     0.00000000    0.00000000    0.00000000
     atom    6 type  1   force =     0.00000000    0.00000000    0.00000000
     atom    7 type  1   force =     0.00000000    0.00000000    0.00000000
     atom    8 type  1   force =     0.00000000    0.00000000    0.00000000
     atom    9 type  2   force =     0.00000000    0.00000000    0.00000000
     atom   10 type  2   force =     0.00000000    0.00000000    0.00000000
     atom   11 type  2   force =     0.00000000    0.00000000    0.00000000
     atom   12 type  2   force =     0.00000000    0.00000000    0.00000000
     atom   13 type  2   force =     0.00000000    0.00000000    0.00000000
     atom   14 type  2   force =     0.00000000    0.00000000    0.00000000
     atom   15 type  2   force =     0.00000000    0.00000000    0.00000000
     atom   16 type  2   force =     0.00000000    0.00000000    0.00000000
     atom   17 type  2   force =     0.00000000    0.00000000    0.00000000
     atom   18 type  2   force =     0.00000000    0.00000000    0.00000000
     atom   19 type  2   force =     0.00000000    0.00000000    0.00000000
     atom   20 type  2   force =     0.00000000    0.00000000    0.00000000
     atom   21 type  2   force =     0.00000000    0.00000000    0.00000000
     atom   22 type  2   force =     0.00000000    0.00000000    0.00000000
     atom   23 type  2   force =     0.00000000    0.00000000    0.00000000
     The SCF correction term to forces
     atom    1 type  1   force =     0.00000413   -0.00002691   -0.00073816
     atom    2 type  1   force =    -0.00000761   -0.00003211    0.00093008
     atom    3 type  1   force =    -0.00000279   -0.00003117   -0.00165293
     atom    4 type  1   force =     0.00001474   -0.00002688    0.00150634
     atom    5 type  1   force =     0.00000410   -0.00001554   -0.00128218
     atom    6 type  1   force =     0.00001920    0.00006092    0.00122794
     atom    7 type  1   force =     0.00001064    0.00004573   -0.00020266
     atom    8 type  1   force =     0.00001275   -0.00004628    0.00024411
     atom    9 type  2   force =     0.00004968    0.00005978   -0.00110486
     atom   10 type  2   force =     0.00010116    0.00002902    0.00138651
     atom   11 type  2   force =    -0.00002962   -0.00002572   -0.00324334
     atom   12 type  2   force =    -0.00005181   -0.00000045    0.00285782
     atom   13 type  2   force =     0.00046986   -0.00018147   -0.00100907
     atom   14 type  2   force =    -0.00009521    0.00026891   -0.00098702
     atom   15 type  2   force =     0.00042668    0.00050912    0.00084120
     atom   16 type  2   force =    -0.00023332    0.00013734    0.00099750
     atom   17 type  2   force =    -0.00016987   -0.00010133   -0.00103384
     atom   18 type  2   force =    -0.00001699   -0.00034699   -0.00280052
     atom   19 type  2   force =    -0.00017526   -0.00008500    0.00326369
     atom   20 type  2   force =     0.00001326   -0.00037704    0.00280822
     atom   21 type  2   force =    -0.00022098    0.00001447   -0.00317820
     atom   22 type  2   force =     0.00014698   -0.00005436    0.00327971
     atom   23 type  2   force =     0.00013706    0.00002860   -0.00335235

     Total force =     0.006005     Total SCF correction =     0.009801
     SCF correction compared to forces is large: reduce conv_thr to get better values


     Computing stress (Cartesian axis) and pressure

          total   stress  (Ry/bohr**3)                   (kbar)     P=        1.33
   0.00001229  -0.00000074  -0.00000053            1.81       -0.11       -0.08
  -0.00000074   0.00000958  -0.00000053           -0.11        1.41       -0.08
  -0.00000053  -0.00000053   0.00000528           -0.08       -0.08        0.78

     Energy error            =      1.1E-04 Ry
     Gradient error          =      2.1E-03 Ry/Bohr
     Cell gradient error     =      1.8E+00 kbar

     number of scf cycles    =  10
     number of bfgs steps    =   9

     enthalpy           old  =   -7568.8502398221 Ry
     enthalpy           new  =   -7568.8503503585 Ry

     CASE: enthalpy          _new < enthalpy          _old

     new trust radius        =       0.0140199864 bohr
     new conv_thr            =       0.0000011054 Ry

     new unit-cell volume =   2041.51234 a.u.^3 (   302.52092 Ang^3 )
     density =      5.89981 g/cm^3

CELL_PARAMETERS (angstrom)
   4.743189418   0.004520758  -0.018500017
  -2.371669292   4.094034588   0.015607758
   0.083276573  -0.016428384  15.569832318

ATOMIC_POSITIONS (crystal)
Mg            0.9998608638        1.0004252311        0.4056501630
Mg           -0.0013718343       -0.0029882581        0.9081794933
Mg            0.9978301093        0.9968103438        0.5916566656
Mg            0.9997422580        1.0002550012        0.0943163933
Mg            0.3317016431        0.6647223493        0.6553581499
Mg            0.6678211783        0.3361670267        0.1579623393
Mg            0.6673693974        0.3357345686        0.3418485861
Mg            0.3319017382        0.6644840375        0.8444612244
Ni            0.3369995218        0.6744727494        0.3722450660
Ni            0.6648609350        0.3294153212        0.8759291494
Ni            0.6641794732        0.3288329102        0.6237427913
Ni            0.3361227679        0.6733465682        0.1274836842
Ni            0.8344188721        0.1625479482        0.7499605127
Ni            0.8338648886        0.6686165356        0.7498085660
Ni            0.1618401124        0.8359546921        0.2498718993
Ni            0.6738329457        0.8360998357        0.2498821669
Ni            0.3291022955        0.1629424611        0.7498764622
Ni            0.4980054655        0.9965304459        0.4983092551
Ni            0.4983483350        0.4961140534        0.0020328626
Ni            0.4983175063       -0.0032002542        1.0014107628
Ni            0.4979308385        0.4964130468        0.4977247194
Ni           -0.0017146144        0.4962009924        0.0019352714
Ni            0.9978593031        0.4967123938        0.4977258160



     Writing config-only to output data dir ./C36/out_logs/C36_out_8/laves_C36.save/
     NEW-OLD atomic charge density approx. for the potential

     Check: negative core charge=   -0.000010
     extrapolated charge  350.22092, renormalised to  350.00000

     total cpu time spent up to now is     6057.3 secs

     Self-consistent Calculation

     iteration #  1     ecut=    80.00 Ry     beta= 0.20
     Davidson diagonalization with overlap
     ethr =  1.00E-06,  avg # of iterations =  8.2

     total cpu time spent up to now is     6079.1 secs

     total energy              =   -7568.44257379 Ry
     estimated scf accuracy    <       7.83665157 Ry

     iteration #  2     ecut=    80.00 Ry     beta= 0.20
     Davidson diagonalization with overlap
     ethr =  2.24E-03,  avg # of iterations =  2.0

     total cpu time spent up to now is     6089.4 secs

     total energy              =   -7565.14143616 Ry
     estimated scf accuracy    <      70.76562409 Ry

     iteration #  3     ecut=    80.00 Ry     beta= 0.20
     Davidson diagonalization with overlap
     ethr =  2.24E-03,  avg # of iterations =  2.8

     total cpu time spent up to now is     6099.5 secs

     total energy              =   -7566.39943458 Ry
     estimated scf accuracy    <     127.72215815 Ry

     iteration #  4     ecut=    80.00 Ry     beta= 0.20
     Davidson diagonalization with overlap
     ethr =  2.24E-03,  avg # of iterations =  2.0

     total cpu time spent up to now is     6109.2 secs

     total energy              =   -7568.27142799 Ry
     estimated scf accuracy    <      26.56240272 Ry

     iteration #  5     ecut=    80.00 Ry     beta= 0.20
     Davidson diagonalization with overlap
     ethr =  2.24E-03,  avg # of iterations =  1.0

     total cpu time spent up to now is     6118.0 secs

     total energy              =   -7568.75723098 Ry
     estimated scf accuracy    <       5.17352501 Ry

     iteration #  6     ecut=    80.00 Ry     beta= 0.20
     Davidson diagonalization with overlap
     ethr =  1.48E-03,  avg # of iterations =  1.0

     total cpu time spent up to now is     6126.7 secs

     total energy              =   -7568.76012490 Ry
     estimated scf accuracy    <      12.58224074 Ry

     iteration #  7     ecut=    80.00 Ry     beta= 0.20
     Davidson diagonalization with overlap
     ethr =  1.48E-03,  avg # of iterations =  1.0

     total cpu time spent up to now is     6135.4 secs

     total energy              =   -7568.87020665 Ry
     estimated scf accuracy    <       1.26148244 Ry

     iteration #  8     ecut=    80.00 Ry     beta= 0.20
     Davidson diagonalization with overlap
     ethr =  3.60E-04,  avg # of iterations =  1.0

     total cpu time spent up to now is     6144.2 secs

     total energy              =   -7568.85418666 Ry
     estimated scf accuracy    <       0.70170372 Ry

     iteration #  9     ecut=    80.00 Ry     beta= 0.20
     Davidson diagonalization with overlap
     ethr =  2.00E-04,  avg # of iterations =  1.0

     total cpu time spent up to now is     6152.9 secs

     total energy              =   -7568.84581584 Ry
     estimated scf accuracy    <       0.37518965 Ry

     iteration # 10     ecut=    80.00 Ry     beta= 0.20
     Davidson diagonalization with overlap
     ethr =  1.07E-04,  avg # of iterations =  1.0

     total cpu time spent up to now is     6161.7 secs

     total energy              =   -7568.85113399 Ry
     estimated scf accuracy    <       0.07077522 Ry

     iteration # 11     ecut=    80.00 Ry     beta= 0.20
     Davidson diagonalization with overlap
     ethr =  2.02E-05,  avg # of iterations =  1.6

     total cpu time spent up to now is     6171.1 secs

     total energy              =   -7568.85072672 Ry
     estimated scf accuracy    <       0.07327112 Ry

     iteration # 12     ecut=    80.00 Ry     beta= 0.20
     Davidson diagonalization with overlap
     ethr =  2.02E-05,  avg # of iterations =  1.0

     total cpu time spent up to now is     6179.8 secs

     total energy              =   -7568.84913812 Ry
     estimated scf accuracy    <       0.06972659 Ry

     iteration # 13     ecut=    80.00 Ry     beta= 0.20
     Davidson diagonalization with overlap
     ethr =  1.99E-05,  avg # of iterations =  1.0

     total cpu time spent up to now is     6188.6 secs

     total energy              =   -7568.84892826 Ry
     estimated scf accuracy    <       0.03645653 Ry

     iteration # 14     ecut=    80.00 Ry     beta= 0.20
     Davidson diagonalization with overlap
     ethr =  1.04E-05,  avg # of iterations =  1.0

     total cpu time spent up to now is     6197.4 secs

     total energy              =   -7568.84932702 Ry
     estimated scf accuracy    <       0.02857338 Ry

     iteration # 15     ecut=    80.00 Ry     beta= 0.20
     Davidson diagonalization with overlap
     ethr =  8.16E-06,  avg # of iterations =  1.0

     total cpu time spent up to now is     6206.1 secs

     total energy              =   -7568.84488062 Ry
     estimated scf accuracy    <       0.02092430 Ry

     iteration # 16     ecut=    80.00 Ry     beta= 0.20
     Davidson diagonalization with overlap
     ethr =  5.98E-06,  avg # of iterations =  2.0

     total cpu time spent up to now is     6216.7 secs

     total energy              =   -7568.84751082 Ry
     estimated scf accuracy    <       0.23942100 Ry

     iteration # 17     ecut=    80.00 Ry     beta= 0.20
     Davidson diagonalization with overlap
     ethr =  5.98E-06,  avg # of iterations =  1.0

     total cpu time spent up to now is     6225.4 secs

     total energy              =   -7568.84825945 Ry
     estimated scf accuracy    <       0.08873263 Ry

     iteration # 18     ecut=    80.00 Ry     beta= 0.20
     Davidson diagonalization with overlap
     ethr =  5.98E-06,  avg # of iterations =  1.0

     total cpu time spent up to now is     6234.2 secs

     total energy              =   -7568.84793781 Ry
     estimated scf accuracy    <       0.06521142 Ry

     iteration # 19     ecut=    80.00 Ry     beta= 0.20
     Davidson diagonalization with overlap
     ethr =  5.98E-06,  avg # of iterations =  1.0

     total cpu time spent up to now is     6243.0 secs

     total energy              =   -7568.84856384 Ry
     estimated scf accuracy    <       0.04203841 Ry

     iteration # 20     ecut=    80.00 Ry     beta= 0.20
     Davidson diagonalization with overlap
     ethr =  5.98E-06,  avg # of iterations =  1.0

     total cpu time spent up to now is     6251.8 secs

     total energy              =   -7568.84846338 Ry
     estimated scf accuracy    <       0.03571098 Ry

     iteration # 21     ecut=    80.00 Ry     beta= 0.20
     Davidson diagonalization with overlap
     ethr =  5.98E-06,  avg # of iterations =  1.0

     total cpu time spent up to now is     6260.5 secs

     total energy              =   -7568.84884006 Ry
     estimated scf accuracy    <       0.01395554 Ry

     iteration # 22     ecut=    80.00 Ry     beta= 0.20
     Davidson diagonalization with overlap
     ethr =  3.99E-06,  avg # of iterations =  1.0

     total cpu time spent up to now is     6269.3 secs

     total energy              =   -7568.84877562 Ry
     estimated scf accuracy    <       0.03017463 Ry

     iteration # 23     ecut=    80.00 Ry     beta= 0.20
     Davidson diagonalization with overlap
     ethr =  3.99E-06,  avg # of iterations =  1.0

     total cpu time spent up to now is     6278.0 secs

     total energy              =   -7568.84880850 Ry
     estimated scf accuracy    <       0.01462447 Ry

     iteration # 24     ecut=    80.00 Ry     beta= 0.20
     Davidson diagonalization with overlap
     ethr =  3.99E-06,  avg # of iterations =  1.0

     total cpu time spent up to now is     6286.8 secs

     total energy              =   -7568.84888763 Ry
     estimated scf accuracy    <       0.00753555 Ry

     iteration # 25     ecut=    80.00 Ry     beta= 0.20
     Davidson diagonalization with overlap
     ethr =  2.15E-06,  avg # of iterations =  1.0

     total cpu time spent up to now is     6295.6 secs

     total energy              =   -7568.84901996 Ry
     estimated scf accuracy    <       0.00939662 Ry

     iteration # 26     ecut=    80.00 Ry     beta= 0.20
     Davidson diagonalization with overlap
     ethr =  2.15E-06,  avg # of iterations =  1.0

     total cpu time spent up to now is     6304.3 secs

     total energy              =   -7568.84898213 Ry
     estimated scf accuracy    <       0.00780162 Ry

     iteration # 27     ecut=    80.00 Ry     beta= 0.20
     Davidson diagonalization with overlap
     ethr =  2.15E-06,  avg # of iterations =  1.0

     total cpu time spent up to now is     6313.1 secs

     total energy              =   -7568.84928042 Ry
     estimated scf accuracy    <       0.00860028 Ry

     iteration # 28     ecut=    80.00 Ry     beta= 0.20
     Davidson diagonalization with overlap
     ethr =  2.15E-06,  avg # of iterations =  1.0

     total cpu time spent up to now is     6321.8 secs

     total energy              =   -7568.84948422 Ry
     estimated scf accuracy    <       0.00148585 Ry

     iteration # 29     ecut=    80.00 Ry     beta= 0.20
     Davidson diagonalization with overlap
     ethr =  4.25E-07,  avg # of iterations =  1.8

     total cpu time spent up to now is     6331.4 secs

     total energy              =   -7568.84965253 Ry
     estimated scf accuracy    <       0.00214248 Ry

     iteration # 30     ecut=    80.00 Ry     beta= 0.20
     Davidson diagonalization with overlap
     ethr =  4.25E-07,  avg # of iterations =  1.0

     total cpu time spent up to now is     6340.2 secs

     total energy              =   -7568.84974100 Ry
     estimated scf accuracy    <       0.00095115 Ry

     iteration # 31     ecut=    80.00 Ry     beta= 0.20
     Davidson diagonalization with overlap
     ethr =  2.72E-07,  avg # of iterations =  1.0

     total cpu time spent up to now is     6349.0 secs

     total energy              =   -7568.84976834 Ry
     estimated scf accuracy    <       0.00131755 Ry

     iteration # 32     ecut=    80.00 Ry     beta= 0.20
     Davidson diagonalization with overlap
     ethr =  2.72E-07,  avg # of iterations =  1.0

     total cpu time spent up to now is     6357.7 secs

     total energy              =   -7568.84979710 Ry
     estimated scf accuracy    <       0.00150888 Ry

     iteration # 33     ecut=    80.00 Ry     beta= 0.20
     Davidson diagonalization with overlap
     ethr =  2.72E-07,  avg # of iterations =  1.0

     total cpu time spent up to now is     6366.5 secs

     total energy              =   -7568.84982014 Ry
     estimated scf accuracy    <       0.00127799 Ry

     iteration # 34     ecut=    80.00 Ry     beta= 0.20
     Davidson diagonalization with overlap
     ethr =  2.72E-07,  avg # of iterations =  1.0

     total cpu time spent up to now is     6375.3 secs

     total energy              =   -7568.84986746 Ry
     estimated scf accuracy    <       0.00115449 Ry

     iteration # 35     ecut=    80.00 Ry     beta= 0.20
     Davidson diagonalization with overlap
     ethr =  2.72E-07,  avg # of iterations =  1.0

     total cpu time spent up to now is     6384.1 secs

     total energy              =   -7568.84994020 Ry
     estimated scf accuracy    <       0.00166111 Ry

     iteration # 36     ecut=    80.00 Ry     beta= 0.20
     Davidson diagonalization with overlap
     ethr =  2.72E-07,  avg # of iterations =  1.0

     total cpu time spent up to now is     6392.9 secs

     total energy              =   -7568.85002336 Ry
     estimated scf accuracy    <       0.00131233 Ry

     iteration # 37     ecut=    80.00 Ry     beta= 0.20
     Davidson diagonalization with overlap
     ethr =  2.72E-07,  avg # of iterations =  1.0

     total cpu time spent up to now is     6401.6 secs

     total energy              =   -7568.85007259 Ry
     estimated scf accuracy    <       0.00111114 Ry

     iteration # 38     ecut=    80.00 Ry     beta= 0.20
     Davidson diagonalization with overlap
     ethr =  2.72E-07,  avg # of iterations =  1.0

     total cpu time spent up to now is     6410.4 secs

     total energy              =   -7568.85019507 Ry
     estimated scf accuracy    <       0.00106044 Ry

     iteration # 39     ecut=    80.00 Ry     beta= 0.20
     Davidson diagonalization with overlap
     ethr =  2.72E-07,  avg # of iterations =  2.0

     total cpu time spent up to now is     6421.2 secs

     total energy              =   -7568.85034866 Ry
     estimated scf accuracy    <       0.00080836 Ry

     iteration # 40     ecut=    80.00 Ry     beta= 0.20
     Davidson diagonalization with overlap
     ethr =  2.31E-07,  avg # of iterations =  1.0

     total cpu time spent up to now is     6429.9 secs

     total energy              =   -7568.85030973 Ry
     estimated scf accuracy    <       0.00070048 Ry

     iteration # 41     ecut=    80.00 Ry     beta= 0.20
     Davidson diagonalization with overlap
     ethr =  2.00E-07,  avg # of iterations =  1.0

     total cpu time spent up to now is     6438.7 secs

     total energy              =   -7568.85022865 Ry
     estimated scf accuracy    <       0.00052777 Ry

     iteration # 42     ecut=    80.00 Ry     beta= 0.20
     Davidson diagonalization with overlap
     ethr =  1.51E-07,  avg # of iterations =  1.4

     total cpu time spent up to now is     6447.9 secs

     total energy              =   -7568.85028432 Ry
     estimated scf accuracy    <       0.00026560 Ry

     iteration # 43     ecut=    80.00 Ry     beta= 0.20
     Davidson diagonalization with overlap
     ethr =  7.59E-08,  avg # of iterations =  1.2

     total cpu time spent up to now is     6456.9 secs

     total energy              =   -7568.85033771 Ry
     estimated scf accuracy    <       0.00017746 Ry

     iteration # 44     ecut=    80.00 Ry     beta= 0.20
     Davidson diagonalization with overlap
     ethr =  5.07E-08,  avg # of iterations =  2.0

     total cpu time spent up to now is     6467.5 secs

     total energy              =   -7568.85037115 Ry
     estimated scf accuracy    <       0.00036843 Ry

     iteration # 45     ecut=    80.00 Ry     beta= 0.20
     Davidson diagonalization with overlap
     ethr =  5.07E-08,  avg # of iterations =  1.0

     total cpu time spent up to now is     6476.4 secs

     total energy              =   -7568.85037114 Ry
     estimated scf accuracy    <       0.00026382 Ry

     iteration # 46     ecut=    80.00 Ry     beta= 0.20
     Davidson diagonalization with overlap
     ethr =  5.07E-08,  avg # of iterations =  1.0

     total cpu time spent up to now is     6485.1 secs

     total energy              =   -7568.85037555 Ry
     estimated scf accuracy    <       0.00026636 Ry

     iteration # 47     ecut=    80.00 Ry     beta= 0.20
     Davidson diagonalization with overlap
     ethr =  5.07E-08,  avg # of iterations =  1.0

     total cpu time spent up to now is     6493.9 secs

     total energy              =   -7568.85035923 Ry
     estimated scf accuracy    <       0.00020430 Ry

     iteration # 48     ecut=    80.00 Ry     beta= 0.20
     Davidson diagonalization with overlap
     ethr =  5.07E-08,  avg # of iterations =  1.0

     total cpu time spent up to now is     6502.7 secs

     total energy              =   -7568.85036455 Ry
     estimated scf accuracy    <       0.00019133 Ry

     iteration # 49     ecut=    80.00 Ry     beta= 0.20
     Davidson diagonalization with overlap
     ethr =  5.07E-08,  avg # of iterations =  1.0

     total cpu time spent up to now is     6511.5 secs

     total energy              =   -7568.85034279 Ry
     estimated scf accuracy    <       0.00016661 Ry

     iteration # 50     ecut=    80.00 Ry     beta= 0.20
     Davidson diagonalization with overlap
     ethr =  4.76E-08,  avg # of iterations =  1.0

     total cpu time spent up to now is     6520.2 secs

     total energy              =   -7568.85034906 Ry
     estimated scf accuracy    <       0.00027515 Ry

     iteration # 51     ecut=    80.00 Ry     beta= 0.20
     Davidson diagonalization with overlap
     ethr =  4.76E-08,  avg # of iterations =  1.0

     total cpu time spent up to now is     6529.0 secs

     total energy              =   -7568.85033048 Ry
     estimated scf accuracy    <       0.00022894 Ry

     iteration # 52     ecut=    80.00 Ry     beta= 0.20
     Davidson diagonalization with overlap
     ethr =  4.76E-08,  avg # of iterations =  1.0

     total cpu time spent up to now is     6537.8 secs

     total energy              =   -7568.85033982 Ry
     estimated scf accuracy    <       0.00031041 Ry

     iteration # 53     ecut=    80.00 Ry     beta= 0.20
     Davidson diagonalization with overlap
     ethr =  4.76E-08,  avg # of iterations =  1.0

     total cpu time spent up to now is     6546.6 secs

     total energy              =   -7568.85030843 Ry
     estimated scf accuracy    <       0.00015706 Ry

     iteration # 54     ecut=    80.00 Ry     beta= 0.20
     Davidson diagonalization with overlap
     ethr =  4.49E-08,  avg # of iterations =  1.4

     total cpu time spent up to now is     6555.8 secs

     total energy              =   -7568.85028536 Ry
     estimated scf accuracy    <       0.00017970 Ry

     iteration # 55     ecut=    80.00 Ry     beta= 0.20
     Davidson diagonalization with overlap
     ethr =  4.49E-08,  avg # of iterations =  1.0

     total cpu time spent up to now is     6564.6 secs

     total energy              =   -7568.85033652 Ry
     estimated scf accuracy    <       0.00025667 Ry

     iteration # 56     ecut=    80.00 Ry     beta= 0.20
     Davidson diagonalization with overlap
     ethr =  4.49E-08,  avg # of iterations =  2.0

     total cpu time spent up to now is     6574.8 secs

     total energy              =   -7568.85037410 Ry
     estimated scf accuracy    <       0.00013780 Ry

     iteration # 57     ecut=    80.00 Ry     beta= 0.20
     Davidson diagonalization with overlap
     ethr =  3.94E-08,  avg # of iterations =  2.0

     total cpu time spent up to now is     6585.1 secs

     total energy              =   -7568.85037717 Ry
     estimated scf accuracy    <       0.00017872 Ry

     iteration # 58     ecut=    80.00 Ry     beta= 0.20
     Davidson diagonalization with overlap
     ethr =  3.94E-08,  avg # of iterations =  2.0

     total cpu time spent up to now is     6596.1 secs

     total energy              =   -7568.85041737 Ry
     estimated scf accuracy    <       0.00018836 Ry

     iteration # 59     ecut=    80.00 Ry     beta= 0.20
     Davidson diagonalization with overlap
     ethr =  3.94E-08,  avg # of iterations =  1.0

     total cpu time spent up to now is     6604.8 secs

     total energy              =   -7568.85042097 Ry
     estimated scf accuracy    <       0.00005664 Ry

     iteration # 60     ecut=    80.00 Ry     beta= 0.20
     Davidson diagonalization with overlap
     ethr =  1.62E-08,  avg # of iterations =  1.0

     total cpu time spent up to now is     6613.6 secs

     total energy              =   -7568.85042221 Ry
     estimated scf accuracy    <       0.00005744 Ry

     iteration # 61     ecut=    80.00 Ry     beta= 0.20
     Davidson diagonalization with overlap
     ethr =  1.62E-08,  avg # of iterations =  1.0

     total cpu time spent up to now is     6622.3 secs

     total energy              =   -7568.85041363 Ry
     estimated scf accuracy    <       0.00007150 Ry

     iteration # 62     ecut=    80.00 Ry     beta= 0.20
     Davidson diagonalization with overlap
     ethr =  1.62E-08,  avg # of iterations =  2.0

     total cpu time spent up to now is     6632.7 secs

     total energy              =   -7568.85041050 Ry
     estimated scf accuracy    <       0.00012339 Ry

     iteration # 63     ecut=    80.00 Ry     beta= 0.20
     Davidson diagonalization with overlap
     ethr =  1.62E-08,  avg # of iterations =  2.0

     total cpu time spent up to now is     6643.4 secs

     total energy              =   -7568.85042207 Ry
     estimated scf accuracy    <       0.00014289 Ry

     iteration # 64     ecut=    80.00 Ry     beta= 0.20
     Davidson diagonalization with overlap
     ethr =  1.62E-08,  avg # of iterations =  1.4

     total cpu time spent up to now is     6652.6 secs

     total energy              =   -7568.85042193 Ry
     estimated scf accuracy    <       0.00004038 Ry

     iteration # 65     ecut=    80.00 Ry     beta= 0.20
     Davidson diagonalization with overlap
     ethr =  1.15E-08,  avg # of iterations =  1.4

     total cpu time spent up to now is     6661.7 secs

     total energy              =   -7568.85042411 Ry
     estimated scf accuracy    <       0.00000251 Ry

     iteration # 66     ecut=    80.00 Ry     beta= 0.20
     Davidson diagonalization with overlap
     ethr =  7.18E-10,  avg # of iterations =  2.0

     total cpu time spent up to now is     6671.9 secs

     total energy              =   -7568.85042478 Ry
     estimated scf accuracy    <       0.00000392 Ry

     iteration # 67     ecut=    80.00 Ry     beta= 0.20
     Davidson diagonalization with overlap
     ethr =  7.18E-10,  avg # of iterations =  2.0

     total cpu time spent up to now is     6682.8 secs

     total energy              =   -7568.85042567 Ry
     estimated scf accuracy    <       0.00000617 Ry

     iteration # 68     ecut=    80.00 Ry     beta= 0.20
     Davidson diagonalization with overlap
     ethr =  7.18E-10,  avg # of iterations =  1.8

     total cpu time spent up to now is     6692.4 secs

     total energy              =   -7568.85042580 Ry
     estimated scf accuracy    <       0.00000355 Ry

     iteration # 69     ecut=    80.00 Ry     beta= 0.20
     Davidson diagonalization with overlap
     ethr =  7.18E-10,  avg # of iterations =  2.0

     total cpu time spent up to now is     6703.0 secs

     End of self-consistent calculation

          k = 0.0000 0.0000 0.0000 ( 24267 PWs)   bands (ev):

   -90.1258 -90.1239 -90.0814 -90.0793 -90.0535 -90.0224 -90.0218 -90.0143
   -90.0140 -89.9955 -89.9953 -89.9949 -89.9930 -89.8076 -89.7858 -62.2776
   -62.2760 -62.2616 -62.2592 -62.2172 -62.2162 -62.2040 -62.2030 -50.7535
   -50.7469 -50.6945 -50.6360 -50.5939 -50.5631 -50.5606 -50.5456 -50.5428
   -50.5145 -50.5126 -50.4979 -50.4922 -50.4613 -50.4541 -50.4381 -50.4332
   -50.4218 -50.4115 -50.4021 -50.3929 -50.3927 -50.3879 -50.3694 -50.3689
   -50.3593 -50.3576 -50.3548 -50.3537 -50.3466 -50.3432 -50.2976 -50.2975
   -50.2969 -50.2965 -50.2939 -50.2743 -50.2737 -50.2541 -50.2469 -50.2390
   -50.2330 -50.2261 -49.9888 -49.9703 -29.0431 -29.0391 -29.0386 -29.0371
   -29.0366 -29.0334 -29.0331 -29.0305 -29.0219 -29.0094 -29.0068 -29.0056
   -28.9845 -28.9833 -28.9726 -28.9716 -28.9715 -28.9706 -28.9630 -28.9619
   -28.9569 -28.9560 -28.9490 -28.9479   4.4673   5.0119   5.3709   6.8425
     7.2529   8.4998   8.5003   8.9230   9.1986   9.3107   9.4324   9.5344
     9.5404   9.5460   9.5606   9.5673   9.6016   9.7505   9.7556   9.7982
     9.8616   9.8848   9.9416  10.0171  10.0610  10.2504  10.3107  10.3253
    10.3396  10.3663  10.4100  10.4236  10.4342  10.4960  10.6077  10.8153
    10.8572  10.8900  10.9073  10.9716  11.0369  11.0533  11.1200  11.1650
    11.4854  11.5036  11.6276  11.7253  11.7297  11.8072  11.8267  11.8281
    11.9610  12.0178  12.0484  12.1319  12.2037  12.2041  12.2155  12.2199
    12.2283  12.2337  12.2474  12.2583  12.2618  12.2786  12.3055  12.3094
    12.3145  12.3476  12.3573  12.3667  12.4012  12.5313  12.6635  12.7894
    12.8884  12.9701  13.1190  13.3447  13.3538  13.3547  13.8386  13.8743
    14.0346  14.0383  14.0669  14.1562  14.1647  14.2109  14.4365  14.4472
    14.4627  15.3559  15.4503  15.8283  15.8493  15.9056  16.2216  16.3815
    16.4673  16.9097  16.9481  17.3776  17.4793  17.5948  17.7490  17.8150
    17.9749  18.5055  18.6103  18.8349  19.1244  19.2739  19.7113  19.7391
    19.7451  20.0146

          k =-0.0004 0.3822 0.0004 ( 24221 PWs)   bands (ev):

   -90.1254 -90.1237 -90.0788 -90.0766 -90.0471 -90.0291 -90.0218 -90.0173
   -90.0170 -89.9955 -89.9953 -89.9946 -89.9927 -89.8076 -89.7858 -62.2776
   -62.2759 -62.2616 -62.2591 -62.2173 -62.2163 -62.2041 -62.2031 -50.7178
   -50.7114 -50.6572 -50.6404 -50.6080 -50.5763 -50.5677 -50.5399 -50.5346
   -50.5003 -50.4997 -50.4994 -50.4758 -50.4676 -50.4488 -50.4455 -50.4273
   -50.4181 -50.4041 -50.3987 -50.3889 -50.3872 -50.3853 -50.3733 -50.3715
   -50.3706 -50.3612 -50.3608 -50.3562 -50.3559 -50.3557 -50.3220 -50.3215
   -50.3075 -50.3074 -50.3065 -50.2823 -50.2820 -50.2541 -50.2470 -50.2389
   -50.2329 -50.2260 -49.9891 -49.9698 -29.0439 -29.0398 -29.0379 -29.0376
   -29.0361 -29.0341 -29.0338 -29.0312 -29.0228 -29.0084 -29.0074 -29.0049
   -28.9836 -28.9824 -28.9735 -28.9724 -28.9707 -28.9698 -28.9637 -28.9626
   -28.9562 -28.9552 -28.9485 -28.9474   5.4741   6.0027   6.3068   7.6640
     8.0004   8.1902   8.4555   8.7287   9.0664   9.1142   9.2973   9.3211
     9.4681   9.5675   9.6035   9.6332   9.7543   9.7791   9.8719   9.8762
     9.9212  10.0847  10.1715  10.1735  10.1811  10.2410  10.3137  10.3284
    10.3526  10.4170  10.4230  10.4964  10.5366  10.5740  10.6052  10.6387
    10.6992  10.7874  10.8342  10.8616  10.9858  10.9962  11.0022  11.0415
    11.0939  11.1296  11.1498  11.2369  11.3479  11.4160  11.4388  11.4850
    11.5005  11.6171  11.6338  11.7231  11.7511  11.7949  11.8006  11.8133
    11.8929  11.9005  11.9562  12.0225  12.0376  12.0690  12.1248  12.1673
    12.2403  12.2566  12.2695  12.3041  12.3171  12.3318  12.3428  12.4172
    12.4456  12.5224  12.5933  12.6177  12.6908  12.7188  12.8861  13.1629
    13.1679  13.5386  13.5398  13.6796  13.9809  13.9840  14.1520  14.2206
    14.3350  14.4321  14.5176  15.1719  15.7137  16.2438  16.3340  17.5501
    17.7345  18.0010  18.1799  18.7674  18.8714  19.1158  19.1544  19.1764
    19.2959  19.7866  20.2817  20.3783  20.3862  21.0027  21.0563  21.3466
    21.8073  22.1574

          k = 0.3299 0.1911-0.0016 ( 24222 PWs)   bands (ev):

   -90.1255 -90.1238 -90.0799 -90.0777 -90.0476 -90.0280 -90.0224 -90.0110
   -90.0108 -90.0016 -90.0012 -89.9936 -89.9919 -89.8031 -89.7903 -62.2776
   -62.2759 -62.2616 -62.2591 -62.2173 -62.2163 -62.2041 -62.2031 -50.7244
   -50.7196 -50.6595 -50.6367 -50.5971 -50.5641 -50.5605 -50.5316 -50.5305
   -50.5136 -50.5090 -50.5020 -50.4735 -50.4626 -50.4557 -50.4399 -50.4308
   -50.4066 -50.4035 -50.3919 -50.3904 -50.3867 -50.3855 -50.3792 -50.3733
   -50.3692 -50.3655 -50.3604 -50.3499 -50.3432 -50.3428 -50.3173 -50.3156
   -50.3102 -50.3090 -50.3085 -50.2875 -50.2863 -50.2747 -50.2514 -50.2467
   -50.2377 -50.2292 -49.9848 -49.9742 -29.0438 -29.0396 -29.0381 -29.0378
   -29.0360 -29.0343 -29.0329 -29.0306 -29.0229 -29.0096 -29.0075 -29.0060
   -28.9835 -28.9823 -28.9728 -28.9717 -28.9713 -28.9705 -28.9626 -28.9616
   -28.9569 -28.9559 -28.9485 -28.9475   5.4728   5.9957   6.3401   7.7503
     8.0000   8.1593   8.4331   8.6487   9.0618   9.1145   9.3300   9.4362
     9.4947   9.5056   9.6496   9.7370   9.7619   9.8027   9.8696   9.8714
     9.9401  10.1267  10.1343  10.1669  10.2267  10.2875  10.3289  10.3820
    10.4089  10.4112  10.4822  10.5317  10.5588  10.5802  10.6255  10.7314
    10.7433  10.7934  10.8017  10.8933  10.8984  10.9432  10.9970  11.0326
    11.1136  11.1639  11.1819  11.2595  11.2982  11.3965  11.4034  11.4460
    11.4550  11.5719  11.6140  11.6526  11.6681  11.7242  11.7818  11.8064
    11.8179  11.8375  11.9096  11.9513  11.9980  12.0431  12.0569  12.0764
    12.1327  12.2156  12.2275  12.2520  12.2964  12.3414  12.3483  12.3895
    12.4058  12.4283  12.5059  12.5376  12.7090  12.7146  12.8671  13.0421
    13.1554  13.6455  13.7128  13.8691  13.9709  14.0140  14.1614  14.2569
    14.3058  14.6915  15.0370  15.4663  15.7623  15.9344  16.0715  17.3435
    17.8403  17.9454  18.0128  18.8531  18.9564  18.9940  19.2725  19.3471
    19.3556  19.8799  20.3132  20.3307  20.4262  20.9234  21.0516  21.2815
    21.8007  22.0903

          k = 0.3295 0.5733-0.0012 ( 24155 PWs)   bands (ev):

   -90.1252 -90.1236 -90.0786 -90.0764 -90.0412 -90.0348 -90.0221 -90.0132
   -90.0129 -90.0009 -90.0005 -89.9935 -89.9918 -89.8031 -89.7903 -62.2775
   -62.2759 -62.2615 -62.2591 -62.2173 -62.2163 -62.2042 -62.2031 -50.7002
   -50.6970 -50.6428 -50.6405 -50.5832 -50.5801 -50.5733 -50.5320 -50.5274
   -50.5191 -50.5036 -50.5000 -50.4653 -50.4644 -50.4540 -50.4346 -50.4303
   -50.4025 -50.3984 -50.3936 -50.3918 -50.3899 -50.3868 -50.3807 -50.3785
   -50.3746 -50.3650 -50.3585 -50.3429 -50.3420 -50.3407 -50.3311 -50.3164
   -50.3158 -50.3142 -50.3125 -50.3042 -50.3037 -50.2745 -50.2514 -50.2466
   -50.2376 -50.2292 -49.9849 -49.9738 -29.0440 -29.0406 -29.0386 -29.0373
   -29.0351 -29.0341 -29.0338 -29.0310 -29.0235 -29.0091 -29.0072 -29.0062
   -28.9829 -28.9818 -28.9738 -28.9727 -28.9704 -28.9694 -28.9631 -28.9621
   -28.9564 -28.9554 -28.9482 -28.9472   7.0485   7.3061   7.5534   7.5927
     7.6640   8.0017   8.1010   8.1239   8.3646   9.0228   9.0686   9.1172
     9.1538   9.1734   9.5379   9.7190   9.8628   9.9340   9.9430   9.9982
    10.0480  10.1376  10.2459  10.2725  10.2742  10.3075  10.3651  10.3914
    10.4727  10.4798  10.4956  10.5179  10.5357  10.5552  10.5783  10.6083
    10.6470  10.6969  10.7058  10.7364  10.7673  10.7837  10.8371  10.9377
    10.9845  11.0110  11.0346  11.1098  11.2507  11.2546  11.2952  11.3342
    11.3647  11.3926  11.4550  11.5305  11.5658  11.6225  11.6622  11.6956
    11.7586  11.8024  11.8689  11.8882  11.8931  11.9341  11.9546  11.9693
    11.9944  12.0079  12.0601  12.0664  12.0953  12.1556  12.2761  12.3402
    12.3782  12.3942  12.5233  12.5252  12.5397  12.6003  12.7210  12.7679
    12.7978  12.8764  12.9910  13.1960  13.2983  13.3218  14.6755  14.7326
    14.7478  14.8826  15.3332  15.6843  17.4499  17.5956  17.7180  17.8617
    17.9743  18.5816  18.5899  18.6017  18.7150  18.7713  19.0712  19.3549
    19.5903  19.6228  19.6609  20.4524  20.5158  20.9079  20.9400  21.0364
    21.7122  22.9571

          k = 0.3302-0.1911-0.0020 ( 24223 PWs)   bands (ev):

   -90.1254 -90.1238 -90.0799 -90.0777 -90.0474 -90.0285 -90.0221 -90.0111
   -90.0107 -90.0016 -90.0013 -89.9936 -89.9918 -89.8031 -89.7904 -62.2776
   -62.2759 -62.2616 -62.2591 -62.2173 -62.2163 -62.2041 -62.2031 -50.7241
   -50.7193 -50.6589 -50.6365 -50.5968 -50.5642 -50.5606 -50.5318 -50.5304
   -50.5137 -50.5091 -50.5019 -50.4742 -50.4622 -50.4561 -50.4394 -50.4314
   -50.4066 -50.4036 -50.3918 -50.3904 -50.3868 -50.3854 -50.3792 -50.3729
   -50.3694 -50.3654 -50.3604 -50.3504 -50.3432 -50.3428 -50.3173 -50.3154
   -50.3100 -50.3089 -50.3084 -50.2877 -50.2871 -50.2747 -50.2513 -50.2467
   -50.2377 -50.2292 -49.9848 -49.9742 -29.0438 -29.0394 -29.0383 -29.0374
   -29.0364 -29.0344 -29.0328 -29.0306 -29.0229 -29.0096 -29.0075 -29.0060
   -28.9835 -28.9823 -28.9727 -28.9718 -28.9714 -28.9703 -28.9626 -28.9616
   -28.9569 -28.9558 -28.9485 -28.9475   5.4744   5.9973   6.3417   7.7519
     8.0012   8.1639   8.4369   8.6524   9.0628   9.1153   9.3305   9.4368
     9.4962   9.5062   9.6492   9.7373   9.7595   9.8004   9.8698   9.8721
     9.9357  10.1280  10.1335  10.1668  10.2269  10.2895  10.3282  10.3822
    10.4093  10.4122  10.4823  10.5326  10.5582  10.5801  10.6251  10.7307
    10.7439  10.7923  10.8031  10.8926  10.8976  10.9433  10.9967  11.0320
    11.1144  11.1658  11.1816  11.2588  11.2990  11.3963  11.4034  11.4461
    11.4549  11.5736  11.6136  11.6515  11.6692  11.7244  11.7805  11.8068
    11.8201  11.8376  11.9110  11.9524  11.9975  12.0432  12.0567  12.0781
    12.1310  12.2159  12.2252  12.2496  12.2948  12.3396  12.3470  12.3875
    12.4050  12.4277  12.5055  12.5372  12.7093  12.7146  12.8665  13.0413
    13.1562  13.6438  13.7157  13.8644  13.9673  14.0076  14.1533  14.2509
    14.2997  14.6848  15.0279  15.4698  15.7636  15.9351  16.0678  17.3365
    17.8347  17.9402  18.0128  18.8493  18.9566  18.9886  19.2660  19.3456
    19.3543  19.8843  20.3145  20.3292  20.4251  20.9238  21.0537  21.2918
    21.8016  22.0934

     the Fermi energy is    12.9018 ev

!    total energy              =   -7568.85042605 Ry
     total all-electron energy =    -48829.494188 Ry
     estimated scf accuracy    <       0.00000057 Ry
     smearing contrib. (-TS)   =       0.09434001 Ry
     internal energy E=F+TS    =   -7568.94476606 Ry

     The total energy is F=E-TS. E is the sum of the following terms:
     one-electron contribution =   -4455.88344703 Ry
     hartree contribution      =    2372.93220537 Ry
     xc contribution           =    -656.43090053 Ry
     ewald contribution        =   -3343.60756294 Ry
     one-center paw contrib.   =   -1485.95506094 Ry

     convergence has been achieved in  69 iterations

     Forces acting on atoms (cartesian axes, Ry/au):

     atom    1 type  1   force =    -0.00002685   -0.00026343   -0.00147194
     atom    2 type  1   force =    -0.00029382   -0.00043012    0.00050065
     atom    3 type  1   force =     0.00017116   -0.00007521   -0.00051668
     atom    4 type  1   force =     0.00025511   -0.00022930    0.00069141
     atom    5 type  1   force =     0.00028043   -0.00082079   -0.00012651
     atom    6 type  1   force =    -0.00031294    0.00063012   -0.00039018
     atom    7 type  1   force =     0.00030358    0.00141314    0.00026140
     atom    8 type  1   force =     0.00046526   -0.00039462    0.00011082
     atom    9 type  2   force =    -0.00011658   -0.00076427   -0.00173834
     atom   10 type  2   force =     0.00004861    0.00010125   -0.00045516
     atom   11 type  2   force =    -0.00007485    0.00059564    0.00106105
     atom   12 type  2   force =     0.00045967    0.00028833    0.00178315
     atom   13 type  2   force =    -0.00130938    0.00013898   -0.00077783
     atom   14 type  2   force =     0.00091194   -0.00017304    0.00002706
     atom   15 type  2   force =    -0.00106534    0.00147991    0.00029493
     atom   16 type  2   force =     0.00096683    0.00134058   -0.00043202
     atom   17 type  2   force =    -0.00031427   -0.00137628    0.00048579
     atom   18 type  2   force =    -0.00005953   -0.00041356    0.00004142
     atom   19 type  2   force =    -0.00019888    0.00087670   -0.00009660
     atom   20 type  2   force =     0.00033724   -0.00193561    0.00044849
     atom   21 type  2   force =     0.00024208   -0.00006021    0.00029392
     atom   22 type  2   force =    -0.00054622    0.00038311    0.00000131
     atom   23 type  2   force =    -0.00012326   -0.00031130    0.00000384
     The non-local contrib.  to forces
     atom    1 type  1   force =     0.00008930    0.04243309    0.00600709
     atom    2 type  1   force =     0.00105879    0.00009924    0.00983980
     atom    3 type  1   force =     0.00090540    0.00076918   -0.01112381
     atom    4 type  1   force =    -0.00028896    0.04048245   -0.00912677
     atom    5 type  1   force =     0.00161342   -0.00691298   -0.01351573
     atom    6 type  1   force =    -0.00024120   -0.02295414    0.00645867
     atom    7 type  1   force =     0.00140911   -0.01999197   -0.00730220
     atom    8 type  1   force =     0.00063821   -0.00530675    0.01265493
     atom    9 type  2   force =     0.00000417   -0.09180703    0.03173138
     atom   10 type  2   force =     0.00212728    0.02729695    0.05965193
     atom   11 type  2   force =    -0.00004836    0.02251349   -0.06736754
     atom   12 type  2   force =    -0.00854632   -0.10003081   -0.03746025
     atom   13 type  2   force =     0.09229421   -0.06509434    0.00155909
     atom   14 type  2   force =    -0.00747889    0.08072491    0.00042565
     atom   15 type  2   force =    -0.12463483    0.16557067    0.00254210
     atom   16 type  2   force =     0.12382827    0.17081667   -0.00137907
     atom   17 type  2   force =    -0.08866925   -0.07159433    0.00449367
     atom   18 type  2   force =     0.00424880    0.05937437    0.10260993
     atom   19 type  2   force =    -0.01280921    0.02208751    0.04767821
     atom   20 type  2   force =    -0.00031267    0.06100360   -0.09986213
     atom   21 type  2   force =    -0.01232212    0.02180553   -0.05822307
     atom   22 type  2   force =     0.01576612    0.02123084    0.03688769
     atom   23 type  2   force =     0.01390076    0.02377626   -0.05596678
     The ionic contribution  to forces
     atom    1 type  1   force =    -0.08446866    2.90485930  -21.23210212
     atom    2 type  1   force =     0.05558247   -0.00767294    7.74795253
     atom    3 type  1   force =    -0.00650511    0.05483896   -7.74332490
     atom    4 type  1   force =     0.07083984    2.78671674   21.15648170
     atom    5 type  1   force =     0.00816518   -0.22293679   -5.38362498
     atom    6 type  1   force =     0.06860746   -0.22588424   17.88114402
     atom    7 type  1   force =    -0.03339509   -0.09410734  -17.92532548
     atom    8 type  1   force =     0.01352858   -0.19427923    5.37497429
     atom    9 type  2   force =    -0.19090492  -10.60138821  -40.02212900
     atom   10 type  2   force =     0.03232232    0.27811638   12.30146479
     atom   11 type  2   force =    -0.03592191    0.28473040  -12.23697869
     atom   12 type  2   force =     0.19225780  -10.66589866   40.01476913
     atom   13 type  2   force =    11.31355326   -6.21226476   -0.11744948
     atom   14 type  2   force =     0.06134566   12.79726811   -0.04905650
     atom   15 type  2   force =   -11.76962764    8.41015177    0.09071955
     atom   16 type  2   force =    11.73141394    8.44120021   -0.16454075
     atom   17 type  2   force =   -11.41806539   -6.45196196    0.11269098
     atom   18 type  2   force =    -0.08159895    0.04622646  -24.10322028
     atom   19 type  2   force =    -0.57540061   -0.21608544   25.58720379
     atom   20 type  2   force =     0.12154187   -0.22507885   24.21456314
     atom   21 type  2   force =    -0.75478954   -0.30697701  -25.47579125
     atom   22 type  2   force =     0.75118790   -0.30064336   25.49512507
     atom   23 type  2   force =     0.53033153   -0.27892955  -25.52354558
     The local contribution  to forces
     atom    1 type  1   force =     0.08435589   -2.94739452   21.22511261
     atom    2 type  1   force =    -0.05695181    0.00718600   -7.75747256
     atom    3 type  1   force =     0.00576007   -0.05563503    7.75391667
     atom    4 type  1   force =    -0.07028392   -2.82726142  -21.14687674
     atom    5 type  1   force =    -0.00949376    0.22905390    5.39689271
     atom    6 type  1   force =    -0.06866901    0.24941549  -17.88801117
     atom    7 type  1   force =     0.03229278    0.11545698   17.93311143
     atom    8 type  1   force =    -0.01372521    0.19920228   -5.38773194
     atom    9 type  2   force =     0.19085274   10.69173691   39.99774676
     atom   10 type  2   force =    -0.03424139   -0.30399417  -12.35513793
     atom   11 type  2   force =     0.03604803   -0.30576063   12.29727668
     atom   12 type  2   force =    -0.18396618   10.76502339  -39.98441492
     atom   13 type  2   force =   -11.40460947    6.27495039    0.11498973
     atom   14 type  2   force =    -0.05344037  -12.87654347    0.04863583
     atom   15 type  2   force =    11.89050872   -8.56924555   -0.09294707
     atom   16 type  2   force =   -11.85201869   -8.60504972    0.16541747
     atom   17 type  2   force =    11.50411885    6.51930600   -0.11674536
     atom   18 type  2   force =     0.07758028   -0.10190672   24.00955299
     atom   19 type  2   force =     0.58737185    0.19587135  -25.63234180
     atom   20 type  2   force =    -0.12092701    0.16643358  -24.12270782
     atom   21 type  2   force =     0.76687174    0.28626846   25.53108125
     atom   22 type  2   force =    -0.76683102    0.28083712  -25.53012470
     atom   23 type  2   force =    -0.54376931    0.25603163   25.57647365
     The core correction contribution to forces
     atom    1 type  1   force =     0.00000068   -0.00013439   -0.00008556
     atom    2 type  1   force =    -0.00000642    0.00000141   -0.00006319
     atom    3 type  1   force =    -0.00000374   -0.00000467    0.00007047
     atom    4 type  1   force =     0.00000137   -0.00012937    0.00010011
     atom    5 type  1   force =    -0.00000727    0.00003017    0.00005751
     atom    6 type  1   force =     0.00000125    0.00007784    0.00003427
     atom    7 type  1   force =    -0.00000828    0.00006632   -0.00003059
     atom    8 type  1   force =    -0.00000038    0.00001959   -0.00005332
     atom    9 type  2   force =    -0.00000339    0.00089833   -0.00827170
     atom   10 type  2   force =    -0.00018666   -0.00129934   -0.00719116
     atom   11 type  2   force =     0.00007102   -0.00108517    0.00774836
     atom   12 type  2   force =     0.00060077    0.00130422    0.00869944
     atom   13 type  2   force =    -0.00249537    0.00246473   -0.00010767
     atom   14 type  2   force =     0.00048236   -0.00153391   -0.00011438
     atom   15 type  2   force =     0.00222025   -0.00453909   -0.00014757
     atom   16 type  2   force =    -0.00214417   -0.00488603   -0.00000034
     atom   17 type  2   force =     0.00230929    0.00283994   -0.00026874
     atom   18 type  2   force =    -0.00027298   -0.00394861   -0.00807682
     atom   19 type  2   force =     0.00073706   -0.00139072   -0.00240273
     atom   20 type  2   force =     0.00000750   -0.00407843    0.00785670
     atom   21 type  2   force =     0.00064948   -0.00139904    0.00321259
     atom   22 type  2   force =    -0.00085112   -0.00137205   -0.00173666
     atom   23 type  2   force =    -0.00081811   -0.00145728    0.00305645
     The Hubbard contrib.    to forces
     atom    1 type  1   force =     0.00000000    0.00000000    0.00000000
     atom    2 type  1   force =     0.00000000    0.00000000    0.00000000
     atom    3 type  1   force =     0.00000000    0.00000000    0.00000000
     atom    4 type  1   force =     0.00000000    0.00000000    0.00000000
     atom    5 type  1   force =     0.00000000    0.00000000    0.00000000
     atom    6 type  1   force =     0.00000000    0.00000000    0.00000000
     atom    7 type  1   force =     0.00000000    0.00000000    0.00000000
     atom    8 type  1   force =     0.00000000    0.00000000    0.00000000
     atom    9 type  2   force =     0.00000000    0.00000000    0.00000000
     atom   10 type  2   force =     0.00000000    0.00000000    0.00000000
     atom   11 type  2   force =     0.00000000    0.00000000    0.00000000
     atom   12 type  2   force =     0.00000000    0.00000000    0.00000000
     atom   13 type  2   force =     0.00000000    0.00000000    0.00000000
     atom   14 type  2   force =     0.00000000    0.00000000    0.00000000
     atom   15 type  2   force =     0.00000000    0.00000000    0.00000000
     atom   16 type  2   force =     0.00000000    0.00000000    0.00000000
     atom   17 type  2   force =     0.00000000    0.00000000    0.00000000
     atom   18 type  2   force =     0.00000000    0.00000000    0.00000000
     atom   19 type  2   force =     0.00000000    0.00000000    0.00000000
     atom   20 type  2   force =     0.00000000    0.00000000    0.00000000
     atom   21 type  2   force =     0.00000000    0.00000000    0.00000000
     atom   22 type  2   force =     0.00000000    0.00000000    0.00000000
     atom   23 type  2   force =     0.00000000    0.00000000    0.00000000
     The SCF correction term to forces
     atom    1 type  1   force =    -0.00000698    0.00000120   -0.00040426
     atom    2 type  1   force =     0.00002022   -0.00001573    0.00024376
     atom    3 type  1   force =     0.00001160   -0.00001554   -0.00005541
     atom    4 type  1   force =    -0.00001616   -0.00000959    0.00011280
     atom    5 type  1   force =    -0.00000006   -0.00002698    0.00006367
     atom    6 type  1   force =    -0.00001437    0.00000326   -0.00001628
     atom    7 type  1   force =     0.00000213    0.00001725   -0.00019206
     atom    8 type  1   force =     0.00002113   -0.00000240    0.00026656
     atom    9 type  2   force =    -0.00006810   -0.00017616   -0.00081608
     atom   10 type  2   force =     0.00002413    0.00000955    0.00075690
     atom   11 type  2   force =    -0.00022656    0.00022565    0.00038194
     atom   12 type  2   force =     0.00011066   -0.00008170    0.00018945
     atom   13 type  2   force =    -0.00005493    0.00011107    0.00023020
     atom   14 type  2   force =     0.00000025   -0.00006057    0.00013616
     atom   15 type  2   force =     0.00046523   -0.00042979    0.00012762
     atom   16 type  2   force =    -0.00011545   -0.00071244    0.00007038
     atom   17 type  2   force =    -0.00001070    0.00006217    0.00031493
     atom   18 type  2   force =    -0.00001961   -0.00013096   -0.00082471
     atom   19 type  2   force =    -0.00010090    0.00042211   -0.00023437
     atom   20 type  2   force =     0.00002463   -0.00018740    0.00059830
     atom   21 type  2   force =    -0.00017041    0.00026996    0.00001410
     atom   22 type  2   force =     0.00017897    0.00035867   -0.00015039
     atom   23 type  2   force =     0.00022894    0.00029575   -0.00001420

     Total force =     0.005825     Total SCF correction =     0.002198
     SCF correction compared to forces is large: reduce conv_thr to get better values


     Computing stress (Cartesian axis) and pressure

          total   stress  (Ry/bohr**3)                   (kbar)     P=        0.09
   0.00000708  -0.00000311  -0.00000346            1.04       -0.46       -0.51
  -0.00000311   0.00000197  -0.00000117           -0.46        0.29       -0.17
  -0.00000346  -0.00000117  -0.00000723           -0.51       -0.17       -1.06

     Energy error            =      7.6E-05 Ry
     Gradient error          =      1.9E-03 Ry/Bohr
     Cell gradient error     =      1.1E+00 kbar

     number of scf cycles    =  11
     number of bfgs steps    =  10

     enthalpy           old  =   -7568.8503503585 Ry
     enthalpy           new  =   -7568.8504260498 Ry

     CASE: enthalpy          _new < enthalpy          _old

     new trust radius        =       0.0046729430 bohr
     new conv_thr            =       0.0000007569 Ry

     new unit-cell volume =   2041.75283 a.u.^3 (   302.55655 Ang^3 )
     density =      5.89911 g/cm^3

CELL_PARAMETERS (angstrom)
   4.743809810   0.004429243  -0.018613433
  -2.372058188   4.094352301   0.015616629
   0.082933836  -0.016612132  15.568595437

ATOMIC_POSITIONS (crystal)
Mg            0.9998704795        1.0004405344        0.4055813597
Mg           -0.0015458903       -0.0032297517        0.9082551214
Mg            0.9977360596        0.9966922882        0.5916048305
Mg            0.9997887198        1.0003910846        0.0943951347
Mg            0.3316443275        0.6645951432        0.6553215792
Mg            0.6679474296        0.3364236343        0.1579846068
Mg            0.6675189703        0.3359739171        0.3418274379
Mg            0.3318299349        0.6643235594        0.8445019326
Ni            0.3369719117        0.6743862814        0.3721506949
Ni            0.6647849549        0.3293533893        0.8759936045
Ni            0.6641966567        0.3288118117        0.6237060340
Ni            0.3361564131        0.6733677046        0.1275725851
Ni            0.8344779786        0.1625078471        0.7499417915
Ni            0.8339954086        0.6686810405        0.7497934091
Ni            0.1621237616        0.8365578775        0.2498683292
Ni            0.6741129713        0.8365479574        0.2498773217
Ni            0.3289899704        0.1627567816        0.7498721784
Ni            0.4979222733        0.9963779737        0.4982426861
Ni            0.4983539181        0.4960586274        0.0021133583
Ni            0.4981740394       -0.0034597192        1.0014788209
Ni            0.4979005660        0.4963266315        0.4976459565
Ni           -0.0019045831        0.4961039261        0.0020192612
Ni            0.9977777284        0.4966214597        0.4976239658



     Writing config-only to output data dir ./C36/out_logs/C36_out_8/laves_C36.save/
     NEW-OLD atomic charge density approx. for the potential

     Check: negative core charge=   -0.000010
     extrapolated charge  350.04122, renormalised to  350.00000

     total cpu time spent up to now is     6728.1 secs

     Self-consistent Calculation

     iteration #  1     ecut=    80.00 Ry     beta= 0.20
     Davidson diagonalization with overlap
     ethr =  1.00E-06,  avg # of iterations =  5.0

     total cpu time spent up to now is     6743.9 secs

     total energy              =   -7568.84441897 Ry
     estimated scf accuracy    <       1.18833041 Ry

     iteration #  2     ecut=    80.00 Ry     beta= 0.20
     Davidson diagonalization with overlap
     ethr =  3.40E-04,  avg # of iterations =  1.0

     total cpu time spent up to now is     6752.6 secs

     total energy              =   -7568.62980760 Ry
     estimated scf accuracy    <       2.22297289 Ry

     iteration #  3     ecut=    80.00 Ry     beta= 0.20
     Davidson diagonalization with overlap
     ethr =  3.40E-04,  avg # of iterations =  3.4

     total cpu time spent up to now is     6762.7 secs

     total energy              =   -7568.49085187 Ry
     estimated scf accuracy    <      21.92132235 Ry

     iteration #  4     ecut=    80.00 Ry     beta= 0.20
     Davidson diagonalization with overlap
     ethr =  3.40E-04,  avg # of iterations =  2.0

     total cpu time spent up to now is     6772.5 secs

     total energy              =   -7568.69867906 Ry
     estimated scf accuracy    <       7.94930966 Ry

     iteration #  5     ecut=    80.00 Ry     beta= 0.20
     Davidson diagonalization with overlap
     ethr =  3.40E-04,  avg # of iterations =  1.4

     total cpu time spent up to now is     6781.6 secs

     total energy              =   -7568.75640004 Ry
     estimated scf accuracy    <       9.94133472 Ry

     iteration #  6     ecut=    80.00 Ry     beta= 0.20
     Davidson diagonalization with overlap
     ethr =  3.40E-04,  avg # of iterations =  1.0

     total cpu time spent up to now is     6790.3 secs

     total energy              =   -7568.84734968 Ry
     estimated scf accuracy    <       0.57416504 Ry

     iteration #  7     ecut=    80.00 Ry     beta= 0.20
     Davidson diagonalization with overlap
     ethr =  1.64E-04,  avg # of iterations =  1.0

     total cpu time spent up to now is     6799.1 secs

     total energy              =   -7568.84461623 Ry
     estimated scf accuracy    <       0.28850500 Ry

     iteration #  8     ecut=    80.00 Ry     beta= 0.20
     Davidson diagonalization with overlap
     ethr =  8.24E-05,  avg # of iterations =  1.0

     total cpu time spent up to now is     6807.8 secs

     total energy              =   -7568.84642373 Ry
     estimated scf accuracy    <       0.05041317 Ry

     iteration #  9     ecut=    80.00 Ry     beta= 0.20
     Davidson diagonalization with overlap
     ethr =  1.44E-05,  avg # of iterations =  2.2

     total cpu time spent up to now is     6817.3 secs

     total energy              =   -7568.84834981 Ry
     estimated scf accuracy    <       0.02082468 Ry

     iteration # 10     ecut=    80.00 Ry     beta= 0.20
     Davidson diagonalization with overlap
     ethr =  5.95E-06,  avg # of iterations =  1.8

     total cpu time spent up to now is     6826.9 secs

     total energy              =   -7568.84865901 Ry
     estimated scf accuracy    <       0.00846670 Ry

     iteration # 11     ecut=    80.00 Ry     beta= 0.20
     Davidson diagonalization with overlap
     ethr =  2.42E-06,  avg # of iterations =  1.4

     total cpu time spent up to now is     6836.1 secs

     total energy              =   -7568.84887458 Ry
     estimated scf accuracy    <       0.00384321 Ry

     iteration # 12     ecut=    80.00 Ry     beta= 0.20
     Davidson diagonalization with overlap
     ethr =  1.10E-06,  avg # of iterations =  1.0

     total cpu time spent up to now is     6844.9 secs

     total energy              =   -7568.84903723 Ry
     estimated scf accuracy    <       0.00447152 Ry

     iteration # 13     ecut=    80.00 Ry     beta= 0.20
     Davidson diagonalization with overlap
     ethr =  1.10E-06,  avg # of iterations =  1.0

     total cpu time spent up to now is     6853.6 secs

     total energy              =   -7568.84914067 Ry
     estimated scf accuracy    <       0.00289457 Ry

     iteration # 14     ecut=    80.00 Ry     beta= 0.20
     Davidson diagonalization with overlap
     ethr =  8.27E-07,  avg # of iterations =  1.0

     total cpu time spent up to now is     6862.4 secs

     total energy              =   -7568.84934340 Ry
     estimated scf accuracy    <       0.00271903 Ry

     iteration # 15     ecut=    80.00 Ry     beta= 0.20
     Davidson diagonalization with overlap
     ethr =  7.77E-07,  avg # of iterations =  1.0

     total cpu time spent up to now is     6871.2 secs

     total energy              =   -7568.84937215 Ry
     estimated scf accuracy    <       0.00417178 Ry

     iteration # 16     ecut=    80.00 Ry     beta= 0.20
     Davidson diagonalization with overlap
     ethr =  7.77E-07,  avg # of iterations =  1.0

     total cpu time spent up to now is     6879.9 secs

     total energy              =   -7568.84922823 Ry
     estimated scf accuracy    <       0.02141705 Ry

     iteration # 17     ecut=    80.00 Ry     beta= 0.20
     Davidson diagonalization with overlap
     ethr =  7.77E-07,  avg # of iterations =  2.0

     total cpu time spent up to now is     6890.7 secs

     total energy              =   -7568.85054503 Ry
     estimated scf accuracy    <       0.01138115 Ry

     iteration # 18     ecut=    80.00 Ry     beta= 0.20
     Davidson diagonalization with overlap
     ethr =  7.77E-07,  avg # of iterations =  1.4

     total cpu time spent up to now is     6899.9 secs

     total energy              =   -7568.85020001 Ry
     estimated scf accuracy    <       0.01290271 Ry

     iteration # 19     ecut=    80.00 Ry     beta= 0.20
     Davidson diagonalization with overlap
     ethr =  7.77E-07,  avg # of iterations =  2.0

     total cpu time spent up to now is     6909.7 secs

     total energy              =   -7568.85031323 Ry
     estimated scf accuracy    <       0.00963701 Ry

     iteration # 20     ecut=    80.00 Ry     beta= 0.20
     Davidson diagonalization with overlap
     ethr =  7.77E-07,  avg # of iterations =  1.0

     total cpu time spent up to now is     6918.4 secs

     total energy              =   -7568.84860315 Ry
     estimated scf accuracy    <       0.01067384 Ry

     iteration # 21     ecut=    80.00 Ry     beta= 0.20
     Davidson diagonalization with overlap
     ethr =  7.77E-07,  avg # of iterations =  2.0

     total cpu time spent up to now is     6929.4 secs

     total energy              =   -7568.84929464 Ry
     estimated scf accuracy    <       0.02032641 Ry

     iteration # 22     ecut=    80.00 Ry     beta= 0.20
     Davidson diagonalization with overlap
     ethr =  7.77E-07,  avg # of iterations =  1.4

     total cpu time spent up to now is     6938.6 secs

     total energy              =   -7568.84971273 Ry
     estimated scf accuracy    <       0.00940744 Ry

     iteration # 23     ecut=    80.00 Ry     beta= 0.20
     Davidson diagonalization with overlap
     ethr =  7.77E-07,  avg # of iterations =  1.0

     total cpu time spent up to now is     6947.3 secs

     total energy              =   -7568.85003869 Ry
     estimated scf accuracy    <       0.00079478 Ry

     iteration # 24     ecut=    80.00 Ry     beta= 0.20
     Davidson diagonalization with overlap
     ethr =  2.27E-07,  avg # of iterations =  2.0

     total cpu time spent up to now is     6958.0 secs

     total energy              =   -7568.85023853 Ry
     estimated scf accuracy    <       0.00141087 Ry

     iteration # 25     ecut=    80.00 Ry     beta= 0.20
     Davidson diagonalization with overlap
     ethr =  2.27E-07,  avg # of iterations =  1.0

     total cpu time spent up to now is     6966.8 secs

     total energy              =   -7568.85033617 Ry
     estimated scf accuracy    <       0.00125220 Ry

     iteration # 26     ecut=    80.00 Ry     beta= 0.20
     Davidson diagonalization with overlap
     ethr =  2.27E-07,  avg # of iterations =  2.0

     total cpu time spent up to now is     6976.7 secs

     total energy              =   -7568.85037002 Ry
     estimated scf accuracy    <       0.00114690 Ry

     iteration # 27     ecut=    80.00 Ry     beta= 0.20
     Davidson diagonalization with overlap
     ethr =  2.27E-07,  avg # of iterations =  1.0

     total cpu time spent up to now is     6985.5 secs

     total energy              =   -7568.85038880 Ry
     estimated scf accuracy    <       0.00085391 Ry

     iteration # 28     ecut=    80.00 Ry     beta= 0.20
     Davidson diagonalization with overlap
     ethr =  2.27E-07,  avg # of iterations =  1.0

     total cpu time spent up to now is     6994.3 secs

     total energy              =   -7568.85041489 Ry
     estimated scf accuracy    <       0.00046320 Ry

     iteration # 29     ecut=    80.00 Ry     beta= 0.20
     Davidson diagonalization with overlap
     ethr =  1.32E-07,  avg # of iterations =  1.2

     total cpu time spent up to now is     7003.2 secs

     total energy              =   -7568.85042556 Ry
     estimated scf accuracy    <       0.00040384 Ry

     iteration # 30     ecut=    80.00 Ry     beta= 0.20
     Davidson diagonalization with overlap
     ethr =  1.15E-07,  avg # of iterations =  1.0

     total cpu time spent up to now is     7012.0 secs

     total energy              =   -7568.85042173 Ry
     estimated scf accuracy    <       0.00036493 Ry

     iteration # 31     ecut=    80.00 Ry     beta= 0.20
     Davidson diagonalization with overlap
     ethr =  1.04E-07,  avg # of iterations =  1.0

     total cpu time spent up to now is     7020.8 secs

     total energy              =   -7568.85042463 Ry
     estimated scf accuracy    <       0.00018974 Ry

     iteration # 32     ecut=    80.00 Ry     beta= 0.20
     Davidson diagonalization with overlap
     ethr =  5.42E-08,  avg # of iterations =  1.0

     total cpu time spent up to now is     7029.6 secs

     total energy              =   -7568.85043659 Ry
     estimated scf accuracy    <       0.00016054 Ry

     iteration # 33     ecut=    80.00 Ry     beta= 0.20
     Davidson diagonalization with overlap
     ethr =  4.59E-08,  avg # of iterations =  2.0

     total cpu time spent up to now is     7040.2 secs

     total energy              =   -7568.85045757 Ry
     estimated scf accuracy    <       0.00014571 Ry

     iteration # 34     ecut=    80.00 Ry     beta= 0.20
     Davidson diagonalization with overlap
     ethr =  4.16E-08,  avg # of iterations =  1.0

     total cpu time spent up to now is     7049.2 secs

     total energy              =   -7568.85045924 Ry
     estimated scf accuracy    <       0.00011007 Ry

     iteration # 35     ecut=    80.00 Ry     beta= 0.20
     Davidson diagonalization with overlap
     ethr =  3.14E-08,  avg # of iterations =  2.0

     total cpu time spent up to now is     7059.3 secs

     total energy              =   -7568.85046029 Ry
     estimated scf accuracy    <       0.00003287 Ry

     iteration # 36     ecut=    80.00 Ry     beta= 0.20
     Davidson diagonalization with overlap
     ethr =  9.39E-09,  avg # of iterations =  2.0

     total cpu time spent up to now is     7069.6 secs

     total energy              =   -7568.85046037 Ry
     estimated scf accuracy    <       0.00004714 Ry

     iteration # 37     ecut=    80.00 Ry     beta= 0.20
     Davidson diagonalization with overlap
     ethr =  9.39E-09,  avg # of iterations =  1.0

     total cpu time spent up to now is     7078.7 secs

     total energy              =   -7568.85046091 Ry
     estimated scf accuracy    <       0.00001835 Ry

     iteration # 38     ecut=    80.00 Ry     beta= 0.20
     Davidson diagonalization with overlap
     ethr =  5.24E-09,  avg # of iterations =  1.0

     total cpu time spent up to now is     7087.7 secs

     total energy              =   -7568.85046082 Ry
     estimated scf accuracy    <       0.00000830 Ry

     iteration # 39     ecut=    80.00 Ry     beta= 0.20
     Davidson diagonalization with overlap
     ethr =  2.37E-09,  avg # of iterations =  1.0

     total cpu time spent up to now is     7096.8 secs

     total energy              =   -7568.85046184 Ry
     estimated scf accuracy    <       0.00000707 Ry

     iteration # 40     ecut=    80.00 Ry     beta= 0.20
     Davidson diagonalization with overlap
     ethr =  2.02E-09,  avg # of iterations =  2.0

     total cpu time spent up to now is     7107.7 secs

     total energy              =   -7568.85046265 Ry
     estimated scf accuracy    <       0.00000482 Ry

     iteration # 41     ecut=    80.00 Ry     beta= 0.20
     Davidson diagonalization with overlap
     ethr =  1.38E-09,  avg # of iterations =  2.0

     total cpu time spent up to now is     7118.2 secs

     total energy              =   -7568.85046292 Ry
     estimated scf accuracy    <       0.00000433 Ry

     iteration # 42     ecut=    80.00 Ry     beta= 0.20
     Davidson diagonalization with overlap
     ethr =  1.24E-09,  avg # of iterations =  2.0

     total cpu time spent up to now is     7128.3 secs

     total energy              =   -7568.85046314 Ry
     estimated scf accuracy    <       0.00000335 Ry

     iteration # 43     ecut=    80.00 Ry     beta= 0.20
     Davidson diagonalization with overlap
     ethr =  9.56E-10,  avg # of iterations =  1.0

     total cpu time spent up to now is     7137.4 secs

     total energy              =   -7568.85046310 Ry
     estimated scf accuracy    <       0.00000118 Ry

     iteration # 44     ecut=    80.00 Ry     beta= 0.20
     Davidson diagonalization with overlap
     ethr =  3.37E-10,  avg # of iterations =  2.0

     total cpu time spent up to now is     7147.5 secs

     End of self-consistent calculation

          k = 0.0000 0.0000 0.0000 ( 24267 PWs)   bands (ev):

   -90.1267 -90.1250 -90.0827 -90.0816 -90.0547 -90.0236 -90.0231 -90.0158
   -90.0157 -89.9972 -89.9970 -89.9968 -89.9949 -89.8101 -89.7883 -62.2803
   -62.2787 -62.2633 -62.2610 -62.2199 -62.2191 -62.2052 -62.2044 -50.7546
   -50.7481 -50.6957 -50.6369 -50.5951 -50.5652 -50.5626 -50.5473 -50.5447
   -50.5158 -50.5140 -50.4992 -50.4933 -50.4624 -50.4552 -50.4393 -50.4344
   -50.4242 -50.4132 -50.4041 -50.3948 -50.3939 -50.3897 -50.3712 -50.3701
   -50.3607 -50.3597 -50.3564 -50.3551 -50.3479 -50.3445 -50.2992 -50.2991
   -50.2987 -50.2984 -50.2952 -50.2759 -50.2756 -50.2561 -50.2487 -50.2408
   -50.2358 -50.2282 -49.9915 -49.9729 -29.0456 -29.0417 -29.0412 -29.0397
   -29.0393 -29.0350 -29.0349 -29.0322 -29.0246 -29.0112 -29.0086 -29.0073
   -28.9866 -28.9856 -28.9753 -28.9744 -28.9742 -28.9734 -28.9646 -28.9638
   -28.9581 -28.9574 -28.9503 -28.9495   4.4671   5.0110   5.3693   6.8411
     7.2521   8.4998   8.5002   8.9222   9.1987   9.3099   9.4317   9.5339
     9.5393   9.5452   9.5598   9.5667   9.6009   9.7496   9.7550   9.7973
     9.8599   9.8843   9.9408  10.0154  10.0602  10.2477  10.3088  10.3240
    10.3383  10.3646  10.4089  10.4222  10.4330  10.4937  10.6062  10.8139
    10.8559  10.8880  10.9059  10.9703  11.0349  11.0519  11.1187  11.1638
    11.4836  11.5027  11.6263  11.7234  11.7281  11.8048  11.8243  11.8265
    11.9589  12.0163  12.0472  12.1299  12.2017  12.2026  12.2137  12.2179
    12.2266  12.2319  12.2454  12.2568  12.2603  12.2767  12.3028  12.3074
    12.3125  12.3458  12.3547  12.3646  12.3997  12.5291  12.6602  12.7876
    12.8869  12.9681  13.1165  13.3429  13.3516  13.3521  13.8382  13.8718
    14.0327  14.0364  14.0638  14.1539  14.1625  14.2095  14.4338  14.4455
    14.4592  15.3509  15.4468  15.8254  15.8471  15.9036  16.2194  16.3786
    16.4641  16.9056  16.9458  17.3755  17.4762  17.5918  17.7460  17.8116
    17.9720  18.5029  18.6067  18.8321  19.1234  19.2709  19.7104  19.7360
    19.7418  20.0112

          k =-0.0004 0.3821 0.0004 ( 24221 PWs)   bands (ev):

   -90.1263 -90.1248 -90.0802 -90.0789 -90.0483 -90.0303 -90.0230 -90.0188
   -90.0187 -89.9970 -89.9970 -89.9967 -89.9946 -89.8101 -89.7883 -62.2802
   -62.2786 -62.2633 -62.2609 -62.2200 -62.2192 -62.2053 -62.2045 -50.7187
   -50.7125 -50.6586 -50.6419 -50.6095 -50.5778 -50.5692 -50.5420 -50.5367
   -50.5015 -50.5010 -50.5006 -50.4772 -50.4687 -50.4500 -50.4467 -50.4286
   -50.4206 -50.4058 -50.4006 -50.3907 -50.3884 -50.3873 -50.3745 -50.3734
   -50.3719 -50.3631 -50.3622 -50.3578 -50.3573 -50.3570 -50.3234 -50.3232
   -50.3091 -50.3087 -50.3081 -50.2840 -50.2838 -50.2561 -50.2488 -50.2408
   -50.2357 -50.2281 -49.9917 -49.9725 -29.0465 -29.0424 -29.0405 -29.0403
   -29.0388 -29.0357 -29.0356 -29.0329 -29.0255 -29.0101 -29.0091 -29.0066
   -28.9857 -28.9847 -28.9762 -28.9753 -28.9735 -28.9727 -28.9654 -28.9645
   -28.9574 -28.9567 -28.9499 -28.9490   5.4737   6.0017   6.3051   7.6624
     7.9995   8.1901   8.4546   8.7276   9.0658   9.1134   9.2959   9.3203
     9.4672   9.5661   9.6023   9.6326   9.7537   9.7779   9.8705   9.8754
     9.9208  10.0830  10.1704  10.1731  10.1797  10.2382  10.3128  10.3275
    10.3512  10.4160  10.4217  10.4953  10.5349  10.5729  10.6044  10.6370
    10.6973  10.7858  10.8329  10.8602  10.9836  10.9949  11.0016  11.0395
    11.0927  11.1282  11.1484  11.2355  11.3460  11.4147  11.4366  11.4840
    11.4979  11.6153  11.6323  11.7211  11.7497  11.7929  11.7986  11.8113
    11.8912  11.8989  11.9542  12.0207  12.0352  12.0674  12.1237  12.1660
    12.2384  12.2545  12.2673  12.3022  12.3147  12.3296  12.3412  12.4153
    12.4435  12.5200  12.5915  12.6155  12.6880  12.7167  12.8846  13.1607
    13.1653  13.5364  13.5384  13.6767  13.9778  13.9811  14.1495  14.2179
    14.3320  14.4294  14.5146  15.1720  15.7124  16.2405  16.3326  17.5480
    17.7318  18.0003  18.1771  18.7630  18.8687  19.1126  19.1510  19.1741
    19.2924  19.7848  20.2788  20.3749  20.3830  21.0003  21.0535  21.3440
    21.8034  22.1536

          k = 0.3298 0.1911-0.0016 ( 24222 PWs)   bands (ev):

   -90.1264 -90.1249 -90.0813 -90.0801 -90.0487 -90.0294 -90.0234 -90.0126
   -90.0124 -90.0032 -90.0029 -89.9956 -89.9937 -89.8056 -89.7929 -62.2802
   -62.2786 -62.2633 -62.2609 -62.2200 -62.2192 -62.2053 -62.2045 -50.7254
   -50.7207 -50.6607 -50.6379 -50.5985 -50.5660 -50.5624 -50.5332 -50.5323
   -50.5150 -50.5105 -50.5035 -50.4747 -50.4638 -50.4568 -50.4411 -50.4321
   -50.4082 -50.4056 -50.3936 -50.3927 -50.3889 -50.3869 -50.3812 -50.3744
   -50.3706 -50.3666 -50.3625 -50.3513 -50.3448 -50.3444 -50.3190 -50.3172
   -50.3114 -50.3106 -50.3103 -50.2890 -50.2884 -50.2774 -50.2533 -50.2485
   -50.2397 -50.2313 -49.9875 -49.9768 -29.0464 -29.0423 -29.0407 -29.0404
   -29.0387 -29.0360 -29.0346 -29.0322 -29.0256 -29.0114 -29.0093 -29.0077
   -28.9856 -28.9846 -28.9755 -28.9745 -28.9741 -28.9733 -28.9643 -28.9634
   -28.9581 -28.9573 -28.9499 -28.9491   5.4725   5.9947   6.3384   7.7487
     7.9991   8.1588   8.4319   8.6473   9.0613   9.1138   9.3294   9.4349
     9.4938   9.5051   9.6489   9.7355   9.7614   9.8016   9.8682   9.8704
     9.9397  10.1253  10.1330  10.1653  10.2261  10.2862  10.3278  10.3810
    10.4078  10.4099  10.4801  10.5306  10.5576  10.5785  10.6240  10.7303
    10.7415  10.7919  10.7994  10.8916  10.8965  10.9414  10.9951  11.0310
    11.1119  11.1627  11.1808  11.2577  11.2962  11.3946  11.4018  11.4443
    11.4532  11.5699  11.6126  11.6513  11.6659  11.7223  11.7800  11.8048
    11.8159  11.8358  11.9077  11.9492  11.9962  12.0415  12.0554  12.0746
    12.1309  12.2138  12.2256  12.2499  12.2948  12.3395  12.3467  12.3877
    12.4038  12.4264  12.5039  12.5358  12.7070  12.7124  12.8652  13.0400
    13.1532  13.6434  13.7116  13.8667  13.9681  14.0113  14.1591  14.2545
    14.3033  14.6898  15.0332  15.4662  15.7607  15.9325  16.0687  17.3414
    17.8381  17.9430  18.0113  18.8500  18.9543  18.9921  19.2695  19.3436
    19.3520  19.8771  20.3103  20.3272  20.4239  20.9212  21.0498  21.2780
    21.7969  22.0873

          k = 0.3295 0.5732-0.0011 ( 24155 PWs)   bands (ev):

   -90.1261 -90.1248 -90.0800 -90.0787 -90.0424 -90.0360 -90.0233 -90.0147
   -90.0146 -90.0024 -90.0022 -89.9956 -89.9937 -89.8056 -89.7929 -62.2801
   -62.2786 -62.2632 -62.2608 -62.2200 -62.2192 -62.2053 -62.2045 -50.7011
   -50.6979 -50.6443 -50.6423 -50.5846 -50.5816 -50.5748 -50.5338 -50.5294
   -50.5205 -50.5050 -50.5015 -50.4664 -50.4655 -50.4551 -50.4359 -50.4316
   -50.4042 -50.4003 -50.3952 -50.3941 -50.3924 -50.3880 -50.3822 -50.3803
   -50.3758 -50.3663 -50.3607 -50.3445 -50.3436 -50.3420 -50.3322 -50.3179
   -50.3176 -50.3159 -50.3142 -50.3057 -50.3055 -50.2773 -50.2534 -50.2484
   -50.2396 -50.2312 -49.9875 -49.9764 -29.0466 -29.0432 -29.0413 -29.0399
   -29.0378 -29.0359 -29.0354 -29.0326 -29.0262 -29.0108 -29.0090 -29.0079
   -28.9850 -28.9840 -28.9765 -28.9756 -28.9731 -28.9723 -28.9648 -28.9639
   -28.9577 -28.9568 -28.9496 -28.9488   7.0487   7.3042   7.5527   7.5917
     7.6627   8.0002   8.0986   8.1224   8.3626   9.0220   9.0673   9.1158
     9.1527   9.1720   9.5368   9.7200   9.8607   9.9330   9.9410   9.9973
    10.0468  10.1372  10.2446  10.2719  10.2730  10.3067  10.3636  10.3899
    10.4720  10.4782  10.4947  10.5165  10.5344  10.5539  10.5769  10.6075
    10.6460  10.6957  10.7041  10.7355  10.7663  10.7827  10.8348  10.9357
    10.9832  11.0096  11.0329  11.1073  11.2493  11.2526  11.2932  11.3321
    11.3631  11.3908  11.4534  11.5282  11.5644  11.6210  11.6603  11.6939
    11.7567  11.8004  11.8664  11.8863  11.8917  11.9321  11.9527  11.9674
    11.9929  12.0061  12.0585  12.0649  12.0933  12.1544  12.2742  12.3384
    12.3763  12.3927  12.5212  12.5232  12.5377  12.5984  12.7188  12.7658
    12.7960  12.8747  12.9884  13.1940  13.2968  13.3191  14.6734  14.7302
    14.7468  14.8809  15.3335  15.6822  17.4473  17.5916  17.7154  17.8593
    17.9718  18.5784  18.5872  18.5984  18.7135  18.7678  19.0689  19.3537
    19.5872  19.6211  19.6586  20.4496  20.5129  20.9050  20.9367  21.0327
    21.7080  22.9543

          k = 0.3302-0.1911-0.0020 ( 24223 PWs)   bands (ev):

   -90.1264 -90.1249 -90.0813 -90.0801 -90.0487 -90.0294 -90.0235 -90.0127
   -90.0124 -90.0031 -90.0030 -89.9956 -89.9937 -89.8056 -89.7929 -62.2802
   -62.2786 -62.2633 -62.2609 -62.2200 -62.2192 -62.2053 -62.2045 -50.7252
   -50.7205 -50.6603 -50.6377 -50.5983 -50.5661 -50.5625 -50.5333 -50.5322
   -50.5150 -50.5107 -50.5033 -50.4754 -50.4633 -50.4572 -50.4407 -50.4326
   -50.4082 -50.4056 -50.3935 -50.3926 -50.3889 -50.3868 -50.3812 -50.3742
   -50.3705 -50.3668 -50.3626 -50.3515 -50.3448 -50.3444 -50.3189 -50.3171
   -50.3113 -50.3105 -50.3102 -50.2892 -50.2889 -50.2774 -50.2533 -50.2485
   -50.2396 -50.2313 -49.9874 -49.9769 -29.0464 -29.0420 -29.0409 -29.0402
   -29.0390 -29.0361 -29.0345 -29.0322 -29.0256 -29.0114 -29.0093 -29.0077
   -28.9856 -28.9846 -28.9755 -28.9747 -28.9741 -28.9732 -28.9643 -28.9634
   -28.9581 -28.9573 -28.9499 -28.9491   5.4740   5.9961   6.3399   7.7503
     8.0002   8.1632   8.4356   8.6508   9.0623   9.1146   9.3299   9.4354
     9.4951   9.5057   9.6485   9.7357   9.7591   9.7994   9.8682   9.8713
     9.9355  10.1266  10.1322  10.1650  10.2262  10.2882  10.3271  10.3812
    10.4083  10.4109  10.4803  10.5314  10.5571  10.5784  10.6235  10.7297
    10.7421  10.7908  10.8006  10.8908  10.8959  10.9416  10.9948  11.0304
    11.1127  11.1644  11.1806  11.2573  11.2971  11.3946  11.4018  11.4444
    11.4530  11.5716  11.6121  11.6501  11.6668  11.7224  11.7786  11.8052
    11.8180  11.8360  11.9090  11.9504  11.9957  12.0415  12.0552  12.0762
    12.1292  12.2140  12.2234  12.2477  12.2932  12.3378  12.3454  12.3857
    12.4030  12.4259  12.5036  12.5354  12.7073  12.7124  12.8647  13.0391
    13.1540  13.6418  13.7140  13.8624  13.9645  14.0052  14.1514  14.2487
    14.2974  14.6833  15.0245  15.4696  15.7620  15.9330  16.0651  17.3346
    17.8327  17.9380  18.0113  18.8462  18.9546  18.9868  19.2634  19.3420
    19.3508  19.8815  20.3114  20.3258  20.4230  20.9216  21.0520  21.2878
    21.7978  22.0902

     the Fermi energy is    12.8997 ev

!    total energy              =   -7568.85046277 Ry
     total all-electron energy =    -48829.494225 Ry
     estimated scf accuracy    <       0.00000071 Ry
     smearing contrib. (-TS)   =       0.09440011 Ry
     internal energy E=F+TS    =   -7568.94486288 Ry

     The total energy is F=E-TS. E is the sum of the following terms:
     one-electron contribution =   -4454.31146280 Ry
     hartree contribution      =    2372.11743753 Ry
     xc contribution           =    -656.42842800 Ry
     ewald contribution        =   -3344.36761117 Ry
     one-center paw contrib.   =   -1485.95479844 Ry

     convergence has been achieved in  44 iterations

     Forces acting on atoms (cartesian axes, Ry/au):

     atom    1 type  1   force =    -0.00001592   -0.00019321   -0.00099440
     atom    2 type  1   force =    -0.00025755   -0.00033382    0.00026588
     atom    3 type  1   force =     0.00021177   -0.00008308   -0.00042150
     atom    4 type  1   force =     0.00027912   -0.00022344    0.00042177
     atom    5 type  1   force =     0.00028468   -0.00080234   -0.00007072
     atom    6 type  1   force =    -0.00029675    0.00051339   -0.00065376
     atom    7 type  1   force =     0.00029660    0.00124108    0.00068310
     atom    8 type  1   force =     0.00043006   -0.00040433   -0.00006083
     atom    9 type  2   force =    -0.00010368   -0.00067201   -0.00102068
     atom   10 type  2   force =     0.00009341    0.00007964   -0.00121535
     atom   11 type  2   force =    -0.00009151    0.00053180    0.00113772
     atom   12 type  2   force =     0.00033986    0.00017830    0.00132932
     atom   13 type  2   force =    -0.00148698    0.00004790   -0.00065749
     atom   14 type  2   force =     0.00075944   -0.00065156    0.00018653
     atom   15 type  2   force =    -0.00110223    0.00136339    0.00028645
     atom   16 type  2   force =     0.00081974    0.00136159   -0.00042390
     atom   17 type  2   force =     0.00005164   -0.00091961    0.00048278
     atom   18 type  2   force =    -0.00006667   -0.00020632    0.00045260
     atom   19 type  2   force =    -0.00041695    0.00063289   -0.00006256
     atom   20 type  2   force =     0.00028232   -0.00124136   -0.00013786
     atom   21 type  2   force =     0.00023225   -0.00010228    0.00031089
     atom   22 type  2   force =    -0.00014625    0.00029489    0.00004112
     atom   23 type  2   force =    -0.00009641   -0.00041153    0.00012092
     The non-local contrib.  to forces
     atom    1 type  1   force =     0.00010007    0.04206626    0.00710280
     atom    2 type  1   force =     0.00106898    0.00078479    0.00935153
     atom    3 type  1   force =     0.00105962    0.00105655   -0.01119625
     atom    4 type  1   force =    -0.00019235    0.04005150   -0.01016518
     atom    5 type  1   force =     0.00183528   -0.00677183   -0.01371277
     atom    6 type  1   force =    -0.00005475   -0.02279113    0.00674179
     atom    7 type  1   force =     0.00146709   -0.01991316   -0.00754276
     atom    8 type  1   force =     0.00076538   -0.00515565    0.01250125
     atom    9 type  2   force =     0.00038227   -0.09329938    0.02727900
     atom   10 type  2   force =     0.00171162    0.02798978    0.06243497
     atom   11 type  2   force =     0.00017580    0.02319763   -0.06881855
     atom   12 type  2   force =    -0.00759570   -0.10090455   -0.03400250
     atom   13 type  2   force =     0.09377090   -0.06460165    0.00125579
     atom   14 type  2   force =    -0.00559582    0.08106251   -0.00008487
     atom   15 type  2   force =    -0.12208950    0.17657521    0.00252879
     atom   16 type  2   force =     0.12289090    0.17574526   -0.00120821
     atom   17 type  2   force =    -0.08705448   -0.07338617    0.00403081
     atom   18 type  2   force =     0.00424668    0.05913058    0.10227277
     atom   19 type  2   force =    -0.01237951    0.02245263    0.05365108
     atom   20 type  2   force =    -0.00021033    0.06077674   -0.10008238
     atom   21 type  2   force =    -0.01212540    0.02246636   -0.06311798
     atom   22 type  2   force =     0.01527244    0.02102321    0.04370078
     atom   23 type  2   force =     0.01354001    0.02429384   -0.06459833
     The ionic contribution  to forces
     atom    1 type  1   force =    -0.08413612    2.90076532  -21.11894833
     atom    2 type  1   force =     0.05662395    0.01694877    7.66219870
     atom    3 type  1   force =    -0.00198640    0.06361682   -7.67866619
     atom    4 type  1   force =     0.07514560    2.78440898   21.04293565
     atom    5 type  1   force =     0.01635049   -0.22033039   -5.34146095
     atom    6 type  1   force =     0.07288757   -0.22225388   17.83206469
     atom    7 type  1   force =    -0.03263996   -0.09391642  -17.87613583
     atom    8 type  1   force =     0.01967079   -0.19187632    5.32691425
     atom    9 type  2   force =    -0.18888380  -10.62558682  -39.87119792
     atom   10 type  2   force =     0.02938684    0.26505440   12.13366034
     atom   11 type  2   force =    -0.04287977    0.28090285  -12.13301718
     atom   12 type  2   force =     0.18443616  -10.69538546   39.85712730
     atom   13 type  2   force =    11.25824923   -6.18820066   -0.08746065
     atom   14 type  2   force =     0.03891263   12.71302581   -0.02370944
     atom   15 type  2   force =   -11.77251195    8.43975714    0.09705530
     atom   16 type  2   force =    11.73465213    8.45858295   -0.15193187
     atom   17 type  2   force =   -11.34484010   -6.39810657    0.13100537
     atom   18 type  2   force =    -0.08537352    0.05863926  -23.90869895
     atom   19 type  2   force =    -0.60521786   -0.24130766   25.40883994
     atom   20 type  2   force =     0.11168076   -0.19112509   24.00697339
     atom   21 type  2   force =    -0.76088871   -0.31760332  -25.28955000
     atom   22 type  2   force =     0.78928950   -0.30821496   25.32710214
     atom   23 type  2   force =     0.53207254   -0.28779476  -25.34509974
     The local contribution  to forces
     atom    1 type  1   force =     0.08400914   -2.94289027   21.11008973
     atom    2 type  1   force =    -0.05793349   -0.01796029   -7.67096617
     atom    3 type  1   force =     0.00114183   -0.06467094    7.68927596
     atom    4 type  1   force =    -0.07468367   -2.82451022  -21.03192586
     atom    5 type  1   force =    -0.01786152    0.22635104    5.35509052
     atom    6 type  1   force =    -0.07315085    0.24558712  -17.83871115
     atom    7 type  1   force =     0.03143789    0.11511270   17.88334921
     atom    8 type  1   force =    -0.01997782    0.19668402   -5.33930712
     atom    9 type  2   force =     0.18860166   10.71741546   39.84852550
     atom   10 type  2   force =    -0.03109785   -0.29177107  -12.18954663
     atom   11 type  2   force =     0.04255640   -0.30252293   12.19528697
     atom   12 type  2   force =    -0.17684774   10.79535122  -39.82841465
     atom   13 type  2   force =   -11.35096275    6.25046961    0.08582825
     atom   14 type  2   force =    -0.03301328  -12.79313849    0.02427456
     atom   15 type  2   force =    11.89111521   -8.60920032   -0.09899670
     atom   16 type  2   force =   -11.85444723   -8.62752273    0.15287695
     atom   17 type  2   force =    11.42986115    6.46744597   -0.13416582
     atom   18 type  2   force =     0.08133176   -0.11434869   23.81406435
     atom   19 type  2   force =     0.61654294    0.22071444  -25.45890320
     atom   20 type  2   force =    -0.11122230    0.13275305  -23.91393446
     atom   21 type  2   force =     0.77245889    0.29652321   25.34836361
     atom   22 type  2   force =    -0.80416289    0.28861012  -25.36776231
     atom   23 type  2   force =    -0.54482780    0.26464071   25.40509135
     The core correction contribution to forces
     atom    1 type  1   force =     0.00000059   -0.00013338   -0.00008898
     atom    2 type  1   force =    -0.00000673   -0.00000198   -0.00006143
     atom    3 type  1   force =    -0.00000458   -0.00000587    0.00007059
     atom    4 type  1   force =     0.00000085   -0.00012787    0.00010402
     atom    5 type  1   force =    -0.00000824    0.00002937    0.00005768
     atom    6 type  1   force =     0.00000053    0.00007761    0.00003283
     atom    7 type  1   force =    -0.00000847    0.00006653   -0.00002872
     atom    8 type  1   force =    -0.00000076    0.00001883   -0.00005274
     atom    9 type  2   force =    -0.00002707    0.00096511   -0.00797544
     atom   10 type  2   force =    -0.00015820   -0.00133094   -0.00740593
     atom   11 type  2   force =     0.00005421   -0.00111236    0.00785742
     atom   12 type  2   force =     0.00053646    0.00133808    0.00848445
     atom   13 type  2   force =    -0.00259803    0.00244040   -0.00009219
     atom   14 type  2   force =     0.00034518   -0.00156675   -0.00008371
     atom   15 type  2   force =     0.00205128   -0.00528874   -0.00013958
     atom   16 type  2   force =    -0.00208014   -0.00524682   -0.00000823
     atom   17 type  2   force =     0.00221047    0.00297142   -0.00024159
     atom   18 type  2   force =    -0.00027351   -0.00394675   -0.00804299
     atom   19 type  2   force =     0.00070289   -0.00140399   -0.00284678
     atom   20 type  2   force =     0.00000273   -0.00409422    0.00787294
     atom   21 type  2   force =     0.00063083   -0.00144237    0.00358808
     atom   22 type  2   force =    -0.00081971   -0.00134901   -0.00223042
     atom   23 type  2   force =    -0.00079476   -0.00149606    0.00368753
     The Hubbard contrib.    to forces
     atom    1 type  1   force =     0.00000000    0.00000000    0.00000000
     atom    2 type  1   force =     0.00000000    0.00000000    0.00000000
     atom    3 type  1   force =     0.00000000    0.00000000    0.00000000
     atom    4 type  1   force =     0.00000000    0.00000000    0.00000000
     atom    5 type  1   force =     0.00000000    0.00000000    0.00000000
     atom    6 type  1   force =     0.00000000    0.00000000    0.00000000
     atom    7 type  1   force =     0.00000000    0.00000000    0.00000000
     atom    8 type  1   force =     0.00000000    0.00000000    0.00000000
     atom    9 type  2   force =     0.00000000    0.00000000    0.00000000
     atom   10 type  2   force =     0.00000000    0.00000000    0.00000000
     atom   11 type  2   force =     0.00000000    0.00000000    0.00000000
     atom   12 type  2   force =     0.00000000    0.00000000    0.00000000
     atom   13 type  2   force =     0.00000000    0.00000000    0.00000000
     atom   14 type  2   force =     0.00000000    0.00000000    0.00000000
     atom   15 type  2   force =     0.00000000    0.00000000    0.00000000
     atom   16 type  2   force =     0.00000000    0.00000000    0.00000000
     atom   17 type  2   force =     0.00000000    0.00000000    0.00000000
     atom   18 type  2   force =     0.00000000    0.00000000    0.00000000
     atom   19 type  2   force =     0.00000000    0.00000000    0.00000000
     atom   20 type  2   force =     0.00000000    0.00000000    0.00000000
     atom   21 type  2   force =     0.00000000    0.00000000    0.00000000
     atom   22 type  2   force =     0.00000000    0.00000000    0.00000000
     atom   23 type  2   force =     0.00000000    0.00000000    0.00000000
     The SCF correction term to forces
     atom    1 type  1   force =     0.00001284    0.00006048    0.00081648
     atom    2 type  1   force =    -0.00000782   -0.00004348   -0.00029065
     atom    3 type  1   force =     0.00000374   -0.00001802    0.00006049
     atom    4 type  1   force =     0.00001113    0.00001579   -0.00056076
     atom    5 type  1   force =    -0.00002889   -0.00001891   -0.00007910
     atom    6 type  1   force =     0.00002320   -0.00004472   -0.00081582
     atom    7 type  1   force =     0.00004250   -0.00004695    0.00100730
     atom    8 type  1   force =    -0.00002508   -0.00001361   -0.00015037
     atom    9 type  2   force =    -0.00017429   -0.00010477    0.00231428
     atom   10 type  2   force =     0.00025345    0.00019908   -0.00039200
     atom   11 type  2   force =     0.00000430    0.00012823   -0.00020484
     atom   12 type  2   force =    -0.00018688   -0.00015937   -0.00189919
     atom   13 type  2   force =     0.00005612    0.00000182   -0.00022259
     atom   14 type  2   force =     0.00011318    0.00002698   -0.00024390
     atom   15 type  2   force =     0.00033518   -0.00041827   -0.00019526
     atom   16 type  2   force =    -0.00019348   -0.00013545   -0.00018644
     atom   17 type  2   force =    -0.00012295    0.00021736   -0.00017989
     atom   18 type  2   force =     0.00000436    0.00038090    0.00082352
     atom   19 type  2   force =    -0.00006295    0.00023908   -0.00083751
     atom   20 type  2   force =     0.00003391    0.00050978   -0.00100124
     atom   21 type  2   force =     0.00015909    0.00001545    0.00099327
     atom   22 type  2   force =     0.00027687    0.00028714   -0.00080297
     atom   23 type  2   force =    -0.00008396    0.00000636    0.00100621

     Total force =     0.005081     Total SCF correction =     0.004301
     SCF correction compared to forces is large: reduce conv_thr to get better values


     Computing stress (Cartesian axis) and pressure

          total   stress  (Ry/bohr**3)                   (kbar)     P=       -0.98
  -0.00000123  -0.00000285  -0.00000318           -0.18       -0.42       -0.47
  -0.00000285  -0.00000509  -0.00000096           -0.42       -0.75       -0.14
  -0.00000318  -0.00000096  -0.00001362           -0.47       -0.14       -2.00

     Energy error            =      3.7E-05 Ry
     Gradient error          =      1.5E-03 Ry/Bohr
     Cell gradient error     =      2.0E+00 kbar

     number of scf cycles    =  12
     number of bfgs steps    =  11

     enthalpy           old  =   -7568.8504260498 Ry
     enthalpy           new  =   -7568.8504627702 Ry

     CASE: enthalpy          _new < enthalpy          _old

     new trust radius        =       0.0051405878 bohr

     The maximum number of steps has been reached.

     End of BFGS Geometry Optimization
     new unit-cell volume =   2041.23405 a.u.^3 (   302.47968 Ang^3 )
     density =      5.90061 g/cm^3

CELL_PARAMETERS (angstrom)
   4.744180452   0.004152461  -0.018917410
  -2.372482252   4.094339993   0.015659283
   0.081963877  -0.017028918  15.563993779

ATOMIC_POSITIONS (crystal)
Mg            0.9998670728        1.0004343858        0.4054985469
Mg           -0.0017319807       -0.0034704612        0.9083217323
Mg            0.9976687857        0.9965807455        0.5915546320
Mg            0.9998427729        1.0004888100        0.0944703977
Mg            0.3315830716        0.6644007863        0.6552899678
Mg            0.6680537873        0.3366836152        0.1579779881
Mg            0.6677303616        0.3363012576        0.3418346565
Mg            0.3317902250        0.6641455547        0.8445332234
Ni            0.3368966214        0.6742187498        0.3720560802
Ni            0.6647298308        0.3293116993        0.8760193232
Ni            0.6642259335        0.3288538369        0.6237048985
Ni            0.3362067297        0.6733812844        0.1276736804
Ni            0.8344194333        0.1624442204        0.7499089913
Ni            0.8341384134        0.6686949880        0.7497858677
Ni            0.1623501874        0.8372117096        0.2498700530
Ni            0.6744750911        0.8370786055        0.2498639227
Ni            0.3288353822        0.1625108066        0.7498792316
Ni            0.4978359192        0.9962271783        0.4982026171
Ni            0.4983634327        0.4960583528        0.0021794387
Ni            0.4980356850       -0.0037562486        1.0015267393
Ni            0.4978972592        0.4962571691        0.4975882764
Ni           -0.0020742362        0.4960470222        0.0020913711
Ni            0.9976842211        0.4965059317        0.4975403644



     Writing config-only to output data dir ./C36/out_logs/C36_out_8/laves_C36.save/
     NEW-OLD atomic charge density approx. for the potential

     Check: negative core charge=   -0.000010
     extrapolated charge  349.91105, renormalised to  350.00000

     Writing all to output data dir ./C36/out_logs/C36_out_8/laves_C36.save/
 
     init_run     :      8.49s CPU      8.73s WALL (       1 calls)
     electrons    :   6860.04s CPU   6862.62s WALL (      12 calls)
     update_pot   :     89.05s CPU     89.06s WALL (      12 calls)
     forces       :     27.74s CPU     27.74s WALL (      12 calls)
     stress       :    134.56s CPU    134.71s WALL (      12 calls)

     Called by init_run:
     wfcinit      :      2.56s CPU      2.68s WALL (       1 calls)
                                        2.68s GPU  (       1 calls)
     potinit      :      4.16s CPU      4.19s WALL (       1 calls)
     hinit0       :      1.62s CPU      1.64s WALL (       1 calls)

     Called by electrons:
     c_bands      :   4564.53s CPU   4565.68s WALL (     732 calls)
     sum_band     :    720.41s CPU    720.59s WALL (     732 calls)
     v_of_rho     :     18.11s CPU     18.50s WALL (     745 calls)
     newd         :     64.88s CPU     67.86s WALL (     745 calls)
                                       55.99s GPU  (     733 calls)
     PAW_pot      :   1492.46s CPU   1492.44s WALL (     757 calls)
     mix_rho      :     39.15s CPU     39.55s WALL (     732 calls)

     Called by c_bands:
     init_us_2    :      9.31s CPU      9.33s WALL (    7505 calls)
     init_us_2:cp :      0.83s CPU      0.83s WALL (      60 calls)
     init_us_2:gp :      8.41s CPU      8.43s WALL (    7445 calls)
     cegterg      :   4372.99s CPU   4373.99s WALL (    3660 calls)

     Called by *egterg:
     cdiaghg      :    205.80s CPU    207.55s WALL (    9109 calls)
                                      207.47s GPU  (    9109 calls)
     h_psi        :   2159.52s CPU   2160.41s WALL (    9169 calls)
                                     2158.57s GPU  (    9169 calls)
     s_psi        :      7.43s CPU    389.33s WALL (    9169 calls)
                                      386.15s GPU  (    9169 calls)
     g_psi        :      0.04s CPU      6.47s WALL (    5504 calls)
                                        6.42s GPU  (    5504 calls)

     Called by h_psi:
     h_psi:calbec :      0.43s CPU    469.70s WALL (    9169 calls)
                                      469.65s GPU  (    9169 calls)
     vloc_psi     :   1294.26s CPU   1294.96s WALL (    9169 calls)
                                     1294.77s GPU  (    9169 calls)
     add_vuspsi   :      7.29s CPU    389.13s WALL (    9169 calls)
                                      388.92s GPU  (    9169 calls)

     General routines
     calbec       :     25.51s CPU     13.04s WALL (   13189 calls)
     fft          :      8.67s CPU     13.32s WALL (    9973 calls)
                                        4.70s GPU  (    9228 calls)
     ffts         :      4.29s CPU      4.58s WALL (    1477 calls)
                                        0.30s GPU  (     732 calls)
     fftw         :      1.90s CPU   1390.52s WALL (  268112 calls)
                                     1385.91s GPU  (  268112 calls)
     interpolate  :     15.01s CPU     15.23s WALL (     745 calls)
     davcio       :      0.00s CPU      0.08s WALL (       5 calls)
 
     Parallel routines
 
     PWSCF        :      1h59m CPU      1h59m WALL

 
   This run was terminated on:   9: 9:42   3Apr2026            

=------------------------------------------------------------------------------=
   JOB DONE.
=------------------------------------------------------------------------------=
