
     Program PWSCF v.7.2 starts on  7Apr2026 at  5:16:53 

     This program is part of the open-source Quantum ESPRESSO suite
     for quantum simulation of materials; please cite
         "P. Giannozzi et al., J. Phys.:Condens. Matter 21 395502 (2009);
         "P. Giannozzi et al., J. Phys.:Condens. Matter 29 465901 (2017);
         "P. Giannozzi et al., J. Chem. Phys. 152 154105 (2020);
          URL http://www.quantum-espresso.org", 
     in publications or presentations arising from this work. More details at
     http://www.quantum-espresso.org/quote

     Parallel version (MPI), running on     1 processors

     MPI processes distributed on     1 nodes
     1614 MiB available memory on the printing compute node when the environment starts
 
     Reading input from C36/in/laves_040_0_scf.in
Warning: card &CELL ignored
Warning: card / ignored

     Current dimensions of program PWSCF are:
     Max number of different atomic species (ntypx) = 10
     Max number of k-points (npk) =  40000
     Max angular momentum in pseudopotentials (lmaxx) =  4
     file Mg.pbe-spnl-kjpaw_psl.1.0.0.UPF: wavefunction(s)  2P renormalized
     file Ni.pbe-spn-kjpaw_psl.1.0.0.UPF: wavefunction(s)  3P 3D renormalized
 
     Subspace diagonalization in iterative solution of the eigenvalue problem:
     a serial algorithm will be used

 
     G-vector sticks info
     --------------------
     sticks:   dense  smooth     PW     G-vecs:    dense   smooth      PW
     Sum        2663    1335    371               362027   127929   19071
 
     Using Slab Decomposition
 

     Title: 
     C36_MgNi2                                                                  


     bravais-lattice index     =            0
     lattice parameter (alat)  =       8.9724  a.u.
     unit-cell volume          =    2038.4200 (a.u.)^3
     number of atoms/cell      =           24
     number of atomic types    =            2
     number of electrons       =       368.00
     number of Kohn-Sham states=          221
     kinetic-energy cutoff     =      60.0000  Ry
     charge density cutoff     =     480.0000  Ry
     scf convergence threshold =      1.0E-05
     mixing beta               =       0.2200
     number of iterations used =           22  plain     mixing
     Exchange-correlation= SLA  PW   PBX  PBC
                           (   1   4   3   4   0   0   0)

     GPU acceleration is ACTIVE.


     celldm(1)=   8.972371  celldm(2)=   0.000000  celldm(3)=   0.000000
     celldm(4)=   0.000000  celldm(5)=   0.000000  celldm(6)=   0.000000

     crystal axes: (cart. coord. in units of alat)
               a(1) = (   0.999996  -0.002688   0.000284 )  
               a(2) = (  -0.500938   0.864652   0.001031 )  
               a(3) = (   0.002385  -0.000698   3.268956 )  

     reciprocal axes: (cart. coord. in units 2 pi/alat)
               b(1) = (  1.001563  0.580259 -0.000607 )  
               b(2) = (  0.003113  1.158338  0.000245 )  
               b(3) = ( -0.000088 -0.000416  0.305908 )  


     PseudoPot. # 1 for Mg read from file:
     ./pseudo/Mg.pbe-spnl-kjpaw_psl.1.0.0.UPF
     MD5 check sum: fda14e0d92a6a9a5ebed782e5a4b3067
     Pseudo is Projector augmented-wave + core cor, Zval = 10.0
     Generated using &quot;atomic&quot; code by A. Dal Corso  v.6.3
     Shape of augmentation charge: PSQ
     Using radial grid of 1129 points,  4 beta functions with: 
                l(1) =   0
                l(2) =   0
                l(3) =   1
                l(4) =   1
     Q(r) pseudized with 0 coefficients 


     PseudoPot. # 2 for Ni read from file:
     ./pseudo/Ni.pbe-spn-kjpaw_psl.1.0.0.UPF
     MD5 check sum: 6e86b733589c3ad8389697b807d86aa7
     Pseudo is Projector augmented-wave + core cor, Zval = 18.0
     Generated using &quot;atomic&quot; code by A. Dal Corso  v.6.3
     Shape of augmentation charge: PSQ
     Using radial grid of 1195 points,  6 beta functions with: 
                l(1) =   0
                l(2) =   0
                l(3) =   1
                l(4) =   1
                l(5) =   2
                l(6) =   2
     Q(r) pseudized with 0 coefficients 


     atomic species   valence    mass     pseudopotential
        Mg            10.00    24.30500     Mg( 1.00)
        Ni            18.00    58.69340     Ni( 1.00)

     No symmetry found



   Cartesian axes

     site n.     atom                  positions (alat units)
         1           Mg  tau(   1) = (  -0.4974474   0.8638327   1.3271387  )
         2           Mg  tau(   2) = (   0.0025386  -0.0003485   2.9609816  )
         3           Mg  tau(   3) = (   0.0020247   0.0010471   1.9408761  )
         4           Mg  tau(   4) = (   0.4985943   0.8614212   0.3080210  )
         5           Mg  tau(   5) = (   0.0001003   0.5729088   2.1439000  )
         6           Mg  tau(   6) = (   0.4970311   0.2861308   0.5111070  )
         7           Mg  tau(   7) = (   0.5000243   0.2836448   1.1282278  )
         8           Mg  tau(   8) = (  -0.0006570   0.5744532   2.7615319  )
         9           Ni  tau(   9) = (   0.0005204   0.5751435   1.2265457  )
        10           Ni  tau(  10) = (   0.5016628   0.2850486   2.8615746  )
        11           Ni  tau(  11) = (   0.5007458   0.2857337   2.0424893  )
        12           Ni  tau(  12) = (  -0.0005192   0.5744222   0.4094492  )
        13           Ni  tau(  13) = (   0.0015793   0.2884302   0.8173341  )
        14           Ni  tau(  14) = (   0.7503238   0.1398777   2.4529339  )
        15           Ni  tau(  15) = (   0.4996513   0.5733394   2.4536471  )
        16           Ni  tau(  16) = (  -0.2513915   0.7207059   0.8179862  )
        17           Ni  tau(  17) = (   0.2497738   0.7210228   0.8159701  )
        18           Ni  tau(  18) = (   0.2515485   0.1431317   2.4514120  )
        19           Ni  tau(  19) = (   0.5012444  -0.0007729   1.6345232  )
        20           Ni  tau(  20) = (   0.2511393   0.4313817   3.2683857  )
        21           Ni  tau(  21) = (   0.0008546   0.8608040   3.2682829  )
        22           Ni  tau(  22) = (   0.2509903   0.4309674   1.6338743  )
        23           Ni  tau(  23) = (  -0.2485237   0.4300406   0.0009119  )
        24           Ni  tau(  24) = (   0.7504917   0.4283407   1.6358647  )

     number of k points=     5  Marzari-Vanderbilt smearing, width (Ry)=  0.0500
                       cart. coord. in units 2pi/alat
        k(    1) = (   0.0000000   0.0000000   0.0000000), wk =   0.2222222
        k(    2) = (   0.0010378   0.3861128   0.0000817), wk =   0.4444444
        k(    3) = (   0.3338545   0.1934195  -0.0002022), wk =   0.4444444
        k(    4) = (   0.3348923   0.5795323  -0.0001205), wk =   0.4444444
        k(    5) = (   0.3328167  -0.1926932  -0.0002839), wk =   0.4444444

     Dense  grid:   362027 G-vectors     FFT dimensions: (  64,  64, 216)

     Smooth grid:   127929 G-vectors     FFT dimensions: (  45,  45, 150)

     Estimated max dynamical RAM per process >       2.02 GB

     Check: negative core charge=   -0.000009

     Initial potential from superposition of free atoms

     starting charge     367.9886, renormalised to     368.0000
     Starting wfcs are  200 randomized atomic wfcs +   21 random wfcs
     Checking if some PAW data can be deallocated... 

     total cpu time spent up to now is        6.3 secs

     Self-consistent Calculation

     iteration #  1     ecut=    60.00 Ry     beta= 0.22
     Davidson diagonalization with overlap
     ethr =  1.00E-02,  avg # of iterations =  5.2

     negative rho (up, down):  1.885E-02 0.000E+00

     total cpu time spent up to now is       16.0 secs

     total energy              =   -7998.42709553 Ry
     estimated scf accuracy    <      67.61037877 Ry

     iteration #  2     ecut=    60.00 Ry     beta= 0.22
     Davidson diagonalization with overlap
     ethr =  1.00E-02,  avg # of iterations =  2.0

     negative rho (up, down):  4.546E-05 0.000E+00

     total cpu time spent up to now is       23.5 secs

     total energy              =   -7996.64683811 Ry
     estimated scf accuracy    <     125.25944831 Ry

     iteration #  3     ecut=    60.00 Ry     beta= 0.22
     Davidson diagonalization with overlap
     ethr =  1.00E-02,  avg # of iterations =  2.0

     total cpu time spent up to now is       31.3 secs

     total energy              =   -7985.44760631 Ry
     estimated scf accuracy    <      88.61549727 Ry

     iteration #  4     ecut=    60.00 Ry     beta= 0.22
     Davidson diagonalization with overlap
     ethr =  1.00E-02,  avg # of iterations =  4.4

     negative rho (up, down):  4.117E-03 0.000E+00

     total cpu time spent up to now is       40.2 secs

     total energy              =   -7973.44143237 Ry
     estimated scf accuracy    <    1393.91092959 Ry

     iteration #  5     ecut=    60.00 Ry     beta= 0.22
     Davidson diagonalization with overlap
     ethr =  1.00E-02,  avg # of iterations =  3.2

     negative rho (up, down):  1.168E-02 0.000E+00

     total cpu time spent up to now is       48.5 secs

     total energy              =   -7994.54463934 Ry
     estimated scf accuracy    <     178.31961378 Ry

     iteration #  6     ecut=    60.00 Ry     beta= 0.22
     Davidson diagonalization with overlap
     ethr =  1.00E-02,  avg # of iterations =  2.0

     negative rho (up, down):  1.657E-02 0.000E+00

     total cpu time spent up to now is       56.0 secs

     total energy              =   -7997.00812913 Ry
     estimated scf accuracy    <     248.99563368 Ry

     iteration #  7     ecut=    60.00 Ry     beta= 0.22
     Davidson diagonalization with overlap
     ethr =  1.00E-02,  avg # of iterations =  1.0

     negative rho (up, down):  2.683E-02 0.000E+00

     total cpu time spent up to now is       62.8 secs

     total energy              =   -7998.42337143 Ry
     estimated scf accuracy    <      77.96603202 Ry

     iteration #  8     ecut=    60.00 Ry     beta= 0.22
     Davidson diagonalization with overlap
     ethr =  1.00E-02,  avg # of iterations =  1.0

     negative rho (up, down):  3.918E-02 0.000E+00

     total cpu time spent up to now is       69.5 secs

     total energy              =   -7999.53855589 Ry
     estimated scf accuracy    <      53.88285280 Ry

     iteration #  9     ecut=    60.00 Ry     beta= 0.22
     Davidson diagonalization with overlap
     ethr =  1.00E-02,  avg # of iterations =  1.0

     negative rho (up, down):  2.269E-03 0.000E+00

     total cpu time spent up to now is       76.3 secs

     total energy              =   -7999.25289071 Ry
     estimated scf accuracy    <      59.10532162 Ry

     iteration # 10     ecut=    60.00 Ry     beta= 0.22
     Davidson diagonalization with overlap
     ethr =  1.00E-02,  avg # of iterations =  1.2

     negative rho (up, down):  3.858E-03 0.000E+00

     total cpu time spent up to now is       83.2 secs

     total energy              =   -7998.90072225 Ry
     estimated scf accuracy    <      65.80123074 Ry

     iteration # 11     ecut=    60.00 Ry     beta= 0.22
     Davidson diagonalization with overlap
     ethr =  1.00E-02,  avg # of iterations =  1.0

     negative rho (up, down):  8.861E-03 0.000E+00

     total cpu time spent up to now is       90.0 secs

     total energy              =   -7998.60597063 Ry
     estimated scf accuracy    <      59.18660322 Ry

     iteration # 12     ecut=    60.00 Ry     beta= 0.22
     Davidson diagonalization with overlap
     ethr =  1.00E-02,  avg # of iterations =  1.0

     negative rho (up, down):  1.639E-02 0.000E+00

     total cpu time spent up to now is       96.8 secs

     total energy              =   -7998.82149697 Ry
     estimated scf accuracy    <      46.71835528 Ry

     iteration # 13     ecut=    60.00 Ry     beta= 0.22
     Davidson diagonalization with overlap
     ethr =  1.00E-02,  avg # of iterations =  1.0

     negative rho (up, down):  2.413E-02 0.000E+00

     total cpu time spent up to now is      103.5 secs

     total energy              =   -7998.58018837 Ry
     estimated scf accuracy    <      40.05917894 Ry

     iteration # 14     ecut=    60.00 Ry     beta= 0.22
     Davidson diagonalization with overlap
     ethr =  1.00E-02,  avg # of iterations =  1.0

     negative rho (up, down):  4.488E-02 0.000E+00

     total cpu time spent up to now is      110.3 secs

     total energy              =   -7998.37819404 Ry
     estimated scf accuracy    <      43.61369701 Ry

     iteration # 15     ecut=    60.00 Ry     beta= 0.22
     Davidson diagonalization with overlap
     ethr =  1.00E-02,  avg # of iterations =  1.0

     negative rho (up, down):  6.012E-02 0.000E+00

     total cpu time spent up to now is      117.1 secs

     total energy              =   -7998.47965988 Ry
     estimated scf accuracy    <      27.50566194 Ry

     iteration # 16     ecut=    60.00 Ry     beta= 0.22
     Davidson diagonalization with overlap
     ethr =  7.47E-03,  avg # of iterations =  1.0

     negative rho (up, down):  1.218E-02 0.000E+00

     total cpu time spent up to now is      123.9 secs

     total energy              =   -7998.90618159 Ry
     estimated scf accuracy    <      27.63948413 Ry

     iteration # 17     ecut=    60.00 Ry     beta= 0.22
     Davidson diagonalization with overlap
     ethr =  7.47E-03,  avg # of iterations =  1.0

     negative rho (up, down):  7.462E-03 0.000E+00

     total cpu time spent up to now is      130.7 secs

     total energy              =   -7998.98593352 Ry
     estimated scf accuracy    <      48.77172869 Ry

     iteration # 18     ecut=    60.00 Ry     beta= 0.22
     Davidson diagonalization with overlap
     ethr =  7.47E-03,  avg # of iterations =  1.0

     negative rho (up, down):  7.493E-03 0.000E+00

     total cpu time spent up to now is      137.5 secs

     total energy              =   -7998.35283055 Ry
     estimated scf accuracy    <      60.50120829 Ry

     iteration # 19     ecut=    60.00 Ry     beta= 0.22
     Davidson diagonalization with overlap
     ethr =  7.47E-03,  avg # of iterations =  1.0

     negative rho (up, down):  8.273E-03 0.000E+00

     total cpu time spent up to now is      144.4 secs

     total energy              =   -7998.73829460 Ry
     estimated scf accuracy    <      37.24212606 Ry

     iteration # 20     ecut=    60.00 Ry     beta= 0.22
     Davidson diagonalization with overlap
     ethr =  7.47E-03,  avg # of iterations =  1.0

     negative rho (up, down):  4.751E-03 0.000E+00

     total cpu time spent up to now is      151.2 secs

     total energy              =   -7998.72246643 Ry
     estimated scf accuracy    <      34.34093310 Ry

     iteration # 21     ecut=    60.00 Ry     beta= 0.22
     Davidson diagonalization with overlap
     ethr =  7.47E-03,  avg # of iterations =  1.0

     negative rho (up, down):  3.504E-03 0.000E+00

     total cpu time spent up to now is      158.0 secs

     total energy              =   -7998.70784402 Ry
     estimated scf accuracy    <      33.25017707 Ry

     iteration # 22     ecut=    60.00 Ry     beta= 0.22
     Davidson diagonalization with overlap
     ethr =  7.47E-03,  avg # of iterations =  1.0

     total cpu time spent up to now is      164.8 secs

     total energy              =   -7998.50069488 Ry
     estimated scf accuracy    <      31.40225738 Ry

     iteration # 23     ecut=    60.00 Ry     beta= 0.22
     Davidson diagonalization with overlap
     ethr =  7.47E-03,  avg # of iterations =  1.0

     total cpu time spent up to now is      171.6 secs

     total energy              =   -7998.54699161 Ry
     estimated scf accuracy    <      34.21044898 Ry

     iteration # 24     ecut=    60.00 Ry     beta= 0.22
     Davidson diagonalization with overlap
     ethr =  7.47E-03,  avg # of iterations =  1.0

     total cpu time spent up to now is      178.5 secs

     total energy              =   -7998.45045955 Ry
     estimated scf accuracy    <      30.36473529 Ry

     iteration # 25     ecut=    60.00 Ry     beta= 0.22
     Davidson diagonalization with overlap
     ethr =  7.47E-03,  avg # of iterations =  1.0

     negative rho (up, down):  2.347E-02 0.000E+00

     total cpu time spent up to now is      185.3 secs

     total energy              =   -7997.62608206 Ry
     estimated scf accuracy    <      27.34394054 Ry

     iteration # 26     ecut=    60.00 Ry     beta= 0.22
     Davidson diagonalization with overlap
     ethr =  7.43E-03,  avg # of iterations =  2.0

     negative rho (up, down):  2.374E-02 0.000E+00

     total cpu time spent up to now is      192.9 secs

     total energy              =   -7995.98644516 Ry
     estimated scf accuracy    <      24.69382704 Ry

     iteration # 27     ecut=    60.00 Ry     beta= 0.22
     Davidson diagonalization with overlap
     ethr =  6.71E-03,  avg # of iterations =  1.4

     negative rho (up, down):  1.711E-02 0.000E+00

     total cpu time spent up to now is      200.0 secs

     total energy              =   -7995.73233172 Ry
     estimated scf accuracy    <     100.92190626 Ry

     iteration # 28     ecut=    60.00 Ry     beta= 0.22
     Davidson diagonalization with overlap
     ethr =  6.71E-03,  avg # of iterations =  1.0

     negative rho (up, down):  2.149E-02 0.000E+00

     total cpu time spent up to now is      206.8 secs

     total energy              =   -7997.71613797 Ry
     estimated scf accuracy    <      13.86687032 Ry

     iteration # 29     ecut=    60.00 Ry     beta= 0.22
     Davidson diagonalization with overlap
     ethr =  3.77E-03,  avg # of iterations =  1.0

     negative rho (up, down):  2.290E-02 0.000E+00

     total cpu time spent up to now is      213.6 secs

     total energy              =   -7997.87761534 Ry
     estimated scf accuracy    <       6.61321165 Ry

     iteration # 30     ecut=    60.00 Ry     beta= 0.22
     Davidson diagonalization with overlap
     ethr =  1.80E-03,  avg # of iterations =  1.0

     negative rho (up, down):  2.620E-02 0.000E+00

     total cpu time spent up to now is      220.4 secs

     total energy              =   -7997.83693964 Ry
     estimated scf accuracy    <       4.34121378 Ry

     iteration # 31     ecut=    60.00 Ry     beta= 0.22
     Davidson diagonalization with overlap
     ethr =  1.18E-03,  avg # of iterations =  1.0

     negative rho (up, down):  2.919E-02 0.000E+00

     total cpu time spent up to now is      227.3 secs

     total energy              =   -7997.82694060 Ry
     estimated scf accuracy    <       3.41252319 Ry

     iteration # 32     ecut=    60.00 Ry     beta= 0.22
     Davidson diagonalization with overlap
     ethr =  9.27E-04,  avg # of iterations =  1.0

     negative rho (up, down):  3.312E-02 0.000E+00

     total cpu time spent up to now is      234.1 secs

     total energy              =   -7997.82259189 Ry
     estimated scf accuracy    <       3.49572678 Ry

     iteration # 33     ecut=    60.00 Ry     beta= 0.22
     Davidson diagonalization with overlap
     ethr =  9.27E-04,  avg # of iterations =  1.2

     negative rho (up, down):  3.769E-02 0.000E+00

     total cpu time spent up to now is      241.1 secs

     total energy              =   -7997.80992715 Ry
     estimated scf accuracy    <       3.39359449 Ry

     iteration # 34     ecut=    60.00 Ry     beta= 0.22
     Davidson diagonalization with overlap
     ethr =  9.22E-04,  avg # of iterations =  1.0

     negative rho (up, down):  4.681E-02 0.000E+00

     total cpu time spent up to now is      247.9 secs

     total energy              =   -7997.77336724 Ry
     estimated scf accuracy    <       1.63713096 Ry

     iteration # 35     ecut=    60.00 Ry     beta= 0.22
     Davidson diagonalization with overlap
     ethr =  4.45E-04,  avg # of iterations =  2.0

     negative rho (up, down):  6.947E-02 0.000E+00

     total cpu time spent up to now is      255.5 secs

     total energy              =   -7997.73476360 Ry
     estimated scf accuracy    <       2.42147714 Ry

     iteration # 36     ecut=    60.00 Ry     beta= 0.22
     Davidson diagonalization with overlap
     ethr =  4.45E-04,  avg # of iterations =  2.0

     negative rho (up, down):  5.049E-02 0.000E+00

     total cpu time spent up to now is      263.1 secs

     total energy              =   -7997.74972928 Ry
     estimated scf accuracy    <       1.51376548 Ry

     iteration # 37     ecut=    60.00 Ry     beta= 0.22
     Davidson diagonalization with overlap
     ethr =  4.11E-04,  avg # of iterations =  2.0

     negative rho (up, down):  9.687E-02 0.000E+00

     total cpu time spent up to now is      270.7 secs

     total energy              =   -7997.73666478 Ry
     estimated scf accuracy    <       2.81887645 Ry

     iteration # 38     ecut=    60.00 Ry     beta= 0.22
     Davidson diagonalization with overlap
     ethr =  4.11E-04,  avg # of iterations =  2.0

     negative rho (up, down):  8.475E-02 0.000E+00

     total cpu time spent up to now is      278.4 secs

     total energy              =   -7997.74106579 Ry
     estimated scf accuracy    <       6.31182657 Ry

     iteration # 39     ecut=    60.00 Ry     beta= 0.22
     Davidson diagonalization with overlap
     ethr =  4.11E-04,  avg # of iterations =  1.0

     negative rho (up, down):  8.846E-02 0.000E+00

     total cpu time spent up to now is      285.2 secs

     total energy              =   -7997.77619162 Ry
     estimated scf accuracy    <       3.00093489 Ry

     iteration # 40     ecut=    60.00 Ry     beta= 0.22
     Davidson diagonalization with overlap
     ethr =  4.11E-04,  avg # of iterations =  1.6

     negative rho (up, down):  8.213E-02 0.000E+00

     total cpu time spent up to now is      292.5 secs

     total energy              =   -7997.78331496 Ry
     estimated scf accuracy    <       2.28783172 Ry

     iteration # 41     ecut=    60.00 Ry     beta= 0.22
     Davidson diagonalization with overlap
     ethr =  4.11E-04,  avg # of iterations =  1.2

     negative rho (up, down):  8.282E-02 0.000E+00

     total cpu time spent up to now is      299.5 secs

     total energy              =   -7997.79092286 Ry
     estimated scf accuracy    <       1.95810666 Ry

     iteration # 42     ecut=    60.00 Ry     beta= 0.22
     Davidson diagonalization with overlap
     ethr =  4.11E-04,  avg # of iterations =  1.0

     negative rho (up, down):  8.228E-02 0.000E+00

     total cpu time spent up to now is      306.3 secs

     total energy              =   -7997.78260411 Ry
     estimated scf accuracy    <       2.04458908 Ry

     iteration # 43     ecut=    60.00 Ry     beta= 0.22
     Davidson diagonalization with overlap
     ethr =  4.11E-04,  avg # of iterations =  1.0

     negative rho (up, down):  8.790E-02 0.000E+00

     total cpu time spent up to now is      313.1 secs

     total energy              =   -7997.77184381 Ry
     estimated scf accuracy    <       1.99276028 Ry

     iteration # 44     ecut=    60.00 Ry     beta= 0.22
     Davidson diagonalization with overlap
     ethr =  4.11E-04,  avg # of iterations =  1.0

     negative rho (up, down):  8.631E-02 0.000E+00

     total cpu time spent up to now is      320.0 secs

     total energy              =   -7997.76826337 Ry
     estimated scf accuracy    <       1.82618945 Ry

     iteration # 45     ecut=    60.00 Ry     beta= 0.22
     Davidson diagonalization with overlap
     ethr =  4.11E-04,  avg # of iterations =  1.8

     negative rho (up, down):  7.147E-02 0.000E+00

     total cpu time spent up to now is      327.4 secs

     total energy              =   -7997.70744246 Ry
     estimated scf accuracy    <       2.18544291 Ry

     iteration # 46     ecut=    60.00 Ry     beta= 0.22
     Davidson diagonalization with overlap
     ethr =  4.11E-04,  avg # of iterations =  2.0

     negative rho (up, down):  7.660E-02 0.000E+00

     total cpu time spent up to now is      335.0 secs

     total energy              =   -7997.73198627 Ry
     estimated scf accuracy    <       4.27935296 Ry

     iteration # 47     ecut=    60.00 Ry     beta= 0.22
     Davidson diagonalization with overlap
     ethr =  4.11E-04,  avg # of iterations =  1.6

     negative rho (up, down):  7.805E-02 0.000E+00

     total cpu time spent up to now is      342.3 secs

     total energy              =   -7997.79008681 Ry
     estimated scf accuracy    <       2.68484930 Ry

     iteration # 48     ecut=    60.00 Ry     beta= 0.22
     Davidson diagonalization with overlap
     ethr =  4.11E-04,  avg # of iterations =  1.4

     negative rho (up, down):  7.617E-02 0.000E+00

     total cpu time spent up to now is      349.4 secs

     total energy              =   -7997.76755532 Ry
     estimated scf accuracy    <       2.91603794 Ry

     iteration # 49     ecut=    60.00 Ry     beta= 0.22
     Davidson diagonalization with overlap
     ethr =  4.11E-04,  avg # of iterations =  2.0

     negative rho (up, down):  6.672E-02 0.000E+00

     total cpu time spent up to now is      357.0 secs

     total energy              =   -7997.76011837 Ry
     estimated scf accuracy    <       2.42062180 Ry

     iteration # 50     ecut=    60.00 Ry     beta= 0.22
     Davidson diagonalization with overlap
     ethr =  4.11E-04,  avg # of iterations =  2.0

     negative rho (up, down):  7.121E-02 0.000E+00

     total cpu time spent up to now is      364.6 secs

     total energy              =   -7997.76328992 Ry
     estimated scf accuracy    <       1.48620534 Ry

     iteration # 51     ecut=    60.00 Ry     beta= 0.22
     Davidson diagonalization with overlap
     ethr =  4.04E-04,  avg # of iterations =  1.2

     negative rho (up, down):  6.586E-02 0.000E+00

     total cpu time spent up to now is      371.5 secs

     total energy              =   -7997.75384660 Ry
     estimated scf accuracy    <       1.98079811 Ry

     iteration # 52     ecut=    60.00 Ry     beta= 0.22
     Davidson diagonalization with overlap
     ethr =  4.04E-04,  avg # of iterations =  1.0

     negative rho (up, down):  6.591E-02 0.000E+00

     total cpu time spent up to now is      378.4 secs

     total energy              =   -7997.76660427 Ry
     estimated scf accuracy    <       1.20701810 Ry

     iteration # 53     ecut=    60.00 Ry     beta= 0.22
     Davidson diagonalization with overlap
     ethr =  3.28E-04,  avg # of iterations =  1.2

     negative rho (up, down):  6.951E-02 0.000E+00

     total cpu time spent up to now is      385.3 secs

     total energy              =   -7997.76917580 Ry
     estimated scf accuracy    <       1.32285919 Ry

     iteration # 54     ecut=    60.00 Ry     beta= 0.22
     Davidson diagonalization with overlap
     ethr =  3.28E-04,  avg # of iterations =  1.2

     negative rho (up, down):  6.538E-02 0.000E+00

     total cpu time spent up to now is      392.3 secs

     total energy              =   -7997.77273283 Ry
     estimated scf accuracy    <       1.20526579 Ry

     iteration # 55     ecut=    60.00 Ry     beta= 0.22
     Davidson diagonalization with overlap
     ethr =  3.28E-04,  avg # of iterations =  1.0

     negative rho (up, down):  5.897E-02 0.000E+00

     total cpu time spent up to now is      399.1 secs

     total energy              =   -7997.77147277 Ry
     estimated scf accuracy    <       1.03282387 Ry

     iteration # 56     ecut=    60.00 Ry     beta= 0.22
     Davidson diagonalization with overlap
     ethr =  2.81E-04,  avg # of iterations =  1.2

     negative rho (up, down):  6.142E-02 0.000E+00

     total cpu time spent up to now is      406.1 secs

     total energy              =   -7997.78737621 Ry
     estimated scf accuracy    <       0.80130808 Ry

     iteration # 57     ecut=    60.00 Ry     beta= 0.22
     Davidson diagonalization with overlap
     ethr =  2.18E-04,  avg # of iterations =  1.4

     negative rho (up, down):  6.361E-02 0.000E+00

     total cpu time spent up to now is      413.2 secs

     total energy              =   -7997.79901472 Ry
     estimated scf accuracy    <       2.01912352 Ry

     iteration # 58     ecut=    60.00 Ry     beta= 0.22
     Davidson diagonalization with overlap
     ethr =  2.18E-04,  avg # of iterations =  1.0

     negative rho (up, down):  6.549E-02 0.000E+00

     total cpu time spent up to now is      420.1 secs

     total energy              =   -7997.79488303 Ry
     estimated scf accuracy    <       2.29174985 Ry

     iteration # 59     ecut=    60.00 Ry     beta= 0.22
     Davidson diagonalization with overlap
     ethr =  2.18E-04,  avg # of iterations =  2.0

     negative rho (up, down):  6.494E-02 0.000E+00

     total cpu time spent up to now is      427.6 secs

     total energy              =   -7997.80089051 Ry
     estimated scf accuracy    <       2.64535892 Ry

     iteration # 60     ecut=    60.00 Ry     beta= 0.22
     Davidson diagonalization with overlap
     ethr =  2.18E-04,  avg # of iterations =  1.2

     negative rho (up, down):  6.351E-02 0.000E+00

     total cpu time spent up to now is      434.6 secs

     total energy              =   -7997.80945932 Ry
     estimated scf accuracy    <       2.58901511 Ry

     iteration # 61     ecut=    60.00 Ry     beta= 0.22
     Davidson diagonalization with overlap
     ethr =  2.18E-04,  avg # of iterations =  1.0

     negative rho (up, down):  6.526E-02 0.000E+00

     total cpu time spent up to now is      441.5 secs

     total energy              =   -7997.80941243 Ry
     estimated scf accuracy    <       2.77345564 Ry

     iteration # 62     ecut=    60.00 Ry     beta= 0.22
     Davidson diagonalization with overlap
     ethr =  2.18E-04,  avg # of iterations =  1.0

     negative rho (up, down):  7.064E-02 0.000E+00

     total cpu time spent up to now is      448.3 secs

     total energy              =   -7997.79203753 Ry
     estimated scf accuracy    <       2.78241771 Ry

     iteration # 63     ecut=    60.00 Ry     beta= 0.22
     Davidson diagonalization with overlap
     ethr =  2.18E-04,  avg # of iterations =  1.4

     negative rho (up, down):  8.366E-02 0.000E+00

     total cpu time spent up to now is      455.4 secs

     total energy              =   -7997.81147170 Ry
     estimated scf accuracy    <       2.30671943 Ry

     iteration # 64     ecut=    60.00 Ry     beta= 0.22
     Davidson diagonalization with overlap
     ethr =  2.18E-04,  avg # of iterations =  2.0

     negative rho (up, down):  8.666E-02 0.000E+00

     total cpu time spent up to now is      463.3 secs

     total energy              =   -7997.85887021 Ry
     estimated scf accuracy    <       6.34557209 Ry

     iteration # 65     ecut=    60.00 Ry     beta= 0.22
     Davidson diagonalization with overlap
     ethr =  2.18E-04,  avg # of iterations =  1.4

     negative rho (up, down):  8.360E-02 0.000E+00

     total cpu time spent up to now is      470.4 secs

     total energy              =   -7997.86825834 Ry
     estimated scf accuracy    <       6.18594898 Ry

     iteration # 66     ecut=    60.00 Ry     beta= 0.22
     Davidson diagonalization with overlap
     ethr =  2.18E-04,  avg # of iterations =  1.0

     negative rho (up, down):  8.039E-02 0.000E+00

     total cpu time spent up to now is      477.3 secs

     total energy              =   -7997.84819309 Ry
     estimated scf accuracy    <       6.13172020 Ry

     iteration # 67     ecut=    60.00 Ry     beta= 0.22
     Davidson diagonalization with overlap
     ethr =  2.18E-04,  avg # of iterations =  1.0

     negative rho (up, down):  8.227E-02 0.000E+00

     total cpu time spent up to now is      484.1 secs

     total energy              =   -7997.83811189 Ry
     estimated scf accuracy    <       5.39503055 Ry

     iteration # 68     ecut=    60.00 Ry     beta= 0.22
     Davidson diagonalization with overlap
     ethr =  2.18E-04,  avg # of iterations =  1.2

     negative rho (up, down):  7.644E-02 0.000E+00

     total cpu time spent up to now is      491.1 secs

     total energy              =   -7997.83254304 Ry
     estimated scf accuracy    <       4.86840596 Ry

     iteration # 69     ecut=    60.00 Ry     beta= 0.22
     Davidson diagonalization with overlap
     ethr =  2.18E-04,  avg # of iterations =  1.4

     negative rho (up, down):  7.298E-02 0.000E+00

     total cpu time spent up to now is      498.2 secs

     total energy              =   -7997.83609680 Ry
     estimated scf accuracy    <       4.32091004 Ry

     iteration # 70     ecut=    60.00 Ry     beta= 0.22
     Davidson diagonalization with overlap
     ethr =  2.18E-04,  avg # of iterations =  1.0

     negative rho (up, down):  6.564E-02 0.000E+00

     total cpu time spent up to now is      505.0 secs

     total energy              =   -7997.82885232 Ry
     estimated scf accuracy    <       3.97479632 Ry

     iteration # 71     ecut=    60.00 Ry     beta= 0.22
     Davidson diagonalization with overlap
     ethr =  2.18E-04,  avg # of iterations =  1.0

     negative rho (up, down):  5.424E-02 0.000E+00

     total cpu time spent up to now is      511.8 secs

     total energy              =   -7997.80130964 Ry
     estimated scf accuracy    <       3.60868990 Ry

     iteration # 72     ecut=    60.00 Ry     beta= 0.22
     Davidson diagonalization with overlap
     ethr =  2.18E-04,  avg # of iterations =  2.0

     negative rho (up, down):  3.605E-02 0.000E+00

     total cpu time spent up to now is      519.4 secs

     total energy              =   -7997.79586619 Ry
     estimated scf accuracy    <       3.33045946 Ry

     iteration # 73     ecut=    60.00 Ry     beta= 0.22
     Davidson diagonalization with overlap
     ethr =  2.18E-04,  avg # of iterations =  2.0

     negative rho (up, down):  4.505E-02 0.000E+00

     total cpu time spent up to now is      527.3 secs

     total energy              =   -7997.81996027 Ry
     estimated scf accuracy    <       2.68935810 Ry

     iteration # 74     ecut=    60.00 Ry     beta= 0.22
     Davidson diagonalization with overlap
     ethr =  2.18E-04,  avg # of iterations =  2.0

     negative rho (up, down):  4.297E-02 0.000E+00

     total cpu time spent up to now is      534.8 secs

     total energy              =   -7997.84139017 Ry
     estimated scf accuracy    <       2.53620258 Ry

     iteration # 75     ecut=    60.00 Ry     beta= 0.22
     Davidson diagonalization with overlap
     ethr =  2.18E-04,  avg # of iterations =  1.0

     negative rho (up, down):  4.275E-02 0.000E+00

     total cpu time spent up to now is      541.7 secs

     total energy              =   -7997.84351414 Ry
     estimated scf accuracy    <       2.51263951 Ry

     iteration # 76     ecut=    60.00 Ry     beta= 0.22
     Davidson diagonalization with overlap
     ethr =  2.18E-04,  avg # of iterations =  1.0

     negative rho (up, down):  4.222E-02 0.000E+00

     total cpu time spent up to now is      548.5 secs

     total energy              =   -7997.84260303 Ry
     estimated scf accuracy    <       2.52093275 Ry

     iteration # 77     ecut=    60.00 Ry     beta= 0.22
     Davidson diagonalization with overlap
     ethr =  2.18E-04,  avg # of iterations =  1.0

     negative rho (up, down):  4.201E-02 0.000E+00

     total cpu time spent up to now is      555.3 secs

     total energy              =   -7997.83190249 Ry
     estimated scf accuracy    <       2.53243835 Ry

     iteration # 78     ecut=    60.00 Ry     beta= 0.22
     Davidson diagonalization with overlap
     ethr =  2.18E-04,  avg # of iterations =  1.0

     negative rho (up, down):  4.084E-02 0.000E+00

     total cpu time spent up to now is      562.2 secs

     total energy              =   -7997.84513153 Ry
     estimated scf accuracy    <       2.15066022 Ry

     iteration # 79     ecut=    60.00 Ry     beta= 0.22
     Davidson diagonalization with overlap
     ethr =  2.18E-04,  avg # of iterations =  1.0

     negative rho (up, down):  5.411E-02 0.000E+00

     total cpu time spent up to now is      569.0 secs

     total energy              =   -7997.77753583 Ry
     estimated scf accuracy    <       2.58773632 Ry

     iteration # 80     ecut=    60.00 Ry     beta= 0.22
     Davidson diagonalization with overlap
     ethr =  2.18E-04,  avg # of iterations =  2.0

     negative rho (up, down):  5.286E-02 0.000E+00

     total cpu time spent up to now is      576.9 secs

     total energy              =   -7997.74818721 Ry
     estimated scf accuracy    <       3.78443648 Ry

     iteration # 81     ecut=    60.00 Ry     beta= 0.22
     Davidson diagonalization with overlap
     ethr =  2.18E-04,  avg # of iterations =  2.0

     negative rho (up, down):  5.166E-02 0.000E+00

     total cpu time spent up to now is      584.9 secs

     total energy              =   -7997.81520297 Ry
     estimated scf accuracy    <       5.32770151 Ry

     iteration # 82     ecut=    60.00 Ry     beta= 0.22
     Davidson diagonalization with overlap
     ethr =  2.18E-04,  avg # of iterations =  1.2

     negative rho (up, down):  6.853E-02 0.000E+00

     total cpu time spent up to now is      591.8 secs

     total energy              =   -7997.80468228 Ry
     estimated scf accuracy    <       3.50460515 Ry

     iteration # 83     ecut=    60.00 Ry     beta= 0.22
     Davidson diagonalization with overlap
     ethr =  2.18E-04,  avg # of iterations =  2.0

     negative rho (up, down):  6.473E-02 0.000E+00

     total cpu time spent up to now is      599.8 secs

     total energy              =   -7997.83795915 Ry
     estimated scf accuracy    <       4.97771521 Ry

     iteration # 84     ecut=    60.00 Ry     beta= 0.22
     Davidson diagonalization with overlap
     ethr =  2.18E-04,  avg # of iterations =  1.0

     negative rho (up, down):  6.523E-02 0.000E+00

     total cpu time spent up to now is      606.6 secs

     total energy              =   -7997.83093128 Ry
     estimated scf accuracy    <       3.33573283 Ry

     iteration # 85     ecut=    60.00 Ry     beta= 0.22
     Davidson diagonalization with overlap
     ethr =  2.18E-04,  avg # of iterations =  1.8

     negative rho (up, down):  6.338E-02 0.000E+00

     total cpu time spent up to now is      614.0 secs

     total energy              =   -7997.82745623 Ry
     estimated scf accuracy    <       3.68259891 Ry

     iteration # 86     ecut=    60.00 Ry     beta= 0.22
     Davidson diagonalization with overlap
     ethr =  2.18E-04,  avg # of iterations =  1.0

     negative rho (up, down):  5.808E-02 0.000E+00

     total cpu time spent up to now is      620.9 secs

     total energy              =   -7997.84755618 Ry
     estimated scf accuracy    <       2.59954522 Ry

     iteration # 87     ecut=    60.00 Ry     beta= 0.22
     Davidson diagonalization with overlap
     ethr =  2.18E-04,  avg # of iterations =  1.8

     negative rho (up, down):  5.382E-02 0.000E+00

     total cpu time spent up to now is      628.3 secs

     total energy              =   -7997.83561817 Ry
     estimated scf accuracy    <       4.16709040 Ry

     iteration # 88     ecut=    60.00 Ry     beta= 0.22
     Davidson diagonalization with overlap
     ethr =  2.18E-04,  avg # of iterations =  1.4

     negative rho (up, down):  5.513E-02 0.000E+00

     total cpu time spent up to now is      635.4 secs

     total energy              =   -7997.86045498 Ry
     estimated scf accuracy    <       3.57374131 Ry

     iteration # 89     ecut=    60.00 Ry     beta= 0.22
     Davidson diagonalization with overlap
     ethr =  2.18E-04,  avg # of iterations =  1.0

     negative rho (up, down):  5.315E-02 0.000E+00

     total cpu time spent up to now is      642.2 secs

     total energy              =   -7997.86274250 Ry
     estimated scf accuracy    <       3.46614757 Ry

     iteration # 90     ecut=    60.00 Ry     beta= 0.22
     Davidson diagonalization with overlap
     ethr =  2.18E-04,  avg # of iterations =  1.0

     negative rho (up, down):  4.151E-02 0.000E+00

     total cpu time spent up to now is      649.0 secs

     total energy              =   -7997.89395306 Ry
     estimated scf accuracy    <       3.53583429 Ry

     iteration # 91     ecut=    60.00 Ry     beta= 0.22
     Davidson diagonalization with overlap
     ethr =  2.18E-04,  avg # of iterations =  2.0

     negative rho (up, down):  3.697E-02 0.000E+00

     total cpu time spent up to now is      656.6 secs

     total energy              =   -7997.80077461 Ry
     estimated scf accuracy    <       7.39392454 Ry

     iteration # 92     ecut=    60.00 Ry     beta= 0.22
     Davidson diagonalization with overlap
     ethr =  2.18E-04,  avg # of iterations =  1.8

     negative rho (up, down):  3.270E-02 0.000E+00

     total cpu time spent up to now is      664.0 secs

     total energy              =   -7997.76890673 Ry
     estimated scf accuracy    <       2.97849116 Ry

     iteration # 93     ecut=    60.00 Ry     beta= 0.22
     Davidson diagonalization with overlap
     ethr =  2.18E-04,  avg # of iterations =  2.0

     negative rho (up, down):  3.102E-02 0.000E+00

     total cpu time spent up to now is      671.8 secs

     total energy              =   -7997.80116666 Ry
     estimated scf accuracy    <       1.49851049 Ry

     iteration # 94     ecut=    60.00 Ry     beta= 0.22
     Davidson diagonalization with overlap
     ethr =  2.18E-04,  avg # of iterations =  1.4

     negative rho (up, down):  3.867E-02 0.000E+00

     total cpu time spent up to now is      678.9 secs

     total energy              =   -7997.82257392 Ry
     estimated scf accuracy    <       0.67438439 Ry

     iteration # 95     ecut=    60.00 Ry     beta= 0.22
     Davidson diagonalization with overlap
     ethr =  1.83E-04,  avg # of iterations =  2.0

     negative rho (up, down):  3.700E-02 0.000E+00

     total cpu time spent up to now is      686.6 secs

     total energy              =   -7997.83733721 Ry
     estimated scf accuracy    <       2.32834868 Ry

     iteration # 96     ecut=    60.00 Ry     beta= 0.22
     Davidson diagonalization with overlap
     ethr =  1.83E-04,  avg # of iterations =  1.2

     negative rho (up, down):  3.606E-02 0.000E+00

     total cpu time spent up to now is      693.6 secs

     total energy              =   -7997.84161832 Ry
     estimated scf accuracy    <       1.91412626 Ry

     iteration # 97     ecut=    60.00 Ry     beta= 0.22
     Davidson diagonalization with overlap
     ethr =  1.83E-04,  avg # of iterations =  1.0

     negative rho (up, down):  3.039E-02 0.000E+00

     total cpu time spent up to now is      700.4 secs

     total energy              =   -7997.80793400 Ry
     estimated scf accuracy    <       1.82698742 Ry

     iteration # 98     ecut=    60.00 Ry     beta= 0.22
     Davidson diagonalization with overlap
     ethr =  1.83E-04,  avg # of iterations =  2.0

     negative rho (up, down):  2.649E-02 0.000E+00

     total cpu time spent up to now is      708.0 secs

     total energy              =   -7997.84034046 Ry
     estimated scf accuracy    <       0.80528068 Ry

     iteration # 99     ecut=    60.00 Ry     beta= 0.22
     Davidson diagonalization with overlap
     ethr =  1.83E-04,  avg # of iterations =  1.2

     negative rho (up, down):  2.909E-02 0.000E+00

     total cpu time spent up to now is      715.0 secs

     total energy              =   -7997.83420821 Ry
     estimated scf accuracy    <       1.46210779 Ry

     iteration #100     ecut=    60.00 Ry     beta= 0.22
     Davidson diagonalization with overlap
     ethr =  1.83E-04,  avg # of iterations =  1.0

     negative rho (up, down):  3.588E-02 0.000E+00

     total cpu time spent up to now is      721.8 secs

     total energy              =   -7997.82254266 Ry
     estimated scf accuracy    <       1.22854818 Ry

     iteration #101     ecut=    60.00 Ry     beta= 0.22
     Davidson diagonalization with overlap
     ethr =  1.83E-04,  avg # of iterations =  2.0

     negative rho (up, down):  3.345E-02 0.000E+00

     total cpu time spent up to now is      729.5 secs

     total energy              =   -7997.81800567 Ry
     estimated scf accuracy    <       1.68071292 Ry

     iteration #102     ecut=    60.00 Ry     beta= 0.22
     Davidson diagonalization with overlap
     ethr =  1.83E-04,  avg # of iterations =  1.2

     negative rho (up, down):  3.291E-02 0.000E+00

     total cpu time spent up to now is      736.4 secs

     total energy              =   -7997.81976813 Ry
     estimated scf accuracy    <       0.78200372 Ry

     iteration #103     ecut=    60.00 Ry     beta= 0.22
     Davidson diagonalization with overlap
     ethr =  1.83E-04,  avg # of iterations =  1.0

     negative rho (up, down):  2.996E-02 0.000E+00

     total cpu time spent up to now is      743.2 secs

     total energy              =   -7997.81454632 Ry
     estimated scf accuracy    <       0.60229609 Ry

     iteration #104     ecut=    60.00 Ry     beta= 0.22
     Davidson diagonalization with overlap
     ethr =  1.64E-04,  avg # of iterations =  1.6

     negative rho (up, down):  3.354E-02 0.000E+00

     total cpu time spent up to now is      750.5 secs

     total energy              =   -7997.81560104 Ry
     estimated scf accuracy    <       0.67616781 Ry

     iteration #105     ecut=    60.00 Ry     beta= 0.22
     Davidson diagonalization with overlap
     ethr =  1.64E-04,  avg # of iterations =  1.8

     negative rho (up, down):  2.983E-02 0.000E+00

     total cpu time spent up to now is      757.9 secs

     total energy              =   -7997.81513516 Ry
     estimated scf accuracy    <       0.79530436 Ry

     iteration #106     ecut=    60.00 Ry     beta= 0.22
     Davidson diagonalization with overlap
     ethr =  1.64E-04,  avg # of iterations =  2.0

     negative rho (up, down):  2.670E-02 0.000E+00

     total cpu time spent up to now is      765.5 secs

     total energy              =   -7997.84299381 Ry
     estimated scf accuracy    <       0.76589165 Ry

     iteration #107     ecut=    60.00 Ry     beta= 0.22
     Davidson diagonalization with overlap
     ethr =  1.64E-04,  avg # of iterations =  1.2

     negative rho (up, down):  2.509E-02 0.000E+00

     total cpu time spent up to now is      772.5 secs

     total energy              =   -7997.83954670 Ry
     estimated scf accuracy    <       1.58692670 Ry

     iteration #108     ecut=    60.00 Ry     beta= 0.22
     Davidson diagonalization with overlap
     ethr =  1.64E-04,  avg # of iterations =  1.0

     negative rho (up, down):  2.610E-02 0.000E+00

     total cpu time spent up to now is      779.3 secs

     total energy              =   -7997.84054892 Ry
     estimated scf accuracy    <       1.28261724 Ry

     iteration #109     ecut=    60.00 Ry     beta= 0.22
     Davidson diagonalization with overlap
     ethr =  1.64E-04,  avg # of iterations =  1.0

     negative rho (up, down):  2.601E-02 0.000E+00

     total cpu time spent up to now is      786.1 secs

     total energy              =   -7997.83729293 Ry
     estimated scf accuracy    <       1.39760932 Ry

     iteration #110     ecut=    60.00 Ry     beta= 0.22
     Davidson diagonalization with overlap
     ethr =  1.64E-04,  avg # of iterations =  1.0

     negative rho (up, down):  2.564E-02 0.000E+00

     total cpu time spent up to now is      793.0 secs

     total energy              =   -7997.84222764 Ry
     estimated scf accuracy    <       1.16279392 Ry

     iteration #111     ecut=    60.00 Ry     beta= 0.22
     Davidson diagonalization with overlap
     ethr =  1.64E-04,  avg # of iterations =  1.0

     negative rho (up, down):  2.561E-02 0.000E+00

     total cpu time spent up to now is      799.8 secs

     total energy              =   -7997.84236207 Ry
     estimated scf accuracy    <       1.35251324 Ry

     iteration #112     ecut=    60.00 Ry     beta= 0.22
     Davidson diagonalization with overlap
     ethr =  1.64E-04,  avg # of iterations =  1.0

     negative rho (up, down):  2.572E-02 0.000E+00

     total cpu time spent up to now is      806.6 secs

     total energy              =   -7997.83679632 Ry
     estimated scf accuracy    <       1.36150029 Ry

     iteration #113     ecut=    60.00 Ry     beta= 0.22
     Davidson diagonalization with overlap
     ethr =  1.64E-04,  avg # of iterations =  1.0

     negative rho (up, down):  2.495E-02 0.000E+00

     total cpu time spent up to now is      813.4 secs

     total energy              =   -7997.84841676 Ry
     estimated scf accuracy    <       1.12756058 Ry

     iteration #114     ecut=    60.00 Ry     beta= 0.22
     Davidson diagonalization with overlap
     ethr =  1.64E-04,  avg # of iterations =  1.0

     negative rho (up, down):  2.420E-02 0.000E+00

     total cpu time spent up to now is      820.2 secs

     total energy              =   -7997.84883803 Ry
     estimated scf accuracy    <       1.74225782 Ry

     iteration #115     ecut=    60.00 Ry     beta= 0.22
     Davidson diagonalization with overlap
     ethr =  1.64E-04,  avg # of iterations =  1.0

     negative rho (up, down):  2.402E-02 0.000E+00

     total cpu time spent up to now is      827.1 secs

     total energy              =   -7997.84798698 Ry
     estimated scf accuracy    <       1.66396739 Ry

     iteration #116     ecut=    60.00 Ry     beta= 0.22
     Davidson diagonalization with overlap
     ethr =  1.64E-04,  avg # of iterations =  1.0

     negative rho (up, down):  2.394E-02 0.000E+00

     total cpu time spent up to now is      833.9 secs

     total energy              =   -7997.84986217 Ry
     estimated scf accuracy    <       1.63320520 Ry

     iteration #117     ecut=    60.00 Ry     beta= 0.22
     Davidson diagonalization with overlap
     ethr =  1.64E-04,  avg # of iterations =  1.0

     negative rho (up, down):  2.363E-02 0.000E+00

     total cpu time spent up to now is      840.8 secs

     total energy              =   -7997.85126515 Ry
     estimated scf accuracy    <       1.67778737 Ry

     iteration #118     ecut=    60.00 Ry     beta= 0.22
     Davidson diagonalization with overlap
     ethr =  1.64E-04,  avg # of iterations =  1.0

     negative rho (up, down):  2.260E-02 0.000E+00

     total cpu time spent up to now is      847.6 secs

     total energy              =   -7997.85427851 Ry
     estimated scf accuracy    <       1.76057377 Ry

     iteration #119     ecut=    60.00 Ry     beta= 0.22
     Davidson diagonalization with overlap
     ethr =  1.64E-04,  avg # of iterations =  1.2

     negative rho (up, down):  1.752E-02 0.000E+00

     total cpu time spent up to now is      854.6 secs

     total energy              =   -7997.83025419 Ry
     estimated scf accuracy    <       1.94781773 Ry

     iteration #120     ecut=    60.00 Ry     beta= 0.22
     Davidson diagonalization with overlap
     ethr =  1.64E-04,  avg # of iterations =  2.0

     negative rho (up, down):  1.896E-02 0.000E+00

     total cpu time spent up to now is      862.3 secs

     total energy              =   -7997.85990129 Ry
     estimated scf accuracy    <       2.06833605 Ry

     iteration #121     ecut=    60.00 Ry     beta= 0.22
     Davidson diagonalization with overlap
     ethr =  1.64E-04,  avg # of iterations =  1.0

     negative rho (up, down):  1.826E-02 0.000E+00

     total cpu time spent up to now is      869.1 secs

     total energy              =   -7997.86569725 Ry
     estimated scf accuracy    <       2.12536169 Ry

     iteration #122     ecut=    60.00 Ry     beta= 0.22
     Davidson diagonalization with overlap
     ethr =  1.64E-04,  avg # of iterations =  1.0

     negative rho (up, down):  2.224E-02 0.000E+00

     total cpu time spent up to now is      875.9 secs

     total energy              =   -7997.86079207 Ry
     estimated scf accuracy    <       2.24830824 Ry

     iteration #123     ecut=    60.00 Ry     beta= 0.22
     Davidson diagonalization with overlap
     ethr =  1.64E-04,  avg # of iterations =  2.0

     negative rho (up, down):  1.810E-02 0.000E+00

     total cpu time spent up to now is      883.5 secs

     total energy              =   -7997.85135065 Ry
     estimated scf accuracy    <       2.64055955 Ry

     iteration #124     ecut=    60.00 Ry     beta= 0.22
     Davidson diagonalization with overlap
     ethr =  1.64E-04,  avg # of iterations =  2.0

     negative rho (up, down):  2.883E-02 0.000E+00

     total cpu time spent up to now is      891.1 secs

     total energy              =   -7997.81392078 Ry
     estimated scf accuracy    <       2.22620596 Ry

     iteration #125     ecut=    60.00 Ry     beta= 0.22
     Davidson diagonalization with overlap
     ethr =  1.64E-04,  avg # of iterations =  2.0

     negative rho (up, down):  2.910E-02 0.000E+00

     total cpu time spent up to now is      898.7 secs

     total energy              =   -7997.82967669 Ry
     estimated scf accuracy    <       1.12227388 Ry

     iteration #126     ecut=    60.00 Ry     beta= 0.22
     Davidson diagonalization with overlap
     ethr =  1.64E-04,  avg # of iterations =  1.0

     negative rho (up, down):  3.434E-02 0.000E+00

     total cpu time spent up to now is      905.5 secs

     total energy              =   -7997.83542584 Ry
     estimated scf accuracy    <       1.07239771 Ry

     iteration #127     ecut=    60.00 Ry     beta= 0.22
     Davidson diagonalization with overlap
     ethr =  1.64E-04,  avg # of iterations =  1.8

     negative rho (up, down):  1.934E-02 0.000E+00

     total cpu time spent up to now is      912.9 secs

     total energy              =   -7997.85218182 Ry
     estimated scf accuracy    <       1.84360063 Ry

     iteration #128     ecut=    60.00 Ry     beta= 0.22
     Davidson diagonalization with overlap
     ethr =  1.64E-04,  avg # of iterations =  2.0

     negative rho (up, down):  1.548E-02 0.000E+00

     total cpu time spent up to now is      920.5 secs

     total energy              =   -7997.85723254 Ry
     estimated scf accuracy    <       1.98504202 Ry

     iteration #129     ecut=    60.00 Ry     beta= 0.22
     Davidson diagonalization with overlap
     ethr =  1.64E-04,  avg # of iterations =  1.4

     negative rho (up, down):  1.286E-02 0.000E+00

     total cpu time spent up to now is      927.6 secs

     total energy              =   -7997.85098099 Ry
     estimated scf accuracy    <       1.87653726 Ry

     iteration #130     ecut=    60.00 Ry     beta= 0.22
     Davidson diagonalization with overlap
     ethr =  1.64E-04,  avg # of iterations =  1.2

     negative rho (up, down):  1.547E-02 0.000E+00

     total cpu time spent up to now is      934.5 secs

     total energy              =   -7997.85179059 Ry
     estimated scf accuracy    <       1.58264841 Ry

     iteration #131     ecut=    60.00 Ry     beta= 0.22
     Davidson diagonalization with overlap
     ethr =  1.64E-04,  avg # of iterations =  1.8

     negative rho (up, down):  2.048E-02 0.000E+00

     total cpu time spent up to now is      941.9 secs

     total energy              =   -7997.82861951 Ry
     estimated scf accuracy    <       1.75742941 Ry

     iteration #132     ecut=    60.00 Ry     beta= 0.22
     Davidson diagonalization with overlap
     ethr =  1.64E-04,  avg # of iterations =  2.0

     negative rho (up, down):  2.883E-02 0.000E+00

     total cpu time spent up to now is      949.6 secs

     total energy              =   -7997.80309643 Ry
     estimated scf accuracy    <       1.75741303 Ry

     iteration #133     ecut=    60.00 Ry     beta= 0.22
     Davidson diagonalization with overlap
     ethr =  1.64E-04,  avg # of iterations =  2.0

     negative rho (up, down):  3.388E-02 0.000E+00

     total cpu time spent up to now is      957.3 secs

     total energy              =   -7997.83009166 Ry
     estimated scf accuracy    <       1.26712071 Ry

     iteration #134     ecut=    60.00 Ry     beta= 0.22
     Davidson diagonalization with overlap
     ethr =  1.64E-04,  avg # of iterations =  1.4

     negative rho (up, down):  2.010E-02 0.000E+00

     total cpu time spent up to now is      964.4 secs

     total energy              =   -7997.84333727 Ry
     estimated scf accuracy    <       1.38808412 Ry

     iteration #135     ecut=    60.00 Ry     beta= 0.22
     Davidson diagonalization with overlap
     ethr =  1.64E-04,  avg # of iterations =  2.0

     negative rho (up, down):  1.933E-02 0.000E+00

     total cpu time spent up to now is      972.1 secs

     total energy              =   -7997.86742351 Ry
     estimated scf accuracy    <       2.04112844 Ry

     iteration #136     ecut=    60.00 Ry     beta= 0.22
     Davidson diagonalization with overlap
     ethr =  1.64E-04,  avg # of iterations =  1.0

     negative rho (up, down):  9.450E-03 0.000E+00

     total cpu time spent up to now is      978.9 secs

     total energy              =   -7997.83662408 Ry
     estimated scf accuracy    <       2.19700584 Ry

     iteration #137     ecut=    60.00 Ry     beta= 0.22
     Davidson diagonalization with overlap
     ethr =  1.64E-04,  avg # of iterations =  2.0

     negative rho (up, down):  6.355E-03 0.000E+00

     total cpu time spent up to now is      986.5 secs

     total energy              =   -7997.86036599 Ry
     estimated scf accuracy    <       1.00203758 Ry

     iteration #138     ecut=    60.00 Ry     beta= 0.22
     Davidson diagonalization with overlap
     ethr =  1.64E-04,  avg # of iterations =  1.4

     negative rho (up, down):  6.317E-03 0.000E+00

     total cpu time spent up to now is      993.6 secs

     total energy              =   -7997.85887830 Ry
     estimated scf accuracy    <       1.50291114 Ry

     iteration #139     ecut=    60.00 Ry     beta= 0.22
     Davidson diagonalization with overlap
     ethr =  1.64E-04,  avg # of iterations =  1.0

     negative rho (up, down):  6.059E-03 0.000E+00

     total cpu time spent up to now is     1000.4 secs

     total energy              =   -7997.85609590 Ry
     estimated scf accuracy    <       1.23146024 Ry

     iteration #140     ecut=    60.00 Ry     beta= 0.22
     Davidson diagonalization with overlap
     ethr =  1.64E-04,  avg # of iterations =  1.0

     negative rho (up, down):  4.293E-03 0.000E+00

     total cpu time spent up to now is     1007.2 secs

     total energy              =   -7997.84696670 Ry
     estimated scf accuracy    <       1.09537677 Ry

     iteration #141     ecut=    60.00 Ry     beta= 0.22
     Davidson diagonalization with overlap
     ethr =  1.64E-04,  avg # of iterations =  1.0

     negative rho (up, down):  1.048E-02 0.000E+00

     total cpu time spent up to now is     1014.1 secs

     total energy              =   -7997.82942927 Ry
     estimated scf accuracy    <       0.68539098 Ry

     iteration #142     ecut=    60.00 Ry     beta= 0.22
     Davidson diagonalization with overlap
     ethr =  1.64E-04,  avg # of iterations =  1.6

     negative rho (up, down):  1.090E-02 0.000E+00

     total cpu time spent up to now is     1021.3 secs

     total energy              =   -7997.83253036 Ry
     estimated scf accuracy    <       0.37722526 Ry

     iteration #143     ecut=    60.00 Ry     beta= 0.22
     Davidson diagonalization with overlap
     ethr =  1.03E-04,  avg # of iterations =  1.2

     negative rho (up, down):  9.884E-03 0.000E+00

     total cpu time spent up to now is     1028.3 secs

     total energy              =   -7997.83090995 Ry
     estimated scf accuracy    <       0.25511395 Ry

     iteration #144     ecut=    60.00 Ry     beta= 0.22
     Davidson diagonalization with overlap
     ethr =  6.93E-05,  avg # of iterations =  1.6

     negative rho (up, down):  8.493E-03 0.000E+00

     total cpu time spent up to now is     1035.6 secs

     total energy              =   -7997.83136611 Ry
     estimated scf accuracy    <       0.12824471 Ry

     iteration #145     ecut=    60.00 Ry     beta= 0.22
     Davidson diagonalization with overlap
     ethr =  3.48E-05,  avg # of iterations =  2.0

     negative rho (up, down):  7.500E-03 0.000E+00

     total cpu time spent up to now is     1043.2 secs

     total energy              =   -7997.84145538 Ry
     estimated scf accuracy    <       0.09975750 Ry

     iteration #146     ecut=    60.00 Ry     beta= 0.22
     Davidson diagonalization with overlap
     ethr =  2.71E-05,  avg # of iterations =  2.0

     negative rho (up, down):  8.401E-03 0.000E+00

     total cpu time spent up to now is     1051.1 secs

     total energy              =   -7997.83320171 Ry
     estimated scf accuracy    <       0.72017141 Ry

     iteration #147     ecut=    60.00 Ry     beta= 0.22
     Davidson diagonalization with overlap
     ethr =  2.71E-05,  avg # of iterations =  2.0

     negative rho (up, down):  1.037E-02 0.000E+00

     total cpu time spent up to now is     1058.8 secs

     total energy              =   -7997.82872109 Ry
     estimated scf accuracy    <       0.18171498 Ry

     iteration #148     ecut=    60.00 Ry     beta= 0.22
     Davidson diagonalization with overlap
     ethr =  2.71E-05,  avg # of iterations =  2.0

     negative rho (up, down):  1.319E-02 0.000E+00

     total cpu time spent up to now is     1066.8 secs

     total energy              =   -7997.84841773 Ry
     estimated scf accuracy    <       0.31345702 Ry

     iteration #149     ecut=    60.00 Ry     beta= 0.22
     Davidson diagonalization with overlap
     ethr =  2.71E-05,  avg # of iterations =  2.0

     negative rho (up, down):  1.301E-02 0.000E+00

     total cpu time spent up to now is     1074.5 secs

     total energy              =   -7997.85530508 Ry
     estimated scf accuracy    <       1.11211476 Ry

     iteration #150     ecut=    60.00 Ry     beta= 0.22
     Davidson diagonalization with overlap
     ethr =  2.71E-05,  avg # of iterations =  1.0

     negative rho (up, down):  1.146E-02 0.000E+00

     total cpu time spent up to now is     1081.3 secs

     total energy              =   -7997.85116432 Ry
     estimated scf accuracy    <       1.22279476 Ry

     iteration #151     ecut=    60.00 Ry     beta= 0.22
     Davidson diagonalization with overlap
     ethr =  2.71E-05,  avg # of iterations =  1.2

     negative rho (up, down):  1.168E-02 0.000E+00

     total cpu time spent up to now is     1088.3 secs

     total energy              =   -7997.85458828 Ry
     estimated scf accuracy    <       0.94002239 Ry

     iteration #152     ecut=    60.00 Ry     beta= 0.22
     Davidson diagonalization with overlap
     ethr =  2.71E-05,  avg # of iterations =  1.0

     negative rho (up, down):  1.194E-02 0.000E+00

     total cpu time spent up to now is     1095.1 secs

     total energy              =   -7997.85717243 Ry
     estimated scf accuracy    <       1.12655433 Ry

     iteration #153     ecut=    60.00 Ry     beta= 0.22
     Davidson diagonalization with overlap
     ethr =  2.71E-05,  avg # of iterations =  1.0

     negative rho (up, down):  1.073E-02 0.000E+00

     total cpu time spent up to now is     1101.9 secs

     total energy              =   -7997.84222468 Ry
     estimated scf accuracy    <       1.24566703 Ry

     iteration #154     ecut=    60.00 Ry     beta= 0.22
     Davidson diagonalization with overlap
     ethr =  2.71E-05,  avg # of iterations =  2.0

     negative rho (up, down):  1.060E-02 0.000E+00

     total cpu time spent up to now is     1109.5 secs

     total energy              =   -7997.84400499 Ry
     estimated scf accuracy    <       0.60970495 Ry

     iteration #155     ecut=    60.00 Ry     beta= 0.22
     Davidson diagonalization with overlap
     ethr =  2.71E-05,  avg # of iterations =  1.0

     negative rho (up, down):  1.072E-02 0.000E+00

     total cpu time spent up to now is     1116.4 secs

     total energy              =   -7997.84653493 Ry
     estimated scf accuracy    <       0.58106832 Ry

     iteration #156     ecut=    60.00 Ry     beta= 0.22
     Davidson diagonalization with overlap
     ethr =  2.71E-05,  avg # of iterations =  1.2

     negative rho (up, down):  1.034E-02 0.000E+00

     total cpu time spent up to now is     1123.3 secs

     total energy              =   -7997.84264190 Ry
     estimated scf accuracy    <       0.70472586 Ry

     iteration #157     ecut=    60.00 Ry     beta= 0.22
     Davidson diagonalization with overlap
     ethr =  2.71E-05,  avg # of iterations =  1.0

     negative rho (up, down):  9.223E-03 0.000E+00

     total cpu time spent up to now is     1130.2 secs

     total energy              =   -7997.83174061 Ry
     estimated scf accuracy    <       0.52579155 Ry

     iteration #158     ecut=    60.00 Ry     beta= 0.22
     Davidson diagonalization with overlap
     ethr =  2.71E-05,  avg # of iterations =  2.0

     negative rho (up, down):  9.450E-03 0.000E+00

     total cpu time spent up to now is     1137.8 secs

     total energy              =   -7997.83364213 Ry
     estimated scf accuracy    <       0.11830361 Ry

     iteration #159     ecut=    60.00 Ry     beta= 0.22
     Davidson diagonalization with overlap
     ethr =  2.71E-05,  avg # of iterations =  1.2

     negative rho (up, down):  9.315E-03 0.000E+00

     total cpu time spent up to now is     1144.8 secs

     total energy              =   -7997.83402522 Ry
     estimated scf accuracy    <       0.07877072 Ry

     iteration #160     ecut=    60.00 Ry     beta= 0.22
     Davidson diagonalization with overlap
     ethr =  2.14E-05,  avg # of iterations =  1.2

     negative rho (up, down):  8.640E-03 0.000E+00

     total cpu time spent up to now is     1151.7 secs

     total energy              =   -7997.83311153 Ry
     estimated scf accuracy    <       0.05869485 Ry

     iteration #161     ecut=    60.00 Ry     beta= 0.22
     Davidson diagonalization with overlap
     ethr =  1.59E-05,  avg # of iterations =  2.0

     negative rho (up, down):  8.113E-03 0.000E+00

     total cpu time spent up to now is     1159.4 secs

     total energy              =   -7997.83676163 Ry
     estimated scf accuracy    <       0.07555802 Ry

     iteration #162     ecut=    60.00 Ry     beta= 0.22
     Davidson diagonalization with overlap
     ethr =  1.59E-05,  avg # of iterations =  1.2

     negative rho (up, down):  8.047E-03 0.000E+00

     total cpu time spent up to now is     1166.4 secs

     total energy              =   -7997.83726762 Ry
     estimated scf accuracy    <       0.12842032 Ry

     iteration #163     ecut=    60.00 Ry     beta= 0.22
     Davidson diagonalization with overlap
     ethr =  1.59E-05,  avg # of iterations =  1.0

     negative rho (up, down):  7.290E-03 0.000E+00

     total cpu time spent up to now is     1173.2 secs

     total energy              =   -7997.84025550 Ry
     estimated scf accuracy    <       0.13444053 Ry

     iteration #164     ecut=    60.00 Ry     beta= 0.22
     Davidson diagonalization with overlap
     ethr =  1.59E-05,  avg # of iterations =  2.0

     negative rho (up, down):  7.779E-03 0.000E+00

     total cpu time spent up to now is     1181.4 secs

     total energy              =   -7997.82893969 Ry
     estimated scf accuracy    <       1.19182307 Ry

     iteration #165     ecut=    60.00 Ry     beta= 0.22
     Davidson diagonalization with overlap
     ethr =  1.59E-05,  avg # of iterations =  2.0

     negative rho (up, down):  7.807E-03 0.000E+00

     total cpu time spent up to now is     1189.5 secs

     total energy              =   -7997.83706840 Ry
     estimated scf accuracy    <       0.23319974 Ry

     iteration #166     ecut=    60.00 Ry     beta= 0.22
     Davidson diagonalization with overlap
     ethr =  1.59E-05,  avg # of iterations =  1.6

     negative rho (up, down):  8.005E-03 0.000E+00

     total cpu time spent up to now is     1196.8 secs

     total energy              =   -7997.83690468 Ry
     estimated scf accuracy    <       0.14290080 Ry

     iteration #167     ecut=    60.00 Ry     beta= 0.22
     Davidson diagonalization with overlap
     ethr =  1.59E-05,  avg # of iterations =  1.0

     negative rho (up, down):  7.892E-03 0.000E+00

     total cpu time spent up to now is     1203.6 secs

     total energy              =   -7997.83733184 Ry
     estimated scf accuracy    <       0.12215857 Ry

     iteration #168     ecut=    60.00 Ry     beta= 0.22
     Davidson diagonalization with overlap
     ethr =  1.59E-05,  avg # of iterations =  1.0

     negative rho (up, down):  7.893E-03 0.000E+00

     total cpu time spent up to now is     1210.4 secs

     total energy              =   -7997.83722625 Ry
     estimated scf accuracy    <       0.12725872 Ry

     iteration #169     ecut=    60.00 Ry     beta= 0.22
     Davidson diagonalization with overlap
     ethr =  1.59E-05,  avg # of iterations =  1.0

     negative rho (up, down):  7.652E-03 0.000E+00

     total cpu time spent up to now is     1217.3 secs

     total energy              =   -7997.83697193 Ry
     estimated scf accuracy    <       0.11957956 Ry

     iteration #170     ecut=    60.00 Ry     beta= 0.22
     Davidson diagonalization with overlap
     ethr =  1.59E-05,  avg # of iterations =  1.0

     negative rho (up, down):  7.700E-03 0.000E+00

     total cpu time spent up to now is     1224.1 secs

     total energy              =   -7997.83708490 Ry
     estimated scf accuracy    <       0.09323509 Ry

     iteration #171     ecut=    60.00 Ry     beta= 0.22
     Davidson diagonalization with overlap
     ethr =  1.59E-05,  avg # of iterations =  1.0

     negative rho (up, down):  7.494E-03 0.000E+00

     total cpu time spent up to now is     1230.9 secs

     total energy              =   -7997.83687826 Ry
     estimated scf accuracy    <       0.10120980 Ry

     iteration #172     ecut=    60.00 Ry     beta= 0.22
     Davidson diagonalization with overlap
     ethr =  1.59E-05,  avg # of iterations =  1.4

     negative rho (up, down):  7.565E-03 0.000E+00

     total cpu time spent up to now is     1238.1 secs

     total energy              =   -7997.83697995 Ry
     estimated scf accuracy    <       0.11149685 Ry

     iteration #173     ecut=    60.00 Ry     beta= 0.22
     Davidson diagonalization with overlap
     ethr =  1.59E-05,  avg # of iterations =  1.0

     negative rho (up, down):  7.506E-03 0.000E+00

     total cpu time spent up to now is     1244.9 secs

     total energy              =   -7997.83714608 Ry
     estimated scf accuracy    <       0.09347539 Ry

     iteration #174     ecut=    60.00 Ry     beta= 0.22
     Davidson diagonalization with overlap
     ethr =  1.59E-05,  avg # of iterations =  1.0

     negative rho (up, down):  7.503E-03 0.000E+00

     total cpu time spent up to now is     1251.7 secs

     total energy              =   -7997.83717077 Ry
     estimated scf accuracy    <       0.09472528 Ry

     iteration #175     ecut=    60.00 Ry     beta= 0.22
     Davidson diagonalization with overlap
     ethr =  1.59E-05,  avg # of iterations =  1.0

     negative rho (up, down):  7.487E-03 0.000E+00

     total cpu time spent up to now is     1258.5 secs

     total energy              =   -7997.83728981 Ry
     estimated scf accuracy    <       0.09475890 Ry

     iteration #176     ecut=    60.00 Ry     beta= 0.22
     Davidson diagonalization with overlap
     ethr =  1.59E-05,  avg # of iterations =  1.0

     negative rho (up, down):  7.482E-03 0.000E+00

     total cpu time spent up to now is     1265.4 secs

     total energy              =   -7997.83711284 Ry
     estimated scf accuracy    <       0.10085922 Ry

     iteration #177     ecut=    60.00 Ry     beta= 0.22
     Davidson diagonalization with overlap
     ethr =  1.59E-05,  avg # of iterations =  1.0

     negative rho (up, down):  7.527E-03 0.000E+00

     total cpu time spent up to now is     1272.2 secs

     total energy              =   -7997.83714331 Ry
     estimated scf accuracy    <       0.09150660 Ry

     iteration #178     ecut=    60.00 Ry     beta= 0.22
     Davidson diagonalization with overlap
     ethr =  1.59E-05,  avg # of iterations =  1.0

     negative rho (up, down):  7.529E-03 0.000E+00

     total cpu time spent up to now is     1279.1 secs

     total energy              =   -7997.83711167 Ry
     estimated scf accuracy    <       0.09496569 Ry

     iteration #179     ecut=    60.00 Ry     beta= 0.22
     Davidson diagonalization with overlap
     ethr =  1.59E-05,  avg # of iterations =  1.0

     negative rho (up, down):  7.507E-03 0.000E+00

     total cpu time spent up to now is     1285.9 secs

     total energy              =   -7997.83669488 Ry
     estimated scf accuracy    <       0.09245349 Ry

     iteration #180     ecut=    60.00 Ry     beta= 0.22
     Davidson diagonalization with overlap
     ethr =  1.59E-05,  avg # of iterations =  1.0

     negative rho (up, down):  7.788E-03 0.000E+00

     total cpu time spent up to now is     1292.7 secs

     total energy              =   -7997.83606043 Ry
     estimated scf accuracy    <       0.07133406 Ry

     iteration #181     ecut=    60.00 Ry     beta= 0.22
     Davidson diagonalization with overlap
     ethr =  1.59E-05,  avg # of iterations =  2.0

     negative rho (up, down):  8.501E-03 0.000E+00

     total cpu time spent up to now is     1300.3 secs

     total energy              =   -7997.83779667 Ry
     estimated scf accuracy    <       0.11436546 Ry

     iteration #182     ecut=    60.00 Ry     beta= 0.22
     Davidson diagonalization with overlap
     ethr =  1.59E-05,  avg # of iterations =  1.8

     negative rho (up, down):  8.467E-03 0.000E+00

     total cpu time spent up to now is     1307.7 secs

     total energy              =   -7997.83899893 Ry
     estimated scf accuracy    <       0.19791848 Ry

     iteration #183     ecut=    60.00 Ry     beta= 0.22
     Davidson diagonalization with overlap
     ethr =  1.59E-05,  avg # of iterations =  1.0

     negative rho (up, down):  7.434E-03 0.000E+00

     total cpu time spent up to now is     1314.5 secs

     total energy              =   -7997.82910788 Ry
     estimated scf accuracy    <       0.21133891 Ry

     iteration #184     ecut=    60.00 Ry     beta= 0.22
     Davidson diagonalization with overlap
     ethr =  1.59E-05,  avg # of iterations =  2.0

     negative rho (up, down):  8.713E-03 0.000E+00

     total cpu time spent up to now is     1322.6 secs

     total energy              =   -7997.82888412 Ry
     estimated scf accuracy    <       0.12604958 Ry

     iteration #185     ecut=    60.00 Ry     beta= 0.22
     Davidson diagonalization with overlap
     ethr =  1.59E-05,  avg # of iterations =  2.0

     negative rho (up, down):  8.605E-03 0.000E+00

     total cpu time spent up to now is     1330.7 secs

     total energy              =   -7997.83977122 Ry
     estimated scf accuracy    <       0.24377332 Ry

     iteration #186     ecut=    60.00 Ry     beta= 0.22
     Davidson diagonalization with overlap
     ethr =  1.59E-05,  avg # of iterations =  1.0

     negative rho (up, down):  8.622E-03 0.000E+00

     total cpu time spent up to now is     1337.6 secs

     total energy              =   -7997.83996728 Ry
     estimated scf accuracy    <       0.24983738 Ry

     iteration #187     ecut=    60.00 Ry     beta= 0.22
     Davidson diagonalization with overlap
     ethr =  1.59E-05,  avg # of iterations =  1.0

     negative rho (up, down):  9.375E-03 0.000E+00

     total cpu time spent up to now is     1344.4 secs

     total energy              =   -7997.83730139 Ry
     estimated scf accuracy    <       0.26067907 Ry

     iteration #188     ecut=    60.00 Ry     beta= 0.22
     Davidson diagonalization with overlap
     ethr =  1.59E-05,  avg # of iterations =  1.2

     negative rho (up, down):  9.449E-03 0.000E+00

     total cpu time spent up to now is     1351.4 secs

     total energy              =   -7997.83707026 Ry
     estimated scf accuracy    <       0.20542765 Ry

     iteration #189     ecut=    60.00 Ry     beta= 0.22
     Davidson diagonalization with overlap
     ethr =  1.59E-05,  avg # of iterations =  1.0

     negative rho (up, down):  9.422E-03 0.000E+00

     total cpu time spent up to now is     1358.2 secs

     total energy              =   -7997.83179323 Ry
     estimated scf accuracy    <       0.17601376 Ry

     iteration #190     ecut=    60.00 Ry     beta= 0.22
     Davidson diagonalization with overlap
     ethr =  1.59E-05,  avg # of iterations =  2.0

     negative rho (up, down):  9.006E-03 0.000E+00

     total cpu time spent up to now is     1365.8 secs

     total energy              =   -7997.83490933 Ry
     estimated scf accuracy    <       0.01929233 Ry

     iteration #191     ecut=    60.00 Ry     beta= 0.22
     Davidson diagonalization with overlap
     ethr =  5.24E-06,  avg # of iterations =  2.0

     negative rho (up, down):  9.136E-03 0.000E+00

     total cpu time spent up to now is     1373.6 secs

     total energy              =   -7997.83411266 Ry
     estimated scf accuracy    <       0.11115088 Ry

     iteration #192     ecut=    60.00 Ry     beta= 0.22
     Davidson diagonalization with overlap
     ethr =  5.24E-06,  avg # of iterations =  2.0

     negative rho (up, down):  9.299E-03 0.000E+00

     total cpu time spent up to now is     1381.2 secs

     total energy              =   -7997.83291084 Ry
     estimated scf accuracy    <       0.04496440 Ry

     iteration #193     ecut=    60.00 Ry     beta= 0.22
     Davidson diagonalization with overlap
     ethr =  5.24E-06,  avg # of iterations =  2.0

     negative rho (up, down):  9.352E-03 0.000E+00

     total cpu time spent up to now is     1388.8 secs

     total energy              =   -7997.83337745 Ry
     estimated scf accuracy    <       0.00387991 Ry

     iteration #194     ecut=    60.00 Ry     beta= 0.22
     Davidson diagonalization with overlap
     ethr =  1.05E-06,  avg # of iterations =  1.6

     negative rho (up, down):  9.210E-03 0.000E+00

     total cpu time spent up to now is     1396.1 secs

     total energy              =   -7997.83367330 Ry
     estimated scf accuracy    <       0.00049631 Ry

     iteration #195     ecut=    60.00 Ry     beta= 0.22
     Davidson diagonalization with overlap
     ethr =  1.35E-07,  avg # of iterations =  2.0

     negative rho (up, down):  9.350E-03 0.000E+00

     total cpu time spent up to now is     1404.2 secs

     total energy              =   -7997.83355046 Ry
     estimated scf accuracy    <       0.02661063 Ry

     iteration #196     ecut=    60.00 Ry     beta= 0.22
     Davidson diagonalization with overlap
     ethr =  1.35E-07,  avg # of iterations =  2.0

     negative rho (up, down):  9.295E-03 0.000E+00

     total cpu time spent up to now is     1412.4 secs

     total energy              =   -7997.83395919 Ry
     estimated scf accuracy    <       0.00964266 Ry

     iteration #197     ecut=    60.00 Ry     beta= 0.22
     Davidson diagonalization with overlap
     ethr =  1.35E-07,  avg # of iterations =  2.0

     negative rho (up, down):  9.349E-03 0.000E+00

     total cpu time spent up to now is     1420.3 secs

     total energy              =   -7997.83356835 Ry
     estimated scf accuracy    <       0.02176057 Ry

     iteration #198     ecut=    60.00 Ry     beta= 0.22
     Davidson diagonalization with overlap
     ethr =  1.35E-07,  avg # of iterations =  2.0

     negative rho (up, down):  9.325E-03 0.000E+00

     total cpu time spent up to now is     1428.4 secs

     total energy              =   -7997.83377797 Ry
     estimated scf accuracy    <       0.00746877 Ry

     iteration #199     ecut=    60.00 Ry     beta= 0.22
     Davidson diagonalization with overlap
     ethr =  1.35E-07,  avg # of iterations =  2.0

     negative rho (up, down):  9.443E-03 0.000E+00

     total cpu time spent up to now is     1436.0 secs

     total energy              =   -7997.83297608 Ry
     estimated scf accuracy    <       0.01209090 Ry

     iteration #200     ecut=    60.00 Ry     beta= 0.22
     Davidson diagonalization with overlap
     ethr =  1.35E-07,  avg # of iterations =  2.0

     negative rho (up, down):  9.400E-03 0.000E+00

     total cpu time spent up to now is     1444.2 secs

     total energy              =   -7997.83341116 Ry
     estimated scf accuracy    <       0.00168939 Ry

     iteration #201     ecut=    60.00 Ry     beta= 0.22
     Davidson diagonalization with overlap
     ethr =  1.35E-07,  avg # of iterations =  2.0

     negative rho (up, down):  9.336E-03 0.000E+00

     total cpu time spent up to now is     1452.2 secs

     total energy              =   -7997.83362058 Ry
     estimated scf accuracy    <       0.00082141 Ry

     iteration #202     ecut=    60.00 Ry     beta= 0.22
     Davidson diagonalization with overlap
     ethr =  1.35E-07,  avg # of iterations =  2.0

     negative rho (up, down):  9.311E-03 0.000E+00

     total cpu time spent up to now is     1460.2 secs

     total energy              =   -7997.83385354 Ry
     estimated scf accuracy    <       0.00735344 Ry

     iteration #203     ecut=    60.00 Ry     beta= 0.22
     Davidson diagonalization with overlap
     ethr =  1.35E-07,  avg # of iterations =  2.0

     negative rho (up, down):  9.488E-03 0.000E+00

     total cpu time spent up to now is     1468.1 secs

     total energy              =   -7997.83205860 Ry
     estimated scf accuracy    <       0.01449791 Ry

     iteration #204     ecut=    60.00 Ry     beta= 0.22
     Davidson diagonalization with overlap
     ethr =  1.35E-07,  avg # of iterations =  2.2

     negative rho (up, down):  9.393E-03 0.000E+00

     total cpu time spent up to now is     1476.4 secs

     total energy              =   -7997.83270569 Ry
     estimated scf accuracy    <       0.03570185 Ry

     iteration #205     ecut=    60.00 Ry     beta= 0.22
     Davidson diagonalization with overlap
     ethr =  1.35E-07,  avg # of iterations =  2.0

     negative rho (up, down):  9.372E-03 0.000E+00

     total cpu time spent up to now is     1484.6 secs

     total energy              =   -7997.83352029 Ry
     estimated scf accuracy    <       0.00016573 Ry

     iteration #206     ecut=    60.00 Ry     beta= 0.22
     Davidson diagonalization with overlap
     ethr =  4.50E-08,  avg # of iterations =  2.0

     negative rho (up, down):  9.424E-03 0.000E+00

     total cpu time spent up to now is     1492.5 secs

     total energy              =   -7997.83346106 Ry
     estimated scf accuracy    <       0.00076903 Ry

     iteration #207     ecut=    60.00 Ry     beta= 0.22
     Davidson diagonalization with overlap
     ethr =  4.50E-08,  avg # of iterations =  2.0

     negative rho (up, down):  9.353E-03 0.000E+00

     total cpu time spent up to now is     1500.6 secs

     total energy              =   -7997.83346646 Ry
     estimated scf accuracy    <       0.00018454 Ry

     iteration #208     ecut=    60.00 Ry     beta= 0.22
     Davidson diagonalization with overlap
     ethr =  4.50E-08,  avg # of iterations =  2.0

     negative rho (up, down):  9.356E-03 0.000E+00

     total cpu time spent up to now is     1508.8 secs

     total energy              =   -7997.83376085 Ry
     estimated scf accuracy    <       0.01028267 Ry

     iteration #209     ecut=    60.00 Ry     beta= 0.22
     Davidson diagonalization with overlap
     ethr =  4.50E-08,  avg # of iterations =  1.0

     negative rho (up, down):  9.377E-03 0.000E+00

     total cpu time spent up to now is     1515.6 secs

     total energy              =   -7997.83367120 Ry
     estimated scf accuracy    <       0.01037016 Ry

     iteration #210     ecut=    60.00 Ry     beta= 0.22
     Davidson diagonalization with overlap
     ethr =  4.50E-08,  avg # of iterations =  2.0

     negative rho (up, down):  9.317E-03 0.000E+00

     total cpu time spent up to now is     1523.3 secs

     total energy              =   -7997.83400229 Ry
     estimated scf accuracy    <       0.00724208 Ry

     iteration #211     ecut=    60.00 Ry     beta= 0.22
     Davidson diagonalization with overlap
     ethr =  4.50E-08,  avg # of iterations =  2.0

     negative rho (up, down):  9.329E-03 0.000E+00

     total cpu time spent up to now is     1531.4 secs

     total energy              =   -7997.83319013 Ry
     estimated scf accuracy    <       0.02546876 Ry

     iteration #212     ecut=    60.00 Ry     beta= 0.22
     Davidson diagonalization with overlap
     ethr =  4.50E-08,  avg # of iterations =  2.0

     negative rho (up, down):  9.298E-03 0.000E+00

     total cpu time spent up to now is     1539.7 secs

     total energy              =   -7997.83363013 Ry
     estimated scf accuracy    <       0.00184999 Ry

     iteration #213     ecut=    60.00 Ry     beta= 0.22
     Davidson diagonalization with overlap
     ethr =  4.50E-08,  avg # of iterations =  2.0

     negative rho (up, down):  9.289E-03 0.000E+00

     total cpu time spent up to now is     1547.4 secs

     total energy              =   -7997.83365049 Ry
     estimated scf accuracy    <       0.00357786 Ry

     iteration #214     ecut=    60.00 Ry     beta= 0.22
     Davidson diagonalization with overlap
     ethr =  4.50E-08,  avg # of iterations =  1.0

     negative rho (up, down):  9.268E-03 0.000E+00

     total cpu time spent up to now is     1554.2 secs

     total energy              =   -7997.83378712 Ry
     estimated scf accuracy    <       0.00399892 Ry

     iteration #215     ecut=    60.00 Ry     beta= 0.22
     Davidson diagonalization with overlap
     ethr =  4.50E-08,  avg # of iterations =  2.0

     negative rho (up, down):  9.305E-03 0.000E+00

     total cpu time spent up to now is     1562.3 secs

     total energy              =   -7997.83361981 Ry
     estimated scf accuracy    <       0.01292998 Ry

     iteration #216     ecut=    60.00 Ry     beta= 0.22
     Davidson diagonalization with overlap
     ethr =  4.50E-08,  avg # of iterations =  2.0

     negative rho (up, down):  9.313E-03 0.000E+00

     total cpu time spent up to now is     1570.4 secs

     total energy              =   -7997.83370433 Ry
     estimated scf accuracy    <       0.00508642 Ry

     iteration #217     ecut=    60.00 Ry     beta= 0.22
     Davidson diagonalization with overlap
     ethr =  4.50E-08,  avg # of iterations =  2.0

     negative rho (up, down):  9.333E-03 0.000E+00

     total cpu time spent up to now is     1578.3 secs

     total energy              =   -7997.83367561 Ry
     estimated scf accuracy    <       0.00739022 Ry

     iteration #218     ecut=    60.00 Ry     beta= 0.22
     Davidson diagonalization with overlap
     ethr =  4.50E-08,  avg # of iterations =  1.2

     negative rho (up, down):  9.328E-03 0.000E+00

     total cpu time spent up to now is     1585.2 secs

     total energy              =   -7997.83367365 Ry
     estimated scf accuracy    <       0.00626602 Ry

     iteration #219     ecut=    60.00 Ry     beta= 0.22
     Davidson diagonalization with overlap
     ethr =  4.50E-08,  avg # of iterations =  1.0

     negative rho (up, down):  9.324E-03 0.000E+00

     total cpu time spent up to now is     1592.1 secs

     total energy              =   -7997.83368271 Ry
     estimated scf accuracy    <       0.00599611 Ry

     iteration #220     ecut=    60.00 Ry     beta= 0.22
     Davidson diagonalization with overlap
     ethr =  4.50E-08,  avg # of iterations =  1.0

     negative rho (up, down):  9.328E-03 0.000E+00

     total cpu time spent up to now is     1598.9 secs

     total energy              =   -7997.83367033 Ry
     estimated scf accuracy    <       0.00625586 Ry

     iteration #221     ecut=    60.00 Ry     beta= 0.22
     Davidson diagonalization with overlap
     ethr =  4.50E-08,  avg # of iterations =  1.0

     negative rho (up, down):  9.323E-03 0.000E+00

     total cpu time spent up to now is     1605.7 secs

     total energy              =   -7997.83366055 Ry
     estimated scf accuracy    <       0.00581316 Ry

     iteration #222     ecut=    60.00 Ry     beta= 0.22
     Davidson diagonalization with overlap
     ethr =  4.50E-08,  avg # of iterations =  1.0

     negative rho (up, down):  9.331E-03 0.000E+00

     total cpu time spent up to now is     1612.6 secs

     total energy              =   -7997.83366528 Ry
     estimated scf accuracy    <       0.00529680 Ry

     iteration #223     ecut=    60.00 Ry     beta= 0.22
     Davidson diagonalization with overlap
     ethr =  4.50E-08,  avg # of iterations =  1.0

     negative rho (up, down):  9.333E-03 0.000E+00

     total cpu time spent up to now is     1619.4 secs

     total energy              =   -7997.83365896 Ry
     estimated scf accuracy    <       0.00564857 Ry

     iteration #224     ecut=    60.00 Ry     beta= 0.22
     Davidson diagonalization with overlap
     ethr =  4.50E-08,  avg # of iterations =  1.0

     negative rho (up, down):  9.342E-03 0.000E+00

     total cpu time spent up to now is     1626.2 secs

     total energy              =   -7997.83363291 Ry
     estimated scf accuracy    <       0.00540471 Ry

     iteration #225     ecut=    60.00 Ry     beta= 0.22
     Davidson diagonalization with overlap
     ethr =  4.50E-08,  avg # of iterations =  1.2

     negative rho (up, down):  9.344E-03 0.000E+00

     total cpu time spent up to now is     1633.2 secs

     total energy              =   -7997.83363010 Ry
     estimated scf accuracy    <       0.00451246 Ry

     iteration #226     ecut=    60.00 Ry     beta= 0.22
     Davidson diagonalization with overlap
     ethr =  4.50E-08,  avg # of iterations =  1.0

     negative rho (up, down):  9.334E-03 0.000E+00

     total cpu time spent up to now is     1640.0 secs

     total energy              =   -7997.83369800 Ry
     estimated scf accuracy    <       0.00438260 Ry

     iteration #227     ecut=    60.00 Ry     beta= 0.22
     Davidson diagonalization with overlap
     ethr =  4.50E-08,  avg # of iterations =  2.0

     negative rho (up, down):  9.409E-03 0.000E+00

     total cpu time spent up to now is     1647.9 secs

     total energy              =   -7997.83338056 Ry
     estimated scf accuracy    <       0.00765918 Ry

     iteration #228     ecut=    60.00 Ry     beta= 0.22
     Davidson diagonalization with overlap
     ethr =  4.50E-08,  avg # of iterations =  2.0

     negative rho (up, down):  9.395E-03 0.000E+00

     total cpu time spent up to now is     1656.0 secs

     total energy              =   -7997.83351964 Ry
     estimated scf accuracy    <       0.00026759 Ry

     iteration #229     ecut=    60.00 Ry     beta= 0.22
     Davidson diagonalization with overlap
     ethr =  4.50E-08,  avg # of iterations =  2.0

     negative rho (up, down):  9.397E-03 0.000E+00

     total cpu time spent up to now is     1663.6 secs

     total energy              =   -7997.83352426 Ry
     estimated scf accuracy    <       0.00078805 Ry

     iteration #230     ecut=    60.00 Ry     beta= 0.22
     Davidson diagonalization with overlap
     ethr =  4.50E-08,  avg # of iterations =  1.0

     negative rho (up, down):  9.411E-03 0.000E+00

     total cpu time spent up to now is     1670.4 secs

     total energy              =   -7997.83350476 Ry
     estimated scf accuracy    <       0.00088416 Ry

     iteration #231     ecut=    60.00 Ry     beta= 0.22
     Davidson diagonalization with overlap
     ethr =  4.50E-08,  avg # of iterations =  1.8

     negative rho (up, down):  9.376E-03 0.000E+00

     total cpu time spent up to now is     1677.9 secs

     total energy              =   -7997.83353670 Ry
     estimated scf accuracy    <       0.00042349 Ry

     iteration #232     ecut=    60.00 Ry     beta= 0.22
     Davidson diagonalization with overlap
     ethr =  4.50E-08,  avg # of iterations =  2.0

     negative rho (up, down):  9.384E-03 0.000E+00

     total cpu time spent up to now is     1685.6 secs

     total energy              =   -7997.83352066 Ry
     estimated scf accuracy    <       0.00115601 Ry

     iteration #233     ecut=    60.00 Ry     beta= 0.22
     Davidson diagonalization with overlap
     ethr =  4.50E-08,  avg # of iterations =  2.0

     negative rho (up, down):  9.426E-03 0.000E+00

     total cpu time spent up to now is     1693.2 secs

     total energy              =   -7997.83348758 Ry
     estimated scf accuracy    <       0.00047936 Ry

     iteration #234     ecut=    60.00 Ry     beta= 0.22
     Davidson diagonalization with overlap
     ethr =  4.50E-08,  avg # of iterations =  2.0

     negative rho (up, down):  9.421E-03 0.000E+00

     total cpu time spent up to now is     1701.0 secs

     total energy              =   -7997.83350089 Ry
     estimated scf accuracy    <       0.00012223 Ry

     iteration #235     ecut=    60.00 Ry     beta= 0.22
     Davidson diagonalization with overlap
     ethr =  3.32E-08,  avg # of iterations =  1.2

     negative rho (up, down):  9.433E-03 0.000E+00

     total cpu time spent up to now is     1707.9 secs

     total energy              =   -7997.83349325 Ry
     estimated scf accuracy    <       0.00025179 Ry

     iteration #236     ecut=    60.00 Ry     beta= 0.22
     Davidson diagonalization with overlap
     ethr =  3.32E-08,  avg # of iterations =  1.0

     negative rho (up, down):  9.441E-03 0.000E+00

     total cpu time spent up to now is     1714.7 secs

     total energy              =   -7997.83348852 Ry
     estimated scf accuracy    <       0.00019136 Ry

     iteration #237     ecut=    60.00 Ry     beta= 0.22
     Davidson diagonalization with overlap
     ethr =  3.32E-08,  avg # of iterations =  1.0

     negative rho (up, down):  9.433E-03 0.000E+00

     total cpu time spent up to now is     1721.6 secs

     total energy              =   -7997.83349388 Ry
     estimated scf accuracy    <       0.00015019 Ry

     iteration #238     ecut=    60.00 Ry     beta= 0.22
     Davidson diagonalization with overlap
     ethr =  3.32E-08,  avg # of iterations =  1.0

     negative rho (up, down):  9.433E-03 0.000E+00

     total cpu time spent up to now is     1728.4 secs

     total energy              =   -7997.83349156 Ry
     estimated scf accuracy    <       0.00019372 Ry

     iteration #239     ecut=    60.00 Ry     beta= 0.22
     Davidson diagonalization with overlap
     ethr =  3.32E-08,  avg # of iterations =  1.0

     negative rho (up, down):  9.436E-03 0.000E+00

     total cpu time spent up to now is     1735.2 secs

     total energy              =   -7997.83348936 Ry
     estimated scf accuracy    <       0.00008420 Ry

     iteration #240     ecut=    60.00 Ry     beta= 0.22
     Davidson diagonalization with overlap
     ethr =  2.29E-08,  avg # of iterations =  1.0

     negative rho (up, down):  9.435E-03 0.000E+00

     total cpu time spent up to now is     1742.1 secs

     total energy              =   -7997.83348978 Ry
     estimated scf accuracy    <       0.00005020 Ry

     iteration #241     ecut=    60.00 Ry     beta= 0.22
     Davidson diagonalization with overlap
     ethr =  1.36E-08,  avg # of iterations =  1.0

     negative rho (up, down):  9.440E-03 0.000E+00

     total cpu time spent up to now is     1748.9 secs

     total energy              =   -7997.83348629 Ry
     estimated scf accuracy    <       0.00005516 Ry

     iteration #242     ecut=    60.00 Ry     beta= 0.22
     Davidson diagonalization with overlap
     ethr =  1.36E-08,  avg # of iterations =  1.2

     negative rho (up, down):  9.434E-03 0.000E+00

     total cpu time spent up to now is     1755.9 secs

     total energy              =   -7997.83348943 Ry
     estimated scf accuracy    <       0.00002893 Ry

     iteration #243     ecut=    60.00 Ry     beta= 0.22
     Davidson diagonalization with overlap
     ethr =  7.86E-09,  avg # of iterations =  1.2

     negative rho (up, down):  9.437E-03 0.000E+00

     total cpu time spent up to now is     1762.8 secs

     total energy              =   -7997.83348891 Ry
     estimated scf accuracy    <       0.00004455 Ry

     iteration #244     ecut=    60.00 Ry     beta= 0.22
     Davidson diagonalization with overlap
     ethr =  7.86E-09,  avg # of iterations =  1.0

     negative rho (up, down):  9.436E-03 0.000E+00

     total cpu time spent up to now is     1769.7 secs

     total energy              =   -7997.83348886 Ry
     estimated scf accuracy    <       0.00005200 Ry

     iteration #245     ecut=    60.00 Ry     beta= 0.22
     Davidson diagonalization with overlap
     ethr =  7.86E-09,  avg # of iterations =  1.0

     negative rho (up, down):  9.433E-03 0.000E+00

     total cpu time spent up to now is     1776.5 secs

     total energy              =   -7997.83349091 Ry
     estimated scf accuracy    <       0.00004526 Ry

     iteration #246     ecut=    60.00 Ry     beta= 0.22
     Davidson diagonalization with overlap
     ethr =  7.86E-09,  avg # of iterations =  1.0

     negative rho (up, down):  9.448E-03 0.000E+00

     total cpu time spent up to now is     1783.3 secs

     total energy              =   -7997.83347967 Ry
     estimated scf accuracy    <       0.00006668 Ry

     iteration #247     ecut=    60.00 Ry     beta= 0.22
     Davidson diagonalization with overlap
     ethr =  7.86E-09,  avg # of iterations =  2.0

     negative rho (up, down):  9.455E-03 0.000E+00

     total cpu time spent up to now is     1791.3 secs

     total energy              =   -7997.83348278 Ry
     estimated scf accuracy    <       0.00004551 Ry

     iteration #248     ecut=    60.00 Ry     beta= 0.22
     Davidson diagonalization with overlap
     ethr =  7.86E-09,  avg # of iterations =  2.0

     negative rho (up, down):  9.442E-03 0.000E+00

     total cpu time spent up to now is     1799.2 secs

     total energy              =   -7997.83347783 Ry
     estimated scf accuracy    <       0.00025057 Ry

     iteration #249     ecut=    60.00 Ry     beta= 0.22
     Davidson diagonalization with overlap
     ethr =  7.86E-09,  avg # of iterations =  2.0

     negative rho (up, down):  9.279E-03 0.000E+00

     total cpu time spent up to now is     1807.2 secs

     End of self-consistent calculation

          k = 0.0000 0.0000 0.0000 ( 15907 PWs)   bands (ev):

   -89.3418 -89.3373 -89.3333 -89.3302 -89.3065 -89.2957 -89.2785 -89.2776
   -89.2766 -89.2682 -89.2670 -89.2646 -89.2506 -89.2489 -89.2451 -89.2443
   -61.4037 -61.4033 -61.4011 -61.3942 -61.3456 -61.3438 -61.3421 -61.3375
   -50.0225 -50.0098 -49.9816 -49.9491 -49.9002 -49.8558 -49.8426 -49.8189
   -49.7825 -49.7816 -49.7811 -49.7807 -49.7578 -49.7518 -49.7500 -49.7477
   -49.6797 -49.6732 -49.6713 -49.6671 -49.6370 -49.6353 -49.6339 -49.6319
   -49.6313 -49.6306 -49.6001 -49.5973 -49.5901 -49.5868 -49.5852 -49.5824
   -49.5796 -49.5774 -49.5753 -49.5732 -49.5725 -49.5720 -49.5696 -49.5687
   -49.5206 -49.5194 -49.5192 -49.5177 -49.5068 -49.5066 -49.4888 -49.4877
   -28.1584 -28.1558 -28.1543 -28.1541 -28.1525 -28.1524 -28.1512 -28.1496
   -28.1450 -28.1435 -28.1357 -28.1314 -28.1014 -28.0967 -28.0893 -28.0887
   -28.0871 -28.0865 -28.0858 -28.0851 -28.0810 -28.0803 -28.0781 -28.0730
     5.1374   5.7675   5.7921   7.2672   7.9553   9.1962   9.2046   9.2904
     9.8790   9.9043  10.0029  10.1398  10.2503  10.2551  10.2709  10.2986
    10.3014  10.3174  10.4367  10.4585  10.5106  10.5630  10.5851  10.6139
    10.6226  10.6395  10.7237  10.7413  10.7860  10.8005  11.1294  11.1377
    11.1658  11.1713  11.1789  11.1828  11.4174  11.4368  11.5887  11.6099
    11.6135  11.6580  11.6595  11.6699  11.8592  11.8669  12.1335  12.3538
    12.3619  12.3975  12.4059  12.4417  12.5835  12.5884  12.7207  12.7274
    12.8494  12.8650  12.9799  12.9801  12.9838  12.9902  12.9930  12.9935
    12.9951  13.0095  13.0205  13.0261  13.0291  13.0299  13.0325  13.0387
    13.0510  13.1047  13.1136  13.1146  13.1236  13.2338  13.2439  13.5816
    13.5927  13.8787  13.8848  14.0998  14.1030  14.1209  14.1210  14.4454
    14.5915  14.7777  14.8134  14.8308  14.8524  14.8569  14.8700  14.9822
    15.2054  15.2301  15.2713  15.2934  16.6385  16.6598  16.6701  16.6982
    17.1752  17.2221  17.5727  17.6275  18.2937  18.2982  18.3204  18.5475
    18.6308  18.8269  19.2177  19.2479  19.6484  19.6802  20.0324  20.2918
    20.3246  20.5867  20.8029  22.1952  22.3379

          k = 0.0010 0.3861 0.0001 ( 16009 PWs)   bands (ev):

   -89.3409 -89.3355 -89.3324 -89.3305 -89.3029 -89.2899 -89.2838 -89.2748
   -89.2717 -89.2704 -89.2673 -89.2653 -89.2568 -89.2556 -89.2462 -89.2450
   -61.4036 -61.4032 -61.4010 -61.3941 -61.3457 -61.3439 -61.3422 -61.3376
   -49.9860 -49.9761 -49.9500 -49.9137 -49.9030 -49.8547 -49.8420 -49.8195
   -49.7969 -49.7944 -49.7734 -49.7720 -49.7713 -49.7652 -49.7357 -49.7316
   -49.6859 -49.6786 -49.6730 -49.6655 -49.6392 -49.6367 -49.6340 -49.6293
   -49.6266 -49.6233 -49.6030 -49.5991 -49.5923 -49.5887 -49.5874 -49.5845
   -49.5832 -49.5798 -49.5754 -49.5734 -49.5723 -49.5687 -49.5665 -49.5639
   -49.5428 -49.5410 -49.5309 -49.5294 -49.5238 -49.5232 -49.5025 -49.5011
   -28.1592 -28.1569 -28.1549 -28.1534 -28.1530 -28.1521 -28.1514 -28.1494
   -28.1450 -28.1436 -28.1368 -28.1325 -28.1004 -28.0957 -28.0905 -28.0884
   -28.0877 -28.0867 -28.0856 -28.0846 -28.0822 -28.0795 -28.0773 -28.0722
     6.1479   6.7445   6.7728   8.2005   8.6852   8.8655   9.1499   9.1856
     9.7014   9.7340   9.8912  10.0044  10.0960  10.1870  10.2744  10.3617
    10.4060  10.4760  10.5268  10.5313  10.5497  10.5942  10.7347  10.7993
    10.8790  10.8844  10.9583  11.0245  11.0390  11.0451  11.0497  11.1745
    11.1805  11.2197  11.2330  11.2835  11.3069  11.3338  11.3927  11.4542
    11.5435  11.5816  11.5874  11.6128  11.7015  11.7863  11.8373  11.8481
    11.8654  11.9945  11.9969  12.0452  12.0699  12.1252  12.2092  12.2390
    12.2436  12.3160  12.3925  12.4253  12.4393  12.5456  12.5650  12.5712
    12.6392  12.6823  12.6866  12.7486  12.7625  12.8060  12.8443  12.9074
    12.9179  13.0077  13.0176  13.0290  13.0488  13.0658  13.1008  13.1184
    13.1642  13.1906  13.2021  13.3402  13.3626  13.4443  13.5175  13.6502
    13.9519  14.0200  14.3844  14.3981  14.6032  14.7119  14.7946  14.9682
    15.0376  15.0661  15.1451  15.3342  16.0061  16.4831  16.7804  16.8199
    18.1779  18.5714  18.6271  18.8476  19.5683  19.6979  19.8070  19.8978
    19.9289  20.0753  20.6107  21.0312  21.0487  21.1656  21.6228  21.8274
    22.0072  22.5213  22.8943  23.1384  23.1950

          k = 0.3339 0.1934-0.0002 ( 16007 PWs)   bands (ev):

   -89.3409 -89.3357 -89.3324 -89.3305 -89.3043 -89.2900 -89.2782 -89.2745
   -89.2719 -89.2714 -89.2703 -89.2655 -89.2569 -89.2547 -89.2460 -89.2455
   -61.4036 -61.4032 -61.4010 -61.3941 -61.3457 -61.3439 -61.3422 -61.3376
   -49.9868 -49.9764 -49.9511 -49.9136 -49.9043 -49.8547 -49.8423 -49.8180
   -49.7946 -49.7938 -49.7723 -49.7720 -49.7678 -49.7631 -49.7405 -49.7351
   -49.6832 -49.6791 -49.6727 -49.6680 -49.6403 -49.6362 -49.6330 -49.6301
   -49.6274 -49.6231 -49.6017 -49.5980 -49.5922 -49.5911 -49.5890 -49.5869
   -49.5836 -49.5803 -49.5736 -49.5718 -49.5714 -49.5687 -49.5660 -49.5633
   -49.5429 -49.5409 -49.5308 -49.5290 -49.5238 -49.5221 -49.5024 -49.5015
   -28.1595 -28.1566 -28.1548 -28.1535 -28.1531 -28.1518 -28.1509 -28.1501
   -28.1459 -28.1427 -28.1366 -28.1325 -28.1004 -28.0957 -28.0906 -28.0881
   -28.0878 -28.0869 -28.0859 -28.0844 -28.0816 -28.0801 -28.0773 -28.0722
     6.1467   6.7432   6.7716   8.1976   8.6843   8.8619   9.1455   9.1824
     9.6984   9.7345   9.8883   9.9991  10.0913  10.1863  10.2753  10.3637
    10.4050  10.4784  10.5255  10.5324  10.5478  10.5971  10.7388  10.7986
    10.8767  10.8833  10.9574  11.0256  11.0413  11.0428  11.0501  11.1781
    11.1821  11.2203  11.2334  11.2828  11.3092  11.3346  11.3939  11.4556
    11.5443  11.5818  11.5893  11.6105  11.6972  11.7865  11.8346  11.8558
    11.8676  11.9934  12.0034  12.0502  12.0708  12.1240  12.2156  12.2342
    12.2453  12.3127  12.3941  12.4246  12.4434  12.5411  12.5639  12.5717
    12.6404  12.6796  12.6853  12.7496  12.7616  12.8027  12.8441  12.9070
    12.9151  13.0092  13.0192  13.0247  13.0509  13.0647  13.1004  13.1176
    13.1656  13.1917  13.2023  13.3418  13.3636  13.4431  13.5149  13.6534
    13.9556  14.0119  14.3852  14.4012  14.6126  14.7169  14.8014  14.9725
    15.0451  15.0694  15.1542  15.3417  16.0089  16.4733  16.7834  16.8146
    18.1859  18.5681  18.6343  18.8459  19.5656  19.7019  19.8083  19.9015
    19.9400  20.0750  20.6102  21.0285  21.0496  21.1649  21.6361  21.8243
    21.9995  22.5238  22.8897  23.1457  23.1834

          k = 0.3349 0.5795-0.0001 ( 16004 PWs)   bands (ev):

   -89.3405 -89.3348 -89.3319 -89.3307 -89.3020 -89.2841 -89.2818 -89.2798
   -89.2706 -89.2664 -89.2661 -89.2649 -89.2615 -89.2601 -89.2473 -89.2462
   -61.4036 -61.4032 -61.4010 -61.3940 -61.3458 -61.3439 -61.3422 -61.3377
   -49.9517 -49.9485 -49.9416 -49.9370 -49.8514 -49.8465 -49.8393 -49.8360
   -49.8218 -49.8172 -49.7793 -49.7772 -49.7655 -49.7632 -49.7247 -49.7231
   -49.6850 -49.6773 -49.6756 -49.6708 -49.6400 -49.6372 -49.6363 -49.6301
   -49.6227 -49.6185 -49.6016 -49.6007 -49.5994 -49.5981 -49.5948 -49.5911
   -49.5825 -49.5808 -49.5679 -49.5650 -49.5630 -49.5604 -49.5542 -49.5519
   -49.5481 -49.5462 -49.5375 -49.5358 -49.5317 -49.5307 -49.5273 -49.5260
   -28.1595 -28.1569 -28.1556 -28.1554 -28.1526 -28.1516 -28.1511 -28.1484
   -28.1464 -28.1421 -28.1374 -28.1332 -28.0997 -28.0949 -28.0908 -28.0901
   -28.0875 -28.0861 -28.0856 -28.0845 -28.0822 -28.0790 -28.0770 -28.0719
     7.7829   7.7935   8.2567   8.3576   8.3673   8.5596   8.6791   8.6939
     8.8995   9.6985   9.7045   9.7457   9.7626   9.7929   9.8241  10.4177
    10.4261  10.4655  10.6029  10.6139  10.7556  10.7635  10.9299  10.9330
    11.0044  11.0122  11.0632  11.0730  11.0794  11.0855  11.1820  11.2437
    11.2455  11.2684  11.2742  11.2911  11.3192  11.3299  11.3505  11.3614
    11.3661  11.3741  11.4583  11.4598  11.5405  11.5527  11.5587  11.5669
    11.5694  11.7807  11.7934  11.8019  11.9285  12.0702  12.0822  12.0999
    12.1056  12.1592  12.3200  12.3293  12.4177  12.4547  12.4604  12.5163
    12.5350  12.5382  12.5857  12.6699  12.6822  12.7198  12.7230  12.7288
    12.7548  12.8142  12.8187  12.8291  12.8380  12.8890  12.8949  12.9938
    13.1614  13.1803  13.2761  13.2891  13.2918  13.3735  13.3780  13.4883
    13.5490  13.6104  13.6124  13.8731  14.0015  14.0120  14.1054  15.5250
    15.5365  15.5927  15.7718  15.7963  16.4103  18.2171  18.2450  18.4258
    18.6571  18.6772  19.2912  19.3568  19.3915  19.4552  19.4618  19.7083
    19.9510  20.3552  20.4390  20.4575  21.2195  21.2662  21.6143  21.6407
    21.7336  22.4361  23.7227  23.7594  23.9463

          k = 0.3328-0.1927-0.0003 ( 16007 PWs)   bands (ev):

   -89.3409 -89.3358 -89.3324 -89.3304 -89.3046 -89.2912 -89.2774 -89.2736
   -89.2725 -89.2713 -89.2700 -89.2683 -89.2508 -89.2505 -89.2500 -89.2489
   -61.4036 -61.4032 -61.4010 -61.3941 -61.3457 -61.3439 -61.3422 -61.3376
   -49.9884 -49.9782 -49.9524 -49.9130 -49.9075 -49.8560 -49.8439 -49.8198
   -49.7910 -49.7903 -49.7739 -49.7730 -49.7656 -49.7613 -49.7394 -49.7351
   -49.6816 -49.6782 -49.6735 -49.6696 -49.6396 -49.6360 -49.6334 -49.6301
   -49.6289 -49.6232 -49.5987 -49.5956 -49.5939 -49.5928 -49.5921 -49.5900
   -49.5875 -49.5834 -49.5727 -49.5678 -49.5673 -49.5655 -49.5632 -49.5614
   -49.5406 -49.5385 -49.5296 -49.5282 -49.5261 -49.5245 -49.5048 -49.5037
   -28.1591 -28.1565 -28.1550 -28.1547 -28.1522 -28.1520 -28.1517 -28.1489
   -28.1451 -28.1435 -28.1368 -28.1325 -28.1005 -28.0956 -28.0900 -28.0886
   -28.0875 -28.0863 -28.0862 -28.0850 -28.0820 -28.0797 -28.0773 -28.0722
     6.1396   6.7365   6.7649   8.1916   8.6804   8.8407   9.1322   9.1656
     9.6968   9.7307   9.8852   9.9983  10.0865  10.1819  10.2647  10.3671
    10.3997  10.4876  10.5201  10.5397  10.5423  10.6138  10.7594  10.7943
    10.8705  10.8946  10.9522  11.0136  11.0338  11.0530  11.0584  11.1738
    11.1799  11.2078  11.2195  11.2887  11.3069  11.3408  11.3972  11.4557
    11.5519  11.5769  11.5990  11.6161  11.7038  11.7858  11.8262  11.8520
    11.8605  11.9877  11.9965  12.0570  12.0647  12.1287  12.2174  12.2298
    12.2440  12.3057  12.3952  12.4334  12.4403  12.5350  12.5611  12.5790
    12.6412  12.6756  12.6794  12.7528  12.7618  12.8131  12.8364  12.9120
    12.9171  13.0172  13.0272  13.0306  13.0587  13.0729  13.1062  13.1164
    13.1729  13.1988  13.2085  13.3447  13.3669  13.4382  13.5117  13.6584
    13.9621  14.0112  14.3721  14.4080  14.6344  14.7363  14.8293  14.9961
    15.0679  15.0955  15.1838  15.3704  15.9807  16.4632  16.8067  16.8161
    18.2072  18.6000  18.6535  18.8460  19.5855  19.6914  19.8371  19.9036
    19.9674  20.0846  20.5943  21.0311  21.0497  21.1700  21.6283  21.8089
    21.9554  22.5145  22.8731  23.1292  23.1812

     the Fermi energy is    13.7259 ev

!    total energy              =   -7997.83357401 Ry
     total all-electron energy =    -51870.909444 Ry
     estimated scf accuracy    <       0.00000957 Ry
     smearing contrib. (-TS)   =       0.25572342 Ry
     internal energy E=F+TS    =   -7998.08929743 Ry

     The total energy is F=E-TS. E is the sum of the following terms:
     one-electron contribution =   -4419.76677476 Ry
     hartree contribution      =    2374.76060006 Ry
     xc contribution           =    -691.42608902 Ry
     ewald contribution        =   -3684.49547118 Ry
     one-center paw contrib.   =   -1577.16156253 Ry

     convergence has been achieved in 249 iterations

     negative rho (up, down):  9.279E-03 0.000E+00

     Forces acting on atoms (cartesian axes, Ry/au):

     atom    1 type  1   force =    -0.00259950   -0.00031312    0.00529400
     atom    2 type  1   force =    -0.00035199   -0.00135870    0.00416068
     atom    3 type  1   force =    -0.00028901   -0.00272585   -0.00620287
     atom    4 type  1   force =     0.00059829   -0.00020180   -0.00664401
     atom    5 type  1   force =     0.00056854    0.00266206    0.00032762
     atom    6 type  1   force =     0.00168721   -0.00070122   -0.00173605
     atom    7 type  1   force =     0.00080201    0.00204501   -0.00489564
     atom    8 type  1   force =     0.00181023    0.00026774   -0.00466329
     atom    9 type  2   force =     0.00071713    0.00006192   -0.00229681
     atom   10 type  2   force =    -0.00015862    0.00088538   -0.00291798
     atom   11 type  2   force =     0.00036148    0.00053622    0.00250356
     atom   12 type  2   force =    -0.00047308    0.00110610   -0.00254713
     atom   13 type  2   force =    -0.00351721   -0.02799320   -0.00020713
     atom   14 type  2   force =     0.01833261   -0.00833189   -0.00373789
     atom   15 type  2   force =     0.00219391    0.02053983   -0.00376870
     atom   16 type  2   force =    -0.01918995    0.01857138    0.03120513
     atom   17 type  2   force =     0.01613503    0.00698108    0.00266160
     atom   18 type  2   force =    -0.01943940   -0.01205456   -0.00032109
     atom   19 type  2   force =     0.00054045   -0.00453006   -0.00210439
     atom   20 type  2   force =     0.00554418   -0.00411536   -0.00006908
     atom   21 type  2   force =     0.00043848    0.00396688    0.00157556
     atom   22 type  2   force =    -0.00065838    0.00093376    0.00032051
     atom   23 type  2   force =    -0.00626156    0.00051219   -0.00222405
     atom   24 type  2   force =     0.00320915    0.00325620   -0.00371256
     The non-local contrib.  to forces
     atom    1 type  1   force =    -0.00740106    0.00056392    0.03306687
     atom    2 type  1   force =    -0.00027446   -0.00250149    0.03204213
     atom    3 type  1   force =    -0.00491110   -0.00579849   -0.02640362
     atom    4 type  1   force =     0.00745302   -0.00351996   -0.03047649
     atom    5 type  1   force =     0.00161328    0.00576962    0.00588468
     atom    6 type  1   force =     0.00587400    0.00192720   -0.00441030
     atom    7 type  1   force =    -0.00132414    0.01311005   -0.01667890
     atom    8 type  1   force =     0.00412747   -0.00339906   -0.01174973
     atom    9 type  2   force =    -0.01589795    0.01253432    0.00507861
     atom   10 type  2   force =     0.00383414   -0.00614477    0.01221888
     atom   11 type  2   force =    -0.00294372   -0.00115118   -0.01265375
     atom   12 type  2   force =     0.00807151   -0.01426078   -0.01111425
     atom   13 type  2   force =     1.66933201    0.19207487    0.02963818
     atom   14 type  2   force =     0.06374115   -0.05038201    0.00385769
     atom   15 type  2   force =    -0.00677494    0.07432731    0.00594423
     atom   16 type  2   force =    -0.71424068    1.50289084   -1.01267273
     atom   17 type  2   force =     0.06012345    0.10413765   -0.01012192
     atom   18 type  2   force =    -0.06454466   -0.02798199   -0.00250947
     atom   19 type  2   force =    -0.00798303   -0.00072329   -0.00479242
     atom   20 type  2   force =     0.00513214    0.00631857    0.00000448
     atom   21 type  2   force =    -0.00624239    0.00581540   -0.00359580
     atom   22 type  2   force =    -0.00053280   -0.00470425   -0.00083890
     atom   23 type  2   force =     0.00369254   -0.00309424   -0.00138338
     atom   24 type  2   force =     0.00234258    0.00125947    0.00429728
     The ionic contribution  to forces
     atom    1 type  1   force =    -0.23432995   -0.08879426   -0.22369373
     atom    2 type  1   force =    -0.02486539   -0.08591708   -0.26684089
     atom    3 type  1   force =    -0.16348848   -0.22194171    0.47991052
     atom    4 type  1   force =     0.17916957   -0.16022317    0.25552445
     atom    5 type  1   force =     0.06727225    0.16235554    0.23652693
     atom    6 type  1   force =     0.26737849    0.11651534   -0.06249452
     atom    7 type  1   force =     0.09188647    0.41473911   -0.53123987
     atom    8 type  1   force =     0.12429330   -0.12125508   -0.61618097
     atom    9 type  2   force =     0.04965372   -0.02948787    0.74228558
     atom   10 type  2   force =    -0.02377397    0.17793789    0.72263253
     atom   11 type  2   force =     0.03311459    0.13729345   -0.31876949
     atom   12 type  2   force =    -0.26507955    0.11047412   -0.95370986
     atom   13 type  2   force =    -0.05122572  -15.68476945    0.36965773
     atom   14 type  2   force =    13.93914380   -7.97293371   -0.54141075
     atom   15 type  2   force =     0.14968423   16.11709924   -0.50509277
     atom   16 type  2   force =   -13.58415404    7.37949121    0.21019320
     atom   17 type  2   force =    13.52246975    7.92679799    0.27406270
     atom   18 type  2   force =   -14.29278305   -8.16613448   -0.36998887
     atom   19 type  2   force =     0.01714702   -0.73350333    0.02265493
     atom   20 type  2   force =     1.06085338   -0.28451169    0.24024543
     atom   21 type  2   force =    -0.38145002    0.62461403    0.43891872
     atom   22 type  2   force =    -0.13913186    0.38612348    0.07795426
     atom   23 type  2   force =    -0.86343777   -0.40814657    0.38601182
     atom   24 type  2   force =     0.52165321    0.40417698   -0.06715707
     The local contribution  to forces
     atom    1 type  1   force =     0.23864803    0.08788145    0.19669828
     atom    2 type  1   force =     0.02437638    0.08702760    0.24151226
     atom    3 type  1   force =     0.16768613    0.22496113   -0.45852004
     atom    4 type  1   force =    -0.18643131    0.16346959   -0.23043795
     atom    5 type  1   force =    -0.06872455   -0.16550126   -0.24035990
     atom    6 type  1   force =    -0.27196235   -0.11915302    0.06644958
     atom    7 type  1   force =    -0.09016515   -0.42570811    0.54389477
     atom    8 type  1   force =    -0.12699806    0.12486160    0.62563082
     atom    9 type  2   force =    -0.03427962    0.01749066   -0.74579685
     atom   10 type  2   force =     0.01937535   -0.17141265   -0.73019849
     atom   11 type  2   force =    -0.03037506   -0.13571242    0.33119914
     atom   12 type  2   force =     0.25652113   -0.09602915    0.95916218
     atom   13 type  2   force =    -1.46863795   15.48673682   -0.39529256
     atom   14 type  2   force =   -13.98396569    8.01350601    0.53656833
     atom   15 type  2   force =    -0.14181332  -16.16974756    0.49820274
     atom   16 type  2   force =    14.22382232   -8.73080979    0.74207086
     atom   17 type  2   force =   -13.56614397   -8.01973824   -0.25999270
     atom   18 type  2   force =    14.33674226    8.18192356    0.37453762
     atom   19 type  2   force =    -0.00953069    0.72944902   -0.02040603
     atom   20 type  2   force =    -1.06082357    0.27408899   -0.23776280
     atom   21 type  2   force =     0.38761156   -0.62603723   -0.43136651
     atom   22 type  2   force =     0.13824554   -0.38082852   -0.07674126
     atom   23 type  2   force =     0.85325030    0.41214442   -0.38485185
     atom   24 type  2   force =    -0.52093620   -0.40191193    0.05918071
     The core correction contribution to forces
     atom    1 type  1   force =     0.00004358    0.00000004   -0.00017395
     atom    2 type  1   force =     0.00000346    0.00001562   -0.00016652
     atom    3 type  1   force =     0.00002058    0.00003359    0.00014132
     atom    4 type  1   force =    -0.00002694    0.00001369    0.00015682
     atom    5 type  1   force =    -0.00000602   -0.00003125   -0.00002796
     atom    6 type  1   force =    -0.00002174   -0.00000265    0.00001493
     atom    7 type  1   force =     0.00000166   -0.00005616    0.00007511
     atom    8 type  1   force =    -0.00002053    0.00001069    0.00005341
     atom    9 type  2   force =     0.00090201   -0.00064227   -0.00388728
     atom   10 type  2   force =    -0.00018278    0.00040619   -0.00417836
     atom   11 type  2   force =     0.00019308    0.00012139    0.00429823
     atom   12 type  2   force =    -0.00046634    0.00095152    0.00404532
     atom   13 type  2   force =    -0.15245433   -0.02278205   -0.00270893
     atom   14 type  2   force =    -0.00093281    0.00138006   -0.00014900
     atom   15 type  2   force =     0.00051122   -0.00112424   -0.00021440
     atom   16 type  2   force =     0.05787372   -0.12967100    0.09363920
     atom   17 type  2   force =    -0.00072678   -0.00422537    0.00017599
     atom   18 type  2   force =     0.00087138   -0.00001847    0.00008015
     atom   19 type  2   force =     0.00038498    0.00005100    0.00022465
     atom   20 type  2   force =    -0.00009971   -0.00010446   -0.00031818
     atom   21 type  2   force =     0.00006078   -0.00049109   -0.00015520
     atom   22 type  2   force =     0.00009400    0.00035518   -0.00020847
     atom   23 type  2   force =    -0.00005427   -0.00042177    0.00012636
     atom   24 type  2   force =     0.00001549   -0.00016986   -0.00019137
     The Hubbard contrib.    to forces
     atom    1 type  1   force =     0.00000000    0.00000000    0.00000000
     atom    2 type  1   force =     0.00000000    0.00000000    0.00000000
     atom    3 type  1   force =     0.00000000    0.00000000    0.00000000
     atom    4 type  1   force =     0.00000000    0.00000000    0.00000000
     atom    5 type  1   force =     0.00000000    0.00000000    0.00000000
     atom    6 type  1   force =     0.00000000    0.00000000    0.00000000
     atom    7 type  1   force =     0.00000000    0.00000000    0.00000000
     atom    8 type  1   force =     0.00000000    0.00000000    0.00000000
     atom    9 type  2   force =     0.00000000    0.00000000    0.00000000
     atom   10 type  2   force =     0.00000000    0.00000000    0.00000000
     atom   11 type  2   force =     0.00000000    0.00000000    0.00000000
     atom   12 type  2   force =     0.00000000    0.00000000    0.00000000
     atom   13 type  2   force =     0.00000000    0.00000000    0.00000000
     atom   14 type  2   force =     0.00000000    0.00000000    0.00000000
     atom   15 type  2   force =     0.00000000    0.00000000    0.00000000
     atom   16 type  2   force =     0.00000000    0.00000000    0.00000000
     atom   17 type  2   force =     0.00000000    0.00000000    0.00000000
     atom   18 type  2   force =     0.00000000    0.00000000    0.00000000
     atom   19 type  2   force =     0.00000000    0.00000000    0.00000000
     atom   20 type  2   force =     0.00000000    0.00000000    0.00000000
     atom   21 type  2   force =     0.00000000    0.00000000    0.00000000
     atom   22 type  2   force =     0.00000000    0.00000000    0.00000000
     atom   23 type  2   force =     0.00000000    0.00000000    0.00000000
     atom   24 type  2   force =     0.00000000    0.00000000    0.00000000
     The SCF correction term to forces
     atom    1 type  1   force =     0.00001738   -0.00000464    0.00090821
     atom    2 type  1   force =    -0.00001451   -0.00002372   -0.00087462
     atom    3 type  1   force =    -0.00001867   -0.00002075    0.00018064
     atom    4 type  1   force =     0.00001142    0.00001768    0.00010084
     atom    5 type  1   force =    -0.00000894    0.00002906   -0.00018445
     atom    6 type  1   force =    -0.00000372   -0.00002844    0.00021593
     atom    7 type  1   force =    -0.00001935   -0.00008025    0.00056494
     atom    8 type  1   force =    -0.00001448    0.00000923   -0.00090513
     atom    9 type  2   force =    -0.00008355    0.00012670    0.00153480
     atom   10 type  2   force =     0.00016611    0.00005835   -0.00188085
     atom   11 type  2   force =    -0.00004994   -0.00005540   -0.00005888
     atom   12 type  2   force =     0.00005764   -0.00006999    0.00058116
     atom   13 type  2   force =    -0.00095375    0.00070624    0.00001014
     atom   14 type  2   force =    -0.00007636    0.00005739   -0.00109248
     atom   15 type  2   force =     0.00016418   -0.00005530   -0.00109681
     atom   16 type  2   force =    -0.00291379   -0.00337026   -0.00051372
     atom   17 type  2   force =    -0.00000995   -0.00003132    0.00004921
     atom   18 type  2   force =    -0.00014785    0.00011644   -0.00092884
     atom   19 type  2   force =     0.00009964    0.00015617    0.00172616
     atom   20 type  2   force =     0.00005942    0.00005286   -0.00072632
     atom   21 type  2   force =     0.00003603    0.00002540   -0.00071396
     atom   22 type  2   force =     0.00024422   -0.00005250    0.00166656
     atom   23 type  2   force =    -0.00013488   -0.00001002   -0.00061530
     atom   24 type  2   force =    -0.00028847   -0.00013884    0.00166957

     Total force =     0.067800     Total SCF correction =     0.006649


     Computing stress (Cartesian axis) and pressure


     negative rho (up, down):  9.279E-03 0.000E+00
          total   stress  (Ry/bohr**3)                   (kbar)     P=       30.41
   0.00015959   0.00002504  -0.00000482           23.48        3.68       -0.71
   0.00002504   0.00019472  -0.00000708            3.68       28.64       -1.04
  -0.00000482  -0.00000708   0.00026586           -0.71       -1.04       39.11


     Writing all to output data dir ./C36/out_logs/C36_out_40/laves_C36.save/
 
     init_run     :      5.88s CPU      6.11s WALL (       1 calls)
     electrons    :   1800.47s CPU   1800.87s WALL (       1 calls)
     forces       :      1.63s CPU      1.63s WALL (       1 calls)
     stress       :      8.23s CPU      8.23s WALL (       1 calls)

     Called by init_run:
     wfcinit      :      1.75s CPU      1.87s WALL (       1 calls)
                                        1.87s GPU  (       1 calls)
     potinit      :      3.13s CPU      3.16s WALL (       1 calls)
     hinit0       :      0.85s CPU      0.87s WALL (       1 calls)

     Called by electrons:
     c_bands      :   1061.94s CPU   1062.24s WALL (     249 calls)
     sum_band     :    168.53s CPU    168.56s WALL (     249 calls)
     v_of_rho     :      6.11s CPU      6.15s WALL (     250 calls)
     newd         :     19.31s CPU     19.33s WALL (     250 calls)
                                       19.33s GPU  (     250 calls)
     PAW_pot      :    520.04s CPU    520.04s WALL (     250 calls)
     mix_rho      :     20.94s CPU     20.99s WALL (     249 calls)

     Called by c_bands:
     init_us_2    :      2.97s CPU      2.97s WALL (    2505 calls)
     init_us_2:gp :      2.94s CPU      2.95s WALL (    2505 calls)
     cegterg      :   1015.76s CPU   1016.01s WALL (    1245 calls)

     Called by *egterg:
     cdiaghg      :     70.86s CPU     71.49s WALL (    3054 calls)
                                       71.47s GPU  (    3054 calls)
     h_psi        :    480.24s CPU    480.47s WALL (    3059 calls)
                                      480.02s GPU  (    3059 calls)
     s_psi        :      2.25s CPU     91.38s WALL (    3059 calls)
                                       90.64s GPU  (    3059 calls)
     g_psi        :      0.01s CPU      1.55s WALL (    1809 calls)
                                        1.52s GPU  (    1809 calls)

     Called by h_psi:
     h_psi:calbec :      0.14s CPU    104.24s WALL (    3059 calls)
                                      104.22s GPU  (    3059 calls)
     vloc_psi     :    282.56s CPU    282.75s WALL (    3059 calls)
                                      282.71s GPU  (    3059 calls)
     add_vuspsi   :      2.66s CPU     91.74s WALL (    3059 calls)
                                       91.58s GPU  (    3059 calls)

     General routines
     calbec       :      0.15s CPU      0.17s WALL (    4329 calls)
     fft          :      2.86s CPU      4.38s WALL (    3273 calls)
                                        1.54s GPU  (    3023 calls)
     ffts         :      0.74s CPU      0.80s WALL (     499 calls)
                                        0.07s GPU  (     249 calls)
     fftw         :      0.62s CPU    304.04s WALL (   90044 calls)
                                      302.95s GPU  (   90044 calls)
     interpolate  :      4.13s CPU      4.13s WALL (     250 calls)
 
     Parallel routines
 
     PWSCF        :  30m16.52s CPU  30m17.26s WALL

 
   This run was terminated on:   5:47:10   7Apr2026            

=------------------------------------------------------------------------------=
   JOB DONE.
=------------------------------------------------------------------------------=
