
     Program PWSCF v.7.2 starts on  7Apr2026 at 22: 5:23 

     This program is part of the open-source Quantum ESPRESSO suite
     for quantum simulation of materials; please cite
         "P. Giannozzi et al., J. Phys.:Condens. Matter 21 395502 (2009);
         "P. Giannozzi et al., J. Phys.:Condens. Matter 29 465901 (2017);
         "P. Giannozzi et al., J. Chem. Phys. 152 154105 (2020);
          URL http://www.quantum-espresso.org", 
     in publications or presentations arising from this work. More details at
     http://www.quantum-espresso.org/quote

     Parallel version (MPI), running on     1 processors

     MPI processes distributed on     1 nodes
     1744 MiB available memory on the printing compute node when the environment starts
 
     Reading input from C36/in/laves_078_0_scf.in
Warning: card &CELL ignored
Warning: card / ignored

     Current dimensions of program PWSCF are:
     Max number of different atomic species (ntypx) = 10
     Max number of k-points (npk) =  40000
     Max angular momentum in pseudopotentials (lmaxx) =  4
     file Mg.pbe-spnl-kjpaw_psl.1.0.0.UPF: wavefunction(s)  2P renormalized
     file Ni.pbe-spn-kjpaw_psl.1.0.0.UPF: wavefunction(s)  3P 3D renormalized
 
     Subspace diagonalization in iterative solution of the eigenvalue problem:
     a serial algorithm will be used

 
     G-vector sticks info
     --------------------
     sticks:   dense  smooth     PW     G-vecs:    dense   smooth      PW
     Sum        2651    1333    367               361209   127669   18997
 
     Using Slab Decomposition
 

     Title: 
     C36_MgNi2                                                                  


     bravais-lattice index     =            0
     lattice parameter (alat)  =       8.9449  a.u.
     unit-cell volume          =    2034.2720 (a.u.)^3
     number of atoms/cell      =           24
     number of atomic types    =            2
     number of electrons       =       368.00
     number of Kohn-Sham states=          221
     kinetic-energy cutoff     =      60.0000  Ry
     charge density cutoff     =     480.0000  Ry
     scf convergence threshold =      1.0E-05
     mixing beta               =       0.2200
     number of iterations used =           22  plain     mixing
     Exchange-correlation= SLA  PW   PBX  PBC
                           (   1   4   3   4   0   0   0)

     GPU acceleration is ACTIVE.


     celldm(1)=   8.944860  celldm(2)=   0.000000  celldm(3)=   0.000000
     celldm(4)=   0.000000  celldm(5)=   0.000000  celldm(6)=   0.000000

     crystal axes: (cart. coord. in units of alat)
               a(1) = (   1.000000   0.000157   0.000244 )  
               a(2) = (  -0.498194   0.865959   0.000278 )  
               a(3) = (  -0.002547   0.001599   3.282099 )  

     reciprocal axes: (cart. coord. in units 2 pi/alat)
               b(1) = (  0.999910  0.575256  0.000496 )  
               b(2) = ( -0.000181  1.154685 -0.000563 )  
               b(3) = ( -0.000074 -0.000141  0.304683 )  


     PseudoPot. # 1 for Mg read from file:
     ./pseudo/Mg.pbe-spnl-kjpaw_psl.1.0.0.UPF
     MD5 check sum: fda14e0d92a6a9a5ebed782e5a4b3067
     Pseudo is Projector augmented-wave + core cor, Zval = 10.0
     Generated using &quot;atomic&quot; code by A. Dal Corso  v.6.3
     Shape of augmentation charge: PSQ
     Using radial grid of 1129 points,  4 beta functions with: 
                l(1) =   0
                l(2) =   0
                l(3) =   1
                l(4) =   1
     Q(r) pseudized with 0 coefficients 


     PseudoPot. # 2 for Ni read from file:
     ./pseudo/Ni.pbe-spn-kjpaw_psl.1.0.0.UPF
     MD5 check sum: 6e86b733589c3ad8389697b807d86aa7
     Pseudo is Projector augmented-wave + core cor, Zval = 18.0
     Generated using &quot;atomic&quot; code by A. Dal Corso  v.6.3
     Shape of augmentation charge: PSQ
     Using radial grid of 1195 points,  6 beta functions with: 
                l(1) =   0
                l(2) =   0
                l(3) =   1
                l(4) =   1
                l(5) =   2
                l(6) =   2
     Q(r) pseudized with 0 coefficients 


     atomic species   valence    mass     pseudopotential
        Mg            10.00    24.30500     Mg( 1.00)
        Ni            18.00    58.69340     Ni( 1.00)

     No symmetry found



   Cartesian axes

     site n.     atom                  positions (alat units)
         1           Mg  tau(   1) = (   0.9971788   0.0008377   1.3325728  )
         2           Mg  tau(   2) = (   0.4965309   0.8674837   2.9734903  )
         3           Mg  tau(   3) = (   0.9979253   0.0012500   1.9508058  )
         4           Mg  tau(   4) = (   0.5024716   0.8643106   0.3099224  )
         5           Mg  tau(   5) = (  -0.0018251   0.5783824   2.1529268  )
         6           Mg  tau(   6) = (   0.5001045   0.2882454   0.5119019  )
         7           Mg  tau(   7) = (   0.5004112   0.2899888   1.1302863  )
         8           Mg  tau(   8) = (  -0.0013359   0.5804330   2.7709012  )
         9           Ni  tau(   9) = (   0.0025098   0.5774252   1.2288721  )
        10           Ni  tau(  10) = (   0.4967524   0.2892258   2.8727679  )
        11           Ni  tau(  11) = (   0.4985188   0.2898332   2.0519550  )
        12           Ni  tau(  12) = (   0.0010772   0.5760796   0.4106470  )
        13           Ni  tau(  13) = (  -0.0006555   0.2887477   0.8204021  )
        14           Ni  tau(  14) = (   0.7470073   0.1483038   2.4609852  )
        15           Ni  tau(  15) = (   0.4996652   0.5790844   2.4638349  )
        16           Ni  tau(  16) = (  -0.2491595   0.7222779   0.8215427  )
        17           Ni  tau(  17) = (   0.2504180   0.7232162   0.8233555  )
        18           Ni  tau(  18) = (   0.2482792   0.1447267   2.4606156  )
        19           Ni  tau(  19) = (   0.4992761   0.0009253   1.6420779  )
        20           Ni  tau(  20) = (   0.2507321   0.4320072   0.0013046  )
        21           Ni  tau(  21) = (   0.0004986   0.8652564   0.0004722  )
        22           Ni  tau(  22) = (   0.2499602   0.4336217   1.6402411  )
        23           Ni  tau(  23) = (   0.7474079   0.4351116   3.2811241  )
        24           Ni  tau(  24) = (  -0.2490963   0.4339847   1.6393612  )

     number of k points=     5  Marzari-Vanderbilt smearing, width (Ry)=  0.0500
                       cart. coord. in units 2pi/alat
        k(    1) = (   0.0000000   0.0000000   0.0000000), wk =   0.2222222
        k(    2) = (  -0.0000603   0.3848949  -0.0001876), wk =   0.4444444
        k(    3) = (   0.3333032   0.1917521   0.0001652), wk =   0.4444444
        k(    4) = (   0.3332430   0.5766470  -0.0000224), wk =   0.4444444
        k(    5) = (   0.3333635  -0.1931428   0.0003528), wk =   0.4444444

     Dense  grid:   361209 G-vectors     FFT dimensions: (  64,  64, 216)

     Smooth grid:   127669 G-vectors     FFT dimensions: (  45,  45, 150)

     Estimated max dynamical RAM per process >       2.02 GB

     Check: negative core charge=   -0.000009

     Initial potential from superposition of free atoms

     starting charge     367.9886, renormalised to     368.0000
     Starting wfcs are  200 randomized atomic wfcs +   21 random wfcs
     Checking if some PAW data can be deallocated... 

     total cpu time spent up to now is        6.9 secs

     Self-consistent Calculation

     iteration #  1     ecut=    60.00 Ry     beta= 0.22
     Davidson diagonalization with overlap
     ethr =  1.00E-02,  avg # of iterations =  5.2

     negative rho (up, down):  1.898E-02 0.000E+00

     total cpu time spent up to now is       17.3 secs

     total energy              =   -7998.41595287 Ry
     estimated scf accuracy    <      67.50107639 Ry

     iteration #  2     ecut=    60.00 Ry     beta= 0.22
     Davidson diagonalization with overlap
     ethr =  1.00E-02,  avg # of iterations =  2.0

     negative rho (up, down):  1.883E-04 0.000E+00

     total cpu time spent up to now is       25.5 secs

     total energy              =   -7996.99462519 Ry
     estimated scf accuracy    <     124.70786083 Ry

     iteration #  3     ecut=    60.00 Ry     beta= 0.22
     Davidson diagonalization with overlap
     ethr =  1.00E-02,  avg # of iterations =  2.0

     negative rho (up, down):  2.738E-04 0.000E+00

     total cpu time spent up to now is       33.8 secs

     total energy              =   -7986.43539318 Ry
     estimated scf accuracy    <      84.38316348 Ry

     iteration #  4     ecut=    60.00 Ry     beta= 0.22
     Davidson diagonalization with overlap
     ethr =  1.00E-02,  avg # of iterations =  4.6

     negative rho (up, down):  7.995E-03 0.000E+00

     total cpu time spent up to now is       43.7 secs

     total energy              =   -7974.26560346 Ry
     estimated scf accuracy    <    1372.15911483 Ry

     iteration #  5     ecut=    60.00 Ry     beta= 0.22
     Davidson diagonalization with overlap
     ethr =  1.00E-02,  avg # of iterations =  3.6

     negative rho (up, down):  1.873E-02 0.000E+00

     total cpu time spent up to now is       52.8 secs

     total energy              =   -7995.11340562 Ry
     estimated scf accuracy    <     166.17090296 Ry

     iteration #  6     ecut=    60.00 Ry     beta= 0.22
     Davidson diagonalization with overlap
     ethr =  1.00E-02,  avg # of iterations =  1.8

     negative rho (up, down):  2.585E-02 0.000E+00

     total cpu time spent up to now is       60.9 secs

     total energy              =   -7998.12808434 Ry
     estimated scf accuracy    <     123.73335262 Ry

     iteration #  7     ecut=    60.00 Ry     beta= 0.22
     Davidson diagonalization with overlap
     ethr =  1.00E-02,  avg # of iterations =  1.0

     negative rho (up, down):  3.752E-02 0.000E+00

     total cpu time spent up to now is       68.2 secs

     total energy              =   -7999.04625259 Ry
     estimated scf accuracy    <      87.46989591 Ry

     iteration #  8     ecut=    60.00 Ry     beta= 0.22
     Davidson diagonalization with overlap
     ethr =  1.00E-02,  avg # of iterations =  1.0

     negative rho (up, down):  2.850E-02 0.000E+00

     total cpu time spent up to now is       75.3 secs

     total energy              =   -7999.63581822 Ry
     estimated scf accuracy    <      55.09423767 Ry

     iteration #  9     ecut=    60.00 Ry     beta= 0.22
     Davidson diagonalization with overlap
     ethr =  1.00E-02,  avg # of iterations =  1.0

     negative rho (up, down):  1.449E-02 0.000E+00

     total cpu time spent up to now is       82.5 secs

     total energy              =   -7999.15335686 Ry
     estimated scf accuracy    <      51.37602711 Ry

     iteration # 10     ecut=    60.00 Ry     beta= 0.22
     Davidson diagonalization with overlap
     ethr =  1.00E-02,  avg # of iterations =  1.0

     negative rho (up, down):  1.816E-02 0.000E+00

     total cpu time spent up to now is       89.8 secs

     total energy              =   -7999.39471252 Ry
     estimated scf accuracy    <      57.22586294 Ry

     iteration # 11     ecut=    60.00 Ry     beta= 0.22
     Davidson diagonalization with overlap
     ethr =  1.00E-02,  avg # of iterations =  1.0

     negative rho (up, down):  3.230E-02 0.000E+00

     total cpu time spent up to now is       96.7 secs

     total energy              =   -7999.31387399 Ry
     estimated scf accuracy    <      49.93915486 Ry

     iteration # 12     ecut=    60.00 Ry     beta= 0.22
     Davidson diagonalization with overlap
     ethr =  1.00E-02,  avg # of iterations =  1.0

     negative rho (up, down):  3.272E-02 0.000E+00

     total cpu time spent up to now is      103.8 secs

     total energy              =   -7999.58852643 Ry
     estimated scf accuracy    <      66.99573447 Ry

     iteration # 13     ecut=    60.00 Ry     beta= 0.22
     Davidson diagonalization with overlap
     ethr =  1.00E-02,  avg # of iterations =  1.0

     negative rho (up, down):  2.219E-02 0.000E+00

     total cpu time spent up to now is      110.6 secs

     total energy              =   -7998.57551568 Ry
     estimated scf accuracy    <      67.28098523 Ry

     iteration # 14     ecut=    60.00 Ry     beta= 0.22
     Davidson diagonalization with overlap
     ethr =  1.00E-02,  avg # of iterations =  2.0

     negative rho (up, down):  2.456E-02 0.000E+00

     total cpu time spent up to now is      118.5 secs

     total energy              =   -7998.99405989 Ry
     estimated scf accuracy    <      85.56701108 Ry

     iteration # 15     ecut=    60.00 Ry     beta= 0.22
     Davidson diagonalization with overlap
     ethr =  1.00E-02,  avg # of iterations =  1.0

     negative rho (up, down):  2.390E-02 0.000E+00

     total cpu time spent up to now is      125.9 secs

     total energy              =   -7999.24788073 Ry
     estimated scf accuracy    <      48.65115248 Ry

     iteration # 16     ecut=    60.00 Ry     beta= 0.22
     Davidson diagonalization with overlap
     ethr =  1.00E-02,  avg # of iterations =  1.0

     negative rho (up, down):  3.970E-03 0.000E+00

     total cpu time spent up to now is      132.9 secs

     total energy              =   -7999.02178066 Ry
     estimated scf accuracy    <      48.22443758 Ry

     iteration # 17     ecut=    60.00 Ry     beta= 0.22
     Davidson diagonalization with overlap
     ethr =  1.00E-02,  avg # of iterations =  1.0

     total cpu time spent up to now is      139.7 secs

     total energy              =   -7998.55310242 Ry
     estimated scf accuracy    <      39.89662537 Ry

     iteration # 18     ecut=    60.00 Ry     beta= 0.22
     Davidson diagonalization with overlap
     ethr =  1.00E-02,  avg # of iterations =  1.2

     total cpu time spent up to now is      146.7 secs

     total energy              =   -7998.61277298 Ry
     estimated scf accuracy    <      37.96111742 Ry

     iteration # 19     ecut=    60.00 Ry     beta= 0.22
     Davidson diagonalization with overlap
     ethr =  1.00E-02,  avg # of iterations =  1.0

     negative rho (up, down):  3.232E-04 0.000E+00

     total cpu time spent up to now is      153.6 secs

     total energy              =   -7998.73776403 Ry
     estimated scf accuracy    <      34.10733249 Ry

     iteration # 20     ecut=    60.00 Ry     beta= 0.22
     Davidson diagonalization with overlap
     ethr =  9.27E-03,  avg # of iterations =  1.0

     negative rho (up, down):  1.369E-03 0.000E+00

     total cpu time spent up to now is      160.5 secs

     total energy              =   -7998.80013819 Ry
     estimated scf accuracy    <      32.06618497 Ry

     iteration # 21     ecut=    60.00 Ry     beta= 0.22
     Davidson diagonalization with overlap
     ethr =  8.71E-03,  avg # of iterations =  1.0

     negative rho (up, down):  1.234E-03 0.000E+00

     total cpu time spent up to now is      167.8 secs

     total energy              =   -7998.87200240 Ry
     estimated scf accuracy    <      31.39574083 Ry

     iteration # 22     ecut=    60.00 Ry     beta= 0.22
     Davidson diagonalization with overlap
     ethr =  8.53E-03,  avg # of iterations =  1.0

     negative rho (up, down):  1.513E-03 0.000E+00

     total cpu time spent up to now is      175.1 secs

     total energy              =   -7998.86258724 Ry
     estimated scf accuracy    <      32.17447117 Ry

     iteration # 23     ecut=    60.00 Ry     beta= 0.22
     Davidson diagonalization with overlap
     ethr =  8.53E-03,  avg # of iterations =  1.0

     negative rho (up, down):  1.555E-03 0.000E+00

     total cpu time spent up to now is      182.5 secs

     total energy              =   -7998.87460640 Ry
     estimated scf accuracy    <      31.94063425 Ry

     iteration # 24     ecut=    60.00 Ry     beta= 0.22
     Davidson diagonalization with overlap
     ethr =  8.53E-03,  avg # of iterations =  1.0

     negative rho (up, down):  5.675E-03 0.000E+00

     total cpu time spent up to now is      189.9 secs

     total energy              =   -7998.53743949 Ry
     estimated scf accuracy    <      31.95290272 Ry

     iteration # 25     ecut=    60.00 Ry     beta= 0.22
     Davidson diagonalization with overlap
     ethr =  8.53E-03,  avg # of iterations =  1.0

     negative rho (up, down):  3.431E-03 0.000E+00

     total cpu time spent up to now is      197.2 secs

     total energy              =   -7997.78846149 Ry
     estimated scf accuracy    <      27.80540555 Ry

     iteration # 26     ecut=    60.00 Ry     beta= 0.22
     Davidson diagonalization with overlap
     ethr =  7.56E-03,  avg # of iterations =  1.6

     negative rho (up, down):  1.003E-01 0.000E+00

     total cpu time spent up to now is      205.0 secs

     total energy              =   -7995.80579895 Ry
     estimated scf accuracy    <      46.09508957 Ry

     iteration # 27     ecut=    60.00 Ry     beta= 0.22
     Davidson diagonalization with overlap
     ethr =  7.56E-03,  avg # of iterations =  1.6

     negative rho (up, down):  3.527E-02 0.000E+00

     total cpu time spent up to now is      212.8 secs

     total energy              =   -7995.60856722 Ry
     estimated scf accuracy    <     117.20337230 Ry

     iteration # 28     ecut=    60.00 Ry     beta= 0.22
     Davidson diagonalization with overlap
     ethr =  7.56E-03,  avg # of iterations =  1.0

     negative rho (up, down):  4.634E-02 0.000E+00

     total cpu time spent up to now is      220.3 secs

     total energy              =   -7998.13802465 Ry
     estimated scf accuracy    <      21.40537196 Ry

     iteration # 29     ecut=    60.00 Ry     beta= 0.22
     Davidson diagonalization with overlap
     ethr =  5.82E-03,  avg # of iterations =  1.0

     negative rho (up, down):  7.420E-02 0.000E+00

     total cpu time spent up to now is      227.8 secs

     total energy              =   -7997.97409183 Ry
     estimated scf accuracy    <      24.96162159 Ry

     iteration # 30     ecut=    60.00 Ry     beta= 0.22
     Davidson diagonalization with overlap
     ethr =  5.82E-03,  avg # of iterations =  1.2

     negative rho (up, down):  9.985E-02 0.000E+00

     total cpu time spent up to now is      235.6 secs

     total energy              =   -7998.11047435 Ry
     estimated scf accuracy    <      26.26198784 Ry

     iteration # 31     ecut=    60.00 Ry     beta= 0.22
     Davidson diagonalization with overlap
     ethr =  5.82E-03,  avg # of iterations =  1.0

     negative rho (up, down):  1.467E-01 0.000E+00

     total cpu time spent up to now is      243.2 secs

     total energy              =   -7997.91789962 Ry
     estimated scf accuracy    <      59.49869396 Ry

     iteration # 32     ecut=    60.00 Ry     beta= 0.22
     Davidson diagonalization with overlap
     ethr =  5.82E-03,  avg # of iterations =  1.0

     negative rho (up, down):  1.452E-01 0.000E+00

     total cpu time spent up to now is      250.8 secs

     total energy              =   -7998.60035409 Ry
     estimated scf accuracy    <      43.63038157 Ry

     iteration # 33     ecut=    60.00 Ry     beta= 0.22
     Davidson diagonalization with overlap
     ethr =  5.82E-03,  avg # of iterations =  1.0

     negative rho (up, down):  9.701E-02 0.000E+00

     total cpu time spent up to now is      258.3 secs

     total energy              =   -7998.10752226 Ry
     estimated scf accuracy    <      45.64188501 Ry

     iteration # 34     ecut=    60.00 Ry     beta= 0.22
     Davidson diagonalization with overlap
     ethr =  5.82E-03,  avg # of iterations =  1.0

     negative rho (up, down):  6.037E-02 0.000E+00

     total cpu time spent up to now is      265.9 secs

     total energy              =   -7998.18510037 Ry
     estimated scf accuracy    <      25.93770241 Ry

     iteration # 35     ecut=    60.00 Ry     beta= 0.22
     Davidson diagonalization with overlap
     ethr =  5.82E-03,  avg # of iterations =  1.0

     negative rho (up, down):  1.058E-02 0.000E+00

     total cpu time spent up to now is      273.3 secs

     total energy              =   -7997.77519550 Ry
     estimated scf accuracy    <      22.44959549 Ry

     iteration # 36     ecut=    60.00 Ry     beta= 0.22
     Davidson diagonalization with overlap
     ethr =  5.82E-03,  avg # of iterations =  1.2

     negative rho (up, down):  8.871E-03 0.000E+00

     total cpu time spent up to now is      281.0 secs

     total energy              =   -7997.52920223 Ry
     estimated scf accuracy    <      22.31578551 Ry

     iteration # 37     ecut=    60.00 Ry     beta= 0.22
     Davidson diagonalization with overlap
     ethr =  5.82E-03,  avg # of iterations =  1.0

     negative rho (up, down):  9.876E-03 0.000E+00

     total cpu time spent up to now is      288.5 secs

     total energy              =   -7997.82428721 Ry
     estimated scf accuracy    <      14.51547826 Ry

     iteration # 38     ecut=    60.00 Ry     beta= 0.22
     Davidson diagonalization with overlap
     ethr =  3.94E-03,  avg # of iterations =  1.0

     negative rho (up, down):  9.455E-03 0.000E+00

     total cpu time spent up to now is      296.1 secs

     total energy              =   -7997.77267033 Ry
     estimated scf accuracy    <       8.46087902 Ry

     iteration # 39     ecut=    60.00 Ry     beta= 0.22
     Davidson diagonalization with overlap
     ethr =  2.30E-03,  avg # of iterations =  1.2

     negative rho (up, down):  1.276E-02 0.000E+00

     total cpu time spent up to now is      303.7 secs

     total energy              =   -7997.87912501 Ry
     estimated scf accuracy    <      10.43628929 Ry

     iteration # 40     ecut=    60.00 Ry     beta= 0.22
     Davidson diagonalization with overlap
     ethr =  2.30E-03,  avg # of iterations =  1.0

     negative rho (up, down):  1.399E-02 0.000E+00

     total cpu time spent up to now is      311.3 secs

     total energy              =   -7997.89311244 Ry
     estimated scf accuracy    <       7.78686581 Ry

     iteration # 41     ecut=    60.00 Ry     beta= 0.22
     Davidson diagonalization with overlap
     ethr =  2.12E-03,  avg # of iterations =  1.0

     negative rho (up, down):  1.518E-02 0.000E+00

     total cpu time spent up to now is      318.8 secs

     total energy              =   -7997.91553519 Ry
     estimated scf accuracy    <       5.19318496 Ry

     iteration # 42     ecut=    60.00 Ry     beta= 0.22
     Davidson diagonalization with overlap
     ethr =  1.41E-03,  avg # of iterations =  1.0

     negative rho (up, down):  1.350E-02 0.000E+00

     total cpu time spent up to now is      326.4 secs

     total energy              =   -7997.90951746 Ry
     estimated scf accuracy    <       4.88371567 Ry

     iteration # 43     ecut=    60.00 Ry     beta= 0.22
     Davidson diagonalization with overlap
     ethr =  1.33E-03,  avg # of iterations =  1.0

     negative rho (up, down):  1.334E-02 0.000E+00

     total cpu time spent up to now is      333.9 secs

     total energy              =   -7997.92632034 Ry
     estimated scf accuracy    <       4.83456794 Ry

     iteration # 44     ecut=    60.00 Ry     beta= 0.22
     Davidson diagonalization with overlap
     ethr =  1.31E-03,  avg # of iterations =  1.0

     negative rho (up, down):  1.458E-02 0.000E+00

     total cpu time spent up to now is      341.5 secs

     total energy              =   -7997.91883419 Ry
     estimated scf accuracy    <       4.52731271 Ry

     iteration # 45     ecut=    60.00 Ry     beta= 0.22
     Davidson diagonalization with overlap
     ethr =  1.23E-03,  avg # of iterations =  1.0

     negative rho (up, down):  1.293E-02 0.000E+00

     total cpu time spent up to now is      349.0 secs

     total energy              =   -7997.88128435 Ry
     estimated scf accuracy    <       5.61275222 Ry

     iteration # 46     ecut=    60.00 Ry     beta= 0.22
     Davidson diagonalization with overlap
     ethr =  1.23E-03,  avg # of iterations =  1.0

     negative rho (up, down):  8.157E-03 0.000E+00

     total cpu time spent up to now is      356.6 secs

     total energy              =   -7997.86016854 Ry
     estimated scf accuracy    <       5.74914444 Ry

     iteration # 47     ecut=    60.00 Ry     beta= 0.22
     Davidson diagonalization with overlap
     ethr =  1.23E-03,  avg # of iterations =  1.0

     negative rho (up, down):  4.447E-03 0.000E+00

     total cpu time spent up to now is      364.1 secs

     total energy              =   -7997.90290671 Ry
     estimated scf accuracy    <       4.14793352 Ry

     iteration # 48     ecut=    60.00 Ry     beta= 0.22
     Davidson diagonalization with overlap
     ethr =  1.13E-03,  avg # of iterations =  1.2

     negative rho (up, down):  4.107E-03 0.000E+00

     total cpu time spent up to now is      371.8 secs

     total energy              =   -7997.86977883 Ry
     estimated scf accuracy    <       4.49318947 Ry

     iteration # 49     ecut=    60.00 Ry     beta= 0.22
     Davidson diagonalization with overlap
     ethr =  1.13E-03,  avg # of iterations =  1.0

     negative rho (up, down):  5.552E-03 0.000E+00

     total cpu time spent up to now is      379.3 secs

     total energy              =   -7997.80415217 Ry
     estimated scf accuracy    <       2.80095270 Ry

     iteration # 50     ecut=    60.00 Ry     beta= 0.22
     Davidson diagonalization with overlap
     ethr =  7.61E-04,  avg # of iterations =  1.6

     negative rho (up, down):  1.450E-03 0.000E+00

     total cpu time spent up to now is      387.4 secs

     total energy              =   -7997.24473208 Ry
     estimated scf accuracy    <      15.10679911 Ry

     iteration # 51     ecut=    60.00 Ry     beta= 0.22
     Davidson diagonalization with overlap
     ethr =  7.61E-04,  avg # of iterations =  2.0

     negative rho (up, down):  4.703E-03 0.000E+00

     total cpu time spent up to now is      395.7 secs

     total energy              =   -7996.84347446 Ry
     estimated scf accuracy    <      52.51242452 Ry

     iteration # 52     ecut=    60.00 Ry     beta= 0.22
     Davidson diagonalization with overlap
     ethr =  7.61E-04,  avg # of iterations =  1.6

     negative rho (up, down):  4.323E-03 0.000E+00

     total cpu time spent up to now is      403.8 secs

     total energy              =   -7997.83911193 Ry
     estimated scf accuracy    <       2.35749491 Ry

     iteration # 53     ecut=    60.00 Ry     beta= 0.22
     Davidson diagonalization with overlap
     ethr =  6.41E-04,  avg # of iterations =  1.0

     negative rho (up, down):  4.265E-03 0.000E+00

     total cpu time spent up to now is      411.3 secs

     total energy              =   -7997.84262007 Ry
     estimated scf accuracy    <       1.15501317 Ry

     iteration # 54     ecut=    60.00 Ry     beta= 0.22
     Davidson diagonalization with overlap
     ethr =  3.14E-04,  avg # of iterations =  1.0

     negative rho (up, down):  4.216E-03 0.000E+00

     total cpu time spent up to now is      418.9 secs

     total energy              =   -7997.83582786 Ry
     estimated scf accuracy    <       0.73044524 Ry

     iteration # 55     ecut=    60.00 Ry     beta= 0.22
     Davidson diagonalization with overlap
     ethr =  1.98E-04,  avg # of iterations =  1.0

     negative rho (up, down):  3.355E-03 0.000E+00

     total cpu time spent up to now is      426.3 secs

     total energy              =   -7997.83541900 Ry
     estimated scf accuracy    <       0.80009822 Ry

     iteration # 56     ecut=    60.00 Ry     beta= 0.22
     Davidson diagonalization with overlap
     ethr =  1.98E-04,  avg # of iterations =  1.0

     negative rho (up, down):  3.630E-03 0.000E+00

     total cpu time spent up to now is      433.8 secs

     total energy              =   -7997.83685036 Ry
     estimated scf accuracy    <       0.65615592 Ry

     iteration # 57     ecut=    60.00 Ry     beta= 0.22
     Davidson diagonalization with overlap
     ethr =  1.78E-04,  avg # of iterations =  1.0

     negative rho (up, down):  3.563E-03 0.000E+00

     total cpu time spent up to now is      441.3 secs

     total energy              =   -7997.83657713 Ry
     estimated scf accuracy    <       0.36297290 Ry

     iteration # 58     ecut=    60.00 Ry     beta= 0.22
     Davidson diagonalization with overlap
     ethr =  9.86E-05,  avg # of iterations =  1.2

     negative rho (up, down):  3.494E-03 0.000E+00

     total cpu time spent up to now is      449.1 secs

     total energy              =   -7997.83738860 Ry
     estimated scf accuracy    <       0.35778255 Ry

     iteration # 59     ecut=    60.00 Ry     beta= 0.22
     Davidson diagonalization with overlap
     ethr =  9.72E-05,  avg # of iterations =  1.0

     negative rho (up, down):  3.559E-03 0.000E+00

     total cpu time spent up to now is      456.6 secs

     total energy              =   -7997.83853030 Ry
     estimated scf accuracy    <       0.24967292 Ry

     iteration # 60     ecut=    60.00 Ry     beta= 0.22
     Davidson diagonalization with overlap
     ethr =  6.78E-05,  avg # of iterations =  3.0

     negative rho (up, down):  3.753E-03 0.000E+00

     total cpu time spent up to now is      464.8 secs

     total energy              =   -7997.84163871 Ry
     estimated scf accuracy    <       0.48843749 Ry

     iteration # 61     ecut=    60.00 Ry     beta= 0.22
     Davidson diagonalization with overlap
     ethr =  6.78E-05,  avg # of iterations =  1.0

     negative rho (up, down):  3.065E-03 0.000E+00

     total cpu time spent up to now is      472.3 secs

     total energy              =   -7997.83117804 Ry
     estimated scf accuracy    <       0.51658729 Ry

     iteration # 62     ecut=    60.00 Ry     beta= 0.22
     Davidson diagonalization with overlap
     ethr =  6.78E-05,  avg # of iterations =  2.0

     negative rho (up, down):  3.250E-03 0.000E+00

     total cpu time spent up to now is      480.7 secs

     total energy              =   -7997.83276816 Ry
     estimated scf accuracy    <       0.46952526 Ry

     iteration # 63     ecut=    60.00 Ry     beta= 0.22
     Davidson diagonalization with overlap
     ethr =  6.78E-05,  avg # of iterations =  1.0

     negative rho (up, down):  3.343E-03 0.000E+00

     total cpu time spent up to now is      488.3 secs

     total energy              =   -7997.84438656 Ry
     estimated scf accuracy    <       0.29242560 Ry

     iteration # 64     ecut=    60.00 Ry     beta= 0.22
     Davidson diagonalization with overlap
     ethr =  6.78E-05,  avg # of iterations =  1.0

     negative rho (up, down):  3.324E-03 0.000E+00

     total cpu time spent up to now is      495.9 secs

     total energy              =   -7997.84488378 Ry
     estimated scf accuracy    <       0.38221054 Ry

     iteration # 65     ecut=    60.00 Ry     beta= 0.22
     Davidson diagonalization with overlap
     ethr =  6.78E-05,  avg # of iterations =  1.0

     negative rho (up, down):  3.229E-03 0.000E+00

     total cpu time spent up to now is      503.4 secs

     total energy              =   -7997.84574061 Ry
     estimated scf accuracy    <       0.36129928 Ry

     iteration # 66     ecut=    60.00 Ry     beta= 0.22
     Davidson diagonalization with overlap
     ethr =  6.78E-05,  avg # of iterations =  1.0

     negative rho (up, down):  3.136E-03 0.000E+00

     total cpu time spent up to now is      511.0 secs

     total energy              =   -7997.84592468 Ry
     estimated scf accuracy    <       0.39006465 Ry

     iteration # 67     ecut=    60.00 Ry     beta= 0.22
     Davidson diagonalization with overlap
     ethr =  6.78E-05,  avg # of iterations =  1.0

     negative rho (up, down):  3.083E-03 0.000E+00

     total cpu time spent up to now is      518.6 secs

     total energy              =   -7997.84456089 Ry
     estimated scf accuracy    <       0.31460899 Ry

     iteration # 68     ecut=    60.00 Ry     beta= 0.22
     Davidson diagonalization with overlap
     ethr =  6.78E-05,  avg # of iterations =  1.0

     negative rho (up, down):  3.090E-03 0.000E+00

     total cpu time spent up to now is      526.1 secs

     total energy              =   -7997.84475965 Ry
     estimated scf accuracy    <       0.23902003 Ry

     iteration # 69     ecut=    60.00 Ry     beta= 0.22
     Davidson diagonalization with overlap
     ethr =  6.50E-05,  avg # of iterations =  1.0

     negative rho (up, down):  3.069E-03 0.000E+00

     total cpu time spent up to now is      533.7 secs

     total energy              =   -7997.84214224 Ry
     estimated scf accuracy    <       0.21097403 Ry

     iteration # 70     ecut=    60.00 Ry     beta= 0.22
     Davidson diagonalization with overlap
     ethr =  5.73E-05,  avg # of iterations =  1.0

     negative rho (up, down):  2.916E-03 0.000E+00

     total cpu time spent up to now is      541.3 secs

     total energy              =   -7997.83371175 Ry
     estimated scf accuracy    <       0.25643320 Ry

     iteration # 71     ecut=    60.00 Ry     beta= 0.22
     Davidson diagonalization with overlap
     ethr =  5.73E-05,  avg # of iterations =  1.4

     negative rho (up, down):  3.013E-03 0.000E+00

     total cpu time spent up to now is      549.2 secs

     total energy              =   -7997.83834932 Ry
     estimated scf accuracy    <       0.19013035 Ry

     iteration # 72     ecut=    60.00 Ry     beta= 0.22
     Davidson diagonalization with overlap
     ethr =  5.17E-05,  avg # of iterations =  1.0

     negative rho (up, down):  3.091E-03 0.000E+00

     total cpu time spent up to now is      556.7 secs

     total energy              =   -7997.83963824 Ry
     estimated scf accuracy    <       0.04276814 Ry

     iteration # 73     ecut=    60.00 Ry     beta= 0.22
     Davidson diagonalization with overlap
     ethr =  1.16E-05,  avg # of iterations =  1.4

     negative rho (up, down):  2.965E-03 0.000E+00

     total cpu time spent up to now is      564.6 secs

     total energy              =   -7997.84023737 Ry
     estimated scf accuracy    <       0.01936429 Ry

     iteration # 74     ecut=    60.00 Ry     beta= 0.22
     Davidson diagonalization with overlap
     ethr =  5.26E-06,  avg # of iterations =  2.0

     negative rho (up, down):  3.129E-03 0.000E+00

     total cpu time spent up to now is      573.1 secs

     total energy              =   -7997.84061970 Ry
     estimated scf accuracy    <       0.01093346 Ry

     iteration # 75     ecut=    60.00 Ry     beta= 0.22
     Davidson diagonalization with overlap
     ethr =  2.97E-06,  avg # of iterations =  5.4

     negative rho (up, down):  3.101E-03 0.000E+00

     total cpu time spent up to now is      582.4 secs

     total energy              =   -7997.84108058 Ry
     estimated scf accuracy    <       0.00493108 Ry

     iteration # 76     ecut=    60.00 Ry     beta= 0.22
     Davidson diagonalization with overlap
     ethr =  1.34E-06,  avg # of iterations =  4.2

     negative rho (up, down):  3.039E-03 0.000E+00

     total cpu time spent up to now is      591.1 secs

     total energy              =   -7997.84111091 Ry
     estimated scf accuracy    <       0.00237684 Ry

     iteration # 77     ecut=    60.00 Ry     beta= 0.22
     Davidson diagonalization with overlap
     ethr =  6.46E-07,  avg # of iterations =  1.0

     negative rho (up, down):  3.049E-03 0.000E+00

     total cpu time spent up to now is      598.6 secs

     total energy              =   -7997.84109693 Ry
     estimated scf accuracy    <       0.00135668 Ry

     iteration # 78     ecut=    60.00 Ry     beta= 0.22
     Davidson diagonalization with overlap
     ethr =  3.69E-07,  avg # of iterations =  1.6

     negative rho (up, down):  3.050E-03 0.000E+00

     total cpu time spent up to now is      606.6 secs

     total energy              =   -7997.84110883 Ry
     estimated scf accuracy    <       0.00055552 Ry

     iteration # 79     ecut=    60.00 Ry     beta= 0.22
     Davidson diagonalization with overlap
     ethr =  1.51E-07,  avg # of iterations =  1.0

     negative rho (up, down):  3.044E-03 0.000E+00

     total cpu time spent up to now is      614.1 secs

     total energy              =   -7997.84111128 Ry
     estimated scf accuracy    <       0.00037390 Ry

     iteration # 80     ecut=    60.00 Ry     beta= 0.22
     Davidson diagonalization with overlap
     ethr =  1.02E-07,  avg # of iterations =  1.8

     negative rho (up, down):  3.038E-03 0.000E+00

     total cpu time spent up to now is      622.2 secs

     total energy              =   -7997.84112006 Ry
     estimated scf accuracy    <       0.00042478 Ry

     iteration # 81     ecut=    60.00 Ry     beta= 0.22
     Davidson diagonalization with overlap
     ethr =  1.02E-07,  avg # of iterations =  1.0

     negative rho (up, down):  3.040E-03 0.000E+00

     total cpu time spent up to now is      629.7 secs

     total energy              =   -7997.84113381 Ry
     estimated scf accuracy    <       0.00032970 Ry

     iteration # 82     ecut=    60.00 Ry     beta= 0.22
     Davidson diagonalization with overlap
     ethr =  8.96E-08,  avg # of iterations =  1.4

     negative rho (up, down):  3.043E-03 0.000E+00

     total cpu time spent up to now is      637.5 secs

     total energy              =   -7997.84114733 Ry
     estimated scf accuracy    <       0.00037243 Ry

     iteration # 83     ecut=    60.00 Ry     beta= 0.22
     Davidson diagonalization with overlap
     ethr =  8.96E-08,  avg # of iterations =  1.0

     negative rho (up, down):  3.044E-03 0.000E+00

     total cpu time spent up to now is      645.2 secs

     total energy              =   -7997.84114914 Ry
     estimated scf accuracy    <       0.00020531 Ry

     iteration # 84     ecut=    60.00 Ry     beta= 0.22
     Davidson diagonalization with overlap
     ethr =  5.58E-08,  avg # of iterations =  1.6

     negative rho (up, down):  3.047E-03 0.000E+00

     total cpu time spent up to now is      653.2 secs

     total energy              =   -7997.84114756 Ry
     estimated scf accuracy    <       0.00018442 Ry

     iteration # 85     ecut=    60.00 Ry     beta= 0.22
     Davidson diagonalization with overlap
     ethr =  5.01E-08,  avg # of iterations =  1.0

     negative rho (up, down):  3.050E-03 0.000E+00

     total cpu time spent up to now is      660.8 secs

     total energy              =   -7997.84114601 Ry
     estimated scf accuracy    <       0.00013257 Ry

     iteration # 86     ecut=    60.00 Ry     beta= 0.22
     Davidson diagonalization with overlap
     ethr =  3.60E-08,  avg # of iterations =  1.6

     negative rho (up, down):  3.057E-03 0.000E+00

     total cpu time spent up to now is      668.8 secs

     total energy              =   -7997.84114337 Ry
     estimated scf accuracy    <       0.00006761 Ry

     iteration # 87     ecut=    60.00 Ry     beta= 0.22
     Davidson diagonalization with overlap
     ethr =  1.84E-08,  avg # of iterations =  2.0

     negative rho (up, down):  3.053E-03 0.000E+00

     total cpu time spent up to now is      677.4 secs

     total energy              =   -7997.84114612 Ry
     estimated scf accuracy    <       0.00011163 Ry

     iteration # 88     ecut=    60.00 Ry     beta= 0.22
     Davidson diagonalization with overlap
     ethr =  1.84E-08,  avg # of iterations =  1.2

     negative rho (up, down):  3.052E-03 0.000E+00

     total cpu time spent up to now is      685.1 secs

     total energy              =   -7997.84114847 Ry
     estimated scf accuracy    <       0.00002713 Ry

     iteration # 89     ecut=    60.00 Ry     beta= 0.22
     Davidson diagonalization with overlap
     ethr =  7.37E-09,  avg # of iterations =  1.4

     negative rho (up, down):  3.051E-03 0.000E+00

     total cpu time spent up to now is      693.0 secs

     total energy              =   -7997.84114926 Ry
     estimated scf accuracy    <       0.00001191 Ry

     iteration # 90     ecut=    60.00 Ry     beta= 0.22
     Davidson diagonalization with overlap
     ethr =  3.24E-09,  avg # of iterations =  2.0

     negative rho (up, down):  3.081E-03 0.000E+00

     total cpu time spent up to now is      701.3 secs

     End of self-consistent calculation

          k = 0.0000 0.0000 0.0000 ( 15863 PWs)   bands (ev):

   -89.3094 -89.3023 -89.2960 -89.2928 -89.2688 -89.2666 -89.2448 -89.2442
   -89.2432 -89.2402 -89.2380 -89.2373 -89.2174 -89.2162 -89.2114 -89.2089
   -61.3663 -61.3645 -61.3625 -61.3575 -61.3057 -61.3046 -61.3016 -61.2986
   -49.9900 -49.9755 -49.9543 -49.9211 -49.8660 -49.8245 -49.8076 -49.7856
   -49.7492 -49.7469 -49.7462 -49.7410 -49.7267 -49.7243 -49.7225 -49.7213
   -49.6461 -49.6426 -49.6390 -49.6378 -49.6077 -49.6032 -49.5993 -49.5988
   -49.5963 -49.5956 -49.5672 -49.5662 -49.5563 -49.5556 -49.5529 -49.5484
   -49.5459 -49.5453 -49.5444 -49.5438 -49.5421 -49.5411 -49.5395 -49.5359
   -49.4870 -49.4862 -49.4839 -49.4829 -49.4795 -49.4781 -49.4534 -49.4520
   -28.1197 -28.1188 -28.1165 -28.1156 -28.1147 -28.1144 -28.1125 -28.1115
   -28.1078 -28.1069 -28.0969 -28.0947 -28.0591 -28.0586 -28.0493 -28.0489
   -28.0484 -28.0480 -28.0454 -28.0446 -28.0425 -28.0413 -28.0364 -28.0350
     5.1605   5.7813   5.8223   7.2855   7.9747   9.2237   9.2278   9.3034
     9.8992   9.9213  10.0169  10.1541  10.2751  10.2896  10.2968  10.3258
    10.3389  10.3486  10.4628  10.4689  10.5340  10.5960  10.6039  10.6354
    10.6546  10.6652  10.7501  10.7575  10.8213  10.8284  11.1621  11.1660
    11.1985  11.2046  11.2058  11.2101  11.4502  11.4566  11.6274  11.6407
    11.6495  11.6878  11.6907  11.6949  11.8910  11.9028  12.1743  12.3697
    12.3925  12.4365  12.4399  12.4584  12.6096  12.6133  12.7567  12.7619
    12.8882  12.8997  13.0141  13.0214  13.0240  13.0256  13.0271  13.0298
    13.0323  13.0488  13.0566  13.0594  13.0604  13.0675  13.0687  13.0750
    13.0834  13.1486  13.1511  13.1567  13.1577  13.2727  13.2741  13.6207
    13.6225  13.9147  13.9182  14.1400  14.1416  14.1659  14.1664  14.4528
    14.6373  14.8156  14.8742  14.8821  14.8876  14.8965  14.9150  15.0301
    15.2487  15.2591  15.3256  15.3355  16.6920  16.6983  16.7175  16.7332
    17.2353  17.2546  17.6333  17.6474  18.3226  18.3507  18.3617  18.6082
    18.6928  18.8809  19.2721  19.2958  19.6960  19.7069  20.0817  20.3429
    20.3641  20.6413  20.8564  22.2398  22.3770

          k =-0.0001 0.3849-0.0002 ( 15979 PWs)   bands (ev):

   -89.3083 -89.3009 -89.2952 -89.2922 -89.2637 -89.2624 -89.2494 -89.2437
   -89.2402 -89.2391 -89.2388 -89.2382 -89.2238 -89.2207 -89.2135 -89.2100
   -61.3662 -61.3644 -61.3624 -61.3574 -61.3058 -61.3047 -61.3017 -61.2987
   -49.9537 -49.9423 -49.9209 -49.8784 -49.8758 -49.8225 -49.8106 -49.7875
   -49.7616 -49.7578 -49.7397 -49.7388 -49.7347 -49.7322 -49.7089 -49.7065
   -49.6518 -49.6455 -49.6432 -49.6377 -49.6034 -49.6018 -49.5986 -49.5972
   -49.5947 -49.5941 -49.5686 -49.5653 -49.5634 -49.5625 -49.5614 -49.5561
   -49.5509 -49.5477 -49.5460 -49.5408 -49.5394 -49.5350 -49.5296 -49.5266
   -49.5085 -49.5068 -49.4963 -49.4961 -49.4952 -49.4937 -49.4683 -49.4673
   -28.1206 -28.1198 -28.1165 -28.1156 -28.1155 -28.1138 -28.1130 -28.1109
   -28.1083 -28.1066 -28.0980 -28.0958 -28.0581 -28.0576 -28.0505 -28.0496
   -28.0480 -28.0473 -28.0462 -28.0441 -28.0431 -28.0411 -28.0357 -28.0341
     6.1710   6.7587   6.8029   8.2180   8.7055   8.8867   9.1645   9.2130
     9.7229   9.7619   9.9099  10.0256  10.1188  10.2073  10.2920  10.3889
    10.4301  10.5126  10.5516  10.5702  10.5739  10.6245  10.7750  10.8231
    10.8988  10.9168  10.9812  11.0445  11.0637  11.0729  11.0868  11.2047
    11.2109  11.2431  11.2560  11.3135  11.3415  11.3703  11.4237  11.4811
    11.5770  11.6086  11.6232  11.6493  11.7310  11.8180  11.8643  11.8877
    11.8948  12.0220  12.0319  12.0858  12.0969  12.1565  12.2465  12.2609
    12.2766  12.3428  12.4298  12.4556  12.4713  12.5750  12.5884  12.6111
    12.6737  12.7120  12.7176  12.7839  12.7917  12.8400  12.8742  12.9436
    12.9472  13.0483  13.0584  13.0625  13.0895  13.1015  13.1375  13.1490
    13.2045  13.2304  13.2392  13.3771  13.3991  13.4742  13.5495  13.6884
    13.9929  14.0460  14.4164  14.4368  14.6598  14.7582  14.8557  15.0238
    15.0965  15.1180  15.2031  15.3859  16.0271  16.5053  16.8332  16.8440
    18.2307  18.6200  18.6745  18.8673  19.6334  19.7344  19.8613  19.9523
    19.9823  20.1377  20.6400  21.0815  21.1040  21.2248  21.6776  21.8642
    22.0398  22.5777  22.9374  23.1897  23.2345

          k = 0.3333 0.1918 0.0002 ( 15976 PWs)   bands (ev):

   -89.3083 -89.3009 -89.2952 -89.2923 -89.2640 -89.2621 -89.2487 -89.2460
   -89.2403 -89.2395 -89.2391 -89.2382 -89.2183 -89.2176 -89.2154 -89.2142
   -61.3663 -61.3644 -61.3624 -61.3574 -61.3058 -61.3047 -61.3017 -61.2987
   -49.9542 -49.9430 -49.9210 -49.8782 -49.8766 -49.8227 -49.8110 -49.7881
   -49.7607 -49.7554 -49.7400 -49.7392 -49.7364 -49.7323 -49.7084 -49.7055
   -49.6525 -49.6465 -49.6425 -49.6369 -49.6040 -49.6007 -49.5980 -49.5974
   -49.5954 -49.5943 -49.5682 -49.5660 -49.5636 -49.5625 -49.5613 -49.5559
   -49.5538 -49.5501 -49.5444 -49.5425 -49.5380 -49.5338 -49.5291 -49.5256
   -49.5057 -49.5039 -49.4966 -49.4955 -49.4948 -49.4944 -49.4699 -49.4691
   -28.1206 -28.1197 -28.1171 -28.1155 -28.1150 -28.1137 -28.1124 -28.1116
   -28.1087 -28.1062 -28.0980 -28.0957 -28.0581 -28.0577 -28.0501 -28.0494
   -28.0484 -28.0475 -28.0465 -28.0439 -28.0430 -28.0412 -28.0357 -28.0342
     6.1691   6.7571   6.8008   8.2155   8.7042   8.8814   9.1605   9.2080
     9.7213   9.7616   9.9091  10.0232  10.1168  10.2068  10.2908  10.3898
    10.4283  10.5152  10.5501  10.5683  10.5762  10.6283  10.7811  10.8223
    10.8959  10.9197  10.9793  11.0424  11.0611  11.0733  11.0906  11.2018
    11.2139  11.2399  11.2524  11.3161  11.3409  11.3716  11.4231  11.4850
    11.5784  11.6073  11.6273  11.6510  11.7286  11.8172  11.8602  11.8904
    11.8932  12.0223  12.0310  12.0863  12.0963  12.1575  12.2464  12.2574
    12.2759  12.3397  12.4334  12.4564  12.4722  12.5734  12.5861  12.6124
    12.6741  12.7105  12.7152  12.7852  12.7901  12.8444  12.8746  12.9460
    12.9478  13.0506  13.0585  13.0619  13.0910  13.1048  13.1384  13.1486
    13.2067  13.2318  13.2403  13.3771  13.4001  13.4727  13.5485  13.6899
    13.9953  14.0422  14.4166  14.4393  14.6680  14.7628  14.8646  15.0305
    15.1030  15.1255  15.2145  15.3946  16.0251  16.5007  16.8333  16.8474
    18.2377  18.6258  18.6807  18.8666  19.6365  19.7325  19.8680  19.9555
    19.9883  20.1413  20.6367  21.0806  21.1050  21.2255  21.6803  21.8601
    22.0279  22.5755  22.9308  23.1990  23.2190

          k = 0.3332 0.5766-0.0000 ( 15989 PWs)   bands (ev):

   -89.3079 -89.3002 -89.2949 -89.2919 -89.2589 -89.2560 -89.2534 -89.2522
   -89.2403 -89.2388 -89.2333 -89.2328 -89.2276 -89.2271 -89.2136 -89.2117
   -61.3662 -61.3644 -61.3624 -61.3574 -61.3058 -61.3048 -61.3017 -61.2987
   -49.9191 -49.9155 -49.9042 -49.9014 -49.8185 -49.8151 -49.8131 -49.8083
   -49.7886 -49.7849 -49.7470 -49.7460 -49.7304 -49.7246 -49.6965 -49.6936
   -49.6522 -49.6461 -49.6439 -49.6419 -49.6046 -49.6024 -49.6005 -49.5951
   -49.5918 -49.5906 -49.5744 -49.5730 -49.5657 -49.5648 -49.5641 -49.5623
   -49.5487 -49.5471 -49.5344 -49.5298 -49.5290 -49.5256 -49.5249 -49.5234
   -49.5215 -49.5209 -49.5033 -49.5021 -49.4970 -49.4961 -49.4927 -49.4909
   -28.1207 -28.1199 -28.1181 -28.1167 -28.1143 -28.1142 -28.1126 -28.1100
   -28.1095 -28.1054 -28.0987 -28.0964 -28.0575 -28.0569 -28.0513 -28.0502
   -28.0482 -28.0476 -28.0456 -28.0440 -28.0435 -28.0402 -28.0353 -28.0338
     7.8156   7.8217   8.2846   8.3946   8.4034   8.5809   8.7088   8.7128
     8.9375   9.7224   9.7279   9.7783   9.7805   9.8218   9.8530  10.4441
    10.4470  10.4945  10.6260  10.6332  10.7899  10.7982  10.9497  10.9575
    11.0376  11.0437  11.0958  11.1061  11.1101  11.1153  11.2133  11.2697
    11.2744  11.2937  11.3044  11.3242  11.3464  11.3538  11.3797  11.3852
    11.3950  11.4028  11.4828  11.4920  11.5758  11.5827  11.5861  11.5908
    11.5948  11.8127  11.8242  11.8282  11.9591  12.1034  12.1089  12.1359
    12.1385  12.1924  12.3482  12.3604  12.4436  12.4840  12.4909  12.5453
    12.5672  12.5735  12.6197  12.7063  12.7142  12.7570  12.7610  12.7647
    12.7881  12.8461  12.8485  12.8643  12.8700  12.9210  12.9253  13.0257
    13.1942  13.2116  13.3108  13.3229  13.3277  13.4088  13.4128  13.5277
    13.5888  13.6449  13.6477  13.9053  14.0376  14.0440  14.1400  15.5552
    15.5685  15.6201  15.8103  15.8214  16.4421  18.2779  18.2962  18.4656
    18.7092  18.7197  19.3521  19.4080  19.4257  19.4944  19.5012  19.7370
    19.9897  20.4187  20.4777  20.4828  21.2876  21.3035  21.6677  21.6806
    21.7846  22.4958  23.7911  23.8010  23.9859

          k = 0.3334-0.1931 0.0004 ( 15972 PWs)   bands (ev):

   -89.3084 -89.3009 -89.2952 -89.2923 -89.2645 -89.2615 -89.2469 -89.2440
   -89.2433 -89.2386 -89.2379 -89.2376 -89.2236 -89.2234 -89.2117 -89.2102
   -61.3663 -61.3644 -61.3624 -61.3574 -61.3058 -61.3047 -61.3017 -61.2987
   -49.9529 -49.9412 -49.9213 -49.8791 -49.8753 -49.8229 -49.8102 -49.7862
   -49.7632 -49.7610 -49.7390 -49.7371 -49.7337 -49.7306 -49.7111 -49.7055
   -49.6491 -49.6468 -49.6456 -49.6368 -49.6043 -49.6013 -49.5981 -49.5973
   -49.5950 -49.5941 -49.5690 -49.5651 -49.5642 -49.5621 -49.5609 -49.5561
   -49.5470 -49.5440 -49.5431 -49.5415 -49.5399 -49.5349 -49.5331 -49.5309
   -49.5097 -49.5081 -49.4985 -49.4965 -49.4956 -49.4955 -49.4662 -49.4647
   -28.1206 -28.1198 -28.1172 -28.1154 -28.1148 -28.1139 -28.1131 -28.1110
   -28.1080 -28.1069 -28.0980 -28.0957 -28.0582 -28.0576 -28.0503 -28.0493
   -28.0483 -28.0476 -28.0458 -28.0445 -28.0438 -28.0405 -28.0356 -28.0342
     6.1728   6.7600   6.8052   8.2210   8.7067   8.8921   9.1683   9.2186
     9.7231   9.7605   9.9105  10.0287  10.1209  10.2082  10.2964  10.3886
    10.4315  10.5106  10.5543  10.5704  10.5729  10.6200  10.7700  10.8243
    10.9024  10.9119  10.9821  11.0475  11.0652  11.0683  11.0832  11.2046
    11.2076  11.2458  11.2613  11.3117  11.3430  11.3696  11.4253  11.4792
    11.5761  11.6098  11.6174  11.6433  11.7371  11.8190  11.8708  11.8891
    11.8936  12.0245  12.0293  12.0857  12.0988  12.1550  12.2482  12.2690
    12.2731  12.3440  12.4258  12.4541  12.4745  12.5751  12.5905  12.6085
    12.6746  12.7139  12.7167  12.7804  12.7951  12.8320  12.8696  12.9385
    12.9450  13.0477  13.0597  13.0626  13.0912  13.0979  13.1371  13.1502
    13.2025  13.2300  13.2374  13.3793  13.3976  13.4766  13.5507  13.6877
    13.9868  14.0511  14.4144  14.4334  14.6516  14.7559  14.8474  15.0157
    15.0893  15.1103  15.1931  15.3784  16.0259  16.5116  16.8306  16.8443
    18.2242  18.6172  18.6696  18.8697  19.6336  19.7317  19.8550  19.9545
    19.9716  20.1322  20.6436  21.0825  21.1004  21.2254  21.6694  21.8658
    22.0535  22.5797  22.9409  23.1795  23.2559

     the Fermi energy is    13.7615 ev

!    total energy              =   -7997.84113504 Ry
     total all-electron energy =    -51870.917005 Ry
     estimated scf accuracy    <       0.00000466 Ry
     smearing contrib. (-TS)   =       0.25460760 Ry
     internal energy E=F+TS    =   -7998.09574264 Ry

     The total energy is F=E-TS. E is the sum of the following terms:
     one-electron contribution =   -4416.11127630 Ry
     hartree contribution      =    2373.07363025 Ry
     xc contribution           =    -691.19348071 Ry
     ewald contribution        =   -3686.74365123 Ry
     one-center paw contrib.   =   -1577.12096464 Ry

     convergence has been achieved in  90 iterations

     negative rho (up, down):  3.081E-03 0.000E+00

     Forces acting on atoms (cartesian axes, Ry/au):

     atom    1 type  1   force =     0.00479262   -0.00055489    0.00490631
     atom    2 type  1   force =     0.00284569    0.00023391    0.00568898
     atom    3 type  1   force =     0.00150354   -0.00095270   -0.00791324
     atom    4 type  1   force =    -0.00053416    0.00084062   -0.00818517
     atom    5 type  1   force =     0.00252109   -0.00017740   -0.00028122
     atom    6 type  1   force =     0.00111750   -0.00074193   -0.00035265
     atom    7 type  1   force =    -0.00039005   -0.00079651   -0.00307788
     atom    8 type  1   force =     0.00029603   -0.00235872   -0.00172314
     atom    9 type  2   force =    -0.00233603    0.00021193    0.00616975
     atom   10 type  2   force =     0.00105862    0.00037231   -0.00265260
     atom   11 type  2   force =     0.00127454    0.00112408   -0.00470602
     atom   12 type  2   force =     0.00060292    0.00038593   -0.00062510
     atom   13 type  2   force =     0.00227475   -0.01993838   -0.00141229
     atom   14 type  2   force =     0.02200861   -0.01542456    0.00144981
     atom   15 type  2   force =    -0.00210167    0.02092264   -0.00371352
     atom   16 type  2   force =    -0.01753054    0.00958847   -0.00305470
     atom   17 type  2   force =     0.01929810    0.00731522   -0.00759973
     atom   18 type  2   force =    -0.01813186   -0.00784121    0.00127504
     atom   19 type  2   force =    -0.02342143    0.01178248    0.02624196
     atom   20 type  2   force =    -0.00063059    0.00056911   -0.00231113
     atom   21 type  2   force =     0.00255478   -0.00055367   -0.00059902
     atom   22 type  2   force =     0.00260315   -0.00071002   -0.00031430
     atom   23 type  2   force =     0.00206168   -0.00182903    0.00164466
     atom   24 type  2   force =    -0.00173728   -0.00146772    0.00114522
     The non-local contrib.  to forces
     atom    1 type  1   force =     0.01269992    0.00013812    0.02941499
     atom    2 type  1   force =     0.00532265    0.00095049    0.03048130
     atom    3 type  1   force =     0.00423053   -0.00194232   -0.03183527
     atom    4 type  1   force =    -0.00771886    0.00349303   -0.03063995
     atom    5 type  1   force =     0.00528659    0.00195419    0.00134529
     atom    6 type  1   force =     0.00129457    0.00248048    0.00350772
     atom    7 type  1   force =    -0.00048843   -0.00274451   -0.00581306
     atom    8 type  1   force =     0.00133556   -0.00800993   -0.00264977
     atom    9 type  2   force =     0.02897536    0.01138804    0.01746669
     atom   10 type  2   force =    -0.01972709   -0.01767470    0.00852844
     atom   11 type  2   force =    -0.00491898    0.01241778    0.00139521
     atom   12 type  2   force =     0.00075268   -0.00816220   -0.01415189
     atom   13 type  2   force =    -0.01250571   -0.07646039   -0.00148180
     atom   14 type  2   force =     0.05702787   -0.01869056    0.00216940
     atom   15 type  2   force =     0.00539244    0.07803813    0.01183851
     atom   16 type  2   force =    -0.06219175    0.03574388   -0.00274763
     atom   17 type  2   force =     0.05961233    0.05504821    0.01240879
     atom   18 type  2   force =    -0.05839837   -0.05800075   -0.00797374
     atom   19 type  2   force =    -1.05644359    0.57258690    1.28372964
     atom   20 type  2   force =     0.00403282    0.00426559    0.00160562
     atom   21 type  2   force =     0.00776707    0.00447326   -0.00159028
     atom   22 type  2   force =    -0.00718063    0.01752820    0.00358590
     atom   23 type  2   force =     0.00505505    0.00397105   -0.00420602
     atom   24 type  2   force =    -0.00723414   -0.00956679    0.00040889
     The ionic contribution  to forces
     atom    1 type  1   force =     0.35442312   -0.00921950    0.03588995
     atom    2 type  1   force =     0.16646002    0.08181803   -0.27874997
     atom    3 type  1   force =     0.06877694   -0.11118022    0.24398829
     atom    4 type  1   force =    -0.26510388    0.10510905    0.16965747
     atom    5 type  1   force =     0.18501561   -0.00456367   -0.00037515
     atom    6 type  1   force =     0.07412249    0.05751015   -0.08471857
     atom    7 type  1   force =    -0.03320279   -0.09184137   -0.04387565
     atom    8 type  1   force =     0.06325411   -0.24389050   -0.10533072
     atom    9 type  2   force =    -0.23607582    0.08626025    2.20411931
     atom   10 type  2   force =    -0.25874834   -0.09538165    0.80357398
     atom   11 type  2   force =    -0.09374111    0.41570929   -1.51041086
     atom   12 type  2   force =     0.06874465    0.02726065   -1.14408767
     atom   13 type  2   force =     0.04964133  -15.93617062   -0.55812297
     atom   14 type  2   force =    14.62514900   -8.42165800    0.12228822
     atom   15 type  2   force =    -0.50331633   16.26622275   -0.01607768
     atom   16 type  2   force =   -13.97917951    8.02147281   -0.52833725
     atom   17 type  2   force =    13.90263729    7.92660651   -0.91370399
     atom   18 type  2   force =   -14.08723924   -7.79231598    0.01660593
     atom   19 type  2   force =    -0.12942277   -0.14968842    0.30439652
     atom   20 type  2   force =    -0.24595759    0.07229904    0.05607808
     atom   21 type  2   force =     0.21689135   -0.00233840    0.16490743
     atom   22 type  2   force =     0.21343133   -0.08539582    0.54165012
     atom   23 type  2   force =     0.23633714   -0.10368879    0.02512888
     atom   24 type  2   force =    -0.39289699   -0.01293559    0.49550629
     The local contribution  to forces
     atom    1 type  1   force =    -0.36313455    0.00897032   -0.05815898
     atom    2 type  1   force =    -0.16983903   -0.08203572    0.25474394
     atom    3 type  1   force =    -0.07242740    0.11267846   -0.22078323
     atom    4 type  1   force =     0.27130110   -0.10725828   -0.14499125
     atom    5 type  1   force =    -0.18863013    0.00303441   -0.00224863
     atom    6 type  1   force =    -0.07521589   -0.06011144    0.08333493
     atom    7 type  1   force =     0.03246045    0.09426668    0.04898283
     atom    8 type  1   force =    -0.06513109    0.24997711    0.10646463
     atom    9 type  2   force =     0.20591435   -0.09574078   -2.20773497
     atom   10 type  2   force =     0.27652583    0.11310491   -0.81135222
     atom   11 type  2   force =     0.09848605   -0.42717992    1.49811162
     atom   12 type  2   force =    -0.06986918   -0.01832007    1.15664056
     atom   13 type  2   force =    -0.03703366   15.99191148    0.56134304
     atom   14 type  2   force =   -14.66017173    8.42584550   -0.12372333
     atom   15 type  2   force =     0.49442361  -16.32162526   -0.00050335
     atom   16 type  2   force =    14.02269752   -8.04715614    0.53104812
     atom   17 type  2   force =   -13.94332991   -7.97154669    0.89771360
     atom   18 type  2   force =    14.12610581    7.84102088   -0.00979793
     atom   19 type  2   force =     1.06732572   -0.36033911   -1.44564474
     atom   20 type  2   force =     0.24019099   -0.07546040   -0.05796218
     atom   21 type  2   force =    -0.22285066   -0.00173981   -0.16219190
     atom   22 type  2   force =    -0.20442717    0.06808663   -0.54379925
     atom   23 type  2   force =    -0.23965937    0.09818806   -0.01781189
     atom   24 type  2   force =     0.39733649    0.02059964   -0.49298896
     The core correction contribution to forces
     atom    1 type  1   force =    -0.00006399   -0.00000023   -0.00015665
     atom    2 type  1   force =    -0.00002846   -0.00000671   -0.00016386
     atom    3 type  1   force =    -0.00001834    0.00000841    0.00017097
     atom    4 type  1   force =     0.00003484   -0.00001945    0.00016195
     atom    5 type  1   force =    -0.00002658   -0.00000908   -0.00000501
     atom    6 type  1   force =    -0.00000509   -0.00000797   -0.00001925
     atom    7 type  1   force =     0.00000650    0.00001070    0.00002654
     atom    8 type  1   force =    -0.00000248    0.00003670    0.00001325
     atom    9 type  2   force =    -0.00174455   -0.00071882   -0.00440051
     atom   10 type  2   force =     0.00120178    0.00094938   -0.00400314
     atom   11 type  2   force =     0.00026341   -0.00049686    0.00335944
     atom   12 type  2   force =    -0.00000363    0.00056461    0.00438511
     atom   13 type  2   force =     0.00079332    0.00129005    0.00006531
     atom   14 type  2   force =    -0.00015404   -0.00053200   -0.00023104
     atom   15 type  2   force =    -0.00038891   -0.00124707   -0.00029409
     atom   16 type  2   force =     0.00075586   -0.00043814    0.00023494
     atom   17 type  2   force =    -0.00067930   -0.00162744   -0.00051520
     atom   18 type  2   force =     0.00064427    0.00174863    0.00027224
     atom   19 type  2   force =     0.09431868   -0.05049124   -0.11402965
     atom   20 type  2   force =    -0.00020856   -0.00037343    0.00012434
     atom   21 type  2   force =    -0.00057430   -0.00031732    0.00013850
     atom   22 type  2   force =     0.00040713   -0.00092234   -0.00022303
     atom   23 type  2   force =    -0.00036424   -0.00007211   -0.00009158
     atom   24 type  2   force =     0.00036378    0.00058077   -0.00023162
     The Hubbard contrib.    to forces
     atom    1 type  1   force =     0.00000000    0.00000000    0.00000000
     atom    2 type  1   force =     0.00000000    0.00000000    0.00000000
     atom    3 type  1   force =     0.00000000    0.00000000    0.00000000
     atom    4 type  1   force =     0.00000000    0.00000000    0.00000000
     atom    5 type  1   force =     0.00000000    0.00000000    0.00000000
     atom    6 type  1   force =     0.00000000    0.00000000    0.00000000
     atom    7 type  1   force =     0.00000000    0.00000000    0.00000000
     atom    8 type  1   force =     0.00000000    0.00000000    0.00000000
     atom    9 type  2   force =     0.00000000    0.00000000    0.00000000
     atom   10 type  2   force =     0.00000000    0.00000000    0.00000000
     atom   11 type  2   force =     0.00000000    0.00000000    0.00000000
     atom   12 type  2   force =     0.00000000    0.00000000    0.00000000
     atom   13 type  2   force =     0.00000000    0.00000000    0.00000000
     atom   14 type  2   force =     0.00000000    0.00000000    0.00000000
     atom   15 type  2   force =     0.00000000    0.00000000    0.00000000
     atom   16 type  2   force =     0.00000000    0.00000000    0.00000000
     atom   17 type  2   force =     0.00000000    0.00000000    0.00000000
     atom   18 type  2   force =     0.00000000    0.00000000    0.00000000
     atom   19 type  2   force =     0.00000000    0.00000000    0.00000000
     atom   20 type  2   force =     0.00000000    0.00000000    0.00000000
     atom   21 type  2   force =     0.00000000    0.00000000    0.00000000
     atom   22 type  2   force =     0.00000000    0.00000000    0.00000000
     atom   23 type  2   force =     0.00000000    0.00000000    0.00000000
     atom   24 type  2   force =     0.00000000    0.00000000    0.00000000
     The SCF correction term to forces
     atom    1 type  1   force =     0.00000215    0.00006425   -0.00098839
     atom    2 type  1   force =     0.00006456    0.00001567    0.00047220
     atom    3 type  1   force =     0.00007586   -0.00000917    0.00164061
     atom    4 type  1   force =     0.00008668    0.00002413   -0.00127878
     atom    5 type  1   force =     0.00000964   -0.00008540    0.00209688
     atom    6 type  1   force =     0.00005546   -0.00010530   -0.00136287
     atom    7 type  1   force =    -0.00003174    0.00001983   -0.00130394
     atom    8 type  1   force =    -0.00002604    0.00003575    0.00087407
     atom    9 type  2   force =    -0.00027132   -0.00046891   -0.00218615
     atom   10 type  2   force =     0.00094048   -0.00011778    0.00169495
     atom   11 type  2   force =     0.00031921    0.00118163    0.00393317
     atom   12 type  2   force =     0.00011244   -0.00044921   -0.00231659
     atom   13 type  2   force =     0.00051352   -0.00000105   -0.00212126
     atom   14 type  2   force =    -0.00070844    0.00011834    0.00204117
     atom   15 type  2   force =     0.00092157    0.00004193    0.00241770
     atom   16 type  2   force =    -0.00047861    0.00047392   -0.00215828
     atom   17 type  2   force =     0.00019172   -0.00065753   -0.00240832
     atom   18 type  2   force =    -0.00011029    0.00021385    0.00326315
     atom   19 type  2   force =    -0.00006544    0.00022220   -0.00111520
     atom   20 type  2   force =     0.00044579    0.00034616   -0.00106238
     atom   21 type  2   force =     0.00045536   -0.00012355   -0.00076815
     atom   22 type  2   force =    -0.00049346    0.00050116   -0.00043344
     atom   23 type  2   force =    -0.00017287    0.00028061   -0.00028013
     atom   24 type  2   force =    -0.00017237    0.00036210   -0.00045477

     Total force =     0.067892     Total SCF correction =     0.009419
     SCF correction compared to forces is large: reduce conv_thr to get better values


     Computing stress (Cartesian axis) and pressure


     negative rho (up, down):  3.081E-03 0.000E+00
          total   stress  (Ry/bohr**3)                   (kbar)     P=       31.75
   0.00019749  -0.00001618   0.00000292           29.05       -2.38        0.43
  -0.00001618   0.00019519  -0.00000967           -2.38       28.71       -1.42
   0.00000292  -0.00000967   0.00025481            0.43       -1.42       37.48


     Writing all to output data dir ./C36/out_logs/C36_out_78/laves_C36.save/
 
     init_run     :      6.41s CPU      6.61s WALL (       1 calls)
     electrons    :    694.31s CPU    694.43s WALL (       1 calls)
     forces       :      1.81s CPU      1.81s WALL (       1 calls)
     stress       :      9.12s CPU      9.12s WALL (       1 calls)

     Called by init_run:
     wfcinit      :      1.93s CPU      2.01s WALL (       1 calls)
                                        2.01s GPU  (       1 calls)
     potinit      :      3.39s CPU      3.42s WALL (       1 calls)
     hinit0       :      0.92s CPU      0.94s WALL (       1 calls)

     Called by electrons:
     c_bands      :    403.28s CPU    403.44s WALL (      90 calls)
     sum_band     :     65.90s CPU     65.91s WALL (      90 calls)
     v_of_rho     :      2.43s CPU      2.45s WALL (      91 calls)
     newd         :      7.69s CPU      7.70s WALL (      91 calls)
                                        7.70s GPU  (      91 calls)
     PAW_pot      :    207.82s CPU    207.72s WALL (      91 calls)
     mix_rho      :      7.29s CPU      7.32s WALL (      90 calls)

     Called by c_bands:
     init_us_2    :      1.11s CPU      1.11s WALL (     915 calls)
     init_us_2:gp :      1.10s CPU      1.10s WALL (     915 calls)
     cegterg      :    385.68s CPU    385.84s WALL (     450 calls)

     Called by *egterg:
     cdiaghg      :     27.71s CPU     27.95s WALL (    1084 calls)
                                       27.87s GPU  (    1084 calls)
     h_psi        :    187.43s CPU    187.66s WALL (    1089 calls)
                                      187.46s GPU  (    1089 calls)
     s_psi        :      0.85s CPU     35.14s WALL (    1089 calls)
                                       34.86s GPU  (    1089 calls)
     g_psi        :      0.00s CPU      0.68s WALL (     634 calls)
                                        0.59s GPU  (     634 calls)

     Called by h_psi:
     h_psi:calbec :      0.09s CPU     40.34s WALL (    1089 calls)
                                       40.32s GPU  (    1089 calls)
     vloc_psi     :    110.70s CPU    110.82s WALL (    1089 calls)
                                      110.77s GPU  (    1089 calls)
     add_vuspsi   :      1.40s CPU     35.57s WALL (    1089 calls)
                                       35.36s GPU  (    1089 calls)

     General routines
     calbec       :      0.09s CPU      0.10s WALL (    1564 calls)
     fft          :      1.22s CPU      1.79s WALL (    1206 calls)
                                        0.57s GPU  (    1115 calls)
     ffts         :      0.29s CPU      0.31s WALL (     181 calls)
                                        0.02s GPU  (      90 calls)
     fftw         :      0.28s CPU    113.44s WALL (   32244 calls)
                                      111.97s GPU  (   32244 calls)
     interpolate  :      1.71s CPU      1.71s WALL (      91 calls)
 
     Parallel routines
 
     PWSCF        :  11m52.01s CPU  11m52.43s WALL

 
   This run was terminated on:  22:17:15   7Apr2026            

=------------------------------------------------------------------------------=
   JOB DONE.
=------------------------------------------------------------------------------=
