
     Program PWSCF v.7.2 starts on  6Apr2026 at  1:53: 7 

     This program is part of the open-source Quantum ESPRESSO suite
     for quantum simulation of materials; please cite
         "P. Giannozzi et al., J. Phys.:Condens. Matter 21 395502 (2009);
         "P. Giannozzi et al., J. Phys.:Condens. Matter 29 465901 (2017);
         "P. Giannozzi et al., J. Chem. Phys. 152 154105 (2020);
          URL http://www.quantum-espresso.org", 
     in publications or presentations arising from this work. More details at
     http://www.quantum-espresso.org/quote

     Parallel version (MPI), running on     1 processors

     MPI processes distributed on     1 nodes
     4825 MiB available memory on the printing compute node when the environment starts
 
     Reading input from C36/in/laves_018_0_scf.in
Warning: card &CELL ignored
Warning: card / ignored

     Current dimensions of program PWSCF are:
     Max number of different atomic species (ntypx) = 10
     Max number of k-points (npk) =  40000
     Max angular momentum in pseudopotentials (lmaxx) =  4
     file Mg.pbe-spnl-kjpaw_psl.1.0.0.UPF: wavefunction(s)  2P renormalized
     file Ni.pbe-spn-kjpaw_psl.1.0.0.UPF: wavefunction(s)  3P 3D renormalized
 
     Subspace diagonalization in iterative solution of the eigenvalue problem:
     a serial algorithm will be used

 
     G-vector sticks info
     --------------------
     sticks:   dense  smooth     PW     G-vecs:    dense   smooth      PW
     Sum        2635    1311    383               357597   126297   20507
 
     Using Slab Decomposition
 

     Title: 
     C36_MgNi2                                                                  


     bravais-lattice index     =            0
     lattice parameter (alat)  =       8.9497  a.u.
     unit-cell volume          =    2014.4199 (a.u.)^3
     number of atoms/cell      =           23
     number of atomic types    =            2
     number of electrons       =       358.00
     number of Kohn-Sham states=          215
     kinetic-energy cutoff     =      60.0000  Ry
     charge density cutoff     =     480.0000  Ry
     scf convergence threshold =      1.0E-05
     mixing beta               =       0.2200
     number of iterations used =            8  plain     mixing
     Exchange-correlation= SLA  PW   PBX  PBC
                           (   1   4   3   4   0   0   0)

     GPU acceleration is ACTIVE.


     celldm(1)=   8.949709  celldm(2)=   0.000000  celldm(3)=   0.000000
     celldm(4)=   0.000000  celldm(5)=   0.000000  celldm(6)=   0.000000

     crystal axes: (cart. coord. in units of alat)
               a(1) = (   0.999993  -0.002399  -0.002770 )  
               a(2) = (  -0.496400   0.862255   0.000125 )  
               a(3) = (  -0.004432  -0.000531   3.263566 )  

     reciprocal axes: (cart. coord. in units 2 pi/alat)
               b(1) = (  1.001394  0.576502  0.001454 )  
               b(2) = (  0.002786  1.161354  0.000193 )  
               b(3) = (  0.000850  0.000445  0.306415 )  


     PseudoPot. # 1 for Mg read from file:
     ./pseudo/Mg.pbe-spnl-kjpaw_psl.1.0.0.UPF
     MD5 check sum: fda14e0d92a6a9a5ebed782e5a4b3067
     Pseudo is Projector augmented-wave + core cor, Zval = 10.0
     Generated using &quot;atomic&quot; code by A. Dal Corso  v.6.3
     Shape of augmentation charge: PSQ
     Using radial grid of 1129 points,  4 beta functions with: 
                l(1) =   0
                l(2) =   0
                l(3) =   1
                l(4) =   1
     Q(r) pseudized with 0 coefficients 


     PseudoPot. # 2 for Ni read from file:
     ./pseudo/Ni.pbe-spn-kjpaw_psl.1.0.0.UPF
     MD5 check sum: 6e86b733589c3ad8389697b807d86aa7
     Pseudo is Projector augmented-wave + core cor, Zval = 18.0
     Generated using &quot;atomic&quot; code by A. Dal Corso  v.6.3
     Shape of augmentation charge: PSQ
     Using radial grid of 1195 points,  6 beta functions with: 
                l(1) =   0
                l(2) =   0
                l(3) =   1
                l(4) =   1
                l(5) =   2
                l(6) =   2
     Q(r) pseudized with 0 coefficients 


     atomic species   valence    mass     pseudopotential
        Mg            10.00    24.30500     Mg( 1.00)
        Ni            18.00    58.69340     Ni( 1.00)

     No symmetry found



   Cartesian axes

     site n.     atom                  positions (alat units)
         1           Mg  tau(   1) = (   0.4985591   0.8580311   1.3236699  )
         2           Mg  tau(   2) = (   0.4992022   0.8567548   2.9543268  )
         3           Mg  tau(   3) = (  -0.0029655   0.0005071   1.9411489  )
         4           Mg  tau(   4) = (   0.5035354   0.8568420   0.3024629  )
         5           Mg  tau(   5) = (  -0.0035691   0.5756495   2.1384299  )
         6           Mg  tau(   6) = (   0.5022000   0.2848721   0.5102222  )
         7           Mg  tau(   7) = (  -0.0006723   0.5698294   2.7612042  )
         8           Ni  tau(   8) = (   0.0061716   0.5734048   1.2193832  )
         9           Ni  tau(   9) = (   0.4959991   0.2858540   2.8538668  )
        10           Ni  tau(  10) = (   0.4974260   0.2869269   2.0344159  )
        11           Ni  tau(  11) = (   0.0010048   0.5734514   0.4064857  )
        12           Ni  tau(  12) = (  -0.0022374   0.2867574   0.8166269  )
        13           Ni  tau(  13) = (   0.7482177   0.1410335   2.4440790  )
        14           Ni  tau(  14) = (   0.4989815   0.5714307   2.4452683  )
        15           Ni  tau(  15) = (  -0.2495972   0.7195267   0.8175008  )
        16           Ni  tau(  16) = (   0.2531475   0.7220876   0.8169512  )
        17           Ni  tau(  17) = (   0.2480667   0.1446365   2.4461104  )
        18           Ni  tau(  18) = (   0.0001987   0.8573914   1.6329954  )
        19           Ni  tau(  19) = (   0.2484160   0.4296746   3.2598869  )
        20           Ni  tau(  20) = (   0.0022588   0.8581569   0.0006966  )
        21           Ni  tau(  21) = (   0.2494229   0.4275775   1.6350655  )
        22           Ni  tau(  22) = (   0.7490361   0.4288738  -0.0017731  )
        23           Ni  tau(  23) = (   0.7483335   0.4244734   1.6238205  )

     number of k points=    20  Marzari-Vanderbilt smearing, width (Ry)=  0.0500
                       cart. coord. in units 2pi/alat
        k(    1) = (   0.0000000   0.0000000   0.0000000), wk =   0.0625000
        k(    2) = (  -0.0004249  -0.0002223  -0.1532073), wk =   0.0625000
        k(    3) = (   0.0006966   0.2903384   0.0000482), wk =   0.1250000
        k(    4) = (   0.0002717   0.2901161  -0.1531591), wk =   0.1250000
        k(    5) = (  -0.0013932  -0.5806768  -0.0000964), wk =   0.0625000
        k(    6) = (  -0.0018182  -0.5808991  -0.1533037), wk =   0.0625000
        k(    7) = (   0.2503484   0.1441255   0.0003635), wk =   0.1250000
        k(    8) = (   0.2499235   0.1439031  -0.1528438), wk =   0.1250000
        k(    9) = (   0.2510450   0.4344639   0.0004117), wk =   0.1250000
        k(   10) = (   0.2506201   0.4342415  -0.1527956), wk =   0.1250000
        k(   11) = (   0.2489552  -0.4365513   0.0002671), wk =   0.1250000
        k(   12) = (   0.2485303  -0.4367737  -0.1529402), wk =   0.1250000
        k(   13) = (   0.2496518  -0.1462129   0.0003153), wk =   0.1250000
        k(   14) = (   0.2492269  -0.1464353  -0.1528920), wk =   0.1250000
        k(   15) = (  -0.5006969  -0.2882510  -0.0007269), wk =   0.0625000
        k(   16) = (  -0.5011218  -0.2884733  -0.1539342), wk =   0.0625000
        k(   17) = (  -0.5000002   0.0020874  -0.0006787), wk =   0.1250000
        k(   18) = (  -0.5004252   0.0018651  -0.1538860), wk =   0.1250000
        k(   19) = (  -0.5020901  -0.8689278  -0.0008234), wk =   0.0625000
        k(   20) = (  -0.5025150  -0.8691501  -0.1540306), wk =   0.0625000

     Dense  grid:   357597 G-vectors     FFT dimensions: (  64,  64, 216)

     Smooth grid:   126297 G-vectors     FFT dimensions: (  45,  45, 150)

     Estimated max dynamical RAM per process >       2.60 GB

     Atomic positions and unit cell read from directory:
     ./C36/out_logs/C36_out_18/laves_C36.save/
     Message from routine qexsd_readschema :
     xml data file ./C36/out_logs/C36_out_18/laves_C36.save/data-file-schema.xml not
     Nothing found: using input atomic positions and unit cell


     Check: negative core charge=   -0.000008
     Cannot read rho : file not found

     Initial potential from superposition of free atoms

     starting charge     357.9895, renormalised to     358.0000
     Message from routine qexsd_readschema :
     xml data file ./C36/out_logs/C36_out_18/laves_C36.save/data-file-schema.xml not
     Cannot read wfcs: file not found
     Starting wfcs are  195 randomized atomic wfcs +   20 random wfcs
     Checking if some PAW data can be deallocated... 

     total cpu time spent up to now is       11.6 secs

     Self-consistent Calculation

     iteration #  1     ecut=    60.00 Ry     beta= 0.22
     Davidson diagonalization with overlap
     c_bands:  1 eigenvalues not converged
     c_bands:  1 eigenvalues not converged
     c_bands:  1 eigenvalues not converged
     ethr =  1.00E-05,  avg # of iterations = 17.4

     total cpu time spent up to now is       82.1 secs

     total energy              =   -7855.40660307 Ry
     estimated scf accuracy    <       4.44864596 Ry

     iteration #  2     ecut=    60.00 Ry     beta= 0.22
     Davidson diagonalization with overlap
     ethr =  1.24E-03,  avg # of iterations =  3.3

     total cpu time spent up to now is      107.8 secs

     total energy              =   -7853.64245877 Ry
     estimated scf accuracy    <      78.64711864 Ry

     iteration #  3     ecut=    60.00 Ry     beta= 0.22
     Davidson diagonalization with overlap
     ethr =  1.24E-03,  avg # of iterations =  4.0

     total cpu time spent up to now is      132.7 secs

     total energy              =   -7855.03935788 Ry
     estimated scf accuracy    <      68.52705056 Ry

     iteration #  4     ecut=    60.00 Ry     beta= 0.22
     Davidson diagonalization with overlap
     ethr =  1.24E-03,  avg # of iterations =  2.1

     total cpu time spent up to now is      155.8 secs

     total energy              =   -7855.45282941 Ry
     estimated scf accuracy    <      67.19394093 Ry

     iteration #  5     ecut=    60.00 Ry     beta= 0.22
     Davidson diagonalization with overlap
     ethr =  1.24E-03,  avg # of iterations =  1.5

     total cpu time spent up to now is      177.2 secs

     total energy              =   -7856.15736974 Ry
     estimated scf accuracy    <       5.42629788 Ry

     iteration #  6     ecut=    60.00 Ry     beta= 0.22
     Davidson diagonalization with overlap
     ethr =  1.24E-03,  avg # of iterations =  1.0

     total cpu time spent up to now is      197.1 secs

     total energy              =   -7856.23464213 Ry
     estimated scf accuracy    <       1.31853891 Ry

     iteration #  7     ecut=    60.00 Ry     beta= 0.22
     Davidson diagonalization with overlap
     ethr =  3.68E-04,  avg # of iterations =  1.0

     total cpu time spent up to now is      217.1 secs

     total energy              =   -7856.17141632 Ry
     estimated scf accuracy    <       1.28829405 Ry

     iteration #  8     ecut=    60.00 Ry     beta= 0.22
     Davidson diagonalization with overlap
     ethr =  3.60E-04,  avg # of iterations =  1.1

     total cpu time spent up to now is      237.6 secs

     total energy              =   -7856.18994885 Ry
     estimated scf accuracy    <       3.19856515 Ry

     iteration #  9     ecut=    60.00 Ry     beta= 0.22
     Davidson diagonalization with overlap
     ethr =  3.60E-04,  avg # of iterations =  1.0

     total cpu time spent up to now is      257.8 secs

     total energy              =   -7856.22024480 Ry
     estimated scf accuracy    <       0.23672691 Ry

     iteration # 10     ecut=    60.00 Ry     beta= 0.22
     Davidson diagonalization with overlap
     ethr =  6.61E-05,  avg # of iterations =  2.6

     total cpu time spent up to now is      281.0 secs

     total energy              =   -7856.21941952 Ry
     estimated scf accuracy    <       0.83377063 Ry

     iteration # 11     ecut=    60.00 Ry     beta= 0.22
     Davidson diagonalization with overlap
     ethr =  6.61E-05,  avg # of iterations =  1.0

     total cpu time spent up to now is      301.3 secs

     total energy              =   -7856.22527487 Ry
     estimated scf accuracy    <       0.19396137 Ry

     iteration # 12     ecut=    60.00 Ry     beta= 0.22
     Davidson diagonalization with overlap
     ethr =  5.42E-05,  avg # of iterations =  1.1

     total cpu time spent up to now is      321.7 secs

     total energy              =   -7856.22676585 Ry
     estimated scf accuracy    <       0.04315197 Ry

     iteration # 13     ecut=    60.00 Ry     beta= 0.22
     Davidson diagonalization with overlap
     c_bands:  1 eigenvalues not converged
     c_bands:  1 eigenvalues not converged
     ethr =  1.21E-05,  avg # of iterations =  6.0

     total cpu time spent up to now is      347.9 secs

     total energy              =   -7856.22756174 Ry
     estimated scf accuracy    <       0.07968215 Ry

     iteration # 14     ecut=    60.00 Ry     beta= 0.22
     Davidson diagonalization with overlap
     ethr =  1.21E-05,  avg # of iterations =  2.1

     total cpu time spent up to now is      370.0 secs

     total energy              =   -7856.22823436 Ry
     estimated scf accuracy    <       0.02347753 Ry

     iteration # 15     ecut=    60.00 Ry     beta= 0.22
     Davidson diagonalization with overlap
     ethr =  6.56E-06,  avg # of iterations =  2.4

     total cpu time spent up to now is      392.9 secs

     total energy              =   -7856.22839689 Ry
     estimated scf accuracy    <       0.00879008 Ry

     iteration # 16     ecut=    60.00 Ry     beta= 0.22
     Davidson diagonalization with overlap
     ethr =  2.46E-06,  avg # of iterations =  7.3

     total cpu time spent up to now is      419.7 secs

     total energy              =   -7856.22845379 Ry
     estimated scf accuracy    <       0.00148500 Ry

     iteration # 17     ecut=    60.00 Ry     beta= 0.22
     Davidson diagonalization with overlap
     ethr =  4.15E-07,  avg # of iterations =  2.1

     total cpu time spent up to now is      441.6 secs

     total energy              =   -7856.22837963 Ry
     estimated scf accuracy    <       0.00527480 Ry

     iteration # 18     ecut=    60.00 Ry     beta= 0.22
     Davidson diagonalization with overlap
     ethr =  4.15E-07,  avg # of iterations =  1.3

     total cpu time spent up to now is      462.7 secs

     total energy              =   -7856.22836504 Ry
     estimated scf accuracy    <       0.00647242 Ry

     iteration # 19     ecut=    60.00 Ry     beta= 0.22
     Davidson diagonalization with overlap
     ethr =  4.15E-07,  avg # of iterations =  1.0

     total cpu time spent up to now is      483.0 secs

     total energy              =   -7856.22854205 Ry
     estimated scf accuracy    <       0.00054749 Ry

     iteration # 20     ecut=    60.00 Ry     beta= 0.22
     Davidson diagonalization with overlap
     ethr =  1.53E-07,  avg # of iterations =  1.0

     total cpu time spent up to now is      503.3 secs

     total energy              =   -7856.22851237 Ry
     estimated scf accuracy    <       0.00084745 Ry

     iteration # 21     ecut=    60.00 Ry     beta= 0.22
     Davidson diagonalization with overlap
     ethr =  1.53E-07,  avg # of iterations =  1.1

     total cpu time spent up to now is      523.7 secs

     total energy              =   -7856.22840220 Ry
     estimated scf accuracy    <       0.01415920 Ry

     iteration # 22     ecut=    60.00 Ry     beta= 0.22
     Davidson diagonalization with overlap
     ethr =  1.53E-07,  avg # of iterations =  1.0

     total cpu time spent up to now is      544.0 secs

     total energy              =   -7856.22855669 Ry
     estimated scf accuracy    <       0.00018326 Ry

     iteration # 23     ecut=    60.00 Ry     beta= 0.22
     Davidson diagonalization with overlap
     ethr =  5.12E-08,  avg # of iterations =  1.0

     total cpu time spent up to now is      564.3 secs

     total energy              =   -7856.22855540 Ry
     estimated scf accuracy    <       0.00050831 Ry

     iteration # 24     ecut=    60.00 Ry     beta= 0.22
     Davidson diagonalization with overlap
     ethr =  5.12E-08,  avg # of iterations =  1.0

     total cpu time spent up to now is      584.6 secs

     total energy              =   -7856.22855869 Ry
     estimated scf accuracy    <       0.00067209 Ry

     iteration # 25     ecut=    60.00 Ry     beta= 0.22
     Davidson diagonalization with overlap
     ethr =  5.12E-08,  avg # of iterations =  1.0

     total cpu time spent up to now is      605.0 secs

     total energy              =   -7856.22856144 Ry
     estimated scf accuracy    <       0.00019816 Ry

     iteration # 26     ecut=    60.00 Ry     beta= 0.22
     Davidson diagonalization with overlap
     ethr =  5.12E-08,  avg # of iterations =  1.0

     total cpu time spent up to now is      625.3 secs

     total energy              =   -7856.22856440 Ry
     estimated scf accuracy    <       0.00010334 Ry

     iteration # 27     ecut=    60.00 Ry     beta= 0.22
     Davidson diagonalization with overlap
     ethr =  2.89E-08,  avg # of iterations =  1.0

     total cpu time spent up to now is      645.6 secs

     total energy              =   -7856.22856596 Ry
     estimated scf accuracy    <       0.00001558 Ry

     iteration # 28     ecut=    60.00 Ry     beta= 0.22
     Davidson diagonalization with overlap
     ethr =  4.35E-09,  avg # of iterations =  1.0

     total cpu time spent up to now is      665.9 secs

     total energy              =   -7856.22856503 Ry
     estimated scf accuracy    <       0.00005894 Ry

     iteration # 29     ecut=    60.00 Ry     beta= 0.22
     Davidson diagonalization with overlap
     ethr =  4.35E-09,  avg # of iterations =  1.2

     total cpu time spent up to now is      686.8 secs

     total energy              =   -7856.22856540 Ry
     estimated scf accuracy    <       0.00004325 Ry

     iteration # 30     ecut=    60.00 Ry     beta= 0.22
     Davidson diagonalization with overlap
     ethr =  4.35E-09,  avg # of iterations =  1.0

     total cpu time spent up to now is      707.0 secs

     total energy              =   -7856.22856631 Ry
     estimated scf accuracy    <       0.00001161 Ry

     iteration # 31     ecut=    60.00 Ry     beta= 0.22
     Davidson diagonalization with overlap
     ethr =  3.24E-09,  avg # of iterations =  1.0

     total cpu time spent up to now is      727.3 secs

     total energy              =   -7856.22856605 Ry
     estimated scf accuracy    <       0.00003350 Ry

     iteration # 32     ecut=    60.00 Ry     beta= 0.22
     Davidson diagonalization with overlap
     ethr =  3.24E-09,  avg # of iterations =  1.0

     total cpu time spent up to now is      747.6 secs

     total energy              =   -7856.22856613 Ry
     estimated scf accuracy    <       0.00003620 Ry

     iteration # 33     ecut=    60.00 Ry     beta= 0.22
     Davidson diagonalization with overlap
     ethr =  3.24E-09,  avg # of iterations =  1.0

     total cpu time spent up to now is      767.9 secs

     total energy              =   -7856.22856641 Ry
     estimated scf accuracy    <       0.00001294 Ry

     iteration # 34     ecut=    60.00 Ry     beta= 0.22
     Davidson diagonalization with overlap
     ethr =  3.24E-09,  avg # of iterations =  1.0

     total cpu time spent up to now is      788.2 secs

     total energy              =   -7856.22856612 Ry
     estimated scf accuracy    <       0.00006983 Ry

     iteration # 35     ecut=    60.00 Ry     beta= 0.22
     Davidson diagonalization with overlap
     ethr =  3.24E-09,  avg # of iterations =  1.0

     total cpu time spent up to now is      808.5 secs

     End of self-consistent calculation

          k = 0.0000 0.0000 0.0000 ( 15687 PWs)   bands (ev):

   -89.9017 -89.8958 -89.8778 -89.8583 -89.8448 -89.8304 -89.8185 -89.8161
   -89.8152 -89.8009 -89.7856 -89.7713 -89.7502 -89.7497 -89.7367 -89.7244
   -61.8589 -61.8448 -61.8137 -61.8083 -61.8018 -61.7948 -61.7256 -50.5957
   -50.5745 -50.5385 -50.5083 -50.4513 -50.4110 -50.3982 -50.3572 -50.3527
   -50.3324 -50.3248 -50.3227 -50.3145 -50.3138 -50.2780 -50.2727 -50.2316
   -50.2259 -50.1925 -50.1912 -50.1877 -50.1853 -50.1820 -50.1498 -50.1471
   -50.1459 -50.1376 -50.1334 -50.1314 -50.1239 -50.1146 -50.1063 -50.0995
   -50.0971 -50.0889 -50.0794 -50.0774 -50.0596 -50.0587 -50.0511 -50.0198
   -50.0127 -50.0112 -50.0083 -49.9967 -49.9755 -49.9704 -49.9230 -28.6127
   -28.6108 -28.6065 -28.5985 -28.5959 -28.5812 -28.5691 -28.5681 -28.5665
   -28.5561 -28.5558 -28.5431 -28.5415 -28.5414 -28.5386 -28.5384 -28.5383
   -28.5374 -28.4765 -28.4670 -28.4663   4.7064   5.2903   5.7061   6.8978
     7.7817   8.6167   8.6794   8.9772   9.3595   9.4475   9.4846   9.6979
     9.7140   9.7460   9.7686   9.7766   9.8041   9.9197   9.9263   9.9553
    10.0236  10.0976  10.1059  10.1186  10.1373  10.2400  10.2587  10.3801
    10.4095  10.4321  10.5775  10.5966  10.6259  10.6498  10.7642  10.7703
    10.9335  10.9608  11.0737  11.1273  11.1425  11.1890  11.2322  11.2402
    11.4686  11.4882  11.6219  11.8508  11.9192  11.9303  11.9680  12.1000
    12.1130  12.1211  12.2464  12.2613  12.4040  12.4202  12.4377  12.4491
    12.4554  12.4659  12.4741  12.4853  12.4966  12.5102  12.5359  12.5396
    12.5470  12.5601  12.5620  12.5750  12.6195  12.6418  12.6426  12.6532
    12.6544  12.7429  12.7483  13.0994  13.1040  13.3886  13.4005  13.5707
    13.5764  13.6117  13.6548  14.1295  14.2624  14.3665  14.4037  14.4341
    14.4702  14.5271  14.5696  14.8430  14.8778  14.9134  15.4868  15.5250
    16.1936  16.2601  16.6862  16.7133  16.8843  16.9493  17.7006  17.7365
    18.0662  18.1680  18.1963  18.2262  18.4159  19.0339  19.0685  19.3043
    19.6514  19.6892  19.8828  20.3985  20.6209  20.7344  20.9294

          k =-0.0004-0.0002-0.1532 ( 15700 PWs)   bands (ev):

   -89.9018 -89.8957 -89.8778 -89.8584 -89.8448 -89.8304 -89.8185 -89.8161
   -89.8152 -89.8010 -89.7857 -89.7713 -89.7502 -89.7497 -89.7367 -89.7244
   -61.8589 -61.8448 -61.8137 -61.8083 -61.8018 -61.7948 -61.7256 -50.5952
   -50.5764 -50.5320 -50.5160 -50.4430 -50.4218 -50.3933 -50.3572 -50.3528
   -50.3324 -50.3248 -50.3227 -50.3145 -50.3138 -50.2780 -50.2728 -50.2316
   -50.2259 -50.1925 -50.1909 -50.1880 -50.1853 -50.1821 -50.1498 -50.1472
   -50.1461 -50.1375 -50.1333 -50.1315 -50.1239 -50.1145 -50.1063 -50.0994
   -50.0972 -50.0890 -50.0794 -50.0773 -50.0596 -50.0587 -50.0511 -50.0198
   -50.0127 -50.0112 -50.0083 -49.9967 -49.9755 -49.9704 -49.9230 -28.6127
   -28.6108 -28.6065 -28.5985 -28.5959 -28.5813 -28.5691 -28.5681 -28.5665
   -28.5561 -28.5558 -28.5431 -28.5415 -28.5414 -28.5386 -28.5384 -28.5383
   -28.5374 -28.4765 -28.4670 -28.4663   4.7472   5.1127   6.1352   6.3955
     8.2774   8.4888   8.6342   8.9433   9.2593   9.4189   9.5516   9.6531
     9.7020   9.7177   9.7442   9.7737   9.8290   9.9245   9.9356   9.9665
    10.0382  10.0634  10.0675  10.1360  10.1639  10.2485  10.2703  10.3726
    10.4628  10.4758  10.5631  10.5759  10.6738  10.6918  10.7018  10.7222
    10.9156  10.9230  10.9898  11.0123  11.2361  11.2959  11.3161  11.4172
    11.4369  11.4629  11.5498  11.5685  11.8569  11.8832  11.9388  11.9453
    12.1467  12.2022  12.3241  12.3334  12.3849  12.3970  12.4233  12.4450
    12.4496  12.4606  12.4658  12.4749  12.4789  12.4847  12.5419  12.5541
    12.5675  12.6108  12.6197  12.6231  12.6406  12.6533  12.6863  12.6955
    12.7428  12.7473  13.1999  13.2296  13.2314  13.2568  13.2698  13.5706
    13.5764  13.6103  13.6156  13.6547  14.2072  14.3171  14.4002  14.4352
    14.4940  14.5754  14.6183  14.7924  14.8337  14.8950  15.4722  15.5083
    16.2134  16.2816  16.6395  16.6838  17.0141  17.0623  17.5288  17.5629
    18.1655  18.2481  18.4746  18.4852  18.4991  18.7827  18.8194  19.4453
    19.7296  19.7675  20.0974  20.4478  20.4775  20.5826  20.7931

          k = 0.0007 0.2903 0.0000 ( 15796 PWs)   bands (ev):

   -89.9012 -89.8954 -89.8774 -89.8547 -89.8416 -89.8344 -89.8205 -89.8191
   -89.8154 -89.7968 -89.7814 -89.7748 -89.7550 -89.7511 -89.7371 -89.7241
   -61.8588 -61.8447 -61.8138 -61.8076 -61.8025 -61.7949 -61.7256 -50.5716
   -50.5528 -50.5138 -50.4796 -50.4557 -50.4107 -50.3982 -50.3602 -50.3502
   -50.3479 -50.3313 -50.3260 -50.3152 -50.3046 -50.2865 -50.2652 -50.2361
   -50.2254 -50.1946 -50.1922 -50.1900 -50.1816 -50.1788 -50.1535 -50.1440
   -50.1429 -50.1373 -50.1361 -50.1319 -50.1309 -50.1173 -50.1042 -50.0989
   -50.0955 -50.0929 -50.0883 -50.0804 -50.0694 -50.0613 -50.0573 -50.0307
   -50.0230 -50.0117 -50.0074 -50.0034 -49.9782 -49.9706 -49.9330 -28.6126
   -28.6116 -28.6067 -28.5987 -28.5960 -28.5821 -28.5706 -28.5679 -28.5650
   -28.5568 -28.5553 -28.5474 -28.5413 -28.5404 -28.5387 -28.5370 -28.5370
   -28.5365 -28.4765 -28.4672 -28.4665   5.2852   5.8557   6.2559   7.4414
     8.1825   8.7414   8.8561   9.0860   9.2576   9.3821   9.5427   9.6214
     9.6800   9.7348   9.7920   9.8420   9.8837   9.9136   9.9307   9.9984
    10.0521  10.1512  10.2374  10.2448  10.3004  10.3372  10.4238  10.4414
    10.5243  10.5818  10.5918  10.6449  10.6823  10.7088  10.7557  10.8146
    10.8696  10.8909  10.9449  10.9835  11.0530  11.0981  11.2530  11.2637
    11.2859  11.3752  11.4526  11.5428  11.5854  11.6440  11.6699  11.7039
    11.8459  11.9462  11.9730  12.0438  12.0558  12.1200  12.1320  12.1656
    12.1818  12.2204  12.2368  12.2467  12.2731  12.3179  12.3403  12.3877
    12.4020  12.4715  12.4762  12.5192  12.5418  12.5691  12.5891  12.6102
    12.6222  12.6545  12.7256  12.7334  12.8107  12.9064  12.9171  12.9518
    13.0352  13.0597  13.1537  13.2108  13.4583  13.6257  13.8524  14.0796
    14.2788  14.4772  14.5103  14.5835  14.8298  14.8569  15.1854  15.5876
    15.6340  16.3023  16.7976  17.0395  17.9490  18.0320  18.2592  18.4986
    18.7515  19.0034  19.1161  19.3823  19.3953  19.7748  20.1522  20.3252
    20.4804  20.8108  21.2441  21.3838  21.5497  21.6240  21.9855

          k = 0.0003 0.2901-0.1532 ( 15801 PWs)   bands (ev):

   -89.9012 -89.8954 -89.8774 -89.8547 -89.8416 -89.8344 -89.8205 -89.8192
   -89.8154 -89.7967 -89.7813 -89.7748 -89.7550 -89.7511 -89.7371 -89.7241
   -61.8588 -61.8447 -61.8138 -61.8076 -61.8025 -61.7949 -61.7256 -50.5712
   -50.5542 -50.5070 -50.4920 -50.4400 -50.4262 -50.3912 -50.3606 -50.3502
   -50.3485 -50.3312 -50.3259 -50.3151 -50.3046 -50.2865 -50.2652 -50.2361
   -50.2254 -50.1945 -50.1922 -50.1900 -50.1817 -50.1787 -50.1534 -50.1440
   -50.1429 -50.1373 -50.1362 -50.1320 -50.1309 -50.1173 -50.1042 -50.0988
   -50.0954 -50.0930 -50.0883 -50.0804 -50.0694 -50.0613 -50.0572 -50.0307
   -50.0230 -50.0117 -50.0074 -50.0034 -49.9782 -49.9707 -49.9331 -28.6126
   -28.6116 -28.6067 -28.5987 -28.5960 -28.5822 -28.5706 -28.5680 -28.5650
   -28.5568 -28.5553 -28.5474 -28.5413 -28.5404 -28.5387 -28.5370 -28.5370
   -28.5365 -28.4765 -28.4672 -28.4665   5.3252   5.6811   6.6788   6.9295
     8.6705   8.7396   8.7850   9.0695   9.1586   9.3876   9.4967   9.5904
     9.6721   9.7208   9.7848   9.8175   9.8443   9.9056   9.9743  10.0505
    10.0676  10.1361  10.2213  10.2562  10.2936  10.3299  10.4363  10.4526
    10.5446  10.5658  10.6003  10.6249  10.6717  10.6908  10.7590  10.7923
    10.8392  10.8794  10.9729  11.0184  11.0582  11.0824  11.1420  11.2695
    11.3931  11.4361  11.4465  11.4958  11.6461  11.6862  11.6986  11.7405
    11.7662  11.8246  11.8905  12.0306  12.0838  12.0908  12.1240  12.1412
    12.2139  12.2205  12.2528  12.2744  12.3026  12.3211  12.3577  12.3795
    12.4024  12.4803  12.5034  12.5212  12.5385  12.5464  12.5813  12.6349
    12.6826  12.6918  12.7243  12.7966  12.8305  12.8890  12.9118  12.9636
    12.9766  13.0254  13.1730  13.3020  13.3090  13.3284  14.1342  14.3124
    14.4500  14.4740  14.5757  14.5948  14.8207  14.8501  14.9225  15.4491
    15.7413  15.7826  16.9133  17.1141  17.8601  18.1020  18.3033  18.6625
    18.8247  19.0372  19.1999  19.5122  19.6576  19.9293  20.1031  20.3320
    20.4264  20.4999  20.8751  21.2092  21.2501  21.5661  22.2706

          k =-0.0014-0.5807-0.0001 ( 15830 PWs)   bands (ev):

   -89.9006 -89.8949 -89.8770 -89.8472 -89.8425 -89.8347 -89.8280 -89.8196
   -89.8155 -89.7896 -89.7812 -89.7741 -89.7625 -89.7522 -89.7374 -89.7237
   -61.8587 -61.8447 -61.8139 -61.8067 -61.8034 -61.7950 -61.7257 -50.5375
   -50.5257 -50.4958 -50.4541 -50.4363 -50.4093 -50.3942 -50.3769 -50.3714
   -50.3550 -50.3432 -50.3406 -50.3109 -50.2928 -50.2884 -50.2575 -50.2398
   -50.2248 -50.1980 -50.1950 -50.1891 -50.1808 -50.1725 -50.1565 -50.1483
   -50.1473 -50.1388 -50.1332 -50.1293 -50.1213 -50.1192 -50.1081 -50.1064
   -50.1043 -50.0928 -50.0864 -50.0836 -50.0805 -50.0678 -50.0559 -50.0455
   -50.0352 -50.0137 -50.0087 -50.0041 -49.9804 -49.9706 -49.9442 -28.6128
   -28.6118 -28.6071 -28.5991 -28.5957 -28.5832 -28.5708 -28.5692 -28.5625
   -28.5580 -28.5545 -28.5507 -28.5409 -28.5391 -28.5390 -28.5364 -28.5360
   -28.5357 -28.4765 -28.4672 -28.4666   6.6992   6.9821   7.2850   7.5483
     7.7532   8.0559   8.7789   8.9015   9.0597   9.3062   9.4038   9.4486
     9.5663   9.8734   9.9247  10.0297  10.0774  10.0880  10.1298  10.1869
    10.1935  10.3454  10.3984  10.4637  10.4929  10.5061  10.5521  10.5818
    10.6036  10.6497  10.6899  10.7185  10.7556  10.7761  10.8068  10.8128
    10.8469  10.8738  10.9380  10.9916  11.0103  11.0261  11.0928  11.1294
    11.1756  11.2353  11.2847  11.2876  11.3208  11.3658  11.3870  11.4167
    11.4502  11.4782  11.5080  11.5126  11.5689  11.5891  11.6479  11.7121
    11.7499  11.8146  11.8385  11.9197  11.9493  12.0585  12.1405  12.1542
    12.2170  12.2447  12.2588  12.3681  12.3920  12.4477  12.4562  12.4934
    12.5311  12.5501  12.5599  12.5757  12.6345  12.6817  12.7131  12.7359
    12.7874  12.8249  13.1835  13.1989  13.3121  13.4516  14.0052  14.1928
    14.4307  14.4726  14.5553  14.6181  14.6271  14.7391  14.9408  15.1670
    15.4461  15.6663  16.6874  17.4235  17.7238  18.5841  18.7401  18.9741
    19.2330  19.6764  19.9508  20.2872  20.4881  21.0012  21.4559  22.1223
    22.2289  22.3936  22.4201  22.5095  22.7690  22.9466  23.1576

          k =-0.0018-0.5809-0.1533 ( 15802 PWs)   bands (ev):

   -89.9006 -89.8949 -89.8770 -89.8471 -89.8424 -89.8347 -89.8280 -89.8195
   -89.8154 -89.7896 -89.7812 -89.7741 -89.7625 -89.7522 -89.7373 -89.7236
   -61.8587 -61.8447 -61.8139 -61.8067 -61.8034 -61.7950 -61.7256 -50.5372
   -50.5264 -50.4944 -50.4584 -50.4288 -50.4147 -50.3939 -50.3757 -50.3707
   -50.3559 -50.3432 -50.3402 -50.3109 -50.2927 -50.2885 -50.2575 -50.2398
   -50.2247 -50.1979 -50.1949 -50.1890 -50.1808 -50.1725 -50.1565 -50.1484
   -50.1473 -50.1388 -50.1332 -50.1293 -50.1213 -50.1192 -50.1081 -50.1064
   -50.1043 -50.0928 -50.0863 -50.0836 -50.0805 -50.0678 -50.0558 -50.0455
   -50.0352 -50.0137 -50.0087 -50.0041 -49.9804 -49.9706 -49.9442 -28.6128
   -28.6117 -28.6071 -28.5991 -28.5957 -28.5832 -28.5708 -28.5692 -28.5625
   -28.5579 -28.5545 -28.5507 -28.5408 -28.5391 -28.5390 -28.5363 -28.5360
   -28.5357 -28.4765 -28.4672 -28.4666   6.7208   6.9625   7.2513   7.4343
     8.0914   8.2213   8.2848   8.6636   9.3278   9.3980   9.5182   9.5948
     9.6328   9.7293   9.7616  10.0278  10.0307  10.0835  10.1272  10.1860
    10.3085  10.3232  10.3831  10.4260  10.4808  10.5099  10.5649  10.5728
    10.6023  10.6293  10.6824  10.7041  10.7386  10.7699  10.7970  10.8397
    10.8548  10.9108  10.9288  10.9823  11.0014  11.0620  11.1231  11.1447
    11.1591  11.2138  11.2576  11.3096  11.3312  11.3770  11.4008  11.4222
    11.4281  11.4814  11.4961  11.4987  11.6543  11.6809  11.7085  11.7469
    11.7721  11.8062  11.8190  11.8447  11.9224  11.9334  11.9729  12.0260
    12.2636  12.3218  12.3659  12.3962  12.4090  12.4262  12.4598  12.4793
    12.4993  12.5303  12.5608  12.5841  12.6353  12.6822  12.7034  12.7114
    12.7955  12.8328  13.2948  13.3291  13.4166  13.5718  13.9147  13.9922
    14.1410  14.2692  14.4744  14.5451  14.5983  14.6408  14.9673  15.3940
    16.1137  16.2450  16.8860  17.0681  17.1893  17.4303  18.5366  18.9296
    20.2708  20.4358  20.4634  20.5635  20.7121  20.9313  21.4520  21.6595
    21.7199  21.7945  21.9982  22.2174  22.8730  23.0503  23.0847

          k = 0.2503 0.1441 0.0004 ( 15799 PWs)   bands (ev):

   -89.9013 -89.8954 -89.8774 -89.8555 -89.8420 -89.8328 -89.8200 -89.8196
   -89.8158 -89.7984 -89.7825 -89.7714 -89.7532 -89.7515 -89.7392 -89.7238
   -61.8588 -61.8448 -61.8138 -61.8077 -61.8025 -61.7949 -61.7256 -50.5727
   -50.5551 -50.5159 -50.4825 -50.4559 -50.4114 -50.3990 -50.3616 -50.3466
   -50.3438 -50.3305 -50.3262 -50.3163 -50.3045 -50.2821 -50.2685 -50.2347
   -50.2266 -50.1934 -50.1913 -50.1907 -50.1826 -50.1793 -50.1529 -50.1466
   -50.1419 -50.1413 -50.1358 -50.1310 -50.1252 -50.1164 -50.1110 -50.1000
   -50.0918 -50.0890 -50.0872 -50.0800 -50.0704 -50.0621 -50.0584 -50.0269
   -50.0195 -50.0182 -50.0136 -49.9943 -49.9787 -49.9710 -49.9348 -28.6130
   -28.6110 -28.6068 -28.5991 -28.5954 -28.5822 -28.5701 -28.5691 -28.5640
   -28.5568 -28.5553 -28.5476 -28.5414 -28.5405 -28.5381 -28.5375 -28.5372
   -28.5364 -28.4765 -28.4671 -28.4665   5.2792   5.8498   6.2502   7.4339
     8.1797   8.7315   8.8469   9.0720   9.2388   9.3815   9.5312   9.6124
     9.6723   9.7242   9.7851   9.8546   9.8736   9.9173   9.9311   9.9857
    10.0775  10.1435  10.2206  10.2630  10.3175  10.3296  10.4280  10.4433
    10.5128  10.5596  10.6047  10.6408  10.6926  10.7229  10.7697  10.8044
    10.8509  10.8978  10.9443  11.0010  11.0536  11.1148  11.2468  11.2607
    11.2821  11.3675  11.4656  11.5385  11.5731  11.6460  11.6821  11.7015
    11.8417  11.9501  11.9745  12.0310  12.0613  12.1182  12.1438  12.1528
    12.1861  12.2103  12.2220  12.2610  12.2710  12.3140  12.3513  12.3905
    12.3998  12.4592  12.4855  12.5301  12.5569  12.5751  12.5955  12.6034
    12.6256  12.6565  12.7069  12.7387  12.8153  12.8973  12.9157  12.9538
    13.0236  13.0646  13.1577  13.1967  13.4715  13.6196  13.8560  14.0903
    14.3001  14.5119  14.5368  14.6279  14.8668  14.8828  15.2198  15.5825
    15.6682  16.3391  16.7653  17.0231  17.9777  18.0578  18.2864  18.5020
    18.7732  19.0138  19.1247  19.3970  19.4258  19.7896  20.1178  20.3254
    20.4801  20.7546  21.3157  21.3449  21.4970  21.6123  21.9179

          k = 0.2499 0.1439-0.1528 ( 15808 PWs)   bands (ev):

   -89.9013 -89.8954 -89.8774 -89.8555 -89.8420 -89.8328 -89.8200 -89.8196
   -89.8159 -89.7984 -89.7825 -89.7715 -89.7532 -89.7515 -89.7392 -89.7238
   -61.8588 -61.8448 -61.8138 -61.8077 -61.8025 -61.7949 -61.7256 -50.5723
   -50.5566 -50.5092 -50.4941 -50.4415 -50.4260 -50.3921 -50.3621 -50.3466
   -50.3443 -50.3303 -50.3262 -50.3163 -50.3044 -50.2821 -50.2685 -50.2347
   -50.2266 -50.1932 -50.1912 -50.1909 -50.1827 -50.1792 -50.1528 -50.1467
   -50.1420 -50.1413 -50.1358 -50.1310 -50.1252 -50.1165 -50.1109 -50.1000
   -50.0917 -50.0890 -50.0873 -50.0800 -50.0704 -50.0621 -50.0584 -50.0269
   -50.0195 -50.0182 -50.0136 -49.9943 -49.9787 -49.9710 -49.9348 -28.6130
   -28.6110 -28.6068 -28.5991 -28.5954 -28.5822 -28.5701 -28.5691 -28.5640
   -28.5568 -28.5553 -28.5476 -28.5414 -28.5405 -28.5381 -28.5376 -28.5372
   -28.5364 -28.4765 -28.4671 -28.4665   5.3193   5.6753   6.6720   6.9241
     8.6614   8.7293   8.7834   9.0548   9.1432   9.3799   9.4857   9.5914
     9.6638   9.7067   9.7767   9.8035   9.8572   9.9230   9.9613  10.0408
    10.0945  10.1233  10.2342  10.2392  10.3139  10.3248  10.4253  10.4688
    10.5315  10.5579  10.6076  10.6134  10.6724  10.7025  10.7757  10.7907
    10.8541  10.8711  10.9858  11.0145  11.0603  11.0770  11.1353  11.2648
    11.4046  11.4297  11.4598  11.4836  11.6452  11.6906  11.7029  11.7345
    11.7687  11.8245  11.8945  12.0220  12.0816  12.0937  12.1221  12.1446
    12.2018  12.2244  12.2602  12.2893  12.2997  12.3224  12.3565  12.3620
    12.4121  12.4914  12.4981  12.5142  12.5319  12.5576  12.5885  12.6394
    12.6775  12.6914  12.7286  12.7840  12.8346  12.8902  12.8966  12.9629
    12.9766  13.0302  13.1623  13.2990  13.3099  13.3407  14.1693  14.3360
    14.4525  14.5090  14.5940  14.6384  14.8411  14.8939  14.9425  15.4817
    15.6972  15.7885  16.9488  17.1505  17.8594  18.1257  18.3310  18.6762
    18.8447  19.0456  19.2002  19.5097  19.6796  19.9050  20.1032  20.2973
    20.3925  20.5039  20.8568  21.2191  21.2946  21.5306  22.1907

          k = 0.2510 0.4345 0.0004 ( 15820 PWs)   bands (ev):

   -89.9007 -89.8949 -89.8770 -89.8497 -89.8393 -89.8357 -89.8266 -89.8202
   -89.8157 -89.7932 -89.7769 -89.7757 -89.7586 -89.7537 -89.7390 -89.7235
   -61.8587 -61.8447 -61.8139 -61.8068 -61.8034 -61.7950 -61.7257 -50.5384
   -50.5280 -50.4975 -50.4551 -50.4401 -50.4089 -50.3955 -50.3795 -50.3707
   -50.3526 -50.3405 -50.3387 -50.3117 -50.2917 -50.2870 -50.2579 -50.2379
   -50.2268 -50.1954 -50.1937 -50.1912 -50.1828 -50.1728 -50.1534 -50.1530
   -50.1491 -50.1413 -50.1315 -50.1239 -50.1209 -50.1159 -50.1128 -50.1067
   -50.0965 -50.0894 -50.0863 -50.0824 -50.0783 -50.0765 -50.0569 -50.0441
   -50.0300 -50.0225 -50.0143 -49.9900 -49.9806 -49.9715 -49.9492 -28.6140
   -28.6103 -28.6073 -28.5999 -28.5946 -28.5834 -28.5713 -28.5694 -28.5609
   -28.5581 -28.5542 -28.5519 -28.5410 -28.5391 -28.5389 -28.5364 -28.5363
   -28.5353 -28.4765 -28.4672 -28.4666   6.3686   6.8976   7.2322   8.2472
     8.3540   8.4901   8.5890   8.7590   8.8014   9.0255   9.1844   9.4607
     9.5663   9.5792   9.7640   9.8253   9.9550  10.0144  10.1020  10.2016
    10.2435  10.3464  10.4318  10.4654  10.4934  10.5046  10.5251  10.5760
    10.5970  10.6254  10.6497  10.6812  10.7016  10.7703  10.7978  10.8075
    10.8439  10.8710  10.9284  10.9458  10.9689  11.0329  11.0575  11.1022
    11.1554  11.1747  11.2102  11.2458  11.2725  11.3612  11.4012  11.4426
    11.4791  11.5315  11.5718  11.6755  11.7141  11.7569  11.8355  11.8691
    11.8755  11.9749  12.0106  12.0382  12.0672  12.0796  12.1748  12.1846
    12.2019  12.2432  12.2640  12.3405  12.3583  12.3987  12.4425  12.4767
    12.4962  12.5446  12.6476  12.6685  12.7213  12.7294  12.7568  12.8522
    12.9218  12.9274  12.9604  13.0713  13.1498  13.1927  13.2524  13.4361
    13.7206  13.9146  14.0969  14.5700  14.6863  15.8899  16.0203  16.0992
    16.2870  16.9215  17.1501  17.3042  18.1049  18.1410  18.5185  18.7125
    19.0287  19.5211  19.8293  19.9134  20.1228  20.5708  20.7048  20.8245
    21.2021  21.7659  21.9090  22.1075  22.5353  22.8024  23.0015

          k = 0.2506 0.4342-0.1528 ( 15832 PWs)   bands (ev):

   -89.9007 -89.8950 -89.8770 -89.8497 -89.8393 -89.8358 -89.8265 -89.8203
   -89.8157 -89.7932 -89.7769 -89.7757 -89.7586 -89.7537 -89.7390 -89.7235
   -61.8587 -61.8447 -61.8139 -61.8068 -61.8034 -61.7950 -61.7257 -50.5381
   -50.5289 -50.4960 -50.4609 -50.4287 -50.4186 -50.3940 -50.3766 -50.3710
   -50.3544 -50.3401 -50.3385 -50.3117 -50.2916 -50.2872 -50.2579 -50.2379
   -50.2268 -50.1954 -50.1938 -50.1912 -50.1828 -50.1728 -50.1534 -50.1530
   -50.1491 -50.1413 -50.1315 -50.1240 -50.1210 -50.1159 -50.1128 -50.1067
   -50.0964 -50.0895 -50.0863 -50.0825 -50.0783 -50.0765 -50.0569 -50.0441
   -50.0300 -50.0225 -50.0143 -49.9900 -49.9806 -49.9715 -49.9492 -28.6140
   -28.6103 -28.6073 -28.5999 -28.5946 -28.5834 -28.5713 -28.5694 -28.5609
   -28.5581 -28.5542 -28.5519 -28.5410 -28.5391 -28.5390 -28.5364 -28.5363
   -28.5353 -28.4765 -28.4672 -28.4666   6.4058   6.7306   7.6312   7.8230
     8.2798   8.4684   8.6594   8.7214   9.0446   9.1497   9.2372   9.3624
     9.4647   9.6411   9.7655   9.8288   9.9389   9.9477  10.0469  10.2577
    10.3050  10.3893  10.4175  10.4395  10.4621  10.4786  10.5391  10.5623
    10.5967  10.6242  10.6439  10.6780  10.6929  10.7038  10.7814  10.8267
    10.8447  10.8997  10.9633  10.9726  11.0060  11.0236  11.0576  11.0801
    11.1176  11.1723  11.2162  11.2679  11.2837  11.3281  11.3766  11.4552
    11.5197  11.5689  11.6183  11.6356  11.7490  11.8140  11.8359  11.8649
    11.8764  11.8946  11.9239  11.9888  12.0349  12.0991  12.1397  12.2084
    12.2243  12.2645  12.2807  12.3215  12.3567  12.4037  12.4325  12.4761
    12.5824  12.5995  12.6264  12.6726  12.7130  12.7174  12.7523  12.8159
    12.9093  12.9290  13.0317  13.0567  13.1458  13.1612  13.2434  13.3709
    13.6392  13.7997  14.5484  14.7982  14.8310  14.9265  16.0067  16.1183
    16.7580  16.8748  17.1781  17.3937  18.1189  18.3264  18.5400  18.6824
    18.9739  19.1213  19.5016  19.5311  20.3155  20.6747  20.9722  21.2843
    21.4139  21.5427  22.1230  22.2924  22.4321  22.6917  23.2641

          k = 0.2490-0.4366 0.0003 ( 15823 PWs)   bands (ev):

   -89.9007 -89.8950 -89.8770 -89.8511 -89.8368 -89.8352 -89.8268 -89.8216
   -89.8158 -89.7887 -89.7826 -89.7773 -89.7567 -89.7517 -89.7401 -89.7235
   -61.8587 -61.8447 -61.8139 -61.8068 -61.8034 -61.7950 -61.7257 -50.5381
   -50.5252 -50.4970 -50.4570 -50.4406 -50.4114 -50.3933 -50.3793 -50.3710
   -50.3522 -50.3404 -50.3393 -50.3059 -50.2944 -50.2885 -50.2592 -50.2367
   -50.2283 -50.1977 -50.1921 -50.1895 -50.1842 -50.1733 -50.1546 -50.1525
   -50.1483 -50.1415 -50.1319 -50.1241 -50.1178 -50.1153 -50.1093 -50.1074
   -50.0973 -50.0881 -50.0872 -50.0848 -50.0821 -50.0780 -50.0547 -50.0458
   -50.0300 -50.0232 -50.0136 -49.9873 -49.9783 -49.9725 -49.9514 -28.6143
   -28.6100 -28.6073 -28.5992 -28.5954 -28.5833 -28.5713 -28.5694 -28.5611
   -28.5581 -28.5542 -28.5518 -28.5410 -28.5394 -28.5389 -28.5364 -28.5360
   -28.5353 -28.4765 -28.4673 -28.4665   6.3731   6.9023   7.2329   8.2523
     8.3549   8.4891   8.5844   8.7525   8.8114   9.0256   9.1857   9.4649
     9.5713   9.5779   9.7780   9.8082   9.9557  10.0268  10.0985  10.2061
    10.2430  10.3514  10.4232  10.4537  10.5008  10.5137  10.5258  10.5642
    10.5818  10.6313  10.6423  10.6914  10.7108  10.7719  10.7947  10.8095
    10.8387  10.8726  10.9256  10.9621  10.9694  11.0330  11.0486  11.1019
    11.1490  11.1839  11.2140  11.2501  11.2738  11.3609  11.3989  11.4367
    11.4844  11.5249  11.5777  11.6709  11.7101  11.7622  11.8294  11.8660
    11.8783  11.9854  12.0149  12.0421  12.0560  12.0903  12.1657  12.1796
    12.1995  12.2384  12.2573  12.3277  12.3546  12.4075  12.4389  12.4802
    12.5040  12.5426  12.6437  12.6661  12.7176  12.7421  12.7617  12.8415
    12.9108  12.9193  12.9719  13.0699  13.1533  13.1910  13.2498  13.4402
    13.7144  13.9201  14.0866  14.5747  14.6936  15.8751  16.0112  16.0955
    16.2908  16.9071  17.1500  17.2895  18.0824  18.1402  18.4921  18.7057
    19.0358  19.5002  19.8376  19.9147  20.0800  20.5565  20.6910  20.8495
    21.1885  21.7937  21.9306  22.1489  22.5082  22.7896  22.9666

          k = 0.2485-0.4368-0.1529 ( 15831 PWs)   bands (ev):

   -89.9007 -89.8950 -89.8770 -89.8511 -89.8368 -89.8352 -89.8268 -89.8216
   -89.8158 -89.7887 -89.7826 -89.7773 -89.7567 -89.7517 -89.7401 -89.7235
   -61.8587 -61.8447 -61.8139 -61.8068 -61.8034 -61.7950 -61.7257 -50.5379
   -50.5259 -50.4956 -50.4620 -50.4316 -50.4189 -50.3917 -50.3767 -50.3726
   -50.3529 -50.3403 -50.3391 -50.3059 -50.2942 -50.2887 -50.2592 -50.2367
   -50.2283 -50.1977 -50.1922 -50.1895 -50.1842 -50.1733 -50.1546 -50.1525
   -50.1483 -50.1414 -50.1320 -50.1242 -50.1178 -50.1153 -50.1092 -50.1075
   -50.0973 -50.0880 -50.0872 -50.0849 -50.0821 -50.0779 -50.0547 -50.0458
   -50.0300 -50.0232 -50.0136 -49.9873 -49.9783 -49.9725 -49.9514 -28.6143
   -28.6100 -28.6073 -28.5992 -28.5954 -28.5833 -28.5713 -28.5694 -28.5611
   -28.5582 -28.5542 -28.5518 -28.5410 -28.5394 -28.5390 -28.5364 -28.5360
   -28.5353 -28.4765 -28.4673 -28.4665   6.4106   6.7341   7.6371   7.8193
     8.2795   8.4713   8.6631   8.7214   9.0463   9.1510   9.2314   9.3651
     9.4602   9.6458   9.7739   9.8401   9.9301   9.9503  10.0445  10.2666
    10.3094  10.3857  10.4179  10.4392  10.4567  10.4752  10.5395  10.5618
    10.5820  10.6213  10.6477  10.6828  10.6986  10.7060  10.7674  10.8152
    10.8565  10.9036  10.9643  10.9918  10.9972  11.0151  11.0700  11.0784
    11.1257  11.1778  11.2104  11.2714  11.2800  11.3340  11.3748  11.4470
    11.5187  11.5637  11.6247  11.6319  11.7424  11.8144  11.8480  11.8654
    11.8761  11.9026  11.9223  11.9832  12.0307  12.0903  12.1480  12.2091
    12.2220  12.2642  12.2777  12.3171  12.3419  12.3989  12.4281  12.4914
    12.5780  12.6085  12.6180  12.6559  12.7176  12.7283  12.7591  12.8151
    12.9070  12.9296  13.0257  13.0574  13.1466  13.1531  13.2454  13.3685
    13.6340  13.8053  14.5617  14.8013  14.8113  14.9239  16.0070  16.1143
    16.7502  16.8635  17.1616  17.3909  18.1174  18.3033  18.5316  18.6568
    18.9617  19.1346  19.4639  19.5339  20.3306  20.6652  20.9539  21.3050
    21.4046  21.5187  22.1515  22.3129  22.4189  22.7205  23.2785

          k = 0.2497-0.1462 0.0003 ( 15792 PWs)   bands (ev):

   -89.9013 -89.8954 -89.8774 -89.8561 -89.8418 -89.8304 -89.8217 -89.8197
   -89.8159 -89.7966 -89.7829 -89.7754 -89.7508 -89.7497 -89.7408 -89.7238
   -61.8588 -61.8447 -61.8138 -61.8077 -61.8025 -61.7949 -61.7256 -50.5726
   -50.5530 -50.5158 -50.4824 -50.4565 -50.4123 -50.3991 -50.3608 -50.3491
   -50.3479 -50.3255 -50.3215 -50.3144 -50.3072 -50.2823 -50.2712 -50.2325
   -50.2290 -50.1955 -50.1898 -50.1879 -50.1853 -50.1795 -50.1497 -50.1476
   -50.1443 -50.1431 -50.1344 -50.1326 -50.1218 -50.1153 -50.1051 -50.1008
   -50.0962 -50.0934 -50.0836 -50.0821 -50.0713 -50.0619 -50.0570 -50.0307
   -50.0206 -50.0183 -50.0116 -49.9918 -49.9759 -49.9725 -49.9363 -28.6135
   -28.6106 -28.6068 -28.5979 -28.5966 -28.5821 -28.5703 -28.5689 -28.5641
   -28.5570 -28.5551 -28.5475 -28.5415 -28.5405 -28.5387 -28.5373 -28.5368
   -28.5363 -28.4765 -28.4672 -28.4664   5.2810   5.8517   6.2510   7.4366
     8.1777   8.7333   8.8532   9.0785   9.2469   9.3782   9.5306   9.6187
     9.6732   9.7236   9.7870   9.8519   9.8764   9.9182   9.9315   9.9870
    10.0712  10.1471  10.2347  10.2616  10.3104  10.3290  10.4285  10.4366
    10.5141  10.5614  10.6033  10.6373  10.6855  10.7180  10.7690  10.8139
    10.8564  10.8904  10.9453  10.9886  11.0611  11.1135  11.2398  11.2577
    11.2797  11.3787  11.4594  11.5422  11.5819  11.6420  11.6855  11.7052
    11.8411  11.9427  11.9748  12.0395  12.0587  12.1257  12.1327  12.1639
    12.1884  12.2139  12.2365  12.2553  12.2649  12.3269  12.3440  12.3887
    12.3993  12.4594  12.4818  12.5237  12.5476  12.5733  12.5929  12.6087
    12.6252  12.6614  12.7120  12.7359  12.8134  12.8894  12.9234  12.9531
    13.0290  13.0609  13.1553  13.2031  13.4653  13.6195  13.8606  14.0911
    14.3001  14.4946  14.5408  14.6065  14.8573  14.8709  15.1975  15.5695
    15.6651  16.3254  16.7942  17.0180  17.9666  18.0388  18.2765  18.5061
    18.7660  19.0069  19.1358  19.3922  19.4119  19.7791  20.1305  20.3337
    20.4963  20.7738  21.2663  21.3452  21.5204  21.6112  21.9461

          k = 0.2492-0.1464-0.1529 ( 15802 PWs)   bands (ev):

   -89.9013 -89.8954 -89.8774 -89.8561 -89.8418 -89.8305 -89.8217 -89.8197
   -89.8159 -89.7966 -89.7829 -89.7754 -89.7508 -89.7498 -89.7408 -89.7239
   -61.8588 -61.8447 -61.8138 -61.8077 -61.8025 -61.7949 -61.7256 -50.5722
   -50.5545 -50.5086 -50.4947 -50.4412 -50.4275 -50.3922 -50.3616 -50.3491
   -50.3480 -50.3253 -50.3215 -50.3144 -50.3071 -50.2823 -50.2712 -50.2325
   -50.2290 -50.1954 -50.1895 -50.1881 -50.1854 -50.1794 -50.1496 -50.1476
   -50.1443 -50.1431 -50.1345 -50.1326 -50.1218 -50.1152 -50.1050 -50.1009
   -50.0961 -50.0936 -50.0836 -50.0821 -50.0713 -50.0619 -50.0570 -50.0307
   -50.0206 -50.0183 -50.0116 -49.9918 -49.9760 -49.9725 -49.9363 -28.6135
   -28.6106 -28.6068 -28.5979 -28.5966 -28.5822 -28.5703 -28.5689 -28.5641
   -28.5570 -28.5551 -28.5475 -28.5415 -28.5405 -28.5387 -28.5373 -28.5368
   -28.5363 -28.4765 -28.4672 -28.4664   5.3211   5.6767   6.6747   6.9241
     8.6631   8.7357   8.7818   9.0567   9.1507   9.3846   9.4900   9.5879
     9.6638   9.7090   9.7764   9.8133   9.8545   9.9091   9.9717  10.0442
    10.0872  10.1312  10.2330  10.2486  10.3055  10.3267  10.4237  10.4623
    10.5277  10.5647  10.6085  10.6152  10.6659  10.6980  10.7657  10.7919
    10.8539  10.8800  10.9741  11.0144  11.0550  11.0722  11.1488  11.2683
    11.4068  11.4227  11.4551  11.4971  11.6448  11.6983  11.7085  11.7385
    11.7633  11.8193  11.8909  12.0357  12.0739  12.0889  12.1235  12.1425
    12.2065  12.2249  12.2583  12.2854  12.2986  12.3253  12.3482  12.3722
    12.4101  12.4887  12.4963  12.5248  12.5291  12.5467  12.5894  12.6398
    12.6837  12.6901  12.7269  12.7915  12.8330  12.8957  12.9091  12.9514
    12.9827  13.0250  13.1680  13.3043  13.3082  13.3299  14.1620  14.3394
    14.4562  14.4972  14.5826  14.6201  14.8176  14.8797  14.9315  15.4820
    15.7305  15.7678  16.9240  17.1454  17.8672  18.1063  18.3186  18.6721
    18.8445  19.0426  19.2071  19.5136  19.6714  19.9116  20.0801  20.3215
    20.4103  20.5212  20.8548  21.2211  21.2648  21.5349  22.2166

          k =-0.5007-0.2883-0.0007 ( 15818 PWs)   bands (ev):

   -89.9007 -89.8949 -89.8770 -89.8512 -89.8377 -89.8359 -89.8253 -89.8210
   -89.8160 -89.7954 -89.7785 -89.7715 -89.7567 -89.7540 -89.7412 -89.7233
   -61.8587 -61.8447 -61.8139 -61.8069 -61.8033 -61.7950 -61.7257 -50.5413
   -50.5313 -50.4986 -50.4571 -50.4458 -50.4132 -50.3975 -50.3710 -50.3649
   -50.3438 -50.3400 -50.3312 -50.3203 -50.2937 -50.2832 -50.2622 -50.2379
   -50.2264 -50.1959 -50.1934 -50.1903 -50.1823 -50.1740 -50.1539 -50.1528
   -50.1518 -50.1395 -50.1297 -50.1233 -50.1181 -50.1168 -50.1149 -50.1108
   -50.1029 -50.0934 -50.0839 -50.0835 -50.0695 -50.0636 -50.0583 -50.0569
   -50.0248 -50.0200 -50.0184 -49.9873 -49.9815 -49.9706 -49.9503 -28.6136
   -28.6104 -28.6075 -28.5998 -28.5947 -28.5834 -28.5709 -28.5696 -28.5613
   -28.5579 -28.5546 -28.5512 -28.5412 -28.5392 -28.5379 -28.5373 -28.5361
   -28.5356 -28.4765 -28.4671 -28.4666   6.6813   6.9651   7.2540   7.5203
     7.7466   8.0314   8.7637   8.8816   9.0597   9.2924   9.3952   9.4457
     9.5781   9.8558   9.9100  10.0457  10.0697  10.0973  10.1139  10.1670
    10.2071  10.3313  10.4195  10.4614  10.4891  10.5153  10.5360  10.5644
    10.5960  10.6446  10.6945  10.7005  10.7598  10.7729  10.8059  10.8237
    10.8608  10.8926  10.9523  10.9968  11.0056  11.0314  11.1059  11.1234
    11.1559  11.2217  11.2607  11.3037  11.3314  11.3784  11.3893  11.4289
    11.4561  11.4626  11.5179  11.5484  11.5750  11.5924  11.6563  11.7220
    11.7486  11.8097  11.8411  11.9192  11.9419  12.0476  12.1445  12.1599
    12.2114  12.2437  12.2576  12.3665  12.4054  12.4640  12.4738  12.5058
    12.5393  12.5517  12.5744  12.5872  12.6406  12.6905  12.7118  12.7270
    12.7979  12.8251  13.1880  13.1961  13.2985  13.4654  14.0506  14.2404
    14.4664  14.5102  14.5958  14.6020  14.6709  14.7558  14.9738  15.1529
    15.4837  15.6553  16.7400  17.4636  17.7068  18.6569  18.7676  18.9613
    19.2085  19.7450  19.9632  20.3262  20.4612  20.9686  21.4421  22.1003
    22.2229  22.3838  22.4351  22.5508  22.7488  22.9442  23.1439

          k =-0.5011-0.2885-0.1539 ( 15826 PWs)   bands (ev):

   -89.9007 -89.8950 -89.8770 -89.8513 -89.8377 -89.8360 -89.8253 -89.8210
   -89.8160 -89.7955 -89.7785 -89.7715 -89.7567 -89.7540 -89.7411 -89.7233
   -61.8587 -61.8447 -61.8139 -61.8069 -61.8033 -61.7950 -61.7257 -50.5408
   -50.5323 -50.4965 -50.4648 -50.4328 -50.4231 -50.3945 -50.3692 -50.3667
   -50.3439 -50.3402 -50.3308 -50.3203 -50.2937 -50.2833 -50.2623 -50.2380
   -50.2263 -50.1958 -50.1935 -50.1902 -50.1823 -50.1740 -50.1539 -50.1528
   -50.1518 -50.1395 -50.1298 -50.1233 -50.1182 -50.1165 -50.1151 -50.1109
   -50.1029 -50.0934 -50.0840 -50.0835 -50.0695 -50.0636 -50.0583 -50.0569
   -50.0248 -50.0201 -50.0184 -49.9873 -49.9815 -49.9706 -49.9503 -28.6136
   -28.6104 -28.6075 -28.5998 -28.5947 -28.5834 -28.5709 -28.5696 -28.5613
   -28.5579 -28.5546 -28.5512 -28.5412 -28.5392 -28.5379 -28.5373 -28.5361
   -28.5356 -28.4765 -28.4671 -28.4666   6.7028   6.9453   7.2260   7.4035
     8.0768   8.1988   8.2817   8.6369   9.3249   9.3878   9.5180   9.6000
     9.6262   9.7143   9.7489  10.0185  10.0465  10.0990  10.1010  10.2066
    10.2835  10.3078  10.3935  10.4167  10.4789  10.4946  10.5615  10.5848
    10.6138  10.6209  10.6692  10.7088  10.7405  10.7480  10.8063  10.8371
    10.8697  10.9107  10.9565  10.9865  10.9951  11.0709  11.1189  11.1569
    11.1617  11.2242  11.2340  11.3027  11.3339  11.3652  11.3941  11.4363
    11.4470  11.4792  11.5084  11.5257  11.6615  11.6912  11.7133  11.7472
    11.7635  11.8095  11.8247  11.8409  11.9175  11.9304  11.9664  12.0312
    12.2596  12.3206  12.3671  12.3928  12.4221  12.4446  12.4761  12.4796
    12.5128  12.5404  12.5756  12.5963  12.6414  12.6905  12.6992  12.7084
    12.8046  12.8322  13.3019  13.3422  13.4072  13.5573  13.9319  13.9851
    14.1647  14.3128  14.5135  14.5890  14.6466  14.6836  15.0166  15.4322
    16.1069  16.2192  16.8660  17.0653  17.2416  17.4800  18.5720  18.9914
    20.3111  20.4411  20.4773  20.5680  20.6756  20.9075  21.5102  21.6721
    21.6855  21.7957  22.0036  22.2298  22.8443  23.0240  23.0589

          k =-0.5000 0.0021-0.0007 ( 15813 PWs)   bands (ev):

   -89.9008 -89.8950 -89.8770 -89.8522 -89.8369 -89.8338 -89.8255 -89.8226
   -89.8160 -89.7929 -89.7792 -89.7766 -89.7538 -89.7519 -89.7428 -89.7233
   -61.8587 -61.8447 -61.8139 -61.8069 -61.8033 -61.7950 -61.7257 -50.5398
   -50.5281 -50.4985 -50.4579 -50.4451 -50.4131 -50.3949 -50.3774 -50.3681
   -50.3478 -50.3387 -50.3372 -50.3082 -50.2936 -50.2864 -50.2608 -50.2343
   -50.2306 -50.1964 -50.1911 -50.1899 -50.1855 -50.1737 -50.1557 -50.1520
   -50.1483 -50.1428 -50.1328 -50.1205 -50.1147 -50.1138 -50.1122 -50.1100
   -50.0947 -50.0907 -50.0896 -50.0834 -50.0792 -50.0758 -50.0568 -50.0415
   -50.0302 -50.0258 -50.0164 -49.9811 -49.9779 -49.9720 -49.9561 -28.6145
   -28.6094 -28.6077 -28.5996 -28.5949 -28.5834 -28.5715 -28.5694 -28.5604
   -28.5581 -28.5541 -28.5523 -28.5412 -28.5391 -28.5390 -28.5363 -28.5362
   -28.5353 -28.4765 -28.4672 -28.4665   6.3575   6.8875   7.2200   8.2495
     8.3500   8.4789   8.5922   8.7588   8.8082   9.0289   9.1859   9.4572
     9.5648   9.5753   9.7666   9.8085   9.9540  10.0132  10.0991  10.1932
    10.2452  10.3365  10.4253  10.4496  10.5005  10.5063  10.5192  10.5740
    10.5881  10.6290  10.6405  10.6803  10.7037  10.7686  10.7908  10.8088
    10.8425  10.8692  10.9266  10.9516  10.9741  11.0299  11.0562  11.1072
    11.1560  11.1838  11.2048  11.2505  11.2821  11.3654  11.4029  11.4524
    11.4786  11.5427  11.5855  11.6735  11.7173  11.7625  11.8379  11.8711
    11.8859  11.9845  12.0147  12.0430  12.0550  12.0917  12.1622  12.1820
    12.2077  12.2427  12.2627  12.3291  12.3602  12.4025  12.4456  12.4836
    12.5029  12.5509  12.6473  12.6678  12.7210  12.7354  12.7611  12.8514
    12.9203  12.9255  12.9638  13.0770  13.1550  13.1925  13.2485  13.4459
    13.7202  13.9158  14.1004  14.5608  14.6854  15.8913  16.0219  16.0974
    16.3119  16.9560  17.1802  17.3239  18.1339  18.1463  18.5429  18.7514
    19.0413  19.5500  19.8437  19.9377  20.1494  20.5721  20.6893  20.8458
    21.1986  21.7009  21.8652  22.0827  22.5459  22.8245  22.9914

          k =-0.5004 0.0019-0.1539 ( 15816 PWs)   bands (ev):

   -89.9008 -89.8950 -89.8770 -89.8522 -89.8369 -89.8338 -89.8255 -89.8226
   -89.8160 -89.7929 -89.7792 -89.7766 -89.7537 -89.7519 -89.7428 -89.7233
   -61.8587 -61.8447 -61.8139 -61.8069 -61.8033 -61.7950 -61.7257 -50.5394
   -50.5290 -50.4966 -50.4647 -50.4331 -50.4225 -50.3924 -50.3751 -50.3698
   -50.3488 -50.3381 -50.3371 -50.3082 -50.2936 -50.2865 -50.2608 -50.2342
   -50.2306 -50.1964 -50.1914 -50.1896 -50.1855 -50.1737 -50.1557 -50.1520
   -50.1483 -50.1426 -50.1329 -50.1207 -50.1145 -50.1136 -50.1124 -50.1100
   -50.0947 -50.0907 -50.0897 -50.0834 -50.0792 -50.0758 -50.0568 -50.0415
   -50.0302 -50.0258 -50.0164 -49.9811 -49.9779 -49.9720 -49.9561 -28.6144
   -28.6094 -28.6077 -28.5996 -28.5949 -28.5834 -28.5715 -28.5695 -28.5604
   -28.5581 -28.5541 -28.5523 -28.5412 -28.5391 -28.5390 -28.5363 -28.5362
   -28.5353 -28.4765 -28.4672 -28.4665   6.3951   6.7194   7.6222   7.8113
     8.2813   8.4645   8.6686   8.7296   9.0487   9.1472   9.2305   9.3630
     9.4563   9.6345   9.7698   9.8276   9.9296   9.9471  10.0414  10.2532
    10.2998  10.3842  10.4120  10.4320  10.4571  10.4709  10.5436  10.5650
    10.5848  10.6210  10.6420  10.6755  10.6965  10.7048  10.7758  10.8159
    10.8425  10.9015  10.9698  10.9840  10.9977  11.0142  11.0639  11.0793
    11.1269  11.1727  11.2282  11.2746  11.2857  11.3309  11.3812  11.4591
    11.5267  11.5773  11.6184  11.6431  11.7530  11.8152  11.8448  11.8678
    11.8851  11.8995  11.9294  11.9840  12.0392  12.0888  12.1479  12.2065
    12.2258  12.2645  12.2811  12.3173  12.3533  12.4018  12.4348  12.4853
    12.5849  12.6091  12.6270  12.6706  12.7095  12.7205  12.7577  12.8214
    12.9141  12.9326  13.0308  13.0562  13.1510  13.1596  13.2499  13.3697
    13.6342  13.7963  14.5543  14.8068  14.8337  14.9266  15.9964  16.1078
    16.7987  16.9005  17.2023  17.4294  18.1361  18.3404  18.5495  18.6915
    18.9982  19.1616  19.5327  19.5823  20.2921  20.6448  20.9774  21.3122
    21.4193  21.5455  22.0891  22.2487  22.4309  22.6728  23.2637

          k =-0.5021-0.8689-0.0008 ( 15818 PWs)   bands (ev):

   -89.9007 -89.8950 -89.8770 -89.8531 -89.8366 -89.8301 -89.8261 -89.8252
   -89.8161 -89.7871 -89.7847 -89.7795 -89.7515 -89.7483 -89.7462 -89.7234
   -61.8587 -61.8447 -61.8139 -61.8068 -61.8033 -61.7950 -61.7257 -50.5405
   -50.5258 -50.4977 -50.4602 -50.4462 -50.4184 -50.3942 -50.3704 -50.3669
   -50.3420 -50.3416 -50.3328 -50.3066 -50.2984 -50.2867 -50.2651 -50.2352
   -50.2294 -50.1990 -50.1893 -50.1882 -50.1861 -50.1753 -50.1562 -50.1514
   -50.1468 -50.1446 -50.1292 -50.1174 -50.1170 -50.1149 -50.1120 -50.1072
   -50.1035 -50.0941 -50.0870 -50.0870 -50.0832 -50.0690 -50.0523 -50.0462
   -50.0327 -50.0260 -50.0120 -49.9810 -49.9747 -49.9734 -49.9565 -28.6142
   -28.6099 -28.6074 -28.5979 -28.5968 -28.5832 -28.5709 -28.5696 -28.5616
   -28.5581 -28.5544 -28.5510 -28.5413 -28.5392 -28.5389 -28.5362 -28.5361
   -28.5356 -28.4765 -28.4673 -28.4665   6.6868   6.9648   7.2671   7.5374
     7.7257   8.0530   8.7612   8.8986   9.0504   9.3021   9.4038   9.4450
     9.5680   9.8582   9.9187  10.0386  10.0749  10.0953  10.1300  10.1813
    10.2043  10.3310  10.4054  10.4539  10.4732  10.5084  10.5440  10.5728
    10.6007  10.6354  10.6850  10.7018  10.7714  10.7815  10.8107  10.8256
    10.8554  10.8742  10.9355  11.0072  11.0178  11.0319  11.0889  11.1386
    11.1812  11.2336  11.2706  11.2884  11.3237  11.3675  11.3809  11.4160
    11.4549  11.4655  11.5163  11.5291  11.5828  11.5881  11.6620  11.7226
    11.7412  11.8290  11.8442  11.9129  11.9445  12.0633  12.1513  12.1605
    12.2236  12.2396  12.2553  12.3582  12.3902  12.4552  12.4644  12.5085
    12.5324  12.5552  12.5711  12.5846  12.6472  12.6845  12.7150  12.7306
    12.7915  12.8314  13.1810  13.1854  13.3214  13.4595  14.0405  14.2224
    14.4546  14.5002  14.5847  14.6258  14.6566  14.7285  14.9492  15.1536
    15.4809  15.6584  16.7178  17.4344  17.7243  18.6190  18.7745  18.9796
    19.2239  19.6978  19.9553  20.3104  20.4743  20.9703  21.4526  22.1170
    22.2169  22.3724  22.4560  22.5364  22.7626  22.9328  23.1287

          k =-0.5025-0.8692-0.1540 ( 15816 PWs)   bands (ev):

   -89.9007 -89.8950 -89.8770 -89.8531 -89.8366 -89.8301 -89.8261 -89.8252
   -89.8160 -89.7871 -89.7847 -89.7795 -89.7514 -89.7483 -89.7462 -89.7233
   -61.8587 -61.8447 -61.8139 -61.8068 -61.8033 -61.7950 -61.7257 -50.5403
   -50.5266 -50.4957 -50.4661 -50.4371 -50.4244 -50.3923 -50.3707 -50.3669
   -50.3418 -50.3416 -50.3328 -50.3066 -50.2984 -50.2868 -50.2652 -50.2352
   -50.2294 -50.1990 -50.1895 -50.1881 -50.1862 -50.1753 -50.1562 -50.1515
   -50.1468 -50.1446 -50.1293 -50.1174 -50.1171 -50.1149 -50.1119 -50.1071
   -50.1036 -50.0941 -50.0871 -50.0870 -50.0832 -50.0691 -50.0523 -50.0463
   -50.0327 -50.0259 -50.0120 -49.9810 -49.9747 -49.9734 -49.9565 -28.6142
   -28.6099 -28.6075 -28.5979 -28.5968 -28.5832 -28.5709 -28.5696 -28.5615
   -28.5581 -28.5544 -28.5510 -28.5413 -28.5392 -28.5389 -28.5362 -28.5361
   -28.5356 -28.4765 -28.4673 -28.4665   6.7072   6.9502   7.2281   7.4175
     8.0775   8.2116   8.2673   8.6636   9.3243   9.3921   9.5121   9.5817
     9.6336   9.7289   9.7521  10.0208  10.0392  10.0943  10.1301  10.2037
    10.2926  10.3093  10.3855  10.4184  10.4749  10.4953  10.5481  10.5783
    10.6045  10.6278  10.6827  10.6853  10.7397  10.7556  10.8093  10.8444
    10.8666  10.9093  10.9301  10.9924  11.0062  11.0804  11.1308  11.1459
    11.1733  11.2094  11.2492  11.3129  11.3222  11.3832  11.3932  11.4125
    11.4297  11.4785  11.4983  11.5251  11.6517  11.6902  11.7189  11.7345
    11.7938  11.8095  11.8364  11.8500  11.9251  11.9301  11.9657  12.0235
    12.2697  12.3197  12.3623  12.3970  12.4056  12.4361  12.4716  12.4770
    12.5123  12.5332  12.5703  12.5926  12.6479  12.6852  12.7038  12.7085
    12.7977  12.8413  13.3003  13.3313  13.4105  13.5730  13.9202  13.9981
    14.1599  14.2951  14.4983  14.5732  14.6288  14.6671  14.9943  15.4291
    16.0885  16.2247  16.8940  17.0629  17.2100  17.4746  18.5618  18.9625
    20.3081  20.4381  20.4661  20.5546  20.6839  20.9151  21.4836  21.6856
    21.7057  21.7957  22.0035  22.2308  22.8581  23.0175  23.0427

     the Fermi energy is    13.1840 ev

!    total energy              =   -7856.22856262 Ry
     total all-electron energy =    -51470.034164 Ry
     estimated scf accuracy    <       0.00000459 Ry
     smearing contrib. (-TS)   =       0.20638325 Ry
     internal energy E=F+TS    =   -7856.43494587 Ry

     The total energy is F=E-TS. E is the sum of the following terms:
     one-electron contribution =   -4508.39730054 Ry
     hartree contribution      =    2410.47121380 Ry
     xc contribution           =    -673.06479222 Ry
     ewald contribution        =   -3523.31018353 Ry
     one-center paw contrib.   =   -1562.13388339 Ry

     convergence has been achieved in  35 iterations

     Forces acting on atoms (cartesian axes, Ry/au):

     atom    1 type  1   force =     0.00356600   -0.00044884   -0.01717648
     atom    2 type  1   force =     0.00004469    0.00194071    0.00494775
     atom    3 type  1   force =    -0.00175959   -0.00105882   -0.00922461
     atom    4 type  1   force =    -0.00046878    0.00369359   -0.00173003
     atom    5 type  1   force =     0.00227365   -0.00129284    0.00285423
     atom    6 type  1   force =    -0.00341065    0.00045751    0.02475801
     atom    7 type  1   force =    -0.00194824    0.00369045   -0.00898367
     atom    8 type  2   force =    -0.00490840    0.00018553    0.00520273
     atom    9 type  2   force =     0.00270174   -0.00448456   -0.00093221
     atom   10 type  2   force =     0.00294521   -0.00158585    0.01282874
     atom   11 type  2   force =     0.00236372   -0.00172968    0.00756345
     atom   12 type  2   force =     0.00424883   -0.01552403   -0.00116051
     atom   13 type  2   force =     0.01798860   -0.01146583    0.00235083
     atom   14 type  2   force =     0.00156246    0.02706691   -0.00007806
     atom   15 type  2   force =    -0.01283683    0.00899847   -0.00074812
     atom   16 type  2   force =     0.01145316    0.00253776   -0.00386438
     atom   17 type  2   force =    -0.02111028   -0.01576332   -0.00102840
     atom   18 type  2   force =    -0.00021262    0.00094076   -0.00654511
     atom   19 type  2   force =    -0.00523684   -0.00314933    0.00612942
     atom   20 type  2   force =     0.00137472    0.00854996   -0.00430103
     atom   21 type  2   force =    -0.00322659    0.00131145   -0.01015001
     atom   22 type  2   force =     0.00414345   -0.00486860    0.00047126
     atom   23 type  2   force =     0.00045258    0.00199857   -0.00118379
     The non-local contrib.  to forces
     atom    1 type  1   force =     0.01793822   -0.00485077    0.01162797
     atom    2 type  1   force =    -0.00277309    0.01491172    0.03140358
     atom    3 type  1   force =     0.00200135   -0.00352364   -0.03962256
     atom    4 type  1   force =    -0.00339894    0.00997201   -0.02181349
     atom    5 type  1   force =     0.00277614   -0.00842311    0.01356235
     atom    6 type  1   force =    -0.01571580    0.00987315   -0.00181493
     atom    7 type  1   force =    -0.00676351    0.01435287   -0.03064378
     atom    8 type  2   force =     0.04411745    0.01397053   -0.01078375
     atom    9 type  2   force =    -0.01271670    0.02200019    0.01840619
     atom   10 type  2   force =    -0.00456530    0.01385450   -0.00409157
     atom   11 type  2   force =    -0.00859171    0.00075304   -0.04082000
     atom   12 type  2   force =    -0.03598825   -0.10913148   -0.06850844
     atom   13 type  2   force =     0.07580901   -0.03543095   -0.00848230
     atom   14 type  2   force =     0.00415697    0.06659272   -0.00246802
     atom   15 type  2   force =    -0.09248566    0.05384329   -0.08050685
     atom   16 type  2   force =     0.07936390    0.09232133   -0.06923689
     atom   17 type  2   force =    -0.06392345   -0.02252361   -0.00979848
     atom   18 type  2   force =     0.00563614   -0.02279406    0.07740075
     atom   19 type  2   force =    -0.00346776    0.01574271   -0.01498671
     atom   20 type  2   force =     0.00028359   -0.00058303   -0.00765143
     atom   21 type  2   force =    -0.01961590    0.02096901    0.09225134
     atom   22 type  2   force =     0.00685104    0.01550999   -0.00858455
     atom   23 type  2   force =     0.03573077    0.01413542    0.07104155
     The ionic contribution  to forces
     atom    1 type  1   force =     0.50571715   -0.19916115   -8.12113957
     atom    2 type  1   force =    -0.08365538    0.55504721    1.70260200
     atom    3 type  1   force =     0.02392760   -0.05998958   -8.67037393
     atom    4 type  1   force =    -0.05902107    0.39709899    9.37874278
     atom    5 type  1   force =    -0.04775376   -0.24040763   -6.03280593
     atom    6 type  1   force =    -0.53559062    0.32428147   12.30722545
     atom    7 type  1   force =    -0.25918682    0.42016785   -1.06279701
     atom    8 type  2   force =     0.42160724    0.07899705   -5.04872261
     atom    9 type  2   force =     0.46814517   -0.85187084    2.63050226
     atom   10 type  2   force =     0.58362456    0.19315816  -13.76080038
     atom   11 type  2   force =     0.66281869   -0.45869420   17.67066884
     atom   12 type  2   force =     0.62683517  -14.84645119   18.62307374
     atom   13 type  2   force =    13.67451303   -8.11087912   -5.65199186
     atom   14 type  2   force =     0.45736262   16.72537520   -5.79782241
     atom   15 type  2   force =   -13.13451073    7.84021815   19.15772076
     atom   16 type  2   force =    12.63280238    6.89212492   18.47847809
     atom   17 type  2   force =   -14.26007238   -8.59869313   -5.94000567
     atom   18 type  2   force =    -0.57035828    2.03675047  -23.20140873
     atom   19 type  2   force =    -0.78187966   -0.38785440   10.81448434
     atom   20 type  2   force =     0.11974368    1.28380417    9.92228506
     atom   21 type  2   force =     1.22774938   -1.01125818  -23.58550690
     atom   22 type  2   force =     0.52404712   -0.77497929   10.49835037
     atom   23 type  2   force =    -2.19686508   -1.20678494  -24.31075868
     The local contribution  to forces
     atom    1 type  1   force =    -0.51991078    0.20343558    8.09325419
     atom    2 type  1   force =     0.08650290   -0.56788585   -1.72943723
     atom    3 type  1   force =    -0.02765297    0.06251018    8.69780244
     atom    4 type  1   force =     0.06202197   -0.40340277   -9.35664401
     atom    5 type  1   force =     0.04736437    0.24759648    6.01900374
     atom    6 type  1   force =     0.54787555   -0.33350949  -12.27756990
     atom    7 type  1   force =     0.26392949   -0.43078267    1.08307920
     atom    8 type  2   force =    -0.46886189   -0.09098619    5.07031978
     atom    9 type  2   force =    -0.45357636    0.82707169   -2.64653779
     atom   10 type  2   force =    -0.57708598   -0.20816849   13.76786876
     atom   11 type  2   force =    -0.65295127    0.45665492  -17.62329548
     atom   12 type  2   force =    -0.58861338   14.93681614  -18.55533190
     atom   13 type  2   force =   -13.73071228    8.13458782    5.65815132
     atom   14 type  2   force =    -0.45981050  -16.76454117    5.79563140
     atom   15 type  2   force =    13.21165954   -7.88346028  -19.07860967
     atom   16 type  2   force =   -12.69868250   -6.97806850  -18.41288492
     atom   17 type  2   force =    14.30225543    8.60591831    5.94402081
     atom   18 type  2   force =     0.56507562   -2.01401108   23.12102681
     atom   19 type  2   force =     0.78036774    0.36949896  -10.79329561
     atom   20 type  2   force =    -0.11848657   -1.27453661   -9.91889883
     atom   21 type  2   force =    -1.21220460    0.99288180   23.48765710
     atom   22 type  2   force =    -0.52640363    0.75533689  -10.48940751
     atom   23 type  2   force =     2.16391870    1.19620411   24.24355305
     The core correction contribution to forces
     atom    1 type  1   force =    -0.00008654    0.00002048   -0.00002150
     atom    2 type  1   force =     0.00000732   -0.00006315   -0.00016335
     atom    3 type  1   force =     0.00000294    0.00001818    0.00022622
     atom    4 type  1   force =     0.00001257   -0.00005264    0.00009842
     atom    5 type  1   force =    -0.00002441    0.00003355   -0.00004768
     atom    6 type  1   force =     0.00006444   -0.00003465   -0.00008349
     atom    7 type  1   force =     0.00003373   -0.00006525    0.00014858
     atom    8 type  2   force =    -0.00188481   -0.00099979   -0.00244299
     atom    9 type  2   force =     0.00084599   -0.00135118   -0.00452090
     atom   10 type  2   force =     0.00044918   -0.00060350    0.00351626
     atom   11 type  2   force =     0.00063188   -0.00007314    0.00552858
     atom   12 type  2   force =     0.00217956    0.00328521    0.00493165
     atom   13 type  2   force =    -0.00186108    0.00044622    0.00025684
     atom   14 type  2   force =    -0.00019277   -0.00058693    0.00017639
     atom   15 type  2   force =     0.00240353   -0.00153349    0.00592243
     atom   16 type  2   force =    -0.00184184   -0.00383523    0.00510561
     atom   17 type  2   force =     0.00089328   -0.00025360    0.00030805
     atom   18 type  2   force =    -0.00060366    0.00094157   -0.00481072
     atom   19 type  2   force =     0.00010689   -0.00061966    0.00045756
     atom   20 type  2   force =    -0.00021138    0.00017359    0.00057460
     atom   21 type  2   force =     0.00084048   -0.00123003   -0.00574952
     atom   22 type  2   force =    -0.00072179   -0.00078420    0.00070671
     atom   23 type  2   force =    -0.00235640   -0.00143218   -0.00620654
     The Hubbard contrib.    to forces
     atom    1 type  1   force =     0.00000000    0.00000000    0.00000000
     atom    2 type  1   force =     0.00000000    0.00000000    0.00000000
     atom    3 type  1   force =     0.00000000    0.00000000    0.00000000
     atom    4 type  1   force =     0.00000000    0.00000000    0.00000000
     atom    5 type  1   force =     0.00000000    0.00000000    0.00000000
     atom    6 type  1   force =     0.00000000    0.00000000    0.00000000
     atom    7 type  1   force =     0.00000000    0.00000000    0.00000000
     atom    8 type  2   force =     0.00000000    0.00000000    0.00000000
     atom    9 type  2   force =     0.00000000    0.00000000    0.00000000
     atom   10 type  2   force =     0.00000000    0.00000000    0.00000000
     atom   11 type  2   force =     0.00000000    0.00000000    0.00000000
     atom   12 type  2   force =     0.00000000    0.00000000    0.00000000
     atom   13 type  2   force =     0.00000000    0.00000000    0.00000000
     atom   14 type  2   force =     0.00000000    0.00000000    0.00000000
     atom   15 type  2   force =     0.00000000    0.00000000    0.00000000
     atom   16 type  2   force =     0.00000000    0.00000000    0.00000000
     atom   17 type  2   force =     0.00000000    0.00000000    0.00000000
     atom   18 type  2   force =     0.00000000    0.00000000    0.00000000
     atom   19 type  2   force =     0.00000000    0.00000000    0.00000000
     atom   20 type  2   force =     0.00000000    0.00000000    0.00000000
     atom   21 type  2   force =     0.00000000    0.00000000    0.00000000
     atom   22 type  2   force =     0.00000000    0.00000000    0.00000000
     atom   23 type  2   force =     0.00000000    0.00000000    0.00000000
     The SCF correction term to forces
     atom    1 type  1   force =    -0.00009010    0.00017506   -0.00087039
     atom    2 type  1   force =    -0.00003512   -0.00000117    0.00056993
     atom    3 type  1   force =    -0.00003656   -0.00000591    0.00277041
     atom    4 type  1   force =    -0.00008137    0.00014604   -0.00208655
     atom    5 type  1   force =    -0.00008674   -0.00002409    0.00316893
     atom    6 type  1   force =    -0.00004228   -0.00008494   -0.00297194
     atom    7 type  1   force =     0.00004081    0.00008570    0.00125653
     atom    8 type  2   force =     0.00011554   -0.00072802   -0.00314052
     atom    9 type  2   force =     0.00000558   -0.00026638    0.00124522
     atom   10 type  2   force =     0.00052470    0.00024152    0.00636286
     atom   11 type  2   force =     0.00045806   -0.00030226   -0.00449131
     atom   12 type  2   force =    -0.00016233    0.00002533   -0.00529839
     atom   13 type  2   force =     0.00024187   -0.00012178    0.00444402
     atom   14 type  2   force =     0.00004807    0.00029512    0.00443176
     atom   15 type  2   force =     0.00009844   -0.00000115   -0.00524760
     atom   16 type  2   force =    -0.00018683    0.00006327   -0.00529909
     atom   17 type  2   force =    -0.00026122   -0.00014325    0.00447407
     atom   18 type  2   force =     0.00003950    0.00012190    0.00127395
     atom   19 type  2   force =    -0.00036211    0.00015110   -0.00050297
     atom   20 type  2   force =     0.00004734   -0.00024011   -0.00058324
     atom   21 type  2   force =     0.00000600    0.00001689    0.00122515
     atom   22 type  2   force =     0.00037265    0.00011604   -0.00056657
     atom   23 type  2   force =     0.00002653   -0.00005578    0.00121402

     Total force =     0.066524     Total SCF correction =     0.016009
     SCF correction compared to forces is large: reduce conv_thr to get better values


     Computing stress (Cartesian axis) and pressure

          total   stress  (Ry/bohr**3)                   (kbar)     P=       34.58
   0.00021044  -0.00000801   0.00001997           30.96       -1.18        2.94
  -0.00000801   0.00027489   0.00000128           -1.18       40.44        0.19
   0.00001997   0.00000128   0.00021983            2.94        0.19       32.34


     Writing all to output data dir ./C36/out_logs/C36_out_18/laves_C36.save/
 
     init_run     :     11.01s CPU     11.34s WALL (       1 calls)
     electrons    :    796.64s CPU    796.89s WALL (       1 calls)
     forces       :      5.03s CPU      5.04s WALL (       1 calls)
     stress       :     28.57s CPU     28.58s WALL (       1 calls)

     Called by init_run:
     wfcinit      :      6.82s CPU      7.06s WALL (       1 calls)
                                        7.06s GPU  (       1 calls)
     potinit      :      3.16s CPU      3.19s WALL (       1 calls)
     hinit0       :      0.85s CPU      0.86s WALL (       1 calls)

     Called by electrons:
     c_bands      :    629.58s CPU    629.77s WALL (      35 calls)
     sum_band     :     88.11s CPU     88.13s WALL (      35 calls)
     v_of_rho     :      0.89s CPU      0.91s WALL (      36 calls)
     newd         :      2.82s CPU      2.83s WALL (      36 calls)
                                        2.82s GPU  (      36 calls)
     PAW_pot      :     75.77s CPU     75.78s WALL (      36 calls)
     mix_rho      :      0.83s CPU      0.85s WALL (      35 calls)

     Called by c_bands:
     init_us_2    :      1.87s CPU      1.87s WALL (    1460 calls)
     init_us_2:gp :      1.85s CPU      1.86s WALL (    1460 calls)
     cegterg      :    604.12s CPU    604.28s WALL (     700 calls)

     Called by *egterg:
     cdiaghg      :     49.99s CPU     50.43s WALL (    2210 calls)
                                       50.39s GPU  (    2210 calls)
     h_psi        :    281.73s CPU    281.91s WALL (    2230 calls)
                                      281.64s GPU  (    2230 calls)
     s_psi        :      1.39s CPU     54.23s WALL (    2230 calls)
                                       53.80s GPU  (    2230 calls)
     g_psi        :      0.01s CPU      0.95s WALL (    1510 calls)
                                        0.89s GPU  (    1510 calls)

     Called by h_psi:
     h_psi:calbec :      0.12s CPU     61.51s WALL (    2230 calls)
                                       61.49s GPU  (    2230 calls)
     vloc_psi     :    164.56s CPU    164.70s WALL (    2230 calls)
                                      164.66s GPU  (    2230 calls)
     add_vuspsi   :      1.93s CPU     54.71s WALL (    2230 calls)
                                       54.59s GPU  (    2230 calls)

     General routines
     calbec       :      0.12s CPU      0.13s WALL (    3030 calls)
     fft          :      0.42s CPU      0.65s WALL (     491 calls)
                                        0.23s GPU  (     455 calls)
     ffts         :      0.11s CPU      0.12s WALL (      71 calls)
                                        0.01s GPU  (      35 calls)
     fftw         :      0.39s CPU    174.05s WALL (   53088 calls)
                                      173.16s GPU  (   53088 calls)
     interpolate  :      0.60s CPU      0.60s WALL (      36 calls)
 
     Parallel routines
 
     PWSCF        :  14m 1.83s CPU  14m 2.96s WALL

 
   This run was terminated on:   2: 7:10   6Apr2026            

=------------------------------------------------------------------------------=
   JOB DONE.
=------------------------------------------------------------------------------=
