
     Program PWSCF v.7.2 starts on  3Apr2026 at 10:40:19 

     This program is part of the open-source Quantum ESPRESSO suite
     for quantum simulation of materials; please cite
         "P. Giannozzi et al., J. Phys.:Condens. Matter 21 395502 (2009);
         "P. Giannozzi et al., J. Phys.:Condens. Matter 29 465901 (2017);
         "P. Giannozzi et al., J. Chem. Phys. 152 154105 (2020);
          URL http://www.quantum-espresso.org", 
     in publications or presentations arising from this work. More details at
     http://www.quantum-espresso.org/quote

     Parallel version (MPI), running on     1 processors

     MPI processes distributed on     1 nodes
     1593 MiB available memory on the printing compute node when the environment starts
 
     Reading input from C36/in/laves_010_relax.in
Warning: card &CELL ignored
Warning: card / ignored

     Current dimensions of program PWSCF are:
     Max number of different atomic species (ntypx) = 10
     Max number of k-points (npk) =  40000
     Max angular momentum in pseudopotentials (lmaxx) =  4
     file Mg.pbe-spnl-kjpaw_psl.1.0.0.UPF: wavefunction(s)  2P renormalized
     file Ni.pbe-spn-kjpaw_psl.1.0.0.UPF: wavefunction(s)  3P 3D renormalized
 
     Subspace diagonalization in iterative solution of the eigenvalue problem:
     a serial algorithm will be used

 
     G-vector sticks info
     --------------------
     sticks:   dense  smooth     PW     G-vecs:    dense   smooth      PW
     Sum        2629    1757    493               359215   195653   28531
 
     Using Slab Decomposition
 

     Title: 
     C36_MgNi2                                                                  


     bravais-lattice index     =            0
     lattice parameter (alat)  =       8.9662  a.u.
     unit-cell volume          =    2023.6387 (a.u.)^3
     number of atoms/cell      =           24
     number of atomic types    =            2
     number of electrons       =       368.00
     number of Kohn-Sham states=          221
     kinetic-energy cutoff     =      80.0000  Ry
     charge density cutoff     =     480.0000  Ry
     scf convergence threshold =      1.0E-05
     mixing beta               =       0.2000
     number of iterations used =           12  plain     mixing
     energy convergence thresh.=      1.0E-05
     force convergence thresh. =      1.0E-04
     Exchange-correlation= SLA  PW   PBX  PBC
                           (   1   4   3   4   0   0   0)
     nstep                     =           12


     GPU acceleration is ACTIVE.


     celldm(1)=   8.966216  celldm(2)=   0.000000  celldm(3)=   0.000000
     celldm(4)=   0.000000  celldm(5)=   0.000000  celldm(6)=   0.000000

     crystal axes: (cart. coord. in units of alat)
               a(1) = (   0.999983   0.005760   0.001196 )  
               a(2) = (  -0.505912   0.854854   0.001921 )  
               a(3) = (   0.051377   0.012842   3.273075 )  

     reciprocal axes: (cart. coord. in units 2 pi/alat)
               b(1) = (  0.996641  0.589863 -0.017958 )  
               b(2) = ( -0.006710  1.165829 -0.004469 )  
               b(3) = ( -0.000360 -0.000900  0.305532 )  


     PseudoPot. # 1 for Mg read from file:
     ./pseudo/Mg.pbe-spnl-kjpaw_psl.1.0.0.UPF
     MD5 check sum: fda14e0d92a6a9a5ebed782e5a4b3067
     Pseudo is Projector augmented-wave + core cor, Zval = 10.0
     Generated using &quot;atomic&quot; code by A. Dal Corso  v.6.3
     Shape of augmentation charge: PSQ
     Using radial grid of 1129 points,  4 beta functions with: 
                l(1) =   0
                l(2) =   0
                l(3) =   1
                l(4) =   1
     Q(r) pseudized with 0 coefficients 


     PseudoPot. # 2 for Ni read from file:
     ./pseudo/Ni.pbe-spn-kjpaw_psl.1.0.0.UPF
     MD5 check sum: 6e86b733589c3ad8389697b807d86aa7
     Pseudo is Projector augmented-wave + core cor, Zval = 18.0
     Generated using &quot;atomic&quot; code by A. Dal Corso  v.6.3
     Shape of augmentation charge: PSQ
     Using radial grid of 1195 points,  6 beta functions with: 
                l(1) =   0
                l(2) =   0
                l(3) =   1
                l(4) =   1
                l(5) =   2
                l(6) =   2
     Q(r) pseudized with 0 coefficients 


     atomic species   valence    mass     pseudopotential
        Mg            10.00    24.30500     Mg( 1.00)
        Ni            18.00    58.69340     Ni( 1.00)

     No symmetry found



   Cartesian axes

     site n.     atom                  positions (alat units)
         1           Mg  tau(   1) = (   0.0200929   0.0088724   1.3316343  )
         2           Mg  tau(   2) = (   0.5401726   0.8707075   2.9673461  )
         3           Mg  tau(   3) = (   1.0283647   0.0145911   1.9426181  )
         4           Mg  tau(   4) = (   1.0029250   0.0075401   0.3118819  )
         5           Mg  tau(   5) = (   0.0310670   0.5802119   2.1494399  )
         6           Mg  tau(   6) = (   0.5072236   0.2902101   0.5113037  )
         7           Mg  tau(   7) = (   0.5104412   0.2949894   1.1265038  )
         8           Mg  tau(   8) = (   0.0355832   0.5803767   2.7643203  )
         9           Ni  tau(   9) = (   0.0172389   0.5822386   1.2280735  )
        10           Ni  tau(  10) = (   0.5453547   0.2997913   2.8651742  )
        11           Ni  tau(  11) = (   0.5297241   0.3016787   2.0451235  )
        12           Ni  tau(  12) = (   0.0050528   0.5736741   0.4092890  )
        13           Ni  tau(  13) = (   0.0109416   0.2864909   0.8232575  )
        14           Ni  tau(  14) = (   0.7850976   0.1581089   2.4558553  )
        15           Ni  tau(  15) = (   0.5325077   0.5852137   2.4614793  )
        16           Ni  tau(  16) = (  -0.2429118   0.7125468   0.8203082  )
        17           Ni  tau(  17) = (   0.2575186   0.7204401   0.8239489  )
        18           Ni  tau(  18) = (   0.2899244   0.1542579   2.4583336  )
        19           Ni  tau(  19) = (   0.5241804   0.0140098   1.6361525  )
        20           Ni  tau(  20) = (   0.3014814   0.4392428   3.2744653  )
        21           Ni  tau(  21) = (   0.5003663   0.0044246   0.0015323  )
        22           Ni  tau(  22) = (   0.2768675   0.4359697   1.6336146  )
        23           Ni  tau(  23) = (  -0.2512733   0.4281265   0.0012166  )
        24           Ni  tau(  24) = (  -0.2229600   0.4331945   1.6393211  )

     number of k points=     5  Marzari-Vanderbilt smearing, width (Ry)=  0.0300
                       cart. coord. in units 2pi/alat
        k(    1) = (   0.0000000   0.0000000   0.0000000), wk =   0.2222222
        k(    2) = (  -0.0022367   0.3886097  -0.0014896), wk =   0.4444444
        k(    3) = (   0.3322137   0.1966211  -0.0059861), wk =   0.4444444
        k(    4) = (   0.3299770   0.5852308  -0.0074757), wk =   0.4444444
        k(    5) = (   0.3344504  -0.1919886  -0.0044965), wk =   0.4444444

     Dense  grid:   359215 G-vectors     FFT dimensions: (  64,  64, 216)

     Smooth grid:   195653 G-vectors     FFT dimensions: (  54,  54, 180)

     Estimated max dynamical RAM per process >       2.12 GB

     Atomic positions and unit cell read from directory:
     ./C36/out_logs/C36_out_10/laves_C36.save/
 

     Check: negative core charge=   -0.000009

     The initial density is read from file :
     ./C36/out_logs/C36_out_10/laves_C36.save/charge-density


     negative rho (up, down):  7.370E-01 0.000E+00
     Starting wfcs from file
     Checking if some PAW data can be deallocated... 

     total cpu time spent up to now is        3.5 secs

     Self-consistent Calculation

     iteration #  1     ecut=    80.00 Ry     beta= 0.20
     Davidson diagonalization with overlap
     ethr =  1.00E-05,  avg # of iterations =  2.0

     negative rho (up, down):  7.188E-01 0.000E+00

     total cpu time spent up to now is       15.6 secs

     total energy              =   -7997.49668911 Ry
     estimated scf accuracy    <       0.10523651 Ry

     iteration #  2     ecut=    80.00 Ry     beta= 0.20
     Davidson diagonalization with overlap
     ethr =  2.86E-05,  avg # of iterations =  2.0

     negative rho (up, down):  7.180E-01 0.000E+00

     total cpu time spent up to now is       26.5 secs

     total energy              =   -7997.45813112 Ry
     estimated scf accuracy    <       1.89591083 Ry

     iteration #  3     ecut=    80.00 Ry     beta= 0.20
     Davidson diagonalization with overlap
     ethr =  2.86E-05,  avg # of iterations =  2.0

     negative rho (up, down):  7.123E-01 0.000E+00

     total cpu time spent up to now is       36.8 secs

     total energy              =   -7997.50097513 Ry
     estimated scf accuracy    <       0.51479394 Ry

     iteration #  4     ecut=    80.00 Ry     beta= 0.20
     Davidson diagonalization with overlap
     ethr =  2.86E-05,  avg # of iterations =  1.6

     negative rho (up, down):  7.047E-01 0.000E+00

     total cpu time spent up to now is       46.5 secs

     total energy              =   -7997.50726402 Ry
     estimated scf accuracy    <       0.11175122 Ry

     iteration #  5     ecut=    80.00 Ry     beta= 0.20
     Davidson diagonalization with overlap
     ethr =  2.86E-05,  avg # of iterations =  2.0

     negative rho (up, down):  6.968E-01 0.000E+00

     total cpu time spent up to now is       56.7 secs

     total energy              =   -7997.50718557 Ry
     estimated scf accuracy    <       0.20203096 Ry

     iteration #  6     ecut=    80.00 Ry     beta= 0.20
     Davidson diagonalization with overlap
     ethr =  2.86E-05,  avg # of iterations =  2.0

     negative rho (up, down):  6.904E-01 0.000E+00

     total cpu time spent up to now is       67.6 secs

     total energy              =   -7997.50654161 Ry
     estimated scf accuracy    <       0.91575607 Ry

     iteration #  7     ecut=    80.00 Ry     beta= 0.20
     Davidson diagonalization with overlap
     ethr =  2.86E-05,  avg # of iterations =  2.0

     negative rho (up, down):  6.917E-01 0.000E+00

     total cpu time spent up to now is       78.7 secs

     total energy              =   -7997.50541812 Ry
     estimated scf accuracy    <       0.89606397 Ry

     iteration #  8     ecut=    80.00 Ry     beta= 0.20
     Davidson diagonalization with overlap
     ethr =  2.86E-05,  avg # of iterations =  2.0

     negative rho (up, down):  6.870E-01 0.000E+00

     total cpu time spent up to now is       89.7 secs

     total energy              =   -7997.52296022 Ry
     estimated scf accuracy    <       0.09629821 Ry

     iteration #  9     ecut=    80.00 Ry     beta= 0.20
     Davidson diagonalization with overlap
     ethr =  2.62E-05,  avg # of iterations =  1.2

     negative rho (up, down):  6.745E-01 0.000E+00

     total cpu time spent up to now is       99.0 secs

     total energy              =   -7997.53499036 Ry
     estimated scf accuracy    <       0.11011083 Ry

     iteration # 10     ecut=    80.00 Ry     beta= 0.20
     Davidson diagonalization with overlap
     ethr =  2.62E-05,  avg # of iterations =  2.0

     negative rho (up, down):  6.723E-01 0.000E+00

     total cpu time spent up to now is      109.4 secs

     total energy              =   -7997.53858766 Ry
     estimated scf accuracy    <       0.36779356 Ry

     iteration # 11     ecut=    80.00 Ry     beta= 0.20
     Davidson diagonalization with overlap
     ethr =  2.62E-05,  avg # of iterations =  1.0

     negative rho (up, down):  6.731E-01 0.000E+00

     total cpu time spent up to now is      118.5 secs

     total energy              =   -7997.53874028 Ry
     estimated scf accuracy    <       0.29891540 Ry

     iteration # 12     ecut=    80.00 Ry     beta= 0.20
     Davidson diagonalization with overlap
     ethr =  2.62E-05,  avg # of iterations =  1.0

     negative rho (up, down):  6.584E-01 0.000E+00

     total cpu time spent up to now is      127.6 secs

     total energy              =   -7997.53227235 Ry
     estimated scf accuracy    <       0.32533415 Ry

     iteration # 13     ecut=    80.00 Ry     beta= 0.20
     Davidson diagonalization with overlap
     ethr =  2.62E-05,  avg # of iterations =  2.0

     negative rho (up, down):  6.559E-01 0.000E+00

     total cpu time spent up to now is      138.4 secs

     total energy              =   -7997.54329735 Ry
     estimated scf accuracy    <       0.05127598 Ry

     iteration # 14     ecut=    80.00 Ry     beta= 0.20
     Davidson diagonalization with overlap
     ethr =  1.39E-05,  avg # of iterations =  2.0

     negative rho (up, down):  6.545E-01 0.000E+00

     total cpu time spent up to now is      148.6 secs

     total energy              =   -7997.54262437 Ry
     estimated scf accuracy    <       0.03309621 Ry

     iteration # 15     ecut=    80.00 Ry     beta= 0.20
     Davidson diagonalization with overlap
     ethr =  8.99E-06,  avg # of iterations =  2.0

     negative rho (up, down):  6.497E-01 0.000E+00

     total cpu time spent up to now is      159.5 secs

     total energy              =   -7997.54211299 Ry
     estimated scf accuracy    <       0.10247306 Ry

     iteration # 16     ecut=    80.00 Ry     beta= 0.20
     Davidson diagonalization with overlap
     ethr =  8.99E-06,  avg # of iterations =  2.0

     negative rho (up, down):  6.579E-01 0.000E+00

     total cpu time spent up to now is      170.6 secs

     total energy              =   -7997.54148527 Ry
     estimated scf accuracy    <       0.07113592 Ry

     iteration # 17     ecut=    80.00 Ry     beta= 0.20
     Davidson diagonalization with overlap
     ethr =  8.99E-06,  avg # of iterations =  2.0

     negative rho (up, down):  6.629E-01 0.000E+00

     total cpu time spent up to now is      181.2 secs

     total energy              =   -7997.54002137 Ry
     estimated scf accuracy    <       0.06588210 Ry

     iteration # 18     ecut=    80.00 Ry     beta= 0.20
     Davidson diagonalization with overlap
     ethr =  8.99E-06,  avg # of iterations =  1.4

     negative rho (up, down):  6.544E-01 0.000E+00

     total cpu time spent up to now is      190.8 secs

     total energy              =   -7997.53927993 Ry
     estimated scf accuracy    <       0.08176264 Ry

     iteration # 19     ecut=    80.00 Ry     beta= 0.20
     Davidson diagonalization with overlap
     ethr =  8.99E-06,  avg # of iterations =  2.0

     negative rho (up, down):  6.522E-01 0.000E+00

     total cpu time spent up to now is      201.9 secs

     total energy              =   -7997.54604829 Ry
     estimated scf accuracy    <       0.26939020 Ry

     iteration # 20     ecut=    80.00 Ry     beta= 0.20
     Davidson diagonalization with overlap
     ethr =  8.99E-06,  avg # of iterations =  2.0

     negative rho (up, down):  6.522E-01 0.000E+00

     total cpu time spent up to now is      212.4 secs

     total energy              =   -7997.54769857 Ry
     estimated scf accuracy    <       0.09055197 Ry

     iteration # 21     ecut=    80.00 Ry     beta= 0.20
     Davidson diagonalization with overlap
     ethr =  8.99E-06,  avg # of iterations =  1.0

     negative rho (up, down):  6.548E-01 0.000E+00

     total cpu time spent up to now is      221.5 secs

     total energy              =   -7997.54648193 Ry
     estimated scf accuracy    <       0.08632460 Ry

     iteration # 22     ecut=    80.00 Ry     beta= 0.20
     Davidson diagonalization with overlap
     ethr =  8.99E-06,  avg # of iterations =  1.0

     negative rho (up, down):  6.561E-01 0.000E+00

     total cpu time spent up to now is      230.6 secs

     total energy              =   -7997.54525642 Ry
     estimated scf accuracy    <       0.11342507 Ry

     iteration # 23     ecut=    80.00 Ry     beta= 0.20
     Davidson diagonalization with overlap
     ethr =  8.99E-06,  avg # of iterations =  1.0

     negative rho (up, down):  6.545E-01 0.000E+00

     total cpu time spent up to now is      239.8 secs

     total energy              =   -7997.54497726 Ry
     estimated scf accuracy    <       0.08949824 Ry

     iteration # 24     ecut=    80.00 Ry     beta= 0.20
     Davidson diagonalization with overlap
     ethr =  8.99E-06,  avg # of iterations =  1.6

     negative rho (up, down):  6.560E-01 0.000E+00

     total cpu time spent up to now is      249.5 secs

     total energy              =   -7997.54397353 Ry
     estimated scf accuracy    <       0.04449734 Ry

     iteration # 25     ecut=    80.00 Ry     beta= 0.20
     Davidson diagonalization with overlap
     ethr =  8.99E-06,  avg # of iterations =  1.0

     negative rho (up, down):  6.577E-01 0.000E+00

     total cpu time spent up to now is      258.6 secs

     total energy              =   -7997.54229172 Ry
     estimated scf accuracy    <       0.03435035 Ry

     iteration # 26     ecut=    80.00 Ry     beta= 0.20
     Davidson diagonalization with overlap
     ethr =  8.99E-06,  avg # of iterations =  2.0

     negative rho (up, down):  6.560E-01 0.000E+00

     total cpu time spent up to now is      268.8 secs

     total energy              =   -7997.54429369 Ry
     estimated scf accuracy    <       0.03034653 Ry

     iteration # 27     ecut=    80.00 Ry     beta= 0.20
     Davidson diagonalization with overlap
     ethr =  8.25E-06,  avg # of iterations =  2.0

     negative rho (up, down):  6.582E-01 0.000E+00

     total cpu time spent up to now is      279.0 secs

     total energy              =   -7997.54395683 Ry
     estimated scf accuracy    <       0.07203320 Ry

     iteration # 28     ecut=    80.00 Ry     beta= 0.20
     Davidson diagonalization with overlap
     ethr =  8.25E-06,  avg # of iterations =  2.0

     negative rho (up, down):  6.593E-01 0.000E+00

     total cpu time spent up to now is      289.2 secs

     total energy              =   -7997.54203661 Ry
     estimated scf accuracy    <       0.11817705 Ry

     iteration # 29     ecut=    80.00 Ry     beta= 0.20
     Davidson diagonalization with overlap
     ethr =  8.25E-06,  avg # of iterations =  1.8

     negative rho (up, down):  6.579E-01 0.000E+00

     total cpu time spent up to now is      299.2 secs

     total energy              =   -7997.54219292 Ry
     estimated scf accuracy    <       0.04801482 Ry

     iteration # 30     ecut=    80.00 Ry     beta= 0.20
     Davidson diagonalization with overlap
     ethr =  8.25E-06,  avg # of iterations =  2.0

     negative rho (up, down):  6.593E-01 0.000E+00

     total cpu time spent up to now is      309.4 secs

     total energy              =   -7997.54029051 Ry
     estimated scf accuracy    <       0.02451906 Ry

     iteration # 31     ecut=    80.00 Ry     beta= 0.20
     Davidson diagonalization with overlap
     ethr =  6.66E-06,  avg # of iterations =  2.0

     negative rho (up, down):  6.574E-01 0.000E+00

     total cpu time spent up to now is      320.1 secs

     total energy              =   -7997.54187666 Ry
     estimated scf accuracy    <       0.03239036 Ry

     iteration # 32     ecut=    80.00 Ry     beta= 0.20
     Davidson diagonalization with overlap
     ethr =  6.66E-06,  avg # of iterations =  2.0

     negative rho (up, down):  6.568E-01 0.000E+00

     total cpu time spent up to now is      331.1 secs

     total energy              =   -7997.54634149 Ry
     estimated scf accuracy    <       0.16231124 Ry

     iteration # 33     ecut=    80.00 Ry     beta= 0.20
     Davidson diagonalization with overlap
     ethr =  6.66E-06,  avg # of iterations =  1.0

     negative rho (up, down):  6.571E-01 0.000E+00

     total cpu time spent up to now is      340.2 secs

     total energy              =   -7997.54511606 Ry
     estimated scf accuracy    <       0.15082452 Ry

     iteration # 34     ecut=    80.00 Ry     beta= 0.20
     Davidson diagonalization with overlap
     ethr =  6.66E-06,  avg # of iterations =  1.0

     negative rho (up, down):  6.571E-01 0.000E+00

     total cpu time spent up to now is      349.3 secs

     total energy              =   -7997.54511133 Ry
     estimated scf accuracy    <       0.10605125 Ry

     iteration # 35     ecut=    80.00 Ry     beta= 0.20
     Davidson diagonalization with overlap
     ethr =  6.66E-06,  avg # of iterations =  1.0

     negative rho (up, down):  6.573E-01 0.000E+00

     total cpu time spent up to now is      358.5 secs

     total energy              =   -7997.54398490 Ry
     estimated scf accuracy    <       0.10404956 Ry

     iteration # 36     ecut=    80.00 Ry     beta= 0.20
     Davidson diagonalization with overlap
     ethr =  6.66E-06,  avg # of iterations =  1.0

     negative rho (up, down):  6.573E-01 0.000E+00

     total cpu time spent up to now is      367.6 secs

     total energy              =   -7997.54406172 Ry
     estimated scf accuracy    <       0.06044226 Ry

     iteration # 37     ecut=    80.00 Ry     beta= 0.20
     Davidson diagonalization with overlap
     ethr =  6.66E-06,  avg # of iterations =  1.0

     negative rho (up, down):  6.574E-01 0.000E+00

     total cpu time spent up to now is      376.7 secs

     total energy              =   -7997.54342994 Ry
     estimated scf accuracy    <       0.05760840 Ry

     iteration # 38     ecut=    80.00 Ry     beta= 0.20
     Davidson diagonalization with overlap
     ethr =  6.66E-06,  avg # of iterations =  1.0

     negative rho (up, down):  6.578E-01 0.000E+00

     total cpu time spent up to now is      385.8 secs

     total energy              =   -7997.54289259 Ry
     estimated scf accuracy    <       0.03277217 Ry

     iteration # 39     ecut=    80.00 Ry     beta= 0.20
     Davidson diagonalization with overlap
     ethr =  6.66E-06,  avg # of iterations =  1.0

     negative rho (up, down):  6.576E-01 0.000E+00

     total cpu time spent up to now is      394.9 secs

     total energy              =   -7997.54297214 Ry
     estimated scf accuracy    <       0.01705243 Ry

     iteration # 40     ecut=    80.00 Ry     beta= 0.20
     Davidson diagonalization with overlap
     ethr =  4.63E-06,  avg # of iterations =  1.0

     negative rho (up, down):  6.578E-01 0.000E+00

     total cpu time spent up to now is      404.1 secs

     total energy              =   -7997.54283666 Ry
     estimated scf accuracy    <       0.01390986 Ry

     iteration # 41     ecut=    80.00 Ry     beta= 0.20
     Davidson diagonalization with overlap
     ethr =  3.78E-06,  avg # of iterations =  1.0

     negative rho (up, down):  6.584E-01 0.000E+00

     total cpu time spent up to now is      413.2 secs

     total energy              =   -7997.54215150 Ry
     estimated scf accuracy    <       0.00998921 Ry

     iteration # 42     ecut=    80.00 Ry     beta= 0.20
     Davidson diagonalization with overlap
     ethr =  2.71E-06,  avg # of iterations =  1.2

     negative rho (up, down):  6.583E-01 0.000E+00

     total cpu time spent up to now is      422.6 secs

     total energy              =   -7997.54230391 Ry
     estimated scf accuracy    <       0.00264278 Ry

     iteration # 43     ecut=    80.00 Ry     beta= 0.20
     Davidson diagonalization with overlap
     ethr =  7.18E-07,  avg # of iterations =  1.0

     negative rho (up, down):  6.584E-01 0.000E+00

     total cpu time spent up to now is      431.7 secs

     total energy              =   -7997.54223304 Ry
     estimated scf accuracy    <       0.00203497 Ry

     iteration # 44     ecut=    80.00 Ry     beta= 0.20
     Davidson diagonalization with overlap
     ethr =  5.53E-07,  avg # of iterations =  1.0

     negative rho (up, down):  6.586E-01 0.000E+00

     total cpu time spent up to now is      440.8 secs

     total energy              =   -7997.54205496 Ry
     estimated scf accuracy    <       0.00130968 Ry

     iteration # 45     ecut=    80.00 Ry     beta= 0.20
     Davidson diagonalization with overlap
     ethr =  3.56E-07,  avg # of iterations =  2.0

     negative rho (up, down):  6.587E-01 0.000E+00

     total cpu time spent up to now is      451.0 secs

     total energy              =   -7997.54205552 Ry
     estimated scf accuracy    <       0.00010299 Ry

     iteration # 46     ecut=    80.00 Ry     beta= 0.20
     Davidson diagonalization with overlap
     ethr =  2.80E-08,  avg # of iterations =  1.0

     negative rho (up, down):  6.587E-01 0.000E+00

     total cpu time spent up to now is      460.1 secs

     total energy              =   -7997.54204050 Ry
     estimated scf accuracy    <       0.00001771 Ry

     iteration # 47     ecut=    80.00 Ry     beta= 0.20
     Davidson diagonalization with overlap
     ethr =  4.81E-09,  avg # of iterations =  1.0

     negative rho (up, down):  6.587E-01 0.000E+00

     total cpu time spent up to now is      469.2 secs

     total energy              =   -7997.54206044 Ry
     estimated scf accuracy    <       0.00001012 Ry

     iteration # 48     ecut=    80.00 Ry     beta= 0.20
     Davidson diagonalization with overlap
     ethr =  2.75E-09,  avg # of iterations =  1.2

     negative rho (up, down):  6.594E-01 0.000E+00

     total cpu time spent up to now is      478.5 secs

     End of self-consistent calculation

          k = 0.0000 0.0000 0.0000 ( 24475 PWs)   bands (ev):

   -89.1997 -89.1954 -89.1839 -89.1798 -89.1121 -89.1099 -89.1085 -89.1004
   -89.0835 -89.0822 -89.0808 -89.0740 -89.0726 -89.0595 -89.0563 -89.0539
   -61.3136 -61.3015 -61.2924 -61.2738 -61.2550 -61.2528 -61.2405 -61.2332
   -49.8330 -49.8223 -49.7745 -49.7385 -49.7214 -49.6719 -49.6523 -49.6313
   -49.6055 -49.6010 -49.5962 -49.5794 -49.5532 -49.5503 -49.5448 -49.5382
   -49.5318 -49.5275 -49.5153 -49.5085 -49.5011 -49.4994 -49.4899 -49.4888
   -49.4630 -49.4527 -49.4410 -49.4394 -49.4358 -49.4312 -49.4283 -49.4176
   -49.4106 -49.4094 -49.4072 -49.3954 -49.3946 -49.3874 -49.3815 -49.3620
   -49.3599 -49.3576 -49.3513 -49.3435 -49.3388 -49.3379 -49.3258 -49.2833
   -28.0770 -28.0760 -28.0731 -28.0664 -28.0634 -28.0616 -28.0571 -28.0531
   -28.0437 -28.0395 -28.0343 -28.0265 -28.0187 -28.0151 -28.0110 -28.0090
   -28.0084 -28.0073 -27.9968 -27.9957 -27.9895 -27.9878 -27.9868 -27.9850
     5.2192   5.8522   5.8698   7.3545   8.0272   9.3127   9.3376   9.4201
     9.9960  10.0192  10.1493  10.2329  10.3486  10.3832  10.3971  10.4162
    10.4394  10.4461  10.5716  10.5935  10.6526  10.6902  10.6983  10.7155
    10.7359  10.7618  10.8364  10.8693  10.8960  10.9213  11.2421  11.2516
    11.2855  11.3032  11.3044  11.3215  11.5420  11.5566  11.7031  11.7177
    11.7456  11.7804  11.7986  11.8077  11.9844  12.0212  12.2874  12.4556
    12.4911  12.5232  12.5447  12.5574  12.7079  12.7117  12.8778  12.8922
    12.9907  13.0206  13.1107  13.1205  13.1258  13.1351  13.1447  13.1561
    13.1596  13.1666  13.1812  13.1844  13.1867  13.2019  13.2151  13.2242
    13.2393  13.2631  13.2813  13.2909  13.3117  13.4097  13.4415  13.7272
    13.7643  14.0356  14.0504  14.2720  14.2747  14.3051  14.3125  14.5381
    14.7898  14.9170  14.9557  14.9955  15.0147  15.0355  15.0888  15.1739
    15.3417  15.4005  15.4060  15.4851  16.7469  16.8024  16.8220  16.8765
    17.3396  17.4325  17.7104  17.8291  18.4088  18.4631  18.4876  18.7270
    18.8156  19.0154  19.3538  19.4268  19.7864  19.8189  20.2448  20.4148
    20.4876  20.7795  20.9888  22.2983  22.5305

          k =-0.0022 0.3886-0.0015 ( 24448 PWs)   bands (ev):

   -89.1994 -89.1951 -89.1837 -89.1796 -89.1055 -89.1040 -89.1027 -89.0933
   -89.0895 -89.0878 -89.0819 -89.0790 -89.0746 -89.0638 -89.0575 -89.0551
   -61.3135 -61.3014 -61.2922 -61.2736 -61.2551 -61.2530 -61.2406 -61.2333
   -49.8001 -49.7924 -49.7548 -49.7391 -49.6852 -49.6510 -49.6435 -49.6190
   -49.6083 -49.6005 -49.5938 -49.5723 -49.5607 -49.5456 -49.5388 -49.5346
   -49.5319 -49.5242 -49.5181 -49.5073 -49.5012 -49.5000 -49.4894 -49.4769
   -49.4526 -49.4484 -49.4413 -49.4346 -49.4300 -49.4272 -49.4245 -49.4222
   -49.4151 -49.4128 -49.4106 -49.4085 -49.4066 -49.4008 -49.3960 -49.3911
   -49.3799 -49.3771 -49.3705 -49.3639 -49.3505 -49.3489 -49.3432 -49.2887
   -28.0777 -28.0762 -28.0732 -28.0664 -28.0645 -28.0616 -28.0565 -28.0541
   -28.0446 -28.0397 -28.0347 -28.0277 -28.0173 -28.0139 -28.0114 -28.0094
   -28.0086 -28.0062 -27.9982 -27.9947 -27.9894 -27.9884 -27.9858 -27.9835
     6.2437   6.8394   6.8700   8.3062   8.7751   8.9890   9.2738   9.3139
     9.8340   9.8615  10.0240  10.1199  10.2218  10.3162  10.3914  10.4714
    10.5270  10.5971  10.6454  10.6622  10.6915  10.7078  10.8400  10.9231
    10.9824  11.0071  11.0875  11.1482  11.1538  11.1714  11.1812  11.2949
    11.3098  11.3445  11.3610  11.4102  11.4572  11.4637  11.5385  11.5848
    11.6721  11.7013  11.7324  11.7461  11.8277  11.9163  11.9753  11.9811
    12.0221  12.1393  12.1638  12.1901  12.2234  12.2669  12.3428  12.3761
    12.3930  12.4701  12.5223  12.5639  12.5974  12.6870  12.6975  12.7294
    12.7830  12.8188  12.8308  12.8850  12.9198  12.9401  12.9908  13.0407
    13.0868  13.1570  13.1623  13.1841  13.2130  13.2282  13.2492  13.2777
    13.3237  13.3550  13.3699  13.5101  13.5319  13.6093  13.6943  13.7988
    14.1135  14.1810  14.5354  14.5613  14.7477  14.8568  14.9294  15.1138
    15.1670  15.2262  15.2849  15.4929  16.1368  16.6310  16.8794  16.9984
    18.3079  18.6833  18.7379  18.9728  19.7333  19.8454  19.9724  20.0477
    20.0814  20.2759  20.7910  21.1946  21.2348  21.3426  21.7515  21.9929
    22.2376  22.7381  23.0825  23.2355  23.3630

          k = 0.3322 0.1966-0.0060 ( 24454 PWs)   bands (ev):

   -89.1994 -89.1951 -89.1838 -89.1796 -89.1076 -89.1057 -89.1022 -89.0940
   -89.0880 -89.0835 -89.0809 -89.0792 -89.0782 -89.0606 -89.0597 -89.0549
   -61.3135 -61.3014 -61.2923 -61.2736 -61.2551 -61.2530 -61.2406 -61.2333
   -49.8015 -49.7963 -49.7559 -49.7387 -49.6899 -49.6557 -49.6464 -49.6200
   -49.6041 -49.5973 -49.5917 -49.5752 -49.5549 -49.5498 -49.5394 -49.5348
   -49.5307 -49.5254 -49.5177 -49.5066 -49.5015 -49.4984 -49.4882 -49.4774
   -49.4575 -49.4485 -49.4404 -49.4339 -49.4312 -49.4304 -49.4264 -49.4201
   -49.4187 -49.4141 -49.4115 -49.4091 -49.4069 -49.4030 -49.3876 -49.3823
   -49.3777 -49.3749 -49.3658 -49.3598 -49.3582 -49.3505 -49.3305 -49.2976
   -28.0776 -28.0763 -28.0730 -28.0675 -28.0635 -28.0613 -28.0581 -28.0523
   -28.0448 -28.0387 -28.0356 -28.0278 -28.0175 -28.0145 -28.0118 -28.0082
   -28.0080 -28.0071 -27.9971 -27.9955 -27.9888 -27.9887 -27.9862 -27.9836
     6.2306   6.8121   6.8712   8.2867   8.7658   8.9542   9.2313   9.2973
     9.8128   9.8604  10.0128  10.1030  10.2111  10.3147  10.3912  10.4778
    10.5287  10.6101  10.6462  10.6690  10.6782  10.7361  10.8743  10.9172
    10.9808  11.0112  11.0754  11.1462  11.1515  11.1561  11.1926  11.2858
    11.3089  11.3293  11.3497  11.4197  11.4517  11.4717  11.5293  11.6048
    11.6701  11.7106  11.7223  11.7552  11.8125  11.9235  11.9651  11.9966
    12.0099  12.1325  12.1528  12.1926  12.2252  12.2676  12.3440  12.3779
    12.3844  12.4496  12.5525  12.5752  12.6136  12.6729  12.7018  12.7211
    12.7800  12.8018  12.8174  12.8918  12.9132  12.9614  12.9918  13.0486
    13.0788  13.1572  13.1691  13.1965  13.2340  13.2418  13.2727  13.2795
    13.3499  13.3705  13.3885  13.5094  13.5367  13.5932  13.6855  13.8139
    14.1320  14.1657  14.5192  14.5821  14.7872  14.8858  14.9868  15.1804
    15.2270  15.2530  15.3966  15.5061  16.0969  16.6002  16.9543  16.9770
    18.3550  18.7245  18.8080  18.9675  19.7318  19.8631  19.9924  20.0685
    20.1249  20.2720  20.7545  21.1835  21.2438  21.3474  21.7910  21.9919
    22.1628  22.7077  23.0510  23.2667  23.3180

          k = 0.3300 0.5852-0.0075 ( 24398 PWs)   bands (ev):

   -89.1993 -89.1949 -89.1837 -89.1795 -89.1011 -89.1000 -89.0990 -89.0910
   -89.0906 -89.0899 -89.0881 -89.0805 -89.0761 -89.0628 -89.0590 -89.0565
   -61.3134 -61.3014 -61.2922 -61.2736 -61.2551 -61.2530 -61.2407 -61.2334
   -49.7785 -49.7726 -49.7604 -49.7449 -49.6483 -49.6380 -49.6322 -49.6195
   -49.6119 -49.6073 -49.5865 -49.5801 -49.5648 -49.5583 -49.5398 -49.5367
   -49.5321 -49.5244 -49.5181 -49.5098 -49.5035 -49.4832 -49.4796 -49.4639
   -49.4504 -49.4473 -49.4452 -49.4386 -49.4370 -49.4360 -49.4260 -49.4237
   -49.4205 -49.4145 -49.4120 -49.4077 -49.4055 -49.3973 -49.3907 -49.3844
   -49.3812 -49.3808 -49.3769 -49.3681 -49.3655 -49.3654 -49.3559 -49.3067
   -28.0782 -28.0763 -28.0728 -28.0677 -28.0633 -28.0618 -28.0579 -28.0523
   -28.0456 -28.0403 -28.0339 -28.0290 -28.0164 -28.0132 -28.0122 -28.0101
   -28.0079 -28.0056 -27.9986 -27.9941 -27.9897 -27.9881 -27.9851 -27.9834
     7.8781   7.8952   8.3704   8.4510   8.4788   8.6869   8.7727   8.7944
     8.9967   9.7705   9.8080   9.8603   9.8742   9.9157   9.9395  10.5407
    10.5759  10.5976  10.7233  10.7455  10.8704  10.9133  11.0381  11.0832
    11.1268  11.1418  11.1791  11.1995  11.2218  11.2359  11.3072  11.3653
    11.3726  11.3953  11.4029  11.4322  11.4462  11.4792  11.4954  11.5076
    11.5209  11.5405  11.5783  11.5971  11.6664  11.6720  11.6875  11.6990
    11.7102  11.9083  11.9181  11.9232  12.0481  12.1937  12.2077  12.2283
    12.2354  12.3034  12.4696  12.4949  12.5585  12.6086  12.6222  12.6475
    12.6577  12.6779  12.7301  12.8012  12.8392  12.8522  12.8784  12.8961
    12.9325  12.9548  12.9678  12.9760  12.9934  13.0354  13.0550  13.1525
    13.3015  13.3378  13.4445  13.4597  13.4741  13.5366  13.5494  13.6767
    13.7327  13.7850  13.7929  14.0348  14.1466  14.1735  14.2712  15.6162
    15.6620  15.7864  15.8893  15.9350  16.5724  18.3749  18.4516  18.6008
    18.7998  18.8394  19.4325  19.5346  19.5698  19.6176  19.6418  19.8778
    20.0729  20.5527  20.5572  20.6060  21.3562  21.4375  21.7953  21.8394
    21.9320  22.6622  23.7911  23.9227  24.0526

          k = 0.3345-0.1920-0.0045 ( 24448 PWs)   bands (ev):

   -89.1994 -89.1951 -89.1838 -89.1796 -89.1056 -89.1039 -89.1031 -89.0968
   -89.0888 -89.0862 -89.0859 -89.0751 -89.0726 -89.0613 -89.0578 -89.0574
   -61.3135 -61.3014 -61.2922 -61.2736 -61.2551 -61.2530 -61.2406 -61.2333
   -49.8039 -49.7970 -49.7563 -49.7377 -49.6921 -49.6567 -49.6477 -49.6240
   -49.6058 -49.5942 -49.5903 -49.5746 -49.5592 -49.5417 -49.5367 -49.5348
   -49.5315 -49.5185 -49.5141 -49.5086 -49.5046 -49.4940 -49.4891 -49.4804
   -49.4571 -49.4484 -49.4414 -49.4383 -49.4323 -49.4309 -49.4264 -49.4224
   -49.4200 -49.4129 -49.4102 -49.4073 -49.4031 -49.3983 -49.3912 -49.3845
   -49.3815 -49.3760 -49.3619 -49.3503 -49.3494 -49.3486 -49.3420 -49.3056
   -28.0778 -28.0762 -28.0730 -28.0662 -28.0645 -28.0615 -28.0566 -28.0537
   -28.0448 -28.0403 -28.0340 -28.0280 -28.0174 -28.0139 -28.0107 -28.0093
   -28.0089 -28.0067 -27.9975 -27.9953 -27.9884 -27.9883 -27.9865 -27.9839
     6.2275   6.8183   6.8596   8.2909   8.7630   8.9443   9.2372   9.2830
     9.8161   9.8532  10.0072  10.1130  10.2084  10.3069  10.3822  10.4860
    10.5270  10.6092  10.6426  10.6724  10.6815  10.7472  10.8811  10.9208
    10.9935  11.0190  11.0842  11.1375  11.1440  11.1694  11.1891  11.2889
    11.3059  11.3363  11.3437  11.4178  11.4531  11.4677  11.5431  11.5856
    11.6667  11.6952  11.7240  11.7613  11.8455  11.9129  11.9577  11.9790
    11.9993  12.1138  12.1477  12.1896  12.2112  12.2721  12.3389  12.3783
    12.3863  12.4638  12.5525  12.5767  12.6099  12.6695  12.6883  12.7248
    12.7864  12.8001  12.8194  12.8926  12.9229  12.9549  12.9791  13.0557
    13.0718  13.1621  13.1779  13.1989  13.2367  13.2425  13.2724  13.2825
    13.3616  13.3846  13.3918  13.5230  13.5342  13.6032  13.6851  13.8300
    14.1323  14.1752  14.4988  14.5728  14.7857  14.8987  14.9719  15.1981
    15.2417  15.2899  15.3262  15.5451  16.0699  16.5979  16.9426  17.0258
    18.3690  18.7473  18.7981  18.9700  19.7405  19.8632  20.0205  20.0677
    20.1313  20.2866  20.7442  21.1804  21.2501  21.3596  21.7472  21.9756
    22.1472  22.7155  23.0527  23.2682  23.3220

     the Fermi energy is    13.8732 ev

!    total energy              =   -7997.54149390 Ry
     total all-electron energy =    -51870.617364 Ry
     estimated scf accuracy    <       0.00000699 Ry
     smearing contrib. (-TS)   =       0.09735822 Ry
     internal energy E=F+TS    =   -7997.63885212 Ry

     The total energy is F=E-TS. E is the sum of the following terms:
     one-electron contribution =   -4407.02407188 Ry
     hartree contribution      =    2376.63945164 Ry
     xc contribution           =    -694.94560024 Ry
     ewald contribution        =   -3692.75359995 Ry
     one-center paw contrib.   =   -1579.55503169 Ry

     convergence has been achieved in  48 iterations

     negative rho (up, down):  6.594E-01 0.000E+00

     Forces acting on atoms (cartesian axes, Ry/au):

     atom    1 type  1   force =    -0.02443651   -0.00448734   -0.00475195
     atom    2 type  1   force =    -0.02720951   -0.00485365    0.00129336
     atom    3 type  1   force =    -0.02130108   -0.00255991   -0.00692796
     atom    4 type  1   force =    -0.02233692   -0.00557468   -0.01099998
     atom    5 type  1   force =    -0.02627684   -0.00092126   -0.00630888
     atom    6 type  1   force =    -0.02766327   -0.00319073   -0.00142329
     atom    7 type  1   force =    -0.01897975   -0.00279158   -0.00505581
     atom    8 type  1   force =    -0.01904560   -0.00002594   -0.00614356
     atom    9 type  2   force =    -0.02723701   -0.00735886    0.00619724
     atom   10 type  2   force =    -0.02603610   -0.00277892    0.00295377
     atom   11 type  2   force =    -0.02507242   -0.00504161   -0.00091947
     atom   12 type  2   force =    -0.02545362   -0.00469198   -0.00036061
     atom   13 type  2   force =    -0.02196690   -0.01486149   -0.00917296
     atom   14 type  2   force =    -0.00191205   -0.01242112   -0.01083469
     atom   15 type  2   force =    -0.02235057    0.01937881   -0.01535324
     atom   16 type  2   force =     0.21314656   -0.34533536    0.04416469
     atom   17 type  2   force =    -0.00902823    0.00191347   -0.01650892
     atom   18 type  2   force =    -0.12215396    0.10489547    0.19395621
     atom   19 type  2   force =    -0.01803812   -0.01525304   -0.00444186
     atom   20 type  2   force =     0.37780713    0.30677088   -0.12719167
     atom   21 type  2   force =    -0.02335011   -0.01151742   -0.00523347
     atom   22 type  2   force =    -0.03251493    0.00982282   -0.00117652
     atom   23 type  2   force =    -0.02417395   -0.00409974   -0.00550455
     atom   24 type  2   force =    -0.02441626    0.00498320   -0.01025589
     The non-local contrib.  to forces
     atom    1 type  1   force =     0.01504702   -0.00983506    0.01478124
     atom    2 type  1   force =     0.00580744    0.00572668    0.03526982
     atom    3 type  1   force =     0.00217371    0.00155644   -0.01382749
     atom    4 type  1   force =     0.00180167   -0.01503249   -0.03183047
     atom    5 type  1   force =     0.00080092    0.00447328   -0.01131888
     atom    6 type  1   force =    -0.00086874    0.00555874    0.00173126
     atom    7 type  1   force =     0.01418972   -0.00141852    0.00804138
     atom    8 type  1   force =     0.01656572   -0.00019112    0.00755322
     atom    9 type  2   force =     0.04680821    0.03846956    0.07187337
     atom   10 type  2   force =     0.08516459   -0.00502971    0.08443227
     atom   11 type  2   force =    -0.03247759    0.03996720   -0.06529066
     atom   12 type  2   force =     0.01266776    0.01865258   -0.08101044
     atom   13 type  2   force =    -0.07631306   -0.01008163    0.02410412
     atom   14 type  2   force =     0.04203886   -0.02616939   -0.02053547
     atom   15 type  2   force =    -0.01451441    0.11154753    0.02758095
     atom   16 type  2   force =    -3.16038685    3.89874312    1.39200428
     atom   17 type  2   force =     0.00929849    0.08938712   -0.01635064
     atom   18 type  2   force =    -1.10146922    1.34843417    3.13590822
     atom   19 type  2   force =    -0.01624261   -0.00725247    0.00142883
     atom   20 type  2   force =     4.77451931    3.50727690   -0.51560111
     atom   21 type  2   force =    -0.00529838    0.02997280   -0.00309836
     atom   22 type  2   force =     0.01025297   -0.00872297   -0.03818150
     atom   23 type  2   force =     0.08341103   -0.00867798   -0.01145855
     atom   24 type  2   force =     0.02468397   -0.03223002    0.01164850
     The ionic contribution  to forces
     atom    1 type  1   force =     0.34140120   -0.40972475   -0.30210289
     atom    2 type  1   force =     0.13008302    0.37249811   -0.04230399
     atom    3 type  1   force =     0.06546546   -0.00088487    1.40108622
     atom    4 type  1   force =     0.08724809   -0.35874773    0.13402370
     atom    5 type  1   force =     0.07716261    0.08226410   -0.12349468
     atom    6 type  1   force =     0.01436449    0.31165610   -0.00555127
     atom    7 type  1   force =     0.44259037    0.13657648   -0.12382917
     atom    8 type  1   force =     0.32781036   -0.08829080    0.05042180
     atom    9 type  2   force =    -0.74324351    0.19715355    2.09131018
     atom   10 type  2   force =     0.11413255   -0.26824132    1.55992906
     atom   11 type  2   force =    -0.49838080    0.22199280    0.71272590
     atom   12 type  2   force =     0.21115944   -0.23938150   -0.26561062
     atom   13 type  2   force =     0.43294795  -15.23719012   -0.82695505
     atom   14 type  2   force =    15.10974479   -8.15024571   -2.03361410
     atom   15 type  2   force =    -0.34152149   16.70478605   -1.36706575
     atom   16 type  2   force =   -14.03529730    7.41059866   -0.92741478
     atom   17 type  2   force =    13.41372966    7.72207806   -2.33532166
     atom   18 type  2   force =   -14.94749818   -8.53039720   -0.60963866
     atom   19 type  2   force =     0.14038724   -2.04878515    1.22020977
     atom   20 type  2   force =    -1.25526675    1.00366880    0.21843564
     atom   21 type  2   force =     0.48588895   -1.22602498    0.05876479
     atom   22 type  2   force =    -0.88696646    1.56812870    0.58355219
     atom   23 type  2   force =     0.37313739    0.29391800    0.12667581
     atom   24 type  2   force =     0.94092093    0.53259472    0.80576756
     The local contribution  to forces
     atom    1 type  1   force =    -0.35642806    0.41652216    0.28700274
     atom    2 type  1   force =    -0.13875937   -0.38153247    0.01459446
     atom    3 type  1   force =    -0.06458540   -0.00168432   -1.38745585
     atom    4 type  1   force =    -0.08710169    0.36970895   -0.11147644
     atom    5 type  1   force =    -0.07989905   -0.08610208    0.13569344
     atom    6 type  1   force =    -0.01689959   -0.31878167    0.00362282
     atom    7 type  1   force =    -0.45134827   -0.13637686    0.11384339
     atom    8 type  1   force =    -0.33897958    0.08998316   -0.05740834
     atom    9 type  2   force =     0.69704457   -0.23968561   -2.14666401
     atom   10 type  2   force =    -0.19600259    0.27143654   -1.62539178
     atom   11 type  2   force =     0.52840104   -0.26302898   -0.64609022
     atom   12 type  2   force =    -0.22450066    0.21833315    0.33615828
     atom   13 type  2   force =    -0.35834591   15.23646051    0.79319795
     atom   14 type  2   force =   -15.13049758    8.16584630    2.05150474
     atom   15 type  2   force =     0.35726881  -16.79255029    1.33416020
     atom   16 type  2   force =    17.29515761  -11.47409779   -0.36210708
     atom   17 type  2   force =   -13.40955680   -7.80529919    2.33256503
     atom   18 type  2   force =    15.88571481    7.37414491   -2.12598384
     atom   19 type  2   force =    -0.11867685    2.04270177   -1.21886522
     atom   20 type  2   force =    -2.92798528   -4.06300371    0.15410553
     atom   21 type  2   force =    -0.48040898    1.18707244   -0.05720501
     atom   22 type  2   force =     0.86906032   -1.54882743   -0.54071536
     atom   23 type  2   force =    -0.45184172   -0.28848574   -0.11722884
     atom   24 type  2   force =    -0.96550810   -0.49543499   -0.82014178
     The core correction contribution to forces
     atom    1 type  1   force =    -0.00005469    0.00005128   -0.00007319
     atom    2 type  1   force =    -0.00000883   -0.00000410   -0.00018653
     atom    3 type  1   force =    -0.00002170   -0.00000199    0.00007696
     atom    4 type  1   force =    -0.00001957    0.00007613    0.00017068
     atom    5 type  1   force =     0.00000632   -0.00001991    0.00004752
     atom    6 type  1   force =     0.00001866   -0.00001096   -0.00001037
     atom    7 type  1   force =    -0.00007446    0.00001292   -0.00002758
     atom    8 type  1   force =    -0.00008912   -0.00000318   -0.00002292
     atom    9 type  2   force =    -0.00357118   -0.00172384   -0.00720520
     atom   10 type  2   force =    -0.00504441    0.00053540   -0.00792602
     atom   11 type  2   force =     0.00157920   -0.00230235    0.00743148
     atom   12 type  2   force =    -0.00041709   -0.00094512    0.00849727
     atom   13 type  2   force =     0.00436150   -0.00264704   -0.00080939
     atom   14 type  2   force =     0.00102840   -0.00030050    0.00085589
     atom   15 type  2   force =     0.00072527   -0.00293093   -0.00092105
     atom   16 type  2   force =     0.13771877   -0.17797417   -0.05853904
     atom   17 type  2   force =     0.00207245   -0.00291697    0.00133167
     atom   18 type  2   force =     0.06512834   -0.08521317   -0.19642535
     atom   19 type  2   force =     0.00061260    0.00028575   -0.00010612
     atom   20 type  2   force =    -0.18878617   -0.13944307    0.01919344
     atom   21 type  2   force =     0.00088513   -0.00131156    0.00034613
     atom   22 type  2   force =    -0.00032850    0.00073051    0.00124422
     atom   23 type  2   force =    -0.00427582    0.00083775    0.00046229
     atom   24 type  2   force =    -0.00054734    0.00149962   -0.00037699
     The Hubbard contrib.    to forces
     atom    1 type  1   force =     0.00000000    0.00000000    0.00000000
     atom    2 type  1   force =     0.00000000    0.00000000    0.00000000
     atom    3 type  1   force =     0.00000000    0.00000000    0.00000000
     atom    4 type  1   force =     0.00000000    0.00000000    0.00000000
     atom    5 type  1   force =     0.00000000    0.00000000    0.00000000
     atom    6 type  1   force =     0.00000000    0.00000000    0.00000000
     atom    7 type  1   force =     0.00000000    0.00000000    0.00000000
     atom    8 type  1   force =     0.00000000    0.00000000    0.00000000
     atom    9 type  2   force =     0.00000000    0.00000000    0.00000000
     atom   10 type  2   force =     0.00000000    0.00000000    0.00000000
     atom   11 type  2   force =     0.00000000    0.00000000    0.00000000
     atom   12 type  2   force =     0.00000000    0.00000000    0.00000000
     atom   13 type  2   force =     0.00000000    0.00000000    0.00000000
     atom   14 type  2   force =     0.00000000    0.00000000    0.00000000
     atom   15 type  2   force =     0.00000000    0.00000000    0.00000000
     atom   16 type  2   force =     0.00000000    0.00000000    0.00000000
     atom   17 type  2   force =     0.00000000    0.00000000    0.00000000
     atom   18 type  2   force =     0.00000000    0.00000000    0.00000000
     atom   19 type  2   force =     0.00000000    0.00000000    0.00000000
     atom   20 type  2   force =     0.00000000    0.00000000    0.00000000
     atom   21 type  2   force =     0.00000000    0.00000000    0.00000000
     atom   22 type  2   force =     0.00000000    0.00000000    0.00000000
     atom   23 type  2   force =     0.00000000    0.00000000    0.00000000
     atom   24 type  2   force =     0.00000000    0.00000000    0.00000000
     The SCF correction term to forces
     atom    1 type  1   force =    -0.00007003    0.00004174    0.00033439
     atom    2 type  1   force =     0.00000019    0.00000084   -0.00138616
     atom    3 type  1   force =    -0.00000120   -0.00000246   -0.00211357
     atom    4 type  1   force =     0.00006654   -0.00003684    0.00280678
     atom    5 type  1   force =    -0.00001569    0.00000607   -0.00254206
     atom    6 type  1   force =     0.00005386   -0.00007023    0.00347850
     atom    7 type  1   force =    -0.00000516   -0.00004290    0.00161039
     atom    8 type  1   force =    -0.00002103    0.00001872   -0.00199309
     atom    9 type  2   force =     0.00005685   -0.00002981    0.00157713
     atom   10 type  2   force =     0.00004572    0.00006287   -0.00339553
     atom   11 type  2   force =     0.00013768   -0.00012756   -0.00500173
     atom   12 type  2   force =    -0.00003111    0.00019161    0.00629913
     atom   13 type  2   force =    -0.00028542    0.00013949    0.00598365
     atom   14 type  2   force =     0.00010543   -0.00000910   -0.00435152
     atom   15 type  2   force =     0.00002321    0.00006916   -0.00441336
     atom   16 type  2   force =     0.00028628   -0.00106248    0.00491554
     atom   17 type  2   force =    -0.00024008    0.00020715    0.00596091
     atom   18 type  2   force =     0.00030224   -0.00053053   -0.00520993
     atom   19 type  2   force =     0.00021346   -0.00066023   -0.00241488
     atom   20 type  2   force =    -0.00034203   -0.00018533    0.00136906
     atom   21 type  2   force =    -0.00008488    0.00031659    0.00065322
     atom   22 type  2   force =    -0.00020130    0.00005672   -0.00238184
     atom   23 type  2   force =    -0.00027288   -0.00014907    0.00073897
     atom   24 type  2   force =     0.00036623    0.00009657   -0.00245895

     Total force =     0.705163     Total SCF correction =     0.017396


     Computing stress (Cartesian axis) and pressure


     negative rho (up, down):  6.594E-01 0.000E+00
          total   stress  (Ry/bohr**3)                   (kbar)     P=       26.50
   0.00013018  -0.00003021  -0.00002764           19.15       -4.44       -4.07
  -0.00003021   0.00027863  -0.00005706           -4.44       40.99       -8.39
  -0.00002764  -0.00005706   0.00013165           -4.07       -8.39       19.37


     BFGS Geometry Optimization
     Energy error            =      0.0E+00 Ry
     Gradient error          =      3.8E-01 Ry/Bohr

     number of scf cycles    =   1
     number of bfgs steps    =   0

     energy             new  =   -7997.5414938983 Ry

     new trust radius        =       0.5000000000 bohr
     new conv_thr            =       0.0000100000 Ry


ATOMIC_POSITIONS (crystal)
Mg           -0.0016389414        0.0036985651        0.4066824667
Mg            0.9953416829        0.9976032884        0.9056873788
Mg            0.9961238608        0.0011174220        0.5929154442
Mg            0.9955923743       -0.0000314356        0.0945508600
Mg            0.3316570186        0.6665176046        0.6559774485
Mg            0.6642596994        0.3322558967        0.1557292136
Mg            0.6602304656        0.3351038252        0.3435637875
Mg            0.3260702086        0.6640418583        0.8438466702
Ni            0.3350650583        0.6722530935        0.3748977324
Ni            0.6658406991        0.3327007419        0.8750383658
Ni            0.6660689222        0.3383795029        0.6243593598
Ni            0.3329565537        0.6663556966        0.1245222698
Ni            0.1617303280        0.3283471084        0.2509616560
Ni            0.8306180562        0.1664864197        0.7495523262
Ni            0.8305393162        0.6702148517        0.7508219194
Ni            0.1643578853        0.7838586065        0.2515988686
Ni            0.6659784758        0.8347622013        0.2504429846
Ni            0.3287706315        0.1804590193        0.7574210368
Ni            0.4983193910        0.0035482359        0.4995477884
Ni            0.5628153585        0.5348566490        0.9955971212
Ni            0.4979453341        0.0003253901        0.0001088146
Ni            0.5008151489        0.5004023229        0.4985904676
Ni           -0.0008430871        0.5002938373       -0.0001080744
Ni            0.0015235598        0.4998682984        0.5002090937



     Writing config-only to output data dir ./C36/out_logs/C36_out_10/laves_C36.save/
     NEW-OLD atomic charge density approx. for the potential

     Check: negative core charge=   -0.000009

     negative rho (up, down):  8.343E-01 0.000E+00

     total cpu time spent up to now is      501.3 secs

     Self-consistent Calculation

     iteration #  1     ecut=    80.00 Ry     beta= 0.20
     Davidson diagonalization with overlap
     c_bands:  1 eigenvalues not converged
     c_bands:  5 eigenvalues not converged
     ethr =  1.00E-06,  avg # of iterations = 30.6

     negative rho (up, down):  1.285E+01 0.000E+00

     total cpu time spent up to now is      551.9 secs

     total energy              =   -8574.87425856 Ry
     estimated scf accuracy    <    5714.96581743 Ry

     iteration #  2     ecut=    80.00 Ry     beta= 0.20
     Davidson diagonalization with overlap
     ethr =  1.00E-02,  avg # of iterations =  6.0

     negative rho (up, down):  4.187E+01 0.000E+00

     total cpu time spent up to now is      563.9 secs

     total energy              =   -7950.80580228 Ry
     estimated scf accuracy    <    4021.66129535 Ry

     iteration #  3     ecut=    80.00 Ry     beta= 0.20
     Davidson diagonalization with overlap
     ethr =  1.00E-02,  avg # of iterations = 12.6

     negative rho (up, down):  7.911E+01 0.000E+00

     total cpu time spent up to now is      596.2 secs

     total energy              =   -7546.96794727 Ry
     estimated scf accuracy    <   19854.31728385 Ry

     iteration #  4     ecut=    80.00 Ry     beta= 0.20
     Davidson diagonalization with overlap
     ethr =  1.00E-02,  avg # of iterations =  9.0

     negative rho (up, down):  7.565E+01 0.000E+00

     total cpu time spent up to now is      623.8 secs

     total energy              =   -7902.57710805 Ry
     estimated scf accuracy    <    2540.83158060 Ry

     iteration #  5     ecut=    80.00 Ry     beta= 0.20
     Davidson diagonalization with overlap
     ethr =  1.00E-02,  avg # of iterations =  8.6

     negative rho (up, down):  7.329E+01 0.000E+00

     total cpu time spent up to now is      644.2 secs

     total energy              =   -7980.56022884 Ry
     estimated scf accuracy    <    2929.26229943 Ry

     iteration #  6     ecut=    80.00 Ry     beta= 0.20
     Davidson diagonalization with overlap
     ethr =  1.00E-02,  avg # of iterations = 10.4

     negative rho (up, down):  7.319E+01 0.000E+00

     total cpu time spent up to now is      664.3 secs

     total energy              =   -8046.36818320 Ry
     estimated scf accuracy    <     258.95902818 Ry

     iteration #  7     ecut=    80.00 Ry     beta= 0.20
     Davidson diagonalization with overlap
     ethr =  1.00E-02,  avg # of iterations =  2.6

     negative rho (up, down):  7.377E+01 0.000E+00

     total cpu time spent up to now is      675.0 secs

     total energy              =   -8050.46165865 Ry
     estimated scf accuracy    <      96.13622049 Ry

     iteration #  8     ecut=    80.00 Ry     beta= 0.20
     Davidson diagonalization with overlap
     ethr =  1.00E-02,  avg # of iterations =  2.0

     negative rho (up, down):  7.468E+01 0.000E+00

     total cpu time spent up to now is      685.2 secs

     total energy              =   -8043.95377552 Ry
     estimated scf accuracy    <      54.31793501 Ry

     iteration #  9     ecut=    80.00 Ry     beta= 0.20
     Davidson diagonalization with overlap
     ethr =  1.00E-02,  avg # of iterations =  1.0

     negative rho (up, down):  7.554E+01 0.000E+00

     total cpu time spent up to now is      694.2 secs

     total energy              =   -8039.38614885 Ry
     estimated scf accuracy    <      51.70563728 Ry

     iteration # 10     ecut=    80.00 Ry     beta= 0.20
     Davidson diagonalization with overlap
     ethr =  1.00E-02,  avg # of iterations =  2.0

     negative rho (up, down):  7.572E+01 0.000E+00

     total cpu time spent up to now is      704.4 secs

     total energy              =   -8038.52695717 Ry
     estimated scf accuracy    <      83.84427228 Ry

     iteration # 11     ecut=    80.00 Ry     beta= 0.20
     Davidson diagonalization with overlap
     ethr =  1.00E-02,  avg # of iterations =  1.2

     negative rho (up, down):  7.546E+01 0.000E+00

     total cpu time spent up to now is      713.7 secs

     total energy              =   -8039.98594090 Ry
     estimated scf accuracy    <      38.90339037 Ry

     iteration # 12     ecut=    80.00 Ry     beta= 0.20
     Davidson diagonalization with overlap
     ethr =  1.00E-02,  avg # of iterations =  1.0

     negative rho (up, down):  7.553E+01 0.000E+00

     total cpu time spent up to now is      722.9 secs

     total energy              =   -8041.04215141 Ry
     estimated scf accuracy    <      13.68571789 Ry

     iteration # 13     ecut=    80.00 Ry     beta= 0.20
     Davidson diagonalization with overlap
     ethr =  3.72E-03,  avg # of iterations =  2.4

     negative rho (up, down):  7.572E+01 0.000E+00

     total cpu time spent up to now is      732.6 secs

     total energy              =   -8041.60403856 Ry
     estimated scf accuracy    <       7.71359857 Ry

     iteration # 14     ecut=    80.00 Ry     beta= 0.20
     Davidson diagonalization with overlap
     ethr =  2.10E-03,  avg # of iterations =  1.4

     negative rho (up, down):  7.552E+01 0.000E+00

     total cpu time spent up to now is      742.2 secs

     total energy              =   -8041.10328072 Ry
     estimated scf accuracy    <       8.61129092 Ry

     iteration # 15     ecut=    80.00 Ry     beta= 0.20
     Davidson diagonalization with overlap
     ethr =  2.10E-03,  avg # of iterations =  2.0

     negative rho (up, down):  7.588E+01 0.000E+00

     total cpu time spent up to now is      752.4 secs

     total energy              =   -8041.31937185 Ry
     estimated scf accuracy    <      11.96523346 Ry

     iteration # 16     ecut=    80.00 Ry     beta= 0.20
     Davidson diagonalization with overlap
     ethr =  2.10E-03,  avg # of iterations =  2.0

     negative rho (up, down):  7.601E+01 0.000E+00

     total cpu time spent up to now is      762.6 secs

     total energy              =   -8041.63561200 Ry
     estimated scf accuracy    <       9.87844872 Ry

     iteration # 17     ecut=    80.00 Ry     beta= 0.20
     Davidson diagonalization with overlap
     ethr =  2.10E-03,  avg # of iterations =  1.2

     negative rho (up, down):  7.587E+01 0.000E+00

     total cpu time spent up to now is      771.9 secs

     total energy              =   -8041.23111173 Ry
     estimated scf accuracy    <      11.29734870 Ry

     iteration # 18     ecut=    80.00 Ry     beta= 0.20
     Davidson diagonalization with overlap
     ethr =  2.10E-03,  avg # of iterations =  1.6

     negative rho (up, down):  7.587E+01 0.000E+00

     total cpu time spent up to now is      781.6 secs

     total energy              =   -8041.52289916 Ry
     estimated scf accuracy    <      10.82161427 Ry

     iteration # 19     ecut=    80.00 Ry     beta= 0.20
     Davidson diagonalization with overlap
     ethr =  2.10E-03,  avg # of iterations =  1.0

     negative rho (up, down):  7.587E+01 0.000E+00

     total cpu time spent up to now is      790.7 secs

     total energy              =   -8041.59786784 Ry
     estimated scf accuracy    <      10.21390422 Ry

     iteration # 20     ecut=    80.00 Ry     beta= 0.20
     Davidson diagonalization with overlap
     ethr =  2.10E-03,  avg # of iterations =  1.0

     negative rho (up, down):  7.590E+01 0.000E+00

     total cpu time spent up to now is      799.8 secs

     total energy              =   -8041.54098473 Ry
     estimated scf accuracy    <      10.69756672 Ry

     iteration # 21     ecut=    80.00 Ry     beta= 0.20
     Davidson diagonalization with overlap
     ethr =  2.10E-03,  avg # of iterations =  1.0

     negative rho (up, down):  7.600E+01 0.000E+00

     total cpu time spent up to now is      809.0 secs

     total energy              =   -8041.52121208 Ry
     estimated scf accuracy    <      11.02261903 Ry

     iteration # 22     ecut=    80.00 Ry     beta= 0.20
     Davidson diagonalization with overlap
     ethr =  2.10E-03,  avg # of iterations =  1.0

     negative rho (up, down):  7.600E+01 0.000E+00

     total cpu time spent up to now is      818.1 secs

     total energy              =   -8041.48478927 Ry
     estimated scf accuracy    <      10.79421212 Ry

     iteration # 23     ecut=    80.00 Ry     beta= 0.20
     Davidson diagonalization with overlap
     ethr =  2.10E-03,  avg # of iterations =  1.0

     negative rho (up, down):  7.598E+01 0.000E+00

     total cpu time spent up to now is      827.2 secs

     total energy              =   -8041.40025539 Ry
     estimated scf accuracy    <       9.85779270 Ry

     iteration # 24     ecut=    80.00 Ry     beta= 0.20
     Davidson diagonalization with overlap
     ethr =  2.10E-03,  avg # of iterations =  1.0

     negative rho (up, down):  7.610E+01 0.000E+00

     total cpu time spent up to now is      836.3 secs

     total energy              =   -8041.26232522 Ry
     estimated scf accuracy    <       9.14044247 Ry

     iteration # 25     ecut=    80.00 Ry     beta= 0.20
     Davidson diagonalization with overlap
     ethr =  2.10E-03,  avg # of iterations =  1.0

     negative rho (up, down):  7.626E+01 0.000E+00

     total cpu time spent up to now is      845.4 secs

     total energy              =   -8040.98639552 Ry
     estimated scf accuracy    <      24.86012730 Ry

     iteration # 26     ecut=    80.00 Ry     beta= 0.20
     Davidson diagonalization with overlap
     ethr =  2.10E-03,  avg # of iterations =  1.0

     negative rho (up, down):  7.637E+01 0.000E+00

     total cpu time spent up to now is      854.6 secs

     total energy              =   -8041.49137494 Ry
     estimated scf accuracy    <       8.67769553 Ry

     iteration # 27     ecut=    80.00 Ry     beta= 0.20
     Davidson diagonalization with overlap
     ethr =  2.10E-03,  avg # of iterations =  1.0

     negative rho (up, down):  7.656E+01 0.000E+00

     total cpu time spent up to now is      863.7 secs

     total energy              =   -8041.55404979 Ry
     estimated scf accuracy    <       8.22619976 Ry

     iteration # 28     ecut=    80.00 Ry     beta= 0.20
     Davidson diagonalization with overlap
     ethr =  2.10E-03,  avg # of iterations =  1.0

     negative rho (up, down):  7.669E+01 0.000E+00

     total cpu time spent up to now is      872.8 secs

     total energy              =   -8041.54312015 Ry
     estimated scf accuracy    <       8.25511010 Ry

     iteration # 29     ecut=    80.00 Ry     beta= 0.20
     Davidson diagonalization with overlap
     ethr =  2.10E-03,  avg # of iterations =  1.6

     negative rho (up, down):  7.689E+01 0.000E+00

     total cpu time spent up to now is      882.6 secs

     total energy              =   -8041.67779790 Ry
     estimated scf accuracy    <       7.11710515 Ry

     iteration # 30     ecut=    80.00 Ry     beta= 0.20
     Davidson diagonalization with overlap
     ethr =  1.93E-03,  avg # of iterations =  1.0

     negative rho (up, down):  7.727E+01 0.000E+00

     total cpu time spent up to now is      891.7 secs

     total energy              =   -8041.79838379 Ry
     estimated scf accuracy    <       6.58433188 Ry

     iteration # 31     ecut=    80.00 Ry     beta= 0.20
     Davidson diagonalization with overlap
     ethr =  1.79E-03,  avg # of iterations =  2.0

     negative rho (up, down):  7.739E+01 0.000E+00

     total cpu time spent up to now is      901.9 secs

     total energy              =   -8041.75945839 Ry
     estimated scf accuracy    <       6.71615718 Ry

     iteration # 32     ecut=    80.00 Ry     beta= 0.20
     Davidson diagonalization with overlap
     ethr =  1.79E-03,  avg # of iterations =  1.6

     negative rho (up, down):  7.765E+01 0.000E+00

     total cpu time spent up to now is      911.6 secs

     total energy              =   -8041.77287151 Ry
     estimated scf accuracy    <       7.63469817 Ry

     iteration # 33     ecut=    80.00 Ry     beta= 0.20
     Davidson diagonalization with overlap
     ethr =  1.79E-03,  avg # of iterations =  1.0

     negative rho (up, down):  7.883E+01 0.000E+00

     total cpu time spent up to now is      920.7 secs

     total energy              =   -8041.82008115 Ry
     estimated scf accuracy    <       5.65871552 Ry

     iteration # 34     ecut=    80.00 Ry     beta= 0.20
     Davidson diagonalization with overlap
     ethr =  1.54E-03,  avg # of iterations =  3.0

     negative rho (up, down):  7.924E+01 0.000E+00

     total cpu time spent up to now is      931.1 secs

     total energy              =   -8041.80588434 Ry
     estimated scf accuracy    <       8.01699471 Ry

     iteration # 35     ecut=    80.00 Ry     beta= 0.20
     Davidson diagonalization with overlap
     ethr =  1.54E-03,  avg # of iterations =  1.8

     negative rho (up, down):  7.992E+01 0.000E+00

     total cpu time spent up to now is      941.1 secs

     total energy              =   -8041.61041061 Ry
     estimated scf accuracy    <       8.06329344 Ry

     iteration # 36     ecut=    80.00 Ry     beta= 0.20
     Davidson diagonalization with overlap
     ethr =  1.54E-03,  avg # of iterations =  2.0

     negative rho (up, down):  8.073E+01 0.000E+00

     total cpu time spent up to now is      951.4 secs

     total energy              =   -8041.49977834 Ry
     estimated scf accuracy    <       5.43492169 Ry

     iteration # 37     ecut=    80.00 Ry     beta= 0.20
     Davidson diagonalization with overlap
     ethr =  1.48E-03,  avg # of iterations =  2.0

     negative rho (up, down):  8.084E+01 0.000E+00

     total cpu time spent up to now is      961.8 secs

     total energy              =   -8041.54594844 Ry
     estimated scf accuracy    <       3.48025423 Ry

     iteration # 38     ecut=    80.00 Ry     beta= 0.20
     Davidson diagonalization with overlap
     ethr =  9.46E-04,  avg # of iterations =  2.0

     negative rho (up, down):  8.102E+01 0.000E+00

     total cpu time spent up to now is      972.0 secs

     total energy              =   -8041.48365306 Ry
     estimated scf accuracy    <       2.63155081 Ry

     iteration # 39     ecut=    80.00 Ry     beta= 0.20
     Davidson diagonalization with overlap
     ethr =  7.15E-04,  avg # of iterations =  2.0

     negative rho (up, down):  8.101E+01 0.000E+00

     total cpu time spent up to now is      982.7 secs

     total energy              =   -8041.47313498 Ry
     estimated scf accuracy    <       5.30491213 Ry

     iteration # 40     ecut=    80.00 Ry     beta= 0.20
     Davidson diagonalization with overlap
     ethr =  7.15E-04,  avg # of iterations =  2.0

     negative rho (up, down):  8.120E+01 0.000E+00

     total cpu time spent up to now is      992.9 secs

     total energy              =   -8041.46929392 Ry
     estimated scf accuracy    <       2.59694983 Ry

     iteration # 41     ecut=    80.00 Ry     beta= 0.20
     Davidson diagonalization with overlap
     ethr =  7.06E-04,  avg # of iterations =  1.0

     negative rho (up, down):  8.112E+01 0.000E+00

     total cpu time spent up to now is     1002.1 secs

     total energy              =   -8041.54688941 Ry
     estimated scf accuracy    <       1.77647535 Ry

     iteration # 42     ecut=    80.00 Ry     beta= 0.20
     Davidson diagonalization with overlap
     ethr =  4.83E-04,  avg # of iterations =  1.0

     negative rho (up, down):  8.110E+01 0.000E+00

     total cpu time spent up to now is     1011.2 secs

     total energy              =   -8041.54928976 Ry
     estimated scf accuracy    <       2.06917249 Ry

     iteration # 43     ecut=    80.00 Ry     beta= 0.20
     Davidson diagonalization with overlap
     ethr =  4.83E-04,  avg # of iterations =  1.0

     negative rho (up, down):  8.105E+01 0.000E+00

     total cpu time spent up to now is     1020.3 secs

     total energy              =   -8041.55661383 Ry
     estimated scf accuracy    <       1.97256323 Ry

     iteration # 44     ecut=    80.00 Ry     beta= 0.20
     Davidson diagonalization with overlap
     ethr =  4.83E-04,  avg # of iterations =  1.0

     negative rho (up, down):  8.106E+01 0.000E+00

     total cpu time spent up to now is     1029.4 secs

     total energy              =   -8041.56648435 Ry
     estimated scf accuracy    <       2.00706408 Ry

     iteration # 45     ecut=    80.00 Ry     beta= 0.20
     Davidson diagonalization with overlap
     ethr =  4.83E-04,  avg # of iterations =  1.0

     negative rho (up, down):  8.112E+01 0.000E+00

     total cpu time spent up to now is     1038.5 secs

     total energy              =   -8041.52874823 Ry
     estimated scf accuracy    <       1.97797622 Ry

     iteration # 46     ecut=    80.00 Ry     beta= 0.20
     Davidson diagonalization with overlap
     ethr =  4.83E-04,  avg # of iterations =  1.2

     negative rho (up, down):  8.053E+01 0.000E+00

     total cpu time spent up to now is     1047.9 secs

     total energy              =   -8041.66009360 Ry
     estimated scf accuracy    <       2.20988363 Ry

     iteration # 47     ecut=    80.00 Ry     beta= 0.20
     Davidson diagonalization with overlap
     ethr =  4.83E-04,  avg # of iterations =  2.0

     negative rho (up, down):  8.062E+01 0.000E+00

     total cpu time spent up to now is     1058.1 secs

     total energy              =   -8041.67635080 Ry
     estimated scf accuracy    <       2.84321772 Ry

     iteration # 48     ecut=    80.00 Ry     beta= 0.20
     Davidson diagonalization with overlap
     ethr =  4.83E-04,  avg # of iterations =  1.2

     negative rho (up, down):  8.065E+01 0.000E+00

     total cpu time spent up to now is     1067.5 secs

     total energy              =   -8041.63287518 Ry
     estimated scf accuracy    <       2.13102659 Ry

     iteration # 49     ecut=    80.00 Ry     beta= 0.20
     Davidson diagonalization with overlap
     ethr =  4.83E-04,  avg # of iterations =  2.0

     negative rho (up, down):  8.064E+01 0.000E+00

     total cpu time spent up to now is     1078.1 secs

     total energy              =   -8041.54998486 Ry
     estimated scf accuracy    <       6.14330745 Ry

     iteration # 50     ecut=    80.00 Ry     beta= 0.20
     Davidson diagonalization with overlap
     ethr =  4.83E-04,  avg # of iterations =  2.0

     negative rho (up, down):  8.072E+01 0.000E+00

     total cpu time spent up to now is     1088.4 secs

     total energy              =   -8041.61451584 Ry
     estimated scf accuracy    <       2.63370020 Ry

     iteration # 51     ecut=    80.00 Ry     beta= 0.20
     Davidson diagonalization with overlap
     ethr =  4.83E-04,  avg # of iterations =  2.0

     negative rho (up, down):  8.075E+01 0.000E+00

     total cpu time spent up to now is     1099.1 secs

     total energy              =   -8041.58919745 Ry
     estimated scf accuracy    <       5.00479853 Ry

     iteration # 52     ecut=    80.00 Ry     beta= 0.20
     Davidson diagonalization with overlap
     ethr =  4.83E-04,  avg # of iterations =  2.0

     negative rho (up, down):  8.081E+01 0.000E+00

     total cpu time spent up to now is     1109.6 secs

     total energy              =   -8041.58421338 Ry
     estimated scf accuracy    <       3.10631245 Ry

     iteration # 53     ecut=    80.00 Ry     beta= 0.20
     Davidson diagonalization with overlap
     ethr =  4.83E-04,  avg # of iterations =  2.0

     negative rho (up, down):  8.088E+01 0.000E+00

     total cpu time spent up to now is     1119.8 secs

     total energy              =   -8041.59508646 Ry
     estimated scf accuracy    <       2.13990238 Ry

     iteration # 54     ecut=    80.00 Ry     beta= 0.20
     Davidson diagonalization with overlap
     ethr =  4.83E-04,  avg # of iterations =  1.2

     negative rho (up, down):  8.091E+01 0.000E+00

     total cpu time spent up to now is     1129.2 secs

     total energy              =   -8041.55587484 Ry
     estimated scf accuracy    <       3.51272896 Ry

     iteration # 55     ecut=    80.00 Ry     beta= 0.20
     Davidson diagonalization with overlap
     ethr =  4.83E-04,  avg # of iterations =  2.0

     negative rho (up, down):  8.097E+01 0.000E+00

     total cpu time spent up to now is     1139.4 secs

     total energy              =   -8041.54311765 Ry
     estimated scf accuracy    <       1.67602601 Ry

     iteration # 56     ecut=    80.00 Ry     beta= 0.20
     Davidson diagonalization with overlap
     ethr =  4.55E-04,  avg # of iterations =  2.0

     negative rho (up, down):  8.101E+01 0.000E+00

     total cpu time spent up to now is     1149.7 secs

     total energy              =   -8041.50424410 Ry
     estimated scf accuracy    <       2.09847983 Ry

     iteration # 57     ecut=    80.00 Ry     beta= 0.20
     Davidson diagonalization with overlap
     ethr =  4.55E-04,  avg # of iterations =  2.0

     negative rho (up, down):  8.105E+01 0.000E+00

     total cpu time spent up to now is     1160.0 secs

     total energy              =   -8041.54659189 Ry
     estimated scf accuracy    <       1.54884644 Ry

     iteration # 58     ecut=    80.00 Ry     beta= 0.20
     Davidson diagonalization with overlap
     ethr =  4.21E-04,  avg # of iterations =  1.0

     negative rho (up, down):  8.106E+01 0.000E+00

     total cpu time spent up to now is     1169.1 secs

     total energy              =   -8041.53510660 Ry
     estimated scf accuracy    <       1.84941522 Ry

     iteration # 59     ecut=    80.00 Ry     beta= 0.20
     Davidson diagonalization with overlap
     ethr =  4.21E-04,  avg # of iterations =  2.0

     negative rho (up, down):  8.099E+01 0.000E+00

     total cpu time spent up to now is     1179.3 secs

     total energy              =   -8041.58740251 Ry
     estimated scf accuracy    <       2.83303844 Ry

     iteration # 60     ecut=    80.00 Ry     beta= 0.20
     Davidson diagonalization with overlap
     ethr =  4.21E-04,  avg # of iterations =  2.0

     negative rho (up, down):  8.096E+01 0.000E+00

     total cpu time spent up to now is     1189.7 secs

     total energy              =   -8041.58804201 Ry
     estimated scf accuracy    <       5.15173374 Ry

     iteration # 61     ecut=    80.00 Ry     beta= 0.20
     Davidson diagonalization with overlap
     ethr =  4.21E-04,  avg # of iterations =  2.0

     negative rho (up, down):  8.108E+01 0.000E+00

     total cpu time spent up to now is     1199.9 secs

     total energy              =   -8041.54263367 Ry
     estimated scf accuracy    <       3.68968587 Ry

     iteration # 62     ecut=    80.00 Ry     beta= 0.20
     Davidson diagonalization with overlap
     ethr =  4.21E-04,  avg # of iterations =  1.2

     negative rho (up, down):  8.110E+01 0.000E+00

     total cpu time spent up to now is     1209.2 secs

     total energy              =   -8041.48203295 Ry
     estimated scf accuracy    <       3.00741128 Ry

     iteration # 63     ecut=    80.00 Ry     beta= 0.20
     Davidson diagonalization with overlap
     ethr =  4.21E-04,  avg # of iterations =  2.0

     negative rho (up, down):  8.114E+01 0.000E+00

     total cpu time spent up to now is     1219.8 secs

     total energy              =   -8041.26828788 Ry
     estimated scf accuracy    <      14.55102937 Ry

     iteration # 64     ecut=    80.00 Ry     beta= 0.20
     Davidson diagonalization with overlap
     ethr =  4.21E-04,  avg # of iterations =  1.4

     negative rho (up, down):  8.115E+01 0.000E+00

     total cpu time spent up to now is     1229.4 secs

     total energy              =   -8041.55500856 Ry
     estimated scf accuracy    <       3.84965110 Ry

     iteration # 65     ecut=    80.00 Ry     beta= 0.20
     Davidson diagonalization with overlap
     ethr =  4.21E-04,  avg # of iterations =  1.0

     negative rho (up, down):  8.116E+01 0.000E+00

     total cpu time spent up to now is     1238.5 secs

     total energy              =   -8041.55843809 Ry
     estimated scf accuracy    <       4.20673173 Ry

     iteration # 66     ecut=    80.00 Ry     beta= 0.20
     Davidson diagonalization with overlap
     ethr =  4.21E-04,  avg # of iterations =  2.0

     negative rho (up, down):  8.119E+01 0.000E+00

     total cpu time spent up to now is     1248.7 secs

     total energy              =   -8041.52426738 Ry
     estimated scf accuracy    <       5.56167424 Ry

     iteration # 67     ecut=    80.00 Ry     beta= 0.20
     Davidson diagonalization with overlap
     ethr =  4.21E-04,  avg # of iterations =  2.0

     negative rho (up, down):  8.126E+01 0.000E+00

     total cpu time spent up to now is     1259.0 secs

     total energy              =   -8041.52265835 Ry
     estimated scf accuracy    <       4.73127112 Ry

     iteration # 68     ecut=    80.00 Ry     beta= 0.20
     Davidson diagonalization with overlap
     ethr =  4.21E-04,  avg # of iterations =  2.0

     negative rho (up, down):  8.122E+01 0.000E+00

     total cpu time spent up to now is     1269.2 secs

     total energy              =   -8041.52420710 Ry
     estimated scf accuracy    <       5.64955439 Ry

     iteration # 69     ecut=    80.00 Ry     beta= 0.20
     Davidson diagonalization with overlap
     ethr =  4.21E-04,  avg # of iterations =  2.0

     negative rho (up, down):  8.139E+01 0.000E+00

     total cpu time spent up to now is     1279.5 secs

     total energy              =   -8041.44829668 Ry
     estimated scf accuracy    <       5.51171586 Ry

     iteration # 70     ecut=    80.00 Ry     beta= 0.20
     Davidson diagonalization with overlap
     ethr =  4.21E-04,  avg # of iterations =  2.0

     negative rho (up, down):  8.143E+01 0.000E+00

     total cpu time spent up to now is     1290.0 secs

     total energy              =   -8041.43545074 Ry
     estimated scf accuracy    <       5.45051129 Ry

     iteration # 71     ecut=    80.00 Ry     beta= 0.20
     Davidson diagonalization with overlap
     ethr =  4.21E-04,  avg # of iterations =  2.0

     negative rho (up, down):  8.159E+01 0.000E+00

     total cpu time spent up to now is     1300.7 secs

     total energy              =   -8041.42436416 Ry
     estimated scf accuracy    <       7.33973880 Ry

     iteration # 72     ecut=    80.00 Ry     beta= 0.20
     Davidson diagonalization with overlap
     ethr =  4.21E-04,  avg # of iterations =  2.0

     negative rho (up, down):  8.113E+01 0.000E+00

     total cpu time spent up to now is     1311.0 secs

     total energy              =   -8041.28691500 Ry
     estimated scf accuracy    <      10.98236901 Ry

     iteration # 73     ecut=    80.00 Ry     beta= 0.20
     Davidson diagonalization with overlap
     ethr =  4.21E-04,  avg # of iterations =  2.0

     negative rho (up, down):  8.109E+01 0.000E+00

     total cpu time spent up to now is     1322.0 secs

     total energy              =   -8041.25652638 Ry
     estimated scf accuracy    <       7.02466691 Ry

     iteration # 74     ecut=    80.00 Ry     beta= 0.20
     Davidson diagonalization with overlap
     ethr =  4.21E-04,  avg # of iterations =  2.0

     negative rho (up, down):  8.110E+01 0.000E+00

     total cpu time spent up to now is     1333.0 secs

     total energy              =   -8041.41699986 Ry
     estimated scf accuracy    <       5.33345852 Ry

     iteration # 75     ecut=    80.00 Ry     beta= 0.20
     Davidson diagonalization with overlap
     ethr =  4.21E-04,  avg # of iterations =  2.0

     negative rho (up, down):  8.114E+01 0.000E+00

     total cpu time spent up to now is     1344.0 secs

     total energy              =   -8041.43847489 Ry
     estimated scf accuracy    <       2.75286490 Ry

     iteration # 76     ecut=    80.00 Ry     beta= 0.20
     Davidson diagonalization with overlap
     ethr =  4.21E-04,  avg # of iterations =  2.0

     negative rho (up, down):  8.116E+01 0.000E+00

     total cpu time spent up to now is     1354.8 secs

     total energy              =   -8041.43906153 Ry
     estimated scf accuracy    <       2.53271202 Ry

     iteration # 77     ecut=    80.00 Ry     beta= 0.20
     Davidson diagonalization with overlap
     ethr =  4.21E-04,  avg # of iterations =  2.0

     negative rho (up, down):  8.120E+01 0.000E+00

     total cpu time spent up to now is     1365.2 secs

     total energy              =   -8041.40041317 Ry
     estimated scf accuracy    <       2.56054189 Ry

     iteration # 78     ecut=    80.00 Ry     beta= 0.20
     Davidson diagonalization with overlap
     ethr =  4.21E-04,  avg # of iterations =  2.0

     negative rho (up, down):  8.120E+01 0.000E+00

     total cpu time spent up to now is     1375.5 secs

     total energy              =   -8041.43086845 Ry
     estimated scf accuracy    <       2.07708297 Ry

     iteration # 79     ecut=    80.00 Ry     beta= 0.20
     Davidson diagonalization with overlap
     ethr =  4.21E-04,  avg # of iterations =  2.0

     negative rho (up, down):  8.122E+01 0.000E+00

     total cpu time spent up to now is     1385.9 secs

     total energy              =   -8041.46237744 Ry
     estimated scf accuracy    <       0.70495333 Ry

     iteration # 80     ecut=    80.00 Ry     beta= 0.20
     Davidson diagonalization with overlap
     ethr =  1.92E-04,  avg # of iterations =  2.0

     negative rho (up, down):  8.122E+01 0.000E+00

     total cpu time spent up to now is     1396.1 secs

     total energy              =   -8041.46928584 Ry
     estimated scf accuracy    <       0.45286257 Ry

     iteration # 81     ecut=    80.00 Ry     beta= 0.20
     Davidson diagonalization with overlap
     ethr =  1.23E-04,  avg # of iterations =  1.0

     negative rho (up, down):  8.126E+01 0.000E+00

     total cpu time spent up to now is     1405.3 secs

     total energy              =   -8041.45655371 Ry
     estimated scf accuracy    <       0.18384724 Ry

     iteration # 82     ecut=    80.00 Ry     beta= 0.20
     Davidson diagonalization with overlap
     ethr =  5.00E-05,  avg # of iterations =  2.0

     negative rho (up, down):  8.126E+01 0.000E+00

     total cpu time spent up to now is     1416.1 secs

     total energy              =   -8041.44605925 Ry
     estimated scf accuracy    <       0.55242964 Ry

     iteration # 83     ecut=    80.00 Ry     beta= 0.20
     Davidson diagonalization with overlap
     ethr =  5.00E-05,  avg # of iterations =  2.0

     negative rho (up, down):  8.127E+01 0.000E+00

     total cpu time spent up to now is     1427.1 secs

     total energy              =   -8041.44321783 Ry
     estimated scf accuracy    <       0.26565473 Ry

     iteration # 84     ecut=    80.00 Ry     beta= 0.20
     Davidson diagonalization with overlap
     ethr =  5.00E-05,  avg # of iterations =  2.0

     negative rho (up, down):  8.129E+01 0.000E+00

     total cpu time spent up to now is     1438.1 secs

     total energy              =   -8041.43735511 Ry
     estimated scf accuracy    <       0.61885802 Ry

     iteration # 85     ecut=    80.00 Ry     beta= 0.20
     Davidson diagonalization with overlap
     ethr =  5.00E-05,  avg # of iterations =  2.0

     negative rho (up, down):  8.133E+01 0.000E+00

     total cpu time spent up to now is     1448.9 secs

     total energy              =   -8041.42767718 Ry
     estimated scf accuracy    <       0.28147433 Ry

     iteration # 86     ecut=    80.00 Ry     beta= 0.20
     Davidson diagonalization with overlap
     ethr =  5.00E-05,  avg # of iterations =  2.0

     negative rho (up, down):  8.132E+01 0.000E+00

     total cpu time spent up to now is     1459.7 secs

     total energy              =   -8041.41778749 Ry
     estimated scf accuracy    <       0.63270949 Ry

     iteration # 87     ecut=    80.00 Ry     beta= 0.20
     Davidson diagonalization with overlap
     ethr =  5.00E-05,  avg # of iterations =  2.0

     negative rho (up, down):  8.135E+01 0.000E+00

     total cpu time spent up to now is     1470.6 secs

     total energy              =   -8041.41222964 Ry
     estimated scf accuracy    <       0.35358530 Ry

     iteration # 88     ecut=    80.00 Ry     beta= 0.20
     Davidson diagonalization with overlap
     ethr =  5.00E-05,  avg # of iterations =  2.0

     negative rho (up, down):  8.135E+01 0.000E+00

     total cpu time spent up to now is     1481.5 secs

     total energy              =   -8041.43015365 Ry
     estimated scf accuracy    <       0.48850653 Ry

     iteration # 89     ecut=    80.00 Ry     beta= 0.20
     Davidson diagonalization with overlap
     ethr =  5.00E-05,  avg # of iterations =  2.0

     negative rho (up, down):  8.136E+01 0.000E+00

     total cpu time spent up to now is     1492.3 secs

     total energy              =   -8041.41747778 Ry
     estimated scf accuracy    <       0.73579499 Ry

     iteration # 90     ecut=    80.00 Ry     beta= 0.20
     Davidson diagonalization with overlap
     ethr =  5.00E-05,  avg # of iterations =  2.0

     negative rho (up, down):  8.136E+01 0.000E+00

     total cpu time spent up to now is     1503.3 secs

     total energy              =   -8041.42380827 Ry
     estimated scf accuracy    <       0.61113144 Ry

     iteration # 91     ecut=    80.00 Ry     beta= 0.20
     Davidson diagonalization with overlap
     ethr =  5.00E-05,  avg # of iterations =  2.0

     negative rho (up, down):  8.137E+01 0.000E+00

     total cpu time spent up to now is     1513.5 secs

     total energy              =   -8041.42736257 Ry
     estimated scf accuracy    <       0.30227136 Ry

     iteration # 92     ecut=    80.00 Ry     beta= 0.20
     Davidson diagonalization with overlap
     ethr =  5.00E-05,  avg # of iterations =  1.6

     negative rho (up, down):  8.136E+01 0.000E+00

     total cpu time spent up to now is     1523.2 secs

     total energy              =   -8041.42906893 Ry
     estimated scf accuracy    <       0.19846558 Ry

     iteration # 93     ecut=    80.00 Ry     beta= 0.20
     Davidson diagonalization with overlap
     ethr =  5.00E-05,  avg # of iterations =  2.0

     negative rho (up, down):  8.135E+01 0.000E+00

     total cpu time spent up to now is     1533.6 secs

     total energy              =   -8041.43840595 Ry
     estimated scf accuracy    <       0.10273033 Ry

     iteration # 94     ecut=    80.00 Ry     beta= 0.20
     Davidson diagonalization with overlap
     ethr =  2.79E-05,  avg # of iterations =  2.0

     negative rho (up, down):  8.136E+01 0.000E+00

     total cpu time spent up to now is     1544.2 secs

     total energy              =   -8041.43320509 Ry
     estimated scf accuracy    <       0.16048675 Ry

     iteration # 95     ecut=    80.00 Ry     beta= 0.20
     Davidson diagonalization with overlap
     ethr =  2.79E-05,  avg # of iterations =  2.0

     negative rho (up, down):  8.135E+01 0.000E+00

     total cpu time spent up to now is     1554.9 secs

     total energy              =   -8041.43976600 Ry
     estimated scf accuracy    <       0.05178800 Ry

     iteration # 96     ecut=    80.00 Ry     beta= 0.20
     Davidson diagonalization with overlap
     ethr =  1.41E-05,  avg # of iterations =  2.0

     negative rho (up, down):  8.134E+01 0.000E+00

     total cpu time spent up to now is     1565.1 secs

     total energy              =   -8041.44360070 Ry
     estimated scf accuracy    <       0.02425625 Ry

     iteration # 97     ecut=    80.00 Ry     beta= 0.20
     Davidson diagonalization with overlap
     ethr =  6.59E-06,  avg # of iterations =  2.0

     negative rho (up, down):  8.134E+01 0.000E+00

     total cpu time spent up to now is     1575.3 secs

     total energy              =   -8041.44739478 Ry
     estimated scf accuracy    <       0.01334637 Ry

     iteration # 98     ecut=    80.00 Ry     beta= 0.20
     Davidson diagonalization with overlap
     ethr =  3.63E-06,  avg # of iterations =  2.0

     negative rho (up, down):  8.134E+01 0.000E+00

     total cpu time spent up to now is     1585.7 secs

     total energy              =   -8041.44709559 Ry
     estimated scf accuracy    <       0.01915914 Ry

     iteration # 99     ecut=    80.00 Ry     beta= 0.20
     Davidson diagonalization with overlap
     ethr =  3.63E-06,  avg # of iterations =  2.0

     negative rho (up, down):  8.133E+01 0.000E+00

     total cpu time spent up to now is     1596.4 secs

     total energy              =   -8041.45014860 Ry
     estimated scf accuracy    <       0.03333426 Ry

     iteration #100     ecut=    80.00 Ry     beta= 0.20
     Davidson diagonalization with overlap
     ethr =  3.63E-06,  avg # of iterations =  2.0

     negative rho (up, down):  8.133E+01 0.000E+00

     total cpu time spent up to now is     1607.2 secs

     total energy              =   -8041.45236856 Ry
     estimated scf accuracy    <       0.01318014 Ry

     iteration #101     ecut=    80.00 Ry     beta= 0.20
     Davidson diagonalization with overlap
     ethr =  3.58E-06,  avg # of iterations =  2.0

     negative rho (up, down):  8.132E+01 0.000E+00

     total cpu time spent up to now is     1617.6 secs

     total energy              =   -8041.46018285 Ry
     estimated scf accuracy    <       0.01849658 Ry

     iteration #102     ecut=    80.00 Ry     beta= 0.20
     Davidson diagonalization with overlap
     ethr =  3.58E-06,  avg # of iterations =  2.0

     negative rho (up, down):  8.132E+01 0.000E+00

     total cpu time spent up to now is     1627.9 secs

     total energy              =   -8041.45999911 Ry
     estimated scf accuracy    <       0.01107852 Ry

     iteration #103     ecut=    80.00 Ry     beta= 0.20
     Davidson diagonalization with overlap
     ethr =  3.01E-06,  avg # of iterations =  2.0

     negative rho (up, down):  8.132E+01 0.000E+00

     total cpu time spent up to now is     1638.1 secs

     total energy              =   -8041.46069014 Ry
     estimated scf accuracy    <       0.01555100 Ry

     iteration #104     ecut=    80.00 Ry     beta= 0.20
     Davidson diagonalization with overlap
     ethr =  3.01E-06,  avg # of iterations =  2.0

     negative rho (up, down):  8.132E+01 0.000E+00

     total cpu time spent up to now is     1648.3 secs

     total energy              =   -8041.46123345 Ry
     estimated scf accuracy    <       0.00768321 Ry

     iteration #105     ecut=    80.00 Ry     beta= 0.20
     Davidson diagonalization with overlap
     ethr =  2.09E-06,  avg # of iterations =  2.0

     negative rho (up, down):  8.132E+01 0.000E+00

     total cpu time spent up to now is     1659.1 secs

     total energy              =   -8041.45795605 Ry
     estimated scf accuracy    <       0.02572064 Ry

     iteration #106     ecut=    80.00 Ry     beta= 0.20
     Davidson diagonalization with overlap
     ethr =  2.09E-06,  avg # of iterations =  2.2

     negative rho (up, down):  8.132E+01 0.000E+00

     total cpu time spent up to now is     1669.9 secs

     total energy              =   -8041.45935381 Ry
     estimated scf accuracy    <       0.02522845 Ry

     iteration #107     ecut=    80.00 Ry     beta= 0.20
     Davidson diagonalization with overlap
     ethr =  2.09E-06,  avg # of iterations =  2.0

     negative rho (up, down):  8.132E+01 0.000E+00

     total cpu time spent up to now is     1680.6 secs

     total energy              =   -8041.46169570 Ry
     estimated scf accuracy    <       0.01193462 Ry

     iteration #108     ecut=    80.00 Ry     beta= 0.20
     Davidson diagonalization with overlap
     ethr =  2.09E-06,  avg # of iterations =  2.0

     negative rho (up, down):  8.132E+01 0.000E+00

     total cpu time spent up to now is     1691.0 secs

     total energy              =   -8041.46347235 Ry
     estimated scf accuracy    <       0.00994764 Ry

     iteration #109     ecut=    80.00 Ry     beta= 0.20
     Davidson diagonalization with overlap
     ethr =  2.09E-06,  avg # of iterations =  2.0

     negative rho (up, down):  8.132E+01 0.000E+00

     total cpu time spent up to now is     1701.7 secs

     total energy              =   -8041.45819019 Ry
     estimated scf accuracy    <       0.01769854 Ry

     iteration #110     ecut=    80.00 Ry     beta= 0.20
     Davidson diagonalization with overlap
     ethr =  2.09E-06,  avg # of iterations =  2.0

     negative rho (up, down):  8.132E+01 0.000E+00

     total cpu time spent up to now is     1712.7 secs

     total energy              =   -8041.46290762 Ry
     estimated scf accuracy    <       0.01554316 Ry

     iteration #111     ecut=    80.00 Ry     beta= 0.20
     Davidson diagonalization with overlap
     ethr =  2.09E-06,  avg # of iterations =  2.0

     negative rho (up, down):  8.132E+01 0.000E+00

     total cpu time spent up to now is     1723.8 secs

     total energy              =   -8041.46367101 Ry
     estimated scf accuracy    <       0.03007226 Ry

     iteration #112     ecut=    80.00 Ry     beta= 0.20
     Davidson diagonalization with overlap
     ethr =  2.09E-06,  avg # of iterations =  2.0

     negative rho (up, down):  8.132E+01 0.000E+00

     total cpu time spent up to now is     1734.7 secs

     total energy              =   -8041.46665392 Ry
     estimated scf accuracy    <       0.01468730 Ry

     iteration #113     ecut=    80.00 Ry     beta= 0.20
     Davidson diagonalization with overlap
     ethr =  2.09E-06,  avg # of iterations =  2.0

     negative rho (up, down):  8.132E+01 0.000E+00

     total cpu time spent up to now is     1745.8 secs

     total energy              =   -8041.46204970 Ry
     estimated scf accuracy    <       0.03136356 Ry

     iteration #114     ecut=    80.00 Ry     beta= 0.20
     Davidson diagonalization with overlap
     ethr =  2.09E-06,  avg # of iterations =  2.0

     negative rho (up, down):  8.132E+01 0.000E+00

     total cpu time spent up to now is     1756.8 secs

     total energy              =   -8041.46601412 Ry
     estimated scf accuracy    <       0.00907161 Ry

     iteration #115     ecut=    80.00 Ry     beta= 0.20
     Davidson diagonalization with overlap
     ethr =  2.09E-06,  avg # of iterations =  2.0

     negative rho (up, down):  8.132E+01 0.000E+00

     total cpu time spent up to now is     1767.5 secs

     total energy              =   -8041.46740867 Ry
     estimated scf accuracy    <       0.01605195 Ry

     iteration #116     ecut=    80.00 Ry     beta= 0.20
     Davidson diagonalization with overlap
     ethr =  2.09E-06,  avg # of iterations =  2.0

     negative rho (up, down):  8.132E+01 0.000E+00

     total cpu time spent up to now is     1778.2 secs

     total energy              =   -8041.46817301 Ry
     estimated scf accuracy    <       0.01004705 Ry

     iteration #117     ecut=    80.00 Ry     beta= 0.20
     Davidson diagonalization with overlap
     ethr =  2.09E-06,  avg # of iterations =  2.0

     negative rho (up, down):  8.132E+01 0.000E+00

     total cpu time spent up to now is     1789.2 secs

     total energy              =   -8041.46312311 Ry
     estimated scf accuracy    <       0.02644282 Ry

     iteration #118     ecut=    80.00 Ry     beta= 0.20
     Davidson diagonalization with overlap
     ethr =  2.09E-06,  avg # of iterations =  2.0

     negative rho (up, down):  8.132E+01 0.000E+00

     total cpu time spent up to now is     1800.2 secs

     total energy              =   -8041.46590287 Ry
     estimated scf accuracy    <       0.01220438 Ry

     iteration #119     ecut=    80.00 Ry     beta= 0.20
     Davidson diagonalization with overlap
     ethr =  2.09E-06,  avg # of iterations =  2.0

     negative rho (up, down):  8.132E+01 0.000E+00

     total cpu time spent up to now is     1811.0 secs

     total energy              =   -8041.46841911 Ry
     estimated scf accuracy    <       0.01132385 Ry

     iteration #120     ecut=    80.00 Ry     beta= 0.20
     Davidson diagonalization with overlap
     ethr =  2.09E-06,  avg # of iterations =  2.0

     negative rho (up, down):  8.132E+01 0.000E+00

     total cpu time spent up to now is     1821.4 secs

     total energy              =   -8041.46788294 Ry
     estimated scf accuracy    <       0.00415546 Ry

     End of self-consistent calculation

     convergence NOT achieved after 120 iterations: stopping

     Writing config to output data dir ./C36/out_logs/C36_out_10/laves_C36.save/
 
     init_run     :      3.17s CPU      3.29s WALL (       1 calls)
     electrons    :   1794.33s CPU   1795.11s WALL (       2 calls)
     update_pot   :      4.33s CPU      4.33s WALL (       1 calls)
     forces       :      2.14s CPU      2.14s WALL (       1 calls)
     stress       :     11.87s CPU     11.87s WALL (       1 calls)

     Called by init_run:
     wfcinit      :      0.02s CPU      0.02s WALL (       1 calls)
                                        0.02s GPU  (       1 calls)
     potinit      :      2.13s CPU      2.16s WALL (       1 calls)
     hinit0       :      0.87s CPU      0.89s WALL (       1 calls)

     Called by electrons:
     c_bands      :   1242.58s CPU   1243.05s WALL (     168 calls)
     sum_band     :    171.72s CPU    171.77s WALL (     168 calls)
     v_of_rho     :      4.11s CPU      4.17s WALL (     170 calls)
     newd         :     13.80s CPU     14.05s WALL (     170 calls)
                                       13.00s GPU  (     169 calls)
     PAW_pot      :    355.33s CPU    355.33s WALL (     171 calls)
     mix_rho      :      9.40s CPU      9.57s WALL (     168 calls)

     Called by c_bands:
     init_us_2    :      2.07s CPU      2.09s WALL (    1695 calls)
     init_us_2:cp :      0.07s CPU      0.07s WALL (       5 calls)
     init_us_2:gp :      1.98s CPU      2.00s WALL (    1690 calls)
     cegterg      :   1196.14s CPU   1196.43s WALL (     844 calls)

     Called by *egterg:
     cdiaghg      :     59.48s CPU     59.98s WALL (    2583 calls)
                                       59.95s GPU  (    2583 calls)
     h_psi        :    554.04s CPU    554.29s WALL (    2597 calls)
                                      553.84s GPU  (    2597 calls)
     s_psi        :      2.10s CPU    102.45s WALL (    2597 calls)
                                      101.62s GPU  (    2597 calls)
     g_psi        :      0.01s CPU      1.91s WALL (    1753 calls)
                                        1.89s GPU  (    1753 calls)

     Called by h_psi:
     h_psi:calbec :      0.14s CPU    116.13s WALL (    2597 calls)
                                      116.11s GPU  (    2597 calls)
     vloc_psi     :    333.84s CPU    334.03s WALL (    2597 calls)
                                      333.98s GPU  (    2597 calls)
     add_vuspsi   :      2.22s CPU    102.50s WALL (    2597 calls)
                                      102.39s GPU  (    2597 calls)

     General routines
     calbec       :      2.43s CPU      1.31s WALL (    3467 calls)
     fft          :      2.01s CPU      3.05s WALL (    2234 calls)
                                        1.05s GPU  (    2064 calls)
     ffts         :      0.98s CPU      1.05s WALL (     338 calls)
                                        0.07s GPU  (     168 calls)
     fftw         :      0.48s CPU    354.71s WALL (   65388 calls)
                                      353.60s GPU  (   65388 calls)
     interpolate  :      3.48s CPU      3.48s WALL (     170 calls)
     davcio       :      0.01s CPU      0.10s WALL (      36 calls)
 
     Parallel routines
 
     PWSCF        :  30m21.46s CPU  30m21.60s WALL

 
   This run was terminated on:  11:10:41   3Apr2026            

=------------------------------------------------------------------------------=
   JOB DONE.
=------------------------------------------------------------------------------=
