187
Lattice="14.535709044030607 0.19062262545697073 -0.13466699925808587 -0.11589548984418546 14.153692885630045 0.20207688658958697 -0.42693604284341524 0.12645878384963463 14.213800566360742" Properties=species:S:1:pos:R:3 pbc="T T T"
Mg       3.52034677       0.09600050       3.54323701
Mg       3.34777746       0.10693685      10.61411773
Mg       3.39012574       7.19807195       3.59730136
Mg       3.20667936       7.39087754      10.73202885
Mg      10.79950047       0.18780747       3.57153349
Mg      10.59210935       0.21098142      10.55860516
Mg      10.75509096       7.27732485       3.56525606
Mg      10.47926501       7.34624411      10.69124371
Mg       1.73559333       1.79950471       1.82339059
Mg       1.65457612       1.80571023       8.91409252
Mg       1.63316537       8.92553006       1.84337204
Mg       1.41070506       8.88161995       8.98267934
Mg       8.94523835       1.93567501       1.69179276
Mg       8.79307984       1.97728986       8.81930048
Mg       8.99535014       8.95971805       1.74368292
Mg       8.83228603       9.00548823       8.92003385
Mg       0.01783415       0.01269286      -0.08816598
Mg      -0.20914969       0.04287767       7.11491391
Mg      -0.04251839       7.02960513       0.08379479
Mg      -0.24518812       7.09165782       7.21580201
Mg       7.26649449       0.16030230      -0.02044252
Mg       7.06395182       0.09769152       6.99543896
Mg       7.18079159       7.16859845       0.02398789
Mg       7.04288545       7.32448820       7.16355729
Mg       1.60595000       5.40914615       5.40464320
Mg       1.35799778       5.42614828      12.43965948
Mg       1.66475933      12.49785026       5.49492457
Mg       1.41228344      12.54647070      12.44768561
Mg       8.90104565       5.52293854       5.34323523
Mg       8.64143987       5.55245197      12.47528073
Mg       8.74316146      12.53672120       5.40132958
Mg       8.58538914      12.44897611      12.53351388
Mg       5.21498052       1.88739815       5.36046852
Mg       5.04053311       1.94709558      12.51061474
Mg       5.20646420       8.89512526       5.36484168
Cu       4.96460555       9.09763549      12.42761881
Mg      12.54327331       1.98428582       5.33694179
Mg      12.36222817       2.09562708      12.31122660
Mg      12.45215052       8.98437665       5.29095118
Mg      12.24284853       9.16372226      12.47989713
Mg      -0.15582662       3.61995983       3.65884313
Mg      -0.38611453       3.63731804      10.66933420
Mg      -0.26989346      10.57781615       3.72156232
Mg      -0.36636164      10.78789603      10.86638772
Mg       7.17706702       3.66284934       3.51096940
Mg       6.90370570       3.75262124      10.61610461
Mg       7.14781281      10.69585893       3.66116483
Mg       6.85878181      10.76383494      10.76333820
Mg       3.63050571       3.57331784       0.04349974
Mg       3.39153751       3.63452744       7.18278300
Mg       3.55165878      10.62546376       0.00898524
Mg       3.29356259      10.74257504       7.23493367
Mg      10.85335339       3.62491234      -0.07143562
Mg      10.92905183      10.84411132       0.01001175
Mg      10.66695930      10.86313199       7.16818863
Mg       5.38673840       5.40764365       1.84119328
Mg       5.12714749       5.42822649       8.89478235
Mg       5.32079656      12.38223545       1.99635668
Mg       5.16654058      12.57989867       8.99386548
Mg      12.61221484       5.40105560       1.75109473
Mg      12.44273089       5.57070159       8.82684251
Mg      12.57087194      12.57306322       1.80888559
Mg      12.32637494      12.56724502       8.85405409
Cu       6.15504803       4.49553583       6.19426246
Cu       5.92345977       4.64260007      13.30909525
Cu       6.07050535      11.61991324       6.34293832
Cu       5.82862363      11.70840362      13.49483520
Cu      13.45948152       4.65122481       6.25546189
Cu      13.12129006       4.78207406      13.27808964
Cu      13.41968520      11.68091489       6.15320727
Cu      13.16136544      11.77073686      13.41563358
Cu       4.29814115       6.32305373       6.34808138
Cu       4.16986363       6.34778811      13.30771102
Cu       4.16797870      13.37163079       6.39115828
Cu       4.05106383      13.39633643      13.53188553
Cu      11.60206263       6.39404950       6.17665356
Cu      11.39055281       6.51189836      13.33606611
Cu      11.36624858      13.51129975      13.30431511
Cu       2.48835821       2.71475189       4.39344205
Cu       2.41739495       2.80860246      11.58201257
Cu       2.54991143       9.83237843       4.58470313
Cu       2.32155146       9.86048198      11.61091543
Cu       9.81957549       2.83329767       4.37430936
Cu       9.56653266       2.85063060      11.53807885
Cu       9.78669409       9.89448673       4.42641481
Cu       9.60446673       9.98607654      11.71683506
Cu       6.32796976       0.97367009       2.63001665
Cu       6.05188449       1.03005081       9.68055800
Cu       6.25706000       8.15900261       2.71562138
Cu       6.03210776       8.14781390       9.89972411
Cu      13.58634949       1.14198624       2.46018182
Cu      13.34848640       1.20979244       9.64960665
Cu      13.44529146       8.09840543       2.67685871
Cu      13.24022108       8.25246919       9.83093452
Cu       0.80932571       4.46433537       0.97799170
Cu       0.56214587       4.47993625       8.10695349
Cu       0.74726775      11.44953946       1.11026943
Cu       0.54575598      11.62715747       8.20936827
Cu       8.08594647       4.55190235       0.80705831
Cu       7.90031454       4.58888343       8.03047251
Cu       8.03881446      11.64452902       0.93318926
Cu       7.83010199      11.57049001       8.11036505
Cu       4.35699039       4.51247349       4.44087891
Cu       4.06965492       4.56083582      11.58764659
Cu       4.36502231      11.57779565       4.57076948
Cu       4.16769811      11.67567339      11.51755556
Cu      11.59739557       4.61762519       4.37384577
Cu      11.48048277       4.66768289      11.52623189
Cu      11.54936941      11.75500110       4.49429140
Cu      11.35923768      11.76269850      11.61777561
Cu       0.79259666       6.29572956       2.81884943
Cu       0.60823529       6.26199479       9.83179645
Cu       0.57191408      13.28256350       2.89671640
Cu       0.41497472      13.36746406      10.00404238
Cu       8.11041766       6.33139299       2.54990021
Cu       7.82167823       6.31438390       9.77382075
Mg       7.93327798      13.33730361       2.84160300
Cu       7.72954139      13.60522275       9.82306247
Cu       2.64205695       6.24779485       0.98224529
Cu       2.52046247       6.30781250       8.09074911
Cu       2.55624211      13.26979200       1.11827217
Cu       2.37164825      13.37416785       8.15410424
Cu       9.96399052       6.26393321       0.83148087
Cu       9.74874682       6.44164752       8.04065067
Cu       9.89417684      13.40069638       1.04143002
Cu       9.59826754      13.46973406       8.00765936
Cu       2.62814837       4.46059720       2.58957738
Cu       2.34052064       4.42263067       9.84804782
Cu       2.52579082      11.60610488       2.81403150
Cu       2.41901492      11.64561708       9.96422268
Cu       9.94832397       4.60368389       2.67398925
Cu       9.75254612      11.71609624       2.72195389
Cu       9.63030855      11.72101501       9.80709315
Cu       4.43401175       2.73119350       2.55990243
Cu       4.19524112       2.75570300       9.85331912
Cu       4.43917798       9.79669253       2.74774695
Cu       4.29221636       9.78716120       9.85208530
Cu      11.62317723       2.84876815       2.65302303
Cu      11.49918494       2.86307540       9.65789663
Cu      11.62078031       9.84743941       2.65031072
Cu      11.35218453       9.96739470       9.78941597
Cu       6.17729623       6.27927201       4.36806425
Cu       5.91596981       6.35954398      11.71019574
Cu       6.11173085      13.30450974       4.62188347
Cu       5.97033593      13.48780186      11.72239448
Cu      13.45741976       6.47684657       4.46971969
Cu      13.15703551       6.41395235      11.46882657
Cu      13.36146284      13.52301032       4.52943521
Cu      13.13803219      13.50738965      11.51742954
Cu       2.60684761       0.93009225       6.25146084
Cu       2.40314408       1.08792196      13.39053854
Cu       2.41191782       8.03029964       6.30737974
Cu       9.86522692       1.14467804       6.14319537
Cu       9.59276681       1.16529303      13.30702581
Cu       9.61510289       8.09621611       6.24089086
Cu       9.36274108       8.22181980      13.34746744
Cu       0.84871862       0.93306920       4.53485485
Cu       0.47961342       0.98547362      11.58212187
Cu       0.66401048       8.02453525       4.49854360
Cu       0.49319237       8.01594795      11.67425957
Cu       8.02181805       0.93808579       4.37109396
Cu       7.86382062       1.13189083      11.46223263
Cu       7.96972902       8.08744229       4.47964333
Cu       7.76626564       8.13656395      11.56444789
Cu       6.34212190       2.75653026       0.91960616
Cu       6.06612637       2.84510100       8.00295653
Cu       6.28622254       9.90827292       0.93266224
Cu      13.62623465       2.81706857       0.77877115
Cu      13.30235426       2.85542942       7.90801270
Cu      13.48659193       9.91155617       0.87409567
Cu      13.26642778       9.95167461       7.99341218
Cu       0.62851933       2.62686918       6.20754759
Cu       0.45090702       2.79508013      13.41695828
Cu       0.58413273       9.78905690       6.34117099
Cu       0.38292156       9.91866328      13.50364425
Cu       7.90176402       2.75305303       6.15451144
Cu       7.80386401       2.83216896      13.31662635
Cu       7.88669151       9.86131216       6.28190373
Cu       7.69284552      10.02045305      13.46699845
Cu       4.52765288       0.90349946       0.90489675
Cu       4.25229725       0.96115656       8.04466318
Cu       4.46787511       8.02711300       0.92562212
Cu       4.25473073       8.08567207       8.14945174
Cu      11.78303591       1.01233298       0.79043079
Cu      11.59714279       1.09199241       7.83755926
Cu      11.63978186       8.08824405       0.92920153
Cu      11.53239658       8.24657966       8.01741713
