192
Lattice="14.234223854420593 0.6525165709581728 -0.17141429876411118 0.08856427511256892 14.145077541264591 0.43245511260397596 0.28516457748481644 0.3444468387442237 14.144522231410175" Properties=species:S:1:pos:R:3 pbc="T T T"
Mg       3.60311372       0.26481498       3.53423408
Mg       3.80978623       0.43034104      10.54837665
Mg       3.58059671       7.23369231       3.67760686
Mg       3.80158730       7.58331876      10.78211973
Cu      10.67041443       0.57645432       3.45114234
Mg      10.79317241       0.72739869      10.49878064
Mg      10.75126650       7.61521835       3.65326325
Mg      10.88198800       7.77056413      10.72027034
Mg       1.78149582       1.89430458       1.78230345
Mg       1.96437032       2.03716450       8.91387835
Mg       1.87912008       8.90665900       1.98173181
Mg       2.05597554       9.13985017       9.09672079
Mg       8.90145041       2.12265833       1.71361821
Mg       9.05543904       2.29318740       8.91145811
Mg       9.04040831       9.29008946       1.83710319
Cu       9.15032065       9.40202832       9.00284337
Mg      -0.02360896      -0.01777126       0.00011051
Cu       0.13238262       0.11086465       7.04392580
Mg       0.01871544       7.16468426       0.19108885
Mg       0.17069045       7.26267684       7.32492779
Mg       7.10888651       0.34398796      -0.11804661
Mg       7.25371555       0.50797660       6.99797370
Mg       7.16790838       7.34663919       0.20271388
Mg       7.30649071       7.55007032       7.17981952
Mg       1.87637675       5.49053456       5.46064500
Mg       2.09678621       5.65291493      12.54338302
Mg       1.90694627      12.57950140       5.63836112
Mg       2.11542334      12.72961169      12.82647481
Mg       9.08780388       5.75147511       5.34326798
Mg       9.24958658       5.97097676      12.41470142
Mg       9.07915516      12.91874738       5.59140705
Mg       9.18350617      13.09009458      12.63968162
Mg       5.40864101       2.06635122       5.32815441
Mg       5.62182852       2.29917378      12.42532224
Mg       5.43895873       9.27412522       5.53566970
Mg       5.57774232       9.34015247      12.60811638
Mg      12.56607302       2.48539232       5.25820686
Mg      12.70471833       2.60959529      12.28044244
Mg      12.68582521       9.47008894       5.41915877
Mg      12.69972718       9.70049467      12.48047454
Mg       0.06563225       3.60302065       3.65503039
Mg       0.25175782       3.73293129      10.69514195
Mg       0.10657376      10.72166143       3.75977708
Mg       0.33958672      10.83711716      11.00368920
Mg       7.15994558       3.95841797       3.51624364
Mg       7.34187924       4.15084282      10.61216959
Mg       7.18886218      10.96966093       3.79272954
Mg       7.40344164      11.11400248      10.79549761
Mg       3.54099503       3.71981475       0.04313996
Mg       3.73124993       3.75866956       7.17750905
Mg       3.66697270      10.69751709       0.34736698
Mg       3.77240576      10.94411816       7.34199454
Mg      10.60378264       3.97493297       0.03946815
Mg      10.82972840       4.20513896       7.08093689
Mg      10.80068056      11.18791756       0.15837384
Mg      10.90444825      11.34307143       7.27067385
Mg       5.41413186       5.61066933       1.91647039
Mg       5.61366778       5.72812983       8.90115263
Mg       5.46369345      12.78059891       2.08256552
Mg       5.65362482      12.76581213       9.12711405
Mg      12.45743549       5.97844102       1.75662685
Mg      12.64654924       6.08005185       8.84691110
Mg      12.50101304      13.12872013       2.00149084
Mg      12.72446585      13.17629256       8.96513144
Cu       6.33234553       4.92486435       6.32454408
Cu       6.57430606       5.05658258      13.35461444
Cu       6.43707604      11.83900315       6.31514311
Cu       6.54163243      12.02362216      13.42902758
Cu      13.61483737       5.25062087       6.13253578
Cu      13.74273136       5.38728172      13.24616552
Cu      13.55925200      12.14274351       6.35611481
Cu      13.67098643      12.45186643      13.41817225
Cu       4.54699374       6.61390511       6.33595941
Cu       4.75589401       6.71790484      13.42647796
Cu       4.78117835      13.58727486       6.58617519
Cu       4.74988079      13.81667284      13.66065652
Cu      11.80709170       6.83551596       6.28720450
Cu      11.95060880       7.08712758      13.32091324
Cu      11.69720505      13.92159435       6.50584621
Cu      11.94727054      14.12343771      13.48007303
Cu       2.79162080       2.89501823       4.45126699
Cu       2.91941638       2.97675731      11.57307810
Cu       2.83397001      10.00828942       4.74506795
Cu       3.01394731      10.13157679      11.72431274
Cu       9.86442854       3.20816681       4.39972253
Cu      10.04828428       3.43853779      11.43412435
Mg       9.94304938      10.30919095       4.56419532
Cu      10.15965980      10.44239988      11.56789841
Cu       6.35220215       1.30256146       2.53544548
Cu       6.47863989       1.42224805       9.81301529
Cu       6.32683337       8.23754745       2.78191816
Cu       6.38736257       8.46324099       9.97849068
Cu      13.33509994       1.50406480       2.46309722
Cu      13.58780658       1.74084044       9.66511988
Cu      13.43190825       8.67480763       2.68807372
Cu      13.68642975       8.77842333       9.83045077
Cu       0.91834094       4.47655623       1.02053139
Cu       1.06445636       4.58670815       8.13119312
Cu       0.96494419      11.46119980       1.24337368
Cu       1.19737252      11.75593935       8.24797464
Cu       8.09561072       4.84455518       0.89510934
Cu       8.19004299       4.93235587       7.95917987
Cu       8.03697518      11.91858510       1.14155164
Cu       8.24161852      12.01901079       8.21241023
Cu       4.57828662       4.79840602       4.49131860
Cu       4.74209377       4.90785274      11.60706624
Cu       4.62108971      11.77270936       4.75960341
Cu       4.82088979      11.96389895      11.82665850
Cu      11.69454328       4.98844141       4.35695294
Cu      11.89121167       5.20259417      11.44552332
Cu      11.76655311      12.19359721       4.63738992
Cu      11.90447549      12.24130282      11.70170610
Cu       0.93851739       6.22965550       2.86792013
Cu       1.21345599       6.44710787       9.87556470
Cu       1.05391768      13.35937091       3.01446968
Cu       1.18792452      13.51940391      10.14564149
Cu       8.00169623       6.62725375       2.76794092
Cu       8.22762739       6.74544203       9.83725030
Cu       8.17100883      13.60191366       3.06901807
Cu       8.34213539      13.90925311      10.00446901
Cu       2.67667959       6.34531961       1.06027097
Cu       2.90317319       6.48637954       8.00484778
Cu       2.79450584      13.39395191       1.28257531
Cu       2.99301921      13.56707403       8.28829859
Cu       9.87285323       6.66912130       0.99047923
Cu       9.97018724       6.81960445       8.10518008
Cu       9.94877108      13.71073504       1.12604209
Cu      10.03806719      13.89675041       8.24960434
Cu       2.80927237       4.63859170       2.75771812
Cu       2.87056947       4.75539767       9.79577084
Cu       2.78445593      11.66640891       2.91780531
Cu       2.97805908      11.87224486      10.05737702
Cu       9.88172651       4.97125485       2.70124891
Cu      10.06241536       5.08769008       9.82698342
Cu       9.83291105      12.04731473       2.92358557
Cu      10.05577940      12.17602331      10.05178168
Cu       4.49640827       2.91418869       2.66132026
Cu       4.56014218       3.13073504       9.76191363
Cu       4.55153750      10.02511957       2.89100264
Cu       4.58903823      10.05137855       9.92820903
Cu      11.58051075       3.25322819       2.60844297
Cu      11.76281067       3.43709844       9.70118374
Cu      11.77742888      10.41288593       2.74323044
Cu      11.79740621      10.48715910       9.95381039
Cu       6.39228223       6.70095904       4.52659827
Cu       6.52391950       6.74683991      11.65153418
Cu       6.44507473      13.57025371       4.72626004
Cu       6.55852504      13.83567313      11.85058901
Cu      13.49164139       6.87127594       4.35553018
Cu      13.57020535       6.98291257      11.49971317
Cu      13.53062853      13.98230038       4.71039389
Cu      13.70850935      14.14078928      11.78854533
Cu       2.80451533       1.20004203       6.17601356
Cu       2.86230485       1.39408667      13.29279775
Cu       2.84629571       8.18138469       6.33400215
Mg       3.04912124       8.35525289      13.52864618
Cu       9.84969215       1.41306678       6.06954094
Mg      10.08714810       1.66113422      13.21418090
Cu       9.95651112       8.53520546       6.31361366
Cu      10.13442493       8.68303539      13.43054675
Cu       1.01623461       1.00762419       4.41676669
Cu       1.10575868       1.17591388      11.50100638
Cu       1.02338115       8.09884933       4.73189656
Cu       1.19677441       8.27507271      11.75720487
Cu       8.08676499       1.40836731       4.36877921
Cu       8.29314096       1.50004178      11.46002345
Cu       8.19964334       8.48487635       4.60028557
Cu       8.32678553       8.53718928      11.53547273
Cu       6.24860483       2.96948813       0.87501944
Cu       6.37398693       3.19027344       7.99672324
Cu       6.31755567      10.03778872       1.11152334
Cu       6.45072216      10.21096847       8.22655093
Cu      13.39273761       3.23029266       0.81263676
Cu      13.50463043       3.49628925       7.74646584
Cu      13.42585397      10.38885481       1.04274048
Cu      13.59105377      10.60301620       8.10141689
Cu       1.05361321       2.88853291       6.15626480
Cu       1.19744688       2.94016842      13.42020836
Cu       1.04812005       9.87535619       6.49299696
Cu       1.25742319      10.09742985      13.61493028
Cu       8.21565081       3.16199457       6.21001667
Cu       8.31750397       3.42931067      13.21567807
Cu       8.32419635      10.27178259       6.35032974
Cu       8.36322409      10.39755552      13.44461635
Cu       4.50057026       1.08738377       0.92627945
Cu       4.59830619       1.34691507       7.95363337
Cu       4.51317369       8.22767390       1.01256403
Cu       4.74897531       8.32833832       8.20842702
Cu      11.58430147       1.50086684       0.80145659
Cu      11.67882811       1.69840289       7.78440965
Cu      11.61849742       8.51673657       0.98898482
Cu      11.80246241       8.69308460       8.08733569
