192
Lattice="14.300164851316561 0.30171624438739386 0.22666294425112454 0.1681276892760957 14.212973027453245 -0.14503883035130624 0.1894269470515667 0.2507931278713419 14.743399772888589" Properties=species:S:1:pos:R:3 pbc="T T T"
Mg       3.70582318       0.22906321       3.70576715
Mg       3.75462689       0.19521053      11.10383665
Mg       3.68075822       7.25684759       3.65102408
Cu       3.80963530       7.36839037      11.07180502
Mg      10.84738705       0.33140409       3.82459172
Mg      10.89324732       0.56949942      11.20944928
Mg      10.78232076       7.36450476       3.79270178
Mg      10.84394209       7.46968062      11.15418113
Mg       1.76181999       1.90377547       1.86369849
Mg       1.93545415       2.04619002       9.16745876
Mg       1.94685915       8.90662116       1.74254384
Mg       2.00044477       9.07809250       9.12588794
Mg       8.95673652       1.94533736       1.99432344
Cu       9.11824545       2.16037984       9.33156133
Mg       9.00423759       9.09319934       1.92987388
Mg       9.16194192       9.29005588       9.25398172
Mg      -0.05653141       0.00118887      -0.06827809
Mg       0.02703052       0.12133809       7.39478676
Mg       0.02100477       7.01115192      -0.20433039
Mg       0.14814362       7.27159991       7.23761660
Mg       7.21401032       0.18108949       0.13469206
Mg       7.17382056       0.13124230       7.58286163
Mg       7.31567132       7.23098337       0.13861860
Mg       7.33598386       7.36509583       7.35500272
Mg       1.96869566       5.47245088       5.42992602
Mg       2.00935096       5.46065403      12.83214090
Mg       2.03170406      12.61343753       5.37414015
Mg       2.19609888      12.66947341      12.90075041
Mg       9.12511640       5.62133477       5.54871156
Mg       9.12026363       5.70336081      13.03722139
Mg       9.12125329      12.77214088       5.55116823
Cu       9.28116095      12.90715955      12.93243313
Mg       5.42617929       1.93423906       5.45704531
Mg       5.51973414       2.15179267      13.02925911
Mg       5.52532776       9.05411410       5.42699104
Mg       5.58372765       9.14151838      12.87760133
Mg      12.64795871       2.05378985       5.69049442
Mg      12.68835259       2.31557331      13.03722633
Mg      12.63184760       9.24421500       5.65363202
Mg      12.83140345       9.34573030      12.95718861
Mg       0.10812715       3.56833536       3.57106920
Mg       0.22810637       3.75971611      11.02059912
Mg       0.22539730      10.76888199       3.51535033
Mg       0.20060336      10.82502706      10.98783696
Mg       7.21207029       3.79865852       3.71722373
Mg       7.30694369       3.90620685      11.05969790
Mg       7.41016348      10.90792418       3.70585265
Mg       7.34231164      10.97529366      11.13916699
Mg       3.63165057       3.57067478       0.03619726
Mg       3.79673145       3.78074004       7.30860493
Cu       3.76216297      10.80384452       0.00717734
Mg       3.75361065      10.87214785       7.35099319
Mg      10.80382814       3.79892721       0.04284922
Mg      10.84305520       3.87606993       7.57801170
Cu      10.92292289      10.92618532       0.09588064
Mg      11.01466963      11.01620094       7.44484777
Cu       5.42465994       5.53486482       1.91490048
Mg       5.63292045       5.51242348       9.16216149
Mg       5.54974382      12.59993963       1.85436577
Mg       5.59106230      12.64940083       9.17683571
Mg      12.67436440       5.55003150       1.94454889
Mg      12.68688573       5.80145457       9.49712601
Mg      12.67330270      12.76796769       1.88826186
Mg      12.77019754      12.80596880       9.25218767
Cu       6.41020988       4.63022940       6.49752705
Cu       6.47823055       4.80388929      13.93166628
Cu       6.49682067      11.72083152       6.48283145
Cu       6.60571657      11.92753585      13.67922528
Cu      13.50696523       4.79801889       6.62840157
Cu      13.65315052       4.95402110      14.01064444
Cu      13.70973017      11.94961872       6.56104282
Cu      13.81356019      11.99041232      13.86561197
Cu       4.58519093       6.40119127       6.44306051
Cu       4.72659537       6.55212565      13.89685010
Cu       4.72451890      13.50917337       6.41990930
Cu       4.86488744      13.63316122      13.73310447
Cu      11.68163755       6.61615308       6.55073900
Mg      11.90606715       6.72590118      13.98599777
Cu      11.84180654      13.74065807       6.50082483
Cu      11.92840121      13.92502057      13.86171950
Cu       2.75557245       2.82496787       4.52561262
Cu       2.85855644       2.94014601      11.95217092
Cu       2.88097783       9.89368482       4.56929618
Cu       2.97103919      10.07229150      11.95553525
Cu       9.89851212       2.90250948       4.76380423
Cu      10.00014196       3.01830408      12.16032915
Cu       9.88843448       9.98574618       4.70800093
Cu      10.10853905      10.25926048      11.98453817
Cu       6.29906721       1.10058987       2.82100581
Cu       6.32547023       1.25249387      10.15368761
Cu       6.32296788       8.17720122       2.72635930
Cu       6.49099318       8.26173175      10.18528605
Cu      13.50111525       1.24118424       3.02279280
Cu      13.48403447       1.38003399      10.32298038
Cu      13.55458862       8.36385044       2.83746927
Cu      13.57607485       8.45433179      10.30121886
Cu       0.93737471       4.47861034       0.89568343
Cu       1.04032932       4.63646962       8.37080323
Cu       0.99833953      11.55032682       0.86076079
Cu       1.08578650      11.71428906       8.30925674
Cu       8.12467592       4.66265675       0.97875107
Cu       8.21961053       4.74563107       8.44688908
Cu       8.17272063      11.73234904       0.81090496
Cu       8.30678510      11.78736854       8.38663421
Cu       4.59314204       4.72180626       4.66717523
Cu       4.69428866       4.75052880      11.99234193
Cu       4.75756478      11.77986175       4.57534510
Cu       4.71132291      11.84613158      11.95220803
Cu      11.68320401       4.71452370       4.66584382
Cu      11.82392408       4.86819395      12.12120834
Cu      11.83230690      11.87770734       4.66789847
Cu      11.85228970      11.95528562      12.13806219
Cu       0.91555526       6.29395358       2.71586898
Cu       1.15586048       6.44124808      10.17855525
Cu       1.10958505      13.43413542       2.58062655
Cu       1.14773760      13.46843279       9.96855790
Cu       8.05924523       6.44163983       2.75741041
Cu       8.23802318       6.56549650      10.15556922
Cu       8.23256746      13.53926291       2.70837391
Cu       8.30202493      13.60113176      10.16612364
Cu       2.71543812       6.23458689       0.90962213
Cu       2.85090322       6.31885375       8.25794648
Cu       2.76033742      13.42936280       0.78907711
Cu       2.88243186      13.52860071       8.20791764
Cu       9.94752907       6.43355105       1.01904114
Cu      10.05411393       6.60461040       8.36943724
Cu       9.93207601      13.55402101       0.94965296
Cu      10.06192590      13.69857516       8.33928868
Cu       2.69859301       4.58371416       2.69666256
Cu       2.84492779       4.64653003      10.15155363
Cu       2.80415097      11.69433147       2.63522084
Cu       2.92392701      11.74892960      10.13937876
Cu       9.87560113       4.65152685       2.80626719
Cu       9.97411933       4.78894266      10.26168531
Cu      10.00475670      11.66756689       2.75549668
Cu      10.17379313      11.87493889      10.23616607
Cu       4.45976971       2.83263583       2.82652394
Cu       4.71335041       2.86033030      10.15827081
Cu       4.59796510       9.97541031       2.71204059
Cu       4.78551026      10.06879666      10.05181205
Cu      11.68581575       2.88600023       2.86822127
Cu      11.69178763       3.06282309      10.36451626
Cu      11.77551389      10.04034919       2.84709028
Cu      11.91419467      10.15721420      10.21334238
Cu       6.45070920       6.28249457       4.68120794
Cu       6.50015219       6.48790271      12.01572196
Mg       6.47857944      13.59901239       4.65673540
Cu       6.63140877      13.66092514      11.97523957
Cu      13.55879900       6.59284216       4.73993293
Cu      13.63441481       6.77683731      12.09602970
Cu      13.61911044      13.77875991       4.70161039
Mg      13.77365265      13.71597896      12.06164108
Cu       2.88356028       1.09865506       6.38980736
Cu       2.84547284       1.15159835      13.79241295
Mg       2.80611232       8.13334668       6.38284762
Cu       2.91440868       8.24173331      13.69980589
Cu       9.88866875       1.23747696       6.62279702
Cu      10.02363930       1.26488891      13.94949535
Cu       9.94685502       8.34790959       6.47366619
Cu      10.12128080       8.44351163      13.93647841
Cu       0.95268831       1.00405708       4.70652201
Mg       1.11351034       1.05746079      11.89156831
Cu       1.01975739       8.09768845       4.53576307
Cu       1.25354202       8.27382991      11.86676441
Cu       8.19930210       1.06319980       4.68116703
Cu       8.23342830       1.24083998      12.03245082
Cu       8.16525409       8.25367544       4.69184251
Cu       8.29243012       8.43453858      12.01191738
Cu       6.16738992       2.83469003       0.96184797
Mg       6.33791272       2.93159035       8.39344561
Cu       6.39791794       9.93215706       0.92963775
Cu       6.38582448      10.09609685       8.30629733
Cu      13.49021988       2.97656087       1.11229838
Cu      13.53932082       3.13208471       8.54616704
Cu      13.48566404      10.16063458       1.00701794
Cu      13.60913676      10.17373967       8.41374869
Cu       1.02141962       2.78096994       6.40289798
Cu       1.13941150       2.88159895      13.82783710
Cu       1.03060078       9.98156236       6.35620956
Cu       1.24561263      10.03045314      13.75233411
Cu       8.23305745       2.96837340       6.54906538
Cu       8.22747377       2.97203400      13.95708021
Cu       8.29551607      10.06639555       6.37231085
Cu       8.25960178      10.16400863      13.82492468
Cu       4.36191434       1.02702092       1.03400882
Cu       4.53679908       1.03610108       8.30933742
Cu       4.58247912       8.09221033       0.97010213
Cu       4.60402180       8.34746271       8.24045794
Cu      11.57563895       1.14932937       1.04887712
Cu      11.70847168       1.29732374       8.43465560
Cu      11.80955728       8.31415656       1.04797380
Cu      11.83927874       8.39648881       8.42621840
