189
Lattice="14.405380718507514 0.16289882325249966 0.18898946317925067 -0.040607431649859985 14.44472923096818 -0.026804824217857143 -0.48071099929115846 0.040889761846694885 14.399334468481502" Properties=species:S:1:pos:R:3 pbc="T T T"
Mg       3.44688889       0.04837938       3.67842142
Mg       3.21064614       0.02956233      10.85061123
Cu       3.44136207       7.16519908       3.52313282
Mg       3.20702936       7.35197515      10.87135841
Mg      10.70583926       0.09156285       3.72790883
Mg      10.48825391       0.17866892      10.93980990
Mg      10.69047502       7.37725094       3.74705901
Mg      10.38625305       7.38205407      11.01197698
Mg       1.69995572       1.85285870       1.74951648
Mg       1.47591692       1.86785211       9.02610065
Mg       1.71978758       9.01212481       1.81993609
Mg       1.51419738       9.07841793       9.03768596
Mg       8.88731750       1.96037076       1.93686259
Mg       8.67654665       1.88330302       9.13872202
Mg       8.98628612       9.10267418       1.88702230
Mg       8.62423118       9.07780374       9.12235613
Mg      -0.03340936       0.01777890      -0.05079255
Mg      -0.23534941      -0.01656669       7.11997813
Mg       0.01537165       7.19386994      -0.04439029
Mg      -0.28467554       7.23200278       7.16719548
Mg       7.10859786      -0.00106964       0.15967666
Mg       7.00538933       0.12623218       7.27359667
Mg       7.23316624       7.29487423       0.00942036
Mg       6.93811802       7.35069018       7.32980681
Mg       1.55176768       5.42255780       5.43064715
Mg       1.34843247       5.44419901      12.59081064
Cu       1.40924079      12.68563825       5.38505811
Mg       1.36204689      12.66637657      12.61900639
Mg       8.82628844       5.49670612       5.57643582
Mg       8.55818051       5.54233235      12.70551221
Mg       8.82785303      12.75051712       5.47476588
Mg       8.62498549      12.83680590      12.75180183
Mg       5.25832463       1.87522674       5.49947476
Mg       4.92819527       1.90015334      12.69305614
Mg       5.26190806       9.04092269       5.53754448
Mg       4.99092751       9.12354323      12.63772277
Mg      12.40275923       1.99310089       5.67162034
Mg      12.17792411       1.88386351      12.76425902
Mg      12.41838457       9.15225530       5.49257162
Mg      12.13920619       9.19699628      12.84092209
Mg      -0.12053873       3.78102309       3.63743764
Mg      -0.41186054       3.52587984      10.81730642
Cu      -0.12541424      10.76405983       3.60266245
Mg      -0.36119802      10.94623842      10.81408036
Mg       7.18861684       3.82313960       3.67980073
Mg       6.86390153       3.65282838      10.92359457
Mg       7.08589507      10.90661600       3.64680989
Mg       6.85218741      11.03628730      10.86986381
Cu       3.55385159       3.67758974       0.05615941
Mg       3.34782665       3.65582594       7.19824874
Mg       3.55371203      10.88800747       0.00774441
Mg      10.78547385       3.72414401       0.19337565
Mg      10.50987630       3.68869286       7.33853637
Mg      10.85388547      10.88442412       0.08405450
Mg      10.50313917      11.00947485       7.25705887
Mg       5.42883107       5.47651917       1.90334352
Mg       5.07250849       5.44023794       9.06072019
Mg       5.36430179      12.62494980       1.85276589
Mg       4.96467580      12.69183395       9.05799517
Cu      12.46555153       5.55376761       2.03280078
Mg      12.29508412       5.63622306       9.19167339
Mg      12.52034031      12.77199065       2.00394868
Mg      12.28773468      12.70296557       9.11535071
Cu       6.09071488       4.62569947       6.30656330
Cu       5.94084751       4.61390578      13.58825347
Cu       5.98547927      11.73684636       6.30084268
Cu       5.78117883      11.81097206      13.64227617
Cu      13.19946910       4.68366845       6.45214178
Mg      12.99524565       4.68183166      13.63895830
Cu      13.24358046      11.83861772       6.42824852
Cu      12.98879270      11.89329881      13.63688104
Cu       4.25726804       6.43839784       6.35831236
Cu       4.02552125       6.36304730      13.57415084
Cu       4.24500933      13.61232649       6.27193914
Cu       4.01208214      13.65691103      13.55109302
Cu      11.38406136       6.44166595       6.44796290
Cu      11.18031460       6.51966646      13.69829904
Cu      11.46949253      13.75335069       6.36750887
Cu      11.17206087      13.86468254      13.62821275
Cu       2.60997906       2.76098993       4.49830019
Cu       2.36769943       2.72710946      11.71565262
Cu       2.51726146       9.91022918       4.53572183
Cu       2.24113293       9.94134022      11.66056177
Cu       9.71546925       2.69518140       4.61557034
Cu       9.51860968       2.81481195      11.73206846
Cu       9.66796800      10.10539734       4.61499834
Mg       9.48687597      10.17436728      11.78042383
Cu       6.12159446       0.94312741       2.76994128
Cu       6.02591970       0.99856452       9.94644207
Cu       6.19408178       8.32517683       2.83075833
Cu       5.86594695       8.24791122       9.93182025
Cu      13.30569513       1.15318926       2.85604520
Cu      13.14230861       1.11011616      10.05251611
Cu      13.44075485       8.29207556       2.94227676
Cu      13.12417180       8.29575534      10.04194164
Cu       0.86228172       4.51004991       0.83464954
Cu       0.65345474       4.52794623       8.07230879
Cu       0.76432190      11.74444152       0.84821012
Cu       8.07748579       4.63455526       0.96887337
Cu       7.75971848       4.62692869       8.21046418
Cu       8.00767382      11.86272068       1.01997224
Cu       7.68923822      11.87197240       8.19003617
Cu       4.34134598       4.53786808       4.56390371
Mg       4.10098805       4.57092208      11.76645559
Cu       4.32550587      11.84151400       4.52408945
Cu       4.13456560      11.77321937      11.69791473
Cu      11.54433287       4.61130453       4.53725240
Cu      11.25728471       4.68932746      11.81905070
Cu      11.58283077      11.84474592       4.62425523
Cu      11.28120814      11.87668078      11.90565230
Cu       0.78678907       6.31278202       2.68361971
Cu       0.54668853       6.29607296       9.89784038
Cu       0.85483643      13.62455708       2.73559828
Cu       0.54321624      13.56371529       9.86057590
Cu       8.03365755       6.41319487       2.85908146
Cu       7.68158277       6.36265311      10.01194052
Cu       7.93872275      13.65811988       2.83664065
Cu       7.83141889      13.70598266       9.98410497
Cu       2.60183412       6.34600926       0.90574955
Cu       2.38786027       6.38364039       8.06887944
Cu       2.56991533      13.55592960       0.81444982
Cu       2.32959459      13.51378786       8.21213553
Mg       9.90437996       6.40881951       1.01325265
Cu       9.67124643       6.37213266       8.23438455
Cu       9.87139790      13.60383236       0.88594376
Cu       9.56498349      13.69812553       8.31205186
Cu       2.58960730       4.54660942       2.73878101
Cu       2.39952980       4.49517379       9.86314485
Cu       2.59625781      11.81258284       2.74309558
Cu       2.35772468      11.78935447       9.92241741
Cu       9.75385845       4.58900134       2.74684266
Cu       9.57657020       4.67834677      10.00005445
Cu       9.70020965      11.86253601       2.85698612
Cu       9.63586516      11.90098362      10.03283060
Cu       4.43071664       2.79450273       2.74912428
Cu       4.14649325       2.79435064       9.93452647
Cu       4.39670333       9.93844777       2.78488746
Cu       4.11676990       9.93872019       9.93883008
Cu      11.55932142       2.82167932       2.86181795
Cu      11.31677802       2.81935712      10.11987662
Cu      11.59100484      10.15738214       2.78400450
Cu      11.26982628      10.03076774      10.02255570
Cu       6.21524256       6.36223291       4.52144628
Cu       5.91948781       6.46452387      11.81218240
Cu       6.17564390      13.65474343       4.58189102
Cu       5.90649347      13.70133038      11.76760369
Cu      13.34497824       6.53897301       4.62289979
Cu      13.04530198       6.62284137      11.76898978
Cu      13.31186788      13.75036888       4.64707776
Cu      12.95426578      13.71936069      11.89846775
Cu       2.40839195       0.81136376       6.29282848
Cu       2.25713408       1.00599309      13.60111949
Cu       2.35004913       8.03242935       6.29866292
Cu       2.21000879       8.18540594      13.50824530
Cu       9.62016400       1.00027995       6.44653472
Cu       9.47731006       1.09808151      13.53362217
Cu       9.74454372       8.38116873       6.33904468
Cu       9.38962684       8.22418703      13.57955059
Cu       0.75349045       0.94730275       4.53022163
Cu       0.73798688       8.21850381       4.43339435
Cu       0.37714074       8.20944547      11.70097968
Cu       7.95912245       1.05011716       4.59234871
Cu       7.71783931       0.97532341      11.84710744
Cu       7.99608179       8.13182089       4.54525069
Cu       7.71182714       8.28468932      11.70935132
Cu       6.26564839       2.78821752       0.96706781
Cu       6.05466156       2.80906468       8.17720970
Cu       6.27009950      10.04407350       0.89973631
Cu       5.92032278       9.98313584       8.23990540
Cu      13.50615916       2.82955826       1.14259784
Cu      13.29676493       2.96350159       8.27009643
Cu      13.42793142      10.06538157       1.09853062
Mg      13.23861749      10.05859854       8.19983259
Cu       0.62576999       2.72685999       6.28662415
Cu       0.44415406       2.65892616      13.45539303
Cu       0.58189341      10.00781582       6.26735974
Cu       0.41525172       9.89349504      13.44338751
Cu       7.83737078       2.77129623       6.34657692
Cu       7.68006116       2.84164164      13.51237128
Cu       7.82644887      10.01506434       6.37780555
Cu       7.59633532      10.00021555      13.62865402
Cu       4.46300058       0.95584553       0.90178067
Cu       4.18065989       0.95924725       8.22662778
Cu       4.44298624       8.18966044       0.92962126
Cu       4.24730730       8.16838806       8.16722540
Cu      11.68349923       1.15038068       1.07926873
Cu      11.50563407       1.11102744       8.29238920
Cu      11.71924155       8.17703548       1.05940509
Cu      11.38982358       8.31513577       8.20832692
