192
Lattice="14.128462498441342 -0.12678779170076368 0.031819895571920595 0.006875680504009211 14.49531382022281 -0.13018109559483135 -0.018014572504840197 0.12004377123158451 13.952620574241328" Properties=species:S:1:pos:R:3 pbc="T T T"
Mg       3.44462610      -0.00378834       3.57643634
Mg       3.52538040       0.09359402      10.54452683
Mg       3.60896287       7.31542561       3.45294626
Mg       3.45495791       7.29515913      10.37108047
Mg      10.60249352      -0.02420465       3.58998195
Cu      10.56373640      -0.00172988      10.52982818
Mg      10.62949864       7.17164069       3.38815271
Mg      10.56694317       7.25680479      10.45660396
Mg       1.79053837       1.89882594       1.77474998
Mg       1.80168799       1.81223409       8.73311125
Mg       1.79670795       9.12864786       1.64542248
Mg       1.81657591       9.26327055       8.64462280
Mg       8.84772975       1.70729718       1.71890373
Mg       8.82016595       1.88412709       8.67588421
Mg       8.79514648       8.95627179       1.66984956
Mg       8.88473088       9.04846687       8.72212775
Mg      -0.02488007      -0.04663679      -0.00717778
Mg      -0.04826464       0.14497334       7.00249111
Mg       0.02152426       7.23322986      -0.12690901
Mg       0.00320394       7.37077653       6.87208152
Cu       7.04809111       0.01266377      -0.10091508
Mg       7.08022336      -0.05104685       6.99438823
Mg       7.11046906       7.12933994      -0.10228968
Mg       7.07023891       7.18412780       7.01584079
Mg       1.78395589       5.42711745       5.22232099
Cu       1.75529734       5.42456487      12.18299418
Mg       1.81409301      12.61761762       5.12734645
Mg       1.77826877      12.80212693      12.17403999
Mg       8.80075769       5.43920134       5.18588294
Mg       8.81558319       5.45572173      12.22251085
Mg       8.84214150      12.56966356       5.10113097
Mg       8.69499910      12.63343205      12.14313055
Mg       5.26683074       1.78254981       5.27766459
Cu       5.32286126       1.90651191      12.27564891
Mg       5.34855454       9.11986955       5.12371303
Cu       5.38420144       9.19715861      12.11646500
Mg      12.33921859       1.92728054       5.26059828
Mg      12.42130660       1.77622261      12.12820608
Mg      12.44082351       9.03415661       5.16542494
Mg      12.31342870       9.10584312      12.18517342
Mg      -0.05345643       3.68666919       3.41632503
Mg      -0.03292447       3.68953174      10.45858953
Mg       0.03060151      10.95469907       3.46898639
Mg      -0.01187469      10.85862344      10.30839981
Mg       7.03301197       3.63461006       3.43720524
Mg       6.98889574       3.65907007      10.49221011
Mg       6.95374100      10.78778109       3.41809320
Mg       7.08105753      10.93815465      10.39581447
Mg       3.50374233       3.73355660       0.05661444
Mg       3.53496433       3.60809349       6.97880656
Mg       3.49182694      10.84618185      -0.03277936
Mg       3.56646502      10.90322388       6.92849956
Mg      10.62079033       3.49261383      -0.03368792
Mg      10.55669417       3.57933540       6.92668014
Mg      10.52016981      10.78455198      -0.06044598
Mg      10.50074036      10.85445709       6.94310082
Mg       5.35022946       5.44073271       1.68100922
Mg       5.26817552       5.38642469       8.72080655
Mg       5.32571761      12.65195675       1.64452090
Mg       5.28176781      12.79017725       8.53426273
Mg      12.35944994       5.34879492       1.71596003
Mg      12.37066432       5.39702703       8.69120238
Mg      12.32366019      12.56597596       1.72039195
Mg      12.33806766      12.63060460       8.69545359
Cu       6.17471117       4.43441670       6.04761241
Cu       6.19234913       4.62848666      13.04925211
Cu       6.14568180      11.68002497       6.05098226
Cu       6.05377115      11.78403653      13.01378229
Cu      13.36415978       4.42246926       6.15221771
Cu      13.24954257       4.54699234      13.02833084
Cu      13.30804838      11.72589317       6.00807693
Cu      13.30516823      11.82326911      13.09842311
Cu       4.46994188       6.35009852       6.02740174
Cu       4.40665724       6.38558628      13.06209438
Cu       4.37634107      13.54514504       5.99393890
Cu       4.48643001      13.59135187      12.91874448
Cu      11.34958070       6.40198624       6.04721786
Cu      11.42384781       6.40431413      13.02637042
Cu      11.45161620      13.55627152       6.02491756
Cu      11.44141024      13.61159186      12.94901098
Cu       2.69590949       2.66965498       4.41476589
Cu       2.69205745       2.84545735      11.19103492
Cu       2.70506337      10.06540352       4.30167864
Cu       2.66624842       9.98403319      11.25446753
Cu       9.75059135       2.64740133       4.41598538
Cu       9.80511994       2.69023394      11.28802592
Cu       9.69488332       9.89255085       4.31873740
Cu       9.66722937       9.98200592      11.31260089
Cu       6.21535246       0.97531669       2.57808723
Cu       6.13090769       0.97875718       9.51410157
Cu       6.15551021       8.06912718       2.58301596
Cu       6.14589792       8.19008318       9.41620376
Cu      13.23979609       0.82413219       2.66716523
Cu      13.21970533       0.91737534       9.59140248
Cu      13.29451677       8.06367383       2.64438978
Cu      13.29322704       8.14530209       9.52496254
Cu       0.92157946       4.48842304       0.84464462
Cu       0.83924478       4.65603718       7.82298565
Cu       0.90622966      11.83501637       0.70212686
Cu       0.88422701      11.85228309       7.65711000
Cu       7.93509329       4.50793788       0.93546541
Cu       7.92504714       4.50414562       7.84343615
Cu       7.91534811      11.72073189       0.74714774
Cu       7.98457115      11.79600364       7.75139653
Cu       4.43086795       4.53516078       4.24008178
Cu       4.44687509       4.59463640      11.26601575
Cu       4.42614032      11.77071722       4.29970337
Cu       4.42197311      11.80078950      11.33486422
Cu      11.47059888       4.47977984       4.37940153
Cu      11.48798732       4.44778441      11.30859682
Cu      11.51843145      11.71647919       4.23208965
Cu      11.49785687      11.80459296      11.27452872
Cu       0.94517830       6.31151980       2.52029495
Cu       0.83799916       6.38226116       9.56447365
Cu       0.81730410      13.63980784       2.44268350
Cu       0.86853502      13.66570620       9.45547090
Mg       7.96760213       6.29180086       2.51931659
Cu       7.93155965       6.27405249       9.44355971
Cu       7.99419570      13.61333745       2.43348348
Cu       7.97034135      13.59255558       9.49674419
Cu       2.60054273       6.35204674       0.79544908
Cu       2.60731768       6.43654310       7.79177833
Cu       2.60782854      13.64179254       0.70432712
Mg       2.74274816      13.54852926       7.72200642
Cu       9.74813784       6.27399525       0.90000092
Cu       9.68667455       6.42575708       7.74120050
Cu       9.75165850      13.51801837       0.70923078
Cu       9.64593527      13.57326881       7.78863366
Cu       2.69852794       4.56002157       2.51869999
Cu       2.76237325       4.59530795       9.57312061
Cu       2.66703938      11.75662845       2.47691001
Cu       2.57946076      11.74712670       9.47444106
Cu       9.77342841       4.46657677       2.66322095
Cu       9.72789778       4.54684675       9.56128945
Cu       9.72128239      11.77221738       2.53082430
Cu       9.69627575      11.95905609       9.55665207
Cu       4.48633507       2.68562203       2.61489015
Cu       4.32677727       2.74051049       9.55020816
Cu       4.46886935       9.90158209       2.53762208
Cu       4.38863666       9.92958806       9.53928248
Cu      11.42984066       2.67023051       2.64701635
Cu      11.42717693       2.76330445       9.58844458
Cu      11.55329668       9.85559612       2.59186180
Cu      11.37582352       9.95197961       9.52578928
Cu       6.23052944       6.26574967       4.29988675
Cu       6.14189565       6.36385447      11.27291921
Cu       6.19979152      13.48316053       4.23581229
Cu       6.13062502      13.56650195      11.29348650
Cu      13.26550965       6.27297869       4.25018641
Cu      13.31017153       6.36810526      11.29292387
Cu      13.22115314      13.49655989       4.34682789
Cu      13.30244449      13.63660373      11.29003320
Cu       2.69083358       0.91627988       6.10721692
Cu       2.63343394       0.92025768      13.06476153
Cu       2.71057397       8.25700230       6.04787608
Cu       2.61124731       8.35247577      12.91352708
Cu       9.70096518       0.92968877       6.19597230
Mg       9.66504533       0.86212913      13.09015171
Cu       9.65977176       8.14089468       6.04143660
Cu       9.69939920       8.12217706      13.05905472
Mg       0.98828589       0.95518923       4.28204260
Cu       0.95656422       1.02919866      11.36831396
Cu       0.93798288       8.12166080       4.26454797
Cu       0.85292922       8.33755050      11.22168796
Cu       7.87899628       0.84910860       4.31438857
Cu       7.92565722       0.93773255      11.29888160
Cu       7.98840669       8.17688580       4.21732287
Cu       7.90639540       8.22714113      11.20640836
Cu       6.18834573       2.60143366       0.89028840
Cu       6.11040787       2.67402398       7.85181894
Cu       6.15593529       9.89641872       0.78702865
Cu       6.25200467       9.97906976       7.69130742
Cu      13.26047679       2.56534066       0.91772275
Cu      13.23063881       2.63002176       7.85978286
Cu      13.25464315       9.86535720       0.83169978
Cu      13.24997690       9.87444674       7.72930497
Cu       0.77728308       2.77384777       6.04926998
Cu       0.92180249       2.89818912      13.08668375
Cu       0.88533857       9.99162630       6.08655908
Cu       0.89037285      10.13727508      13.02282297
Cu       7.91660218       2.74174081       6.06686645
Cu       7.83489667       2.75678134      13.09195789
Cu       8.07835165      10.01295046       6.04795982
Cu       7.90621887       9.98659656      13.01766956
Cu       4.38538751       0.94129075       0.86228313
Cu       4.41790108       1.01155100       7.88960892
Cu       4.47065127       8.08112823       0.84220340
Mg       4.43942760       8.09061604       7.82659076
Cu      11.52708186       0.79862299       0.87283930
Cu      11.38194029       0.81640629       7.79704895
Cu      11.50701077       8.09489534       0.85346323
Cu      11.39343663       8.07557944       7.82198491
