190
Lattice="14.631920485431401 0.11722135548638164 0.15425989863192974 -0.11541118795832182 14.052369654120266 0.4592133409425623 -0.11578514941898682 0.21163155344135212 14.34915022754216" Properties=species:S:1:pos:R:3 pbc="T T T"
Mg       3.60448876       0.06935526       3.67035615
Mg       3.63377794       0.27405067      10.80401287
Mg       3.56937840       7.27101675       3.80858813
Mg       3.51059875       7.19106565      11.05913576
Mg      11.00408448       0.12630788       3.67697254
Mg      10.98795462       0.24033229      10.86255263
Mg      10.87692377       7.15809814       3.94926440
Cu      10.79528204       7.32859627      11.12008619
Mg       1.84713868       1.83075097       1.84047852
Mg       1.77666265       1.91473121       9.09059856
Mg       1.75388822       8.78237639       2.10293801
Mg       1.65386969       8.91044134       9.21016261
Cu       9.04490786       1.92380144       1.99856600
Mg       9.08084759       1.95155268       9.10916240
Mg       9.09914270       8.86147627       2.16082758
Mg       9.03422505       8.98980375       9.33744873
Mg       0.02140241       0.13216151       7.13931070
Mg      -0.03823750       7.02466374       0.22220498
Mg      -0.15340065       7.14703785       7.40942133
Mg       7.27769089       0.06128038      -0.04191991
Mg       7.23777485       0.13705298       7.23688549
Mg       7.30108108       7.11140925       0.32364913
Mg       7.25547076       7.18917566       7.45807434
Mg       1.82283382       5.37351023       5.51375101
Mg       1.69938597       5.46615821      12.70299199
Mg       1.75980097      12.39746151       5.79944459
Mg       1.59904266      12.51167168      12.99687504
Mg       9.15410206       5.40902506       5.70503485
Mg       9.01896315       5.54530872      12.91321511
Mg       9.06801931      12.41150841       5.85175559
Mg       8.92215313      12.56762200      13.09902850
Mg       5.43867080       1.87148269       5.48770349
Mg       5.31083985       1.98487634      12.65361113
Mg       5.36098458       8.89616060       5.75828376
Mg       5.21885781       8.97919366      12.90537746
Mg      12.67200911       1.89325925       5.55135084
Mg      12.65162660       2.07125948      12.75551359
Mg      12.67903703       8.90690507       5.81414512
Mg      12.71088243       9.12289583      12.88882249
Mg      -0.06404931       3.59058814       3.70376613
Mg      -0.08774252       3.70316732      10.81341651
Mg      -0.09156119      10.60981651       3.88674027
Mg      -0.12216042      10.69279293      11.14663818
Mg       7.23673252       3.63737888       3.76997413
Mg       7.20796057       3.73987270      11.01636584
Mg       7.17886407      10.63702713       4.04107689
Mg       7.15973259      10.83760140      11.15103763
Mg       3.64976208       3.48652854       0.03913717
Mg       3.60316921       3.65191588       7.29196394
Mg       3.57676118      10.54731536       0.39893313
Mg       3.60961546      10.68803257       7.58673009
Mg      11.01165829       3.66278549       0.24610681
Mg      10.82653307       3.62073533       7.45472100
Mg      10.84012369      10.67165345       0.39746851
Mg      10.79203849      10.73993182       7.69324959
Mg       5.40889109       5.31172236       2.09610410
Mg       5.43867365       5.48140964       9.20189664
Cu       5.45685009      12.36577022       2.22544521
Mg       5.37396714      12.53713910       9.38854930
Mg      12.65711112       5.35305589       2.13424313
Cu      12.62532716       5.46379179       9.20155532
Mg      12.70462094      12.44614088       2.33745540
Mg      12.59855238      12.51773905       9.50813597
Cu       6.30172079       4.52675522       6.48299013
Cu       6.32459246       4.68173383      13.65360429
Cu       6.21799261      11.52072290       6.68674978
Cu       6.18985586      11.64234837      13.93334518
Cu      13.58751469       4.57606961       6.53037855
Cu      13.59402603       4.62537826      13.77075070
Cu      13.57768845      11.53986729       6.77506678
Cu      13.53703036      11.72111416      13.98021802
Cu       4.47263701       6.33828542       6.45422535
Cu       4.41352974       6.42737364      13.81240521
Cu       4.43470034      13.30429343       6.77643125
Cu       4.33693207      13.39560029      13.85646450
Cu      11.79636447       6.21517458       6.68832131
Cu      11.70473084      13.35629984       6.79177053
Cu      11.57161323      13.48600115      14.06151574
Cu       2.72327767       2.70708734       4.61196552
Cu       2.60446372       2.79376913      11.80104971
Cu       2.55583062       9.75780159       4.82764313
Cu       2.62008012       9.93252092      12.06576954
Cu      10.07012814       2.79565193       4.62047742
Cu       9.98104449       2.91492688      11.86432170
Cu       9.93575766       9.72312799       4.89280320
Cu       9.87543429      10.00249721      12.09633382
Cu       6.30558273       0.89188900       2.84471429
Cu       6.25174721       1.01533069       9.95387408
Cu       6.30101637       7.95412940       2.96938268
Cu       6.21942599       8.14442127      10.18924156
Cu      13.73938737       1.06351452       2.92633640
Cu      13.58369595       1.14838079      10.03282940
Cu      13.67457934       8.05473120       3.09592886
Cu      13.61007667       8.17022239      10.31394533
Cu       0.87355981       4.38896440       1.02931891
Cu       0.83928909       4.49030292       8.22149473
Cu       0.81941574      11.50744766       1.24286746
Cu       0.68841955      11.58837857       8.44280012
Cu       8.17906970       4.49690152       1.22143981
Mg       8.14034570       4.57130816       8.30502558
Cu       8.04161547      11.54846883       1.33438591
Cu       8.07214814      11.62773531       8.53992452
Cu       4.47501727       4.48004921       4.67047753
Cu       4.42149830       4.56675696      11.74009553
Cu       4.37883535      11.47013696       4.94980210
Cu       4.47840087      11.58445300      12.06702090
Cu      11.83218498       4.52408311       4.72659469
Cu      11.87344082       4.71888141      11.86391901
Cu      11.74848229      11.68634993       4.97268764
Cu      11.61605790      11.72185190      12.13233261
Cu       0.87437749       6.11406047       2.89215614
Cu       0.79086137       6.28830056      10.07284574
Cu       0.84478141      13.18378354       3.14018702
Cu       0.69739938      13.29081775      10.37635125
Cu       8.09657978       6.28499426       3.06826773
Cu       8.09866192       6.39121290      10.11060870
Cu       8.04826694      13.27533087       3.28086333
Cu       7.99585043      13.38964492      10.41416019
Cu       2.56618277       6.16987636       1.15529881
Cu       2.59930912       6.19726023       8.24632130
Cu       2.55122726      13.07135856       1.26769238
Cu       2.51725052      13.25839269       8.60683657
Cu       9.97399457       6.22580097       1.20941031
Cu      10.02588678       6.35938054       8.33840320
Cu       9.99428117      13.13100771       1.48432278
Cu       9.90984505      13.35779611       8.55717459
Cu       2.63264594       4.41056019       2.89690904
Cu       2.60333201       4.53025503      10.06835828
Cu       2.64829141      11.44403813       3.12847769
Cu       2.56823402      11.57492254      10.25588253
Cu       9.95674734       4.56951614       2.87977888
Cu       9.95394017       4.66950444      10.03435765
Cu       9.99341520      11.56655534       3.14083656
Cu       9.82289137      11.63334559      10.28472224
Cu       4.57335891       2.68267192       2.71526696
Cu       4.47188230       2.80070666      10.04225579
Cu       4.46535687       9.64943127       3.16055410
Cu       4.41117190       9.92538059      10.17884069
Cu      11.82664578       2.72750262       2.98795004
Cu      11.75011079       2.82457737      10.13489415
Cu      11.75500958       9.87089309       3.11076380
Cu      11.79021915       9.90139200      10.23134424
Cu       6.21112203       6.23399133       4.66817827
Cu       6.22503376       6.40116647      11.97109724
Cu       6.35639889      13.35394050       5.00507180
Mg       6.28406083      13.41729629      12.13365355
Cu      13.57580034       6.42614433       4.83908967
Cu      13.56427557       6.41633848      12.01531997
Cu      13.63837286      13.38624798       5.04236489
Cu      13.55642081      13.42337808      12.24252719
Cu       2.73172155       0.93335797       6.34973494
Cu       2.63233234       1.14085681      13.44932572
Cu       2.60810155       8.07860828       6.52742404
Cu       2.56186298       8.16208901      13.68533646
Cu      10.00042429       0.99180617       6.39054940
Cu       9.92335864       1.16738976      13.62593666
Cu       9.92500038       8.04574520       6.63846365
Cu       9.92477394       8.17305912      13.75652762
Cu       0.96788535       0.92904879       4.55867690
Cu       0.76925547       1.05762849      11.71807626
Cu       0.80414743       7.91462076       4.73791324
Mg       0.76195007       8.14191549      11.89914454
Cu       8.26191947       0.97371756       4.56803657
Mg       8.12130101       1.14579859      11.75665318
Cu       8.17041029       7.85954786       4.80828649
Cu       8.01442700       8.08606927      12.00430886
Cu       6.39131160       2.69190317       1.05940485
Cu       6.20146141       2.78250865       8.25116163
Cu       6.27941232       9.67328283       1.25331902
Cu       6.32038587       9.79241315       8.45847395
Cu      13.68749904       2.76401459       1.13151560
Cu      13.60049992       2.94415497       8.37516874
Cu      13.65022746       9.70638907       1.36054625
Cu      13.61806846       9.86636025       8.59665804
Cu       0.82171286       2.64407427       6.40333914
Cu       0.76762602       2.87186317      13.58298285
Cu       0.77078383       9.73867479       6.51553576
Cu       0.72800844       9.82921862      13.71113745
Cu       8.16959305       2.86866568       6.41288188
Cu       8.16156570       2.88942919      13.65051327
Cu       8.13853353       9.80469730       6.73695861
Cu       8.09571249       9.90101027      13.90821534
Cu       4.57107610       0.93267476       0.93343545
Cu       4.47940527       0.98039610       8.14272620
Cu       4.52525862       8.05930194       1.24406845
Cu       4.40704729       8.04497217       8.32465040
Cu      11.92679968       0.98654058       0.98818032
Cu      11.76210270       1.17788045       8.20468772
Cu      11.78986865       8.06426001       1.29458617
Cu      11.76811707       8.12143252       8.54683233
