192
Lattice="14.07752857222477 -0.6456267281904274 0.2900593986915927 0.32774114828395107 14.310886366155996 0.401527751063139 0.14777904876800563 0.3572159386386958 14.385937104504766" Properties=species:S:1:pos:R:3 pbc="T T T"
Mg       3.50604924      -0.09936789       3.68325296
Mg       3.63022400       0.04836875      10.86189006
Mg       3.73984038       7.09710127       3.80923381
Mg       3.70328079       7.16815797      11.01265614
Mg      10.59073213      -0.40978916       3.75847536
Mg      10.65425526      -0.22854193      11.03438051
Mg      10.65623797       6.76856497       4.06271781
Mg      10.77532716       6.98301764      11.06881942
Mg       1.76597574       1.75243922       1.90163839
Mg       1.90580235       1.83670701       9.04749931
Mg       1.96500702       8.92965067       2.07765009
Mg       2.08891171       9.08235290       9.29147580
Mg       8.83065584       1.37150412       2.02025454
Mg       9.02919149       1.63284638       9.28915843
Mg       9.00465200       8.61241669       2.22306376
Mg       9.18868016       8.74103427       9.37901070
Mg      -0.00966683       0.00376435      -0.04188908
Mg       0.15804730       0.20179289       7.22403191
Mg       0.10844223       7.18541580       0.12546803
Mg       0.19424547       7.36257290       7.41324645
Mg       7.11269071      -0.35188756       0.10807850
Mg       7.06406487      -0.11176130       7.30264501
Mg       7.19772363       6.84027117       0.30093572
Mg       7.28390937       6.88212456       7.56429716
Mg       1.90618000       5.46987544       5.58023603
Mg       2.00291034       5.61458190      12.84669770
Mg       2.06498624      12.54562875       5.76071274
Mg       2.18515551      12.70388287      12.94999636
Mg       8.90909726       5.08148338       5.69199141
Mg       9.05171713       5.24636405      12.90372510
Mg       9.09791868      12.24089580       5.88621018
Mg       9.28281616      12.37207566      13.07844285
Mg       5.35744072       1.67205911       5.59973866
Mg       5.38886720       1.86830052      12.81396492
Mg       5.56644644       8.85322710       5.67256541
Mg       5.65759403       8.97735219      12.99121725
Mg      12.40884844       1.33548288       5.67072764
Cu      12.47211999       1.53704838      12.88509769
Mg      12.51128388       8.48640586       5.82352279
Mg      12.73591071       8.63673925      13.04842040
Mg       0.17644302       3.61299256       3.67523557
Mg       0.19843506       3.84464775      10.81076080
Mg       0.32075836      10.86575918       3.86655345
Mg       0.34985308      10.98886114      11.08017575
Mg       7.21426830       3.35301347       3.82935869
Mg       7.20194269       3.59659523      11.04682000
Mg       7.28154399      10.49918136       4.02578381
Mg       7.35801853      10.73982985      11.22723054
Mg       3.58505115       3.33662593       0.18779081
Mg       3.66501038       3.69141767       7.33792917
Mg       3.79395361      10.60624247       0.35614202
Mg       3.83741851      10.70494921       7.60795872
Mg      10.59241387       3.14001061       0.35868383
Mg      10.66810237       3.28992540       7.53944192
Mg      10.77217845      10.23674994       0.46558539
Mg      10.89396548      10.44859960       7.67950323
Mg       5.43122933       5.16516761       2.03071925
Cu       5.47415284       5.39852481       9.27119701
Mg       5.60249808      12.38620995       2.28001089
Mg       5.63704780      12.52597976       9.45638387
Mg      12.39464893       4.92592653       2.18274556
Mg      12.50373276       4.95202293       9.41116780
Mg      12.60719312      12.09708877       2.29395114
Mg      12.75168357      12.33410299       9.61447344
Cu       6.37048787       4.30950898       6.56600093
Cu       6.43512758       4.55251952      13.73394989
Cu       6.58197762      11.52189952       6.73680828
Cu       6.53172106      11.66931090      13.97986869
Cu      13.34635470       4.00387550       6.80189515
Cu      13.39568937       4.18534678      13.87235558
Cu      13.48165173      11.22633065       6.95644276
Cu      13.59355226      11.31186332      14.15138266
Cu       4.58084387       6.23430112       6.44560101
Cu       4.65151509       6.35407448      13.86686102
Cu       4.82057904      13.35907049       6.81830349
Cu       4.80191984      13.53019565      13.97485745
Cu      11.67222517       5.92591659       6.67690499
Cu      11.76465168       6.12184461      13.86144978
Cu      11.87654274      13.07344849       6.89526062
Cu      11.91337638      13.22901401      14.09109306
Cu       2.67128487       2.70813763       4.52997028
Cu       2.91508672       2.90033080      11.78325447
Cu       2.93991122       9.84402760       4.87322623
Cu       2.99136893       9.98620558      12.04476455
Cu       9.71483376       2.32096088       4.74738334
Cu       9.86655977       2.60123646      11.87866849
Cu       9.91201873       9.48076832       4.95406804
Cu       9.97028651       9.69326553      12.22935073
Cu       6.21406204       0.58353725       2.87138841
Cu       6.36696555       0.85694050       9.98338202
Cu       6.31508020       7.84141458       3.01466422
Cu       6.53272210       7.96354887      10.25397977
Cu      13.17085085       0.37360511       3.05037674
Cu      13.29893727       0.54286590      10.24845824
Cu      13.39841249       7.50699263       3.14711985
Cu      13.48475514       7.73730350      10.37956992
Cu       0.91326034       4.49685301       1.09590550
Cu       0.97548088       4.66182240       8.27862593
Cu       1.18462056      11.67822160       1.22045904
Cu       1.18654051      11.85851776       8.49864633
Cu       8.07058056       4.13014799       1.21595294
Cu       8.09689519       4.30427055       8.31502994
Cu       8.28996791      11.28363126       1.38633272
Cu       8.23536604      11.46745455       8.64086038
Cu       4.57217053       4.31007360       4.62192796
Cu       4.74098715       4.48658014      11.94901437
Cu       4.71625427      11.58484353       4.89249794
Cu       4.70281933      11.76384510      12.04238814
Cu      11.58767466       4.07260585       4.78187321
Cu      11.62880591       4.32239174      12.18052828
Cu      11.72548191      11.24407396       4.96714846
Mg      11.75256014      11.31843895      12.21218395
Cu       1.01974018       6.28039904       2.84434237
Cu       1.09313884       6.50906011      10.08029570
Cu       1.22347362      13.50162885       3.05262461
Cu       1.26429469      13.59295770      10.29951411
Cu       8.06148585       6.00280957       3.08207240
Cu       8.15976935       6.15700011      10.24255434
Cu       8.23369583      13.17436523       3.26436092
Cu       8.26434326      13.25349041      10.39810748
Cu       2.76699462       6.10494669       1.15207067
Cu       2.83171008       6.32285855       8.42360017
Cu       2.88913669      13.33557832       1.38976537
Cu       3.01586881      13.35532954       8.58227865
Cu       9.83098271       5.78786185       1.27820193
Cu       9.85739770       6.07609296       8.45589006
Cu       9.99030617      12.99474631       1.45355133
Cu      10.05715787      13.22566739       8.60767432
Cu       2.75285438       4.42892667       2.79465190
Cu       2.83146070       4.61632174      10.02206777
Cu       2.94323449      11.52164730       3.05300306
Cu       3.05081592      11.74232838      10.16383529
Cu       9.72687059       3.99017802       3.14141361
Cu       9.88163548       4.36972474      10.23269361
Cu       9.97982203      11.24008801       3.21497464
Cu      10.09825476      11.49089639      10.41196211
Cu       4.44985886       2.48579376       2.90486379
Cu       4.54002786       2.62290996      10.09048003
Cu       4.61684907       9.71041959       3.02711469
Cu       4.67456433       9.95069610      10.34065081
Cu      11.51292201       2.15405739       3.00385457
Cu      11.70098730       2.34746188      10.19873585
Cu      11.70453828       9.42412621       3.21025788
Cu      11.81962274       9.59203244      10.43270091
Cu       6.27469357       6.11235491       4.76001203
Cu       6.30738758       6.34703237      11.99784488
Cu       6.46032261      13.20788893       5.04272334
Cu       6.56463575      13.36739806      12.10417368
Cu      13.43730703       5.70690156       4.92517206
Cu      13.42494419       5.93788683      12.06980824
Cu      13.61171671      12.93299046       5.11108797
Cu      13.66784668      13.12406640      12.25997714
Cu       2.77423647       0.93623818       6.33760900
Cu       2.77401627       1.16279619      13.56506368
Cu       3.00740470       8.14443765       6.54870413
Cu       2.92071441       8.24608288      13.73103078
Cu       9.75438624       0.64548238       6.55094164
Cu       9.79799948       0.79224178      13.70304266
Cu       9.93478587       7.77778938       6.68278456
Cu      10.02284067       7.87423846      13.94316836
Cu       0.96755983       0.94560955       4.51405367
Cu       1.01292738       1.21417722      11.64305872
Cu       1.05463447       8.07255346       4.72503912
Cu       1.21976503       8.29317151      11.93286225
Cu       8.02474366       0.69252678       4.59604267
Cu       7.97341759       0.80622557      11.83321131
Cu       8.14638819       7.79867169       4.84877661
Cu       8.22038824       8.01809909      12.10897939
Cu       6.30282967       2.43354209       1.10117173
Cu       6.26752701       2.56516672       8.25448540
Cu       6.44955498       9.66062283       1.23465534
Cu       6.45562242       9.81600732       8.53744526
Cu      13.19607693       2.16645525       1.22946913
Cu      13.32913482       2.33382489       8.46783596
Cu      13.45422398       9.30072246       1.39700611
Cu      13.50476278       9.49047688       8.67535025
Cu       1.02733903       2.72895137       6.32149483
Cu       1.04511810       2.89949444      13.54460441
Cu       1.10258112       9.99050262       6.55668481
Cu       1.19668874      10.09343269      13.82550964
Cu       7.99116207       2.38438057       6.58875673
Cu       8.09855431       2.63474019      13.74592568
Cu       8.13654137       9.65838745       6.70073021
Cu       8.26236146       9.80265214      13.84419297
Cu       4.39744342       0.76307646       1.02633930
Mg       4.47565509       0.86778993       8.19257581
Cu       4.63651895       7.90126968       1.20709645
Cu       4.75902305       7.99343451       8.47368408
Cu      11.51387744       0.33491543       1.12776292
Cu      11.55348164       0.48331317       8.45155830
Cu      11.72937588       7.60732449       1.35992699
Cu      11.74323827       7.78317925       8.55856964
