187
Lattice="14.081403777595387 0.170816504211217 0.20622632408046843 0.1167985321810035 14.259849077757668 0.16728179202081736 0.0787295384736312 0.2982679588391757 14.094207193100294" Properties=species:S:1:pos:R:3 pbc="T T T"
Mg       3.49458437       0.08060078       3.53018928
Mg       3.56223761       0.27308105      10.62383297
Mg       3.58247948       7.18600766       3.67494939
Mg       3.53064593       7.37595260      10.74791260
Mg      10.54198942       0.21382171       3.72731903
Mg      10.62726559       0.31836786      10.68974040
Mg      10.57367348       7.32836898       3.85296016
Mg      10.66669170       7.45642061      10.76920742
Mg       1.79402485       1.75949784       1.84162475
Mg       1.83642772       1.98102209       8.86887942
Mg       1.83026757       9.05379651       1.85022646
Mg       1.89464901       9.03532252       8.82007346
Mg       8.88698384       1.91111021       1.83138145
Mg       8.86272350       2.08853177       8.96983849
Cu       8.96220618       9.03523611       1.95400968
Mg       8.89023676       9.18669062       9.02935506
Mg       0.00501721       0.05237359      -0.00150776
Mg      -0.02747104       0.11587990       7.01673586
Mg       0.08597741       7.21733858       0.07988627
Mg       0.12079834       7.28031763       7.10678368
Mg       7.10568064       0.09877739       0.12055432
Mg       7.18909945       0.24965007       7.17104516
Mg       7.04323121       7.27430605       0.13446272
Mg       7.05386143       7.43201736       7.22286178
Mg       1.89121904       5.49627422       5.42205209
Mg       1.89609316       5.64186365      12.46587968
Mg       1.86386264      12.70537438       5.35484933
Mg       2.00807373      12.73996453      12.52903035
Mg       8.88692282       5.54273390       5.50563074
Mg       8.93511831       5.66191294      12.53316029
Mg       8.91952158      12.77062521       5.57701234
Mg       8.97583188      12.78123526      12.57915064
Mg       5.35715179       2.03285237       5.45154910
Mg       5.40425926       2.06188337      12.35232985
Mg       5.39844252       9.18469671       5.56006505
Mg       5.38423417       9.28610308      12.42293669
Mg      12.29646120       2.14773182       5.34221105
Mg      12.40666110       2.20949229      12.57424341
Mg      12.48066977       9.15375513       5.57604331
Mg      12.51526385       9.29057194      12.55113415
Mg       0.02067519       3.54800804       3.53024262
Mg       0.00384278       3.92299244      10.64668435
Mg       0.12634748      10.76103349       3.60979484
Mg       0.11974295      10.85511429      10.77199139
Mg       7.07005027       3.71641026       3.68593808
Mg       7.12437338       3.88926425      10.69175798
Mg       7.16627479      10.82059718       3.66029913
Mg       7.19414592      10.91152051      10.83338374
Mg       3.57404646       3.66760887       0.05267785
Mg       3.60616946       3.71985552       7.23400942
Mg       3.63957600      10.72346222       0.12841523
Mg       3.66606300      10.86087077       7.25837798
Mg      10.62244068       3.76025564       0.19000566
Mg      10.71248936       3.89493579       7.25722193
Mg      10.66248452      10.78834469       0.29028434
Mg      10.69657715      10.90688939       7.24358696
Mg       5.28450862       5.37760190       1.87816562
Mg       5.33286218       5.60887279       9.00874900
Mg       5.43362441      12.54732495       1.97354325
Mg       5.44393823      12.77289270       9.06120391
Mg      12.39313823       5.56707332       2.09170686
Mg      12.43190192       5.73923853       9.00800883
Mg      12.47645781      12.68902673       2.16060236
Mg      12.48014358      12.86253367       9.13915537
Cu       6.18049638       4.63149010       6.30439510
Cu       6.23179355       4.82569810      13.30446158
Cu       6.29531360      11.90345922       6.45198962
Cu       6.34502383      11.94793432      13.37191718
Cu      13.26277918       4.79979666       6.40631294
Cu      13.33308191       4.90419231      13.52885390
Cu      13.33464954      11.91324169       6.52482179
Cu      13.35167019      11.97196796      13.52675548
Cu       4.47803318       6.39654644       6.31618840
Cu       4.62588986       6.50044032      13.33126891
Cu       4.49193830      13.52421192       6.31172234
Cu       4.60174285      13.73105117      13.42436554
Cu      11.50090557       6.54072810       6.30336809
Cu      11.56223234       6.61542055      13.43835359
Cu      11.57347131      13.74479654       6.56441964
Cu      11.55489812      13.80432665      13.62999775
Cu       2.66541537       2.89835849       4.44496827
Cu       2.79014816       2.92261896      11.46056720
Cu       2.78776413       9.91215767       4.60179521
Cu       2.75741556      10.07409137      11.65246586
Cu       9.63678118       2.78270640       4.54775971
Cu       9.74818818       3.04983332      11.70114272
Cu       9.76434417      10.02303893       4.67874834
Cu       9.83108265      10.14948944      11.75987377
Cu       6.26129473       1.13561629       9.72334611
Cu       6.27582974       8.16435340       2.84054284
Cu       6.31720982       8.27526282       9.91642208
Cu      13.25871440       1.09318016       2.86784544
Cu      13.29248196       1.22336258       9.90809397
Cu      13.34049189       8.28548200       2.91215086
Cu      13.32436477       8.42695696       9.93624217
Cu       0.98068457       4.48808420       0.98646797
Cu       0.89692868       4.67593825       8.07395105
Mg       0.92003612      11.65881274       1.01257183
Cu       7.88533168       4.63240127       1.04475851
Cu       8.09817610       4.80123750       8.04238606
Cu       8.05941068      11.68178931       1.22219733
Cu       8.03941886      11.97466342       8.06644290
Cu       4.42201343       4.60771977       4.56269723
Cu       4.45875844       4.74041397      11.48448858
Cu       4.49281404      11.71706377       4.60796843
Cu       4.54067601      11.91712613      11.67316865
Cu      11.51195759       4.68819864       4.69327211
Cu      11.53853177       4.93210355      11.68935133
Cu      11.53509106      11.80575271       4.74400138
Cu      11.54384049      11.93699919      11.74519888
Cu       0.99865743       6.31659245       2.71741783
Cu       0.96618623       6.47368001       9.71608350
Cu       0.97575068      13.41753932       2.78714290
Cu       1.04908134      13.47142476       9.95075338
Cu       7.96467654       6.36662085       2.93516584
Cu       7.97012221       6.44903005       9.84198772
Cu       8.01856208      13.55056430       2.93574862
Cu       8.07689885      13.63905665      10.01176844
Cu       2.59259445       6.28024461       0.96160325
Cu       2.73833594       6.47628477       8.00868801
Cu       2.75229171      13.38394147       1.11281657
Cu       2.75672869      13.48997118       8.08031922
Cu       9.79265467       6.43170906       1.09245980
Cu       9.74815842       6.57431685       8.20789977
Cu       9.73086547      13.50817597       1.15631075
Cu       9.79428293      13.66620932       8.14331642
Cu       2.69113777       4.53930182       2.78328525
Cu       2.72022634       4.70979739       9.73958752
Cu       2.68404133      11.68906751       2.77037846
Cu       2.78271114      11.78533846       9.83034476
Cu       9.66621400       4.61230423       2.86583209
Cu       9.79769866       4.79811252       9.91107292
Cu       9.67826282      11.77053523       2.94672771
Cu       9.92326506      11.95969418       9.85657317
Cu       4.39812331       2.84317535       2.67941227
Cu       4.43767375       2.95303913       9.82121701
Cu       4.46167006       9.96225257       2.85697834
Cu       4.44262180      10.08886047       9.86061645
Cu      11.39959846       2.79232121       2.84690026
Cu      11.46110525       3.06003915       9.88349151
Cu      11.53806432       9.99600265       2.96599700
Cu      11.54306112      10.17886969       9.93584670
Cu       6.21592093       6.38385468       4.52262604
Cu       6.27907255       6.51603452      11.66564957
Cu       6.22574427      13.49369782       4.58713860
Cu       6.27345964      13.71800716      11.59861841
Cu      13.27448830       6.65197133      11.78457619
Cu      13.35342115      13.59606143       4.83341507
Cu      13.40761742      13.84871940      11.81686301
Cu       2.70392916       1.01833898       6.18823317
Cu       2.65500114       8.13328722       6.34610770
Cu       2.75942300       8.31035695      13.41344722
Cu       9.75488976       1.09978873       6.35865533
Cu       9.77782996       1.28365079      13.31241445
Cu       9.79316763       8.32196276       6.41435467
Cu       9.85215053       8.33135145      13.40487166
Cu       1.01591825       1.07914880       4.38816089
Cu       0.92114495       1.17228067      11.48822961
Cu       0.99172356       8.19583020       4.47644673
Cu       1.04473404       8.24708800      11.57756884
Cu       7.96924006       1.09662539       4.54567298
Cu       7.94162619       1.22659981      11.59849743
Cu       8.12527135       8.16446699       4.52828976
Cu       8.07948805       8.33041003      11.68797849
Cu       6.22118417       2.76668038       1.02263649
Cu       6.26173634       2.91055147       8.06121693
Cu       6.28056173       9.96048560       1.08706812
Cu       6.17290921      10.07011955       7.97038455
Cu      13.22875032       2.76757564       1.16822468
Cu      13.23737011       3.03750929       8.16459501
Cu      13.25228002       9.92095106       1.02310339
Cu      13.33629992      10.11627397       8.23901187
Cu       0.91083120       2.81745823       6.31219833
Cu       0.95676232       2.94475903      13.21769749
Cu       1.01922908       9.92930287       6.33422889
Cu       1.13626761      10.07000961      13.34026918
Cu       7.97278797       2.86807668       6.32912534
Cu       7.92809035       3.04426809      13.41820976
Cu       8.01391349      10.05775834       6.33931458
Cu       4.42066800       0.97587616       0.90967439
Cu       4.48614401       1.10836694       8.11934331
Cu       4.45065082       8.07252781       1.02659443
Cu       4.52070460       8.19135205       8.10374631
Cu      11.51028424       1.04605991       1.07840762
Cu      11.51180337       1.19142239       8.05598425
Cu      11.49595405       8.14538924       1.13883290
Cu      11.56623643       8.29917523       8.13571510
