192
Lattice="13.72541689127232 0.5786664521101309 -0.34011523341560024 0.5643713862863596 14.49558607610672 0.35329049774505217 -0.16051652087863102 -0.17582569880011054 14.178879358730434" Properties=species:S:1:pos:R:3 pbc="T T T"
Mg       3.33572653       0.14542720       3.42436195
Mg       3.34757236       0.04502553      10.58317722
Mg       3.69956136       7.34708664       3.66855734
Cu       3.60398303       7.32529067      10.79454262
Mg      10.27065831       0.37159514       3.26751494
Mg      10.21069367       0.30180005      10.41825073
Mg      10.65817444       7.66111185       3.49488576
Mg      10.36946808       7.57382740      10.61626082
Mg       1.88229460       1.95772269       1.79692623
Mg       1.80031571       1.79630162       8.99682624
Mg       2.05998448       9.05893136       1.97887639
Mg       1.96098909       9.00488289       9.01153411
Cu       8.61002002       2.11690913       1.55278922
Mg       8.50316205       2.02372291       8.72687104
Mg       8.97289530       9.39891572       1.83756728
Mg       8.83786096       9.37424650       8.81730347
Mg      -0.01269993       0.00749935       0.05373456
Mg      -0.07654723      -0.09031780       7.03528118
Mg       0.23452554       7.23089366       0.04468628
Mg       0.24676239       7.18928059       7.29969168
Mg       6.86116502       0.32658620      -0.22154280
Mg       6.78602606       0.20994589       7.00922649
Mg       7.14869280       7.48332623       0.02423898
Mg       7.12232415       7.40244622       7.08777860
Mg       1.84992773       5.47974932       5.45434815
Mg       1.78318930       5.35024833      12.51636701
Mg       2.21940154      12.68960501       5.53170653
Mg       2.11472793      12.62927830      12.68754866
Mg       8.73273914       5.69262150       5.29908274
Mg       8.60285294       5.59614819      12.28974449
Mg       9.02833688      12.97552870       5.43959331
Mg       8.94093370      12.86666207      12.54981358
Mg       5.19275817       1.89204051       5.23218746
Mg       5.03477838       1.82071183      12.37283171
Mg       5.40621773       9.13381142       5.40544556
Mg       5.40242205       9.14677006      12.47978594
Mg      12.00590929       2.23177867       5.05731905
Mg      11.95178005       2.05650175      12.20511190
Mg      12.29312047       9.49891213       5.27454312
Mg      12.25487779       9.46795125      12.30687384
Mg       0.09979112       3.58239674       3.59423983
Mg      -0.04494052       3.50514448      10.71217561
Mg       0.34088460      10.86460938       3.83604941
Cu       0.28012241      10.70487051      10.97665546
Mg       7.00270440       3.89609825       3.45924150
Mg       6.87065039       3.79745719      10.55933223
Mg       7.26682784      11.14287376       3.64672929
Mg       7.12311091      11.06828251      10.69855535
Mg       3.57603240       3.80117919      -0.02334708
Mg       3.49372347       3.77155237       7.02295258
Mg       3.83628393      11.04873830       0.16538948
Mg       3.81959658      10.98520671       7.28575097
Mg      10.43229151       4.08172899      -0.21836357
Mg      10.38057794       4.00422801       6.92113893
Mg      10.69389866      11.34741019       0.07951268
Cu      10.63529476      11.12292694       7.10411507
Mg       5.29383018       5.76843598       1.66238129
Mg       5.16667133       5.51444518       8.87196100
Mg       5.68404651      12.87883126       1.97178256
Mg       5.54663920      12.79837715       9.05111818
Mg      12.15374479       6.02310451       1.68720186
Mg      12.12266347       5.83633593       8.72135580
Mg      12.46717827      13.15996810       1.84262344
Mg      12.40988103      13.00499382       8.93255863
Cu       6.09478694       4.65163348       6.20953026
Cu       6.06507692       4.65896117      13.22863961
Cu       6.29540564      11.88970871       6.45196354
Cu       6.26692261      11.84317209      13.43750047
Cu      12.95916647       5.06844943       6.02124762
Cu      12.89783205       4.93870481      13.10654778
Cu      13.30167027      12.27100489       6.22170867
Cu      13.13264675      12.03813524      13.32348246
Cu       4.40910412       6.38246935       6.21333438
Cu       4.41698078       6.30106201      13.37047612
Cu       4.68693104      13.66491366       6.45293779
Cu       4.69359649      13.64952075      13.54613080
Cu      11.34066614       6.77979156       6.06857473
Cu      11.13697995       6.63557318      13.28446122
Cu      11.64726715      13.96485843       6.20986293
Cu      11.51051902      13.88046871      13.35980449
Cu       2.62656927       2.74553618       4.34919265
Cu       2.44616129       2.64540683      11.47691098
Cu       2.90289660      10.05478949       4.59490211
Cu       2.77281994       9.92100557      11.71884216
Cu       9.51037188       3.07160063       4.23889199
Cu       9.41583049       2.94860160      11.39560726
Cu       9.73258262      10.36714069       4.50543355
Cu       9.76584783      10.16958992      11.52890887
Cu       6.03875283       1.19842296       2.46084315
Cu       5.84096480       1.03734521       9.67794090
Cu       6.25754806       8.33257317       2.64691718
Mg       6.26344943       8.27203130       9.80505901
Cu      12.89724842       1.39071910       2.39005635
Cu      12.85208403       1.27763498       9.47169503
Cu      13.06994308       8.68052254       2.45336966
Cu      13.07356470       8.41530343       9.64941775
Cu       1.05268501       4.45704095       1.00413146
Cu       0.96468042       4.50325156       8.10827964
Cu       1.26624988      11.67953247       1.08176525
Cu       1.24002332      11.76569885       8.19579908
Cu       7.87132772       4.88285203       0.79090763
Cu       7.81468457       4.76772051       7.91246889
Cu       8.11909708      12.10634456       1.00065542
Cu       8.05059942      12.11780039       8.07831188
Cu       4.36292161       4.66122609       4.39099968
Cu       4.29276990       4.53470102      11.49466470
Cu       4.61739096      11.86430133       4.48303971
Cu       4.58478490      11.94233530      11.61425720
Cu      11.22757373       4.93130178       4.29627403
Cu      11.25451547       4.83050983      11.40619670
Cu      11.56630889      12.22971799       4.47960548
Cu      11.33868332      12.12579101      11.66738389
Cu       1.08622489       6.31923107       2.80038022
Cu       1.01618096       6.26689674       9.97295137
Cu       1.40050870      13.63409921       3.04788806
Cu       1.30884478      13.46886881      10.05751592
Cu       7.90835634       6.49684193       2.70196163
Cu       7.93962259       6.56574867       9.58649946
Cu       8.24971613      13.83689259       2.86541922
Cu       8.14724214      13.77922469       9.90507677
Cu       2.79240579       6.39031809       1.03559321
Cu       2.79644744       6.21807044       8.10566018
Cu       3.06132959      13.69917160       1.04898041
Cu       3.00366824      13.53201373       8.23952742
Cu       9.73710764       6.76163807       0.79633966
Cu       9.66786102       6.75143419       7.90828004
Cu      10.00084918      13.98879303       0.99959606
Cu       9.89665690      13.90529168       8.08511917
Cu       2.70748737       4.56739215       2.67005305
Cu       2.66898089       4.59685806       9.81161837
Cu       3.01094446      11.92634967       2.83128958
Cu       2.96084314      11.74267032       9.98888645
Cu       9.53764880       4.89275168       2.51808958
Cu       9.47795922       4.80236569       9.72722538
Cu       9.84778246      12.07782928       2.70718988
Cu       9.83816073      12.03144800       9.79077087
Mg       4.42134190       2.81550477       2.66008782
Cu       4.28285726       2.71852467       9.75881656
Cu       4.58707601      10.10330248       2.78204516
Cu       4.47036650       9.98808707       9.88129707
Mg      11.23794175       3.18357576       2.45098017
Cu      11.19651978       3.02293144       9.55352958
Cu      11.44692013      10.39248139       2.52570664
Cu      11.41798470      10.34085897       9.77159833
Cu       6.21641473       6.52399938       4.37465409
Cu       6.18286320       6.43245681      11.51277240
Cu       6.52224545      13.76078095       4.60131146
Cu       6.40283912      13.65886851      11.67298563
Cu      13.16800409       6.93051428       4.38520962
Cu      12.95564918       6.69168674      11.26013438
Cu      13.38378990      14.03637662       4.40606930
Cu      13.23643606      14.02229316      11.50796035
Cu       2.50467133       0.93399997       6.14657252
Mg       2.45643760       0.81328774      13.21540869
Cu       2.79694810       8.16109886       6.28726706
Cu       2.73075534       8.08502877      13.43471873
Cu       9.36867481       1.20388523       5.94579977
Cu       9.34616680       1.16214917      13.11650583
Cu       9.68902464       8.51381957       6.24360733
Cu       9.59156314       8.51982260      13.26868671
Cu       0.86397493       0.80300631       4.40137820
Cu       0.78847167       0.80897253      11.54112436
Cu       1.13631650       8.09943441       4.51617569
Cu       1.01249696       8.08657888      11.76817985
Cu       7.71459681       1.21105264       4.26364034
Cu       7.62361918       1.11707642      11.36332661
Cu       8.02596206       8.42116869       4.41062744
Cu       7.94950705       8.37135174      11.49655672
Cu       6.12624647       2.93931566       0.87382599
Cu       6.00429306       2.87850555       7.95721573
Cu       6.32356121      10.17972354       0.90365537
Cu       6.24719688      10.07305212       8.04803533
Cu      12.96902221       3.34291386       0.61518377
Cu      12.90541661       3.13077634       7.69926325
Cu      13.23151945      10.46678349       0.75525015
Cu      13.19613936      10.39756776       7.88873370
Cu       0.91791927       2.68076820       6.33552119
Cu       0.81568827       2.60283639      13.34608874
Cu       1.21499389       9.93312739       6.47818976
Cu       1.11103308       9.92887397      13.61025956
Cu       7.74776087       3.01215979       6.09830221
Cu       7.63481933       2.91068105      13.13283002
Cu       7.95961301      10.17080160       6.28434162
Cu       7.96342875      10.12905598      13.34134545
Cu       4.23462835       1.09505117       0.78354794
Cu       4.30655776       0.95796472       7.88110915
Cu       4.63100069       8.41125983       1.05924464
Cu       4.54749203       8.26357050       8.00319419
Cu      11.17970436       1.38991532       0.58457414
Cu      11.09260555       1.26312692       7.71948258
Cu      11.41582830       8.66376162       0.85694676
Cu      11.41545633       8.51652982       7.98574553
