189
Lattice="14.083774148230846 -0.29224308816222583 -0.029069978922123554 0.040783115751156736 14.225861195709324 0.3635891406957324 0.3682438218885373 -0.07695941858008672 14.553861140079349" Properties=species:S:1:pos:R:3 pbc="T T T"
Mg       3.71150068      -0.08441848       3.61613758
Mg       3.73765158      -0.10444315      10.78399360
Mg       3.63511794       6.98812158       3.80102199
Mg       3.78793525       6.90234897      11.06386570
Mg      10.67107590      -0.18282642       3.61690208
Cu      10.80231084      -0.24240328      10.85082658
Cu      10.72579756       6.96192105       3.86104543
Mg      10.83033755       6.81330790      11.08425652
Mg       1.72586810       1.70983996       1.83621289
Mg       2.05558120       1.72984221       9.15565894
Mg       1.84070565       8.78658394       2.03786876
Mg       1.99979286       8.85207099       9.35978061
Mg       8.76471068       1.62010372       1.85165949
Mg       9.06801234       1.54119221       9.10154227
Mg       8.95823130       8.70342554       2.02524916
Mg       9.03440056       8.56661723       9.30390022
Mg       0.04920577      -0.02228069      -0.02637921
Cu       0.15837706       0.03483979       7.30675775
Cu      -0.00644847       7.10992417       0.23393395
Mg       0.17870882       6.98018870       7.37276615
Mg       7.03472770      -0.12109330      -0.08949446
Mg       7.27332415      -0.20005153       7.29924931
Mg       7.01255748       6.89903883       0.21856058
Mg       7.19826264       6.91011659       7.38087179
Cu       1.95704416       5.28506992       5.50480909
Cu       2.03909511       5.15804989      12.83619566
Mg       1.89247104      12.32764222       5.80412796
Mg       2.11896597      12.30183930      13.09745917
Mg       8.93472944       5.14251693       5.64992781
Mg       9.16748965       5.06371696      12.88574553
Mg       9.07034790      12.26380167       5.77294495
Mg       9.13447035      12.24303758      13.02287084
Mg       5.32833526       1.61584422       5.48626236
Mg       5.63690815       1.58472460      12.86743408
Cu       5.44979864       8.86465110       5.68768160
Mg       5.61306350       8.75089452      12.87324933
Mg      12.68902341       1.40852675      12.73588307
Mg      12.50734435       8.56741669       5.68624332
Mg      12.54732009       8.51689785      12.84299094
Mg       0.11822686       3.54164466       3.72170750
Mg       0.31835827       3.56278360      10.99613131
Mg       0.17631903      10.55146571       3.89248968
Mg       0.46991497      10.61674271      11.13862345
Mg       7.16564740       3.42328299       3.66948177
Mg       7.34457379       3.34896291      11.07160461
Mg       7.19850193      10.52995073       3.87046528
Mg       7.36288221      10.46318884      11.16802734
Mg       3.65752882       3.54378246       0.14343223
Mg       3.72013188       3.49630347       7.29498717
Mg       3.59788390      10.58911205       0.23059983
Mg       3.81358584      10.59099480       7.53765269
Mg      10.61735902       3.45461819       0.13163727
Mg      10.77244147       3.26021363       7.28425471
Mg      10.78928717      10.37414896       7.45808909
Mg       5.36054500       5.12008900       1.87679525
Mg       5.44946187       5.16912261       9.16756673
Mg       5.21263235      12.40273434       2.08233923
Mg      12.40251153       5.07719554       1.96361375
Mg      12.56848158       5.08665229       9.21935612
Mg      12.27699475      12.20016417       2.10108177
Mg      12.59567025      12.11576631       9.40477367
Cu       6.37697589       4.28822739       6.41722695
Cu       6.56161725       4.18947211      13.68996462
Cu       6.34430234      11.41890404       6.53403016
Cu       6.60185348      11.36903008      13.89612552
Cu      13.38718090       4.08626819       6.50196739
Cu      13.56829715       4.11135185      13.66447669
Cu      13.31722091      11.28653292       6.71556188
Cu      13.57698575      11.18744516      13.93994851
Cu       4.60305865       6.02776192       6.55100320
Cu       4.77624058       6.10779953      13.81749063
Cu       4.65412722      13.23990545       6.65229661
Cu       4.75442433      13.19617515      14.01762213
Cu      11.68407481       5.92603978       6.46432395
Cu      11.80295817       5.94233433      13.75232130
Cu      11.68359668      12.99862791       6.69627040
Cu      11.81667567      12.99923034      14.00504147
Cu       2.72057597       2.54885782       4.66644643
Cu       2.87525370       2.53204878      11.88597075
Cu       2.79044617       9.76022255       4.84074053
Cu       2.97660661       9.70928776      12.05608463
Cu       9.83187410       2.43132119       4.64513094
Cu       9.96592540       2.44578260      11.82038743
Mg       9.82708598       9.55273874       4.75627261
Cu      10.01758051       9.52790013      12.10602641
Cu       6.24908812       0.70946454       2.69649445
Cu       6.43756655       0.75880895       9.96801156
Cu       6.27034826       7.81044705       2.94386253
Cu       6.47403980       7.77434487      10.28254768
Cu      13.24987107       0.63853037       2.75254848
Cu      13.35541551       0.59184461      10.02187198
Mg      13.25173391       7.79367978       2.91442954
Cu      13.45885869       7.72211957      10.26486498
Cu       0.92460899       4.48984233       0.93088581
Cu       1.15451856       4.39087392       8.29882601
Mg       0.94346055      11.61297371       1.13862012
Cu       1.24054898      11.48244599       8.48815271
Cu       7.98152312       4.31533582       1.06072725
Cu       8.20886218       4.21078164       8.30595580
Cu       8.04564054      11.42824159       1.19995656
Cu       8.16113605      11.46156493       8.39410869
Cu       4.50398494       4.35410666       4.74441622
Cu       4.68421509       4.32819627      11.95473040
Cu       4.53967177      11.50277425       4.84463968
Cu       4.74531548      11.36265188      12.16502834
Cu      11.56199963       4.18806062       4.68417647
Cu      11.76835383       4.17398483      11.95513478
Cu      11.51843701      11.26754337       4.88003714
Cu      11.82629290      11.23618151      12.15049166
Cu       0.84738270       6.14992303       2.83547440
Cu       1.10807469       6.12669760      10.18223618
Cu       1.08378112      13.26401997       3.15336065
Cu       1.22891592      13.25659038      10.35944497
Cu       8.01595613       6.03991822       2.93274583
Cu       8.14685672       6.11541245      10.06283769
Cu       7.99197226      13.16708020       3.01612010
Cu       8.12366170      13.08748410      10.35513870
Cu       2.59986755       6.13232465       1.02731665
Cu       2.92259174       6.03649891       8.25524861
Cu       2.67102634      13.26444238       1.23821160
Cu       2.81466046      13.31029332       8.58085430
Cu       9.77611054       6.05480236       1.15899365
Cu       9.83548417       6.02668284       8.28709484
Cu       9.79592525      13.18295093       1.21737729
Cu       9.96385904      13.05753819       8.57598988
Cu       2.66483229       4.35943202       2.82413770
Cu       2.91356289       4.33990228      10.18798917
Cu       2.71746781      11.47924756       3.06866793
Cu       2.90816179      11.42448012      10.39693839
Cu       9.79449158       4.24151094       2.97335305
Cu       9.91429387       4.27656962      10.07853328
Cu       9.80381041      11.26755744       3.07668348
Cu       9.89553293      11.35529360      10.28454694
Cu       4.48455276       2.59283307       2.83310646
Mg       4.64002001       2.53126956      10.10880215
Mg       4.52627085       9.71941521       2.98409475
Cu       4.70569004       9.66992064      10.24798305
Cu      11.54891276       2.43147166       2.71174661
Cu      11.75045162       2.34123943      10.00788663
Cu      11.51528554       9.66447893       3.05337018
Cu      11.72226704       9.52253391      10.19423479
Cu       6.23605741       6.04362740       4.62633826
Cu       6.44650466       6.03078924      11.97399855
Cu       6.28639183      13.21690277       4.90910134
Cu       6.45147100      13.13852390      12.25831197
Cu      13.32754236       5.86409363       4.68192155
Cu      13.58470831       5.88137419      11.96562513
Cu      13.41655105      13.06540410       4.93078270
Cu      13.52825320      13.05049215      12.06132312
Cu       2.77085654       0.84748657       6.41428499
Cu       3.03993107       0.74478123      13.59650575
Cu       2.84198176       7.83951392       6.48625322
Cu       3.01665985       7.86521931      13.79839418
Cu       9.87506087       0.63672567       6.35953125
Cu      10.04712828       0.65881362      13.60325633
Cu       9.89849080       7.82468868       6.59767063
Cu      10.02916592       7.65938190      13.84345404
Cu       1.01651056       0.86005900       4.60937410
Mg       1.13593620       0.79498567      11.80281796
Cu       1.02033466       8.01407000       4.67834876
Cu       1.17306699       7.87940886      12.03441837
Cu       8.08069398       0.68680160       4.47750770
Cu       8.30291514       0.69404611      11.87564022
Cu       8.10333123       7.81894783       4.65059347
Cu       8.20498593       7.69185344      11.99261714
Cu       6.15941318       2.50322640       1.04521901
Cu       6.42691868       2.46611738       8.32718442
Cu       6.30917677       9.62330667       1.06220148
Cu       6.37390443       9.65823547       8.43273974
Cu      13.27276381       2.35232528       0.88604272
Cu      13.36753944       2.39116353       8.24010736
Cu      13.24837438       9.56315435       1.11321985
Mg      13.41767928       9.47525889       8.42500866
Cu       1.05845211       2.64773146       6.42381122
Cu       1.22092195       2.54621174      13.56140112
Cu       1.01168324       9.73146164       6.59780707
Cu       1.19007624       9.65561704      13.90965046
Cu       8.17452240       2.42369396       6.40089605
Cu       8.36056203       2.53470592      13.75181912
Cu       8.04868300       9.60718468       6.55504958
Cu       8.26254601       9.60390777      13.83222427
Cu       4.41397102       0.82751310       0.94596782
Cu       4.63847604       0.72938947       8.13831829
Cu       4.52516162       7.93239587       1.03496843
Cu       4.65532024       7.91401430       8.38336353
Cu      11.51114103       0.63292959       0.93265966
Cu      11.60893451       0.60993772       8.27755352
Cu      11.41438663       7.67998684       1.06217710
Cu      11.66718391       7.77814430       8.39527439
