191
Lattice="14.178395950084536 -0.23382043692068052 -0.08720749357346862 0.362183405557796 13.583400447481038 0.07114460186285039 0.2068854941873424 0.18032006907748996 14.127104278462447" Properties=species:S:1:pos:R:3 pbc="T T T"
Mg       3.60849794      -0.14782198       3.62848785
Mg       3.70778489       0.05402967      10.57129450
Mg       3.82106101       6.75740012       3.53183006
Mg       3.87587897       6.81706589      10.65842073
Mg      10.70449925      -0.22692558       3.55384302
Mg      10.83746972       0.02036920      10.55593088
Mg      10.85388524       6.70978962       3.47280472
Mg      10.99750967       6.80939443      10.55338782
Mg       1.84998255       1.70865517       1.80426039
Mg       1.99581837       1.79550161       8.85841285
Mg       2.05852934       8.39013755       1.77334746
Cu       2.10011068       8.65535552       8.87250403
Mg       8.97900249       1.53076289       1.63206784
Mg       9.11554844       1.70103488       8.73715360
Mg       9.14585055       8.38517474       1.82496090
Mg       9.22567468       8.51526935       8.81370245
Mg       0.00326259       0.01931305       0.02461052
Mg       0.13115210       0.09965828       7.07662408
Mg       0.12131655       6.76520210       0.04913743
Mg       0.22581778       6.91690566       7.17144166
Mg       7.04024259      -0.15563999      -0.04433046
Mg       7.21404548      -0.05905598       7.03759658
Mg       7.28463302       6.68383007       0.04376254
Mg       7.43330577       6.79670159       7.01389912
Cu       2.06957615       5.04543508       5.25394718
Mg       2.11872171       5.20404500      12.44743994
Mg       2.15149679      11.92469611       5.37233922
Cu       2.24085741      12.10372693      12.36417612
Mg       9.01780111       4.97342992       5.29991520
Mg       9.21014184       5.07590598      12.36283387
Mg       9.24083348      11.83625911       5.31169122
Mg       9.34017716      11.92073804      12.28084965
Mg       5.42027501       1.69678282       5.20869486
Cu       5.53593096       1.78620784      12.41830981
Mg       5.59865218       8.52442218       5.35182543
Mg       5.69636272       8.55093877      12.40191515
Mg      12.54682169       1.59833062       5.31899162
Cu      12.70734935       1.65238743      12.31776699
Mg      12.69185617       8.36773514       5.33934724
Mg      12.85593213       8.37664377      12.39299266
Cu       0.23301824       3.45166918       3.56866110
Mg       0.21290538       3.52224769      10.71171093
Mg       0.37562508      10.23705704       3.59429147
Mg       0.49710341      10.38408030      10.67136248
Mg       7.20766229       3.24924436       3.43253455
Mg       7.23518940       3.51456526      10.56503415
Mg       7.31997750      10.13749453       3.59414016
Cu       7.49179288      10.21458718      10.57421616
Mg       3.67022152       3.40098162      -0.03601109
Mg       3.79169889       3.43931585       7.02591306
Mg       3.87096338      10.24077736       7.13644464
Mg      10.83525563       3.22610897      -0.06905733
Mg      10.82709662       3.33596152       7.06254162
Mg      10.81783192      10.03889643      -0.06363069
Mg      11.01801646      10.13940546       7.03474809
Mg       5.50470616       5.04622284       1.75992547
Mg       5.56788291       5.06096670       8.89233892
Mg       5.61564880      11.87769456       1.86405343
Mg       5.70041747      11.97751823       8.79910798
Mg      12.58459915       4.95408269       1.64409842
Mg      12.73849638       5.07296643       8.80124597
Mg      12.67325395      11.70628258       1.67333062
Mg      12.77130380      11.84785117       8.78890661
Mg       6.48426881       4.22052292       6.14477261
Cu       6.48471530       4.26166739      13.20129824
Cu       6.57456461      10.96089483       6.26361319
Cu       6.68814398      11.10008865      13.19129689
Cu      13.51286662       4.12581662       6.11034462
Cu      13.58070968       4.16138944      13.19743754
Cu      13.73847794      10.90017558       6.15179850
Cu      13.84630688      10.95483896      13.17857496
Cu       4.70685408       5.98538692       6.15597967
Cu       4.87677423       6.02021370      13.19071984
Cu       4.83049644      12.81689036       6.20844345
Cu       4.99370678      12.78323673      13.22866518
Cu      11.72679280       5.87228129       6.11438244
Cu      11.84508373       5.93318073      13.15182638
Cu      11.92433751      12.61316311       6.15651879
Cu      12.10821517      12.76530361      13.22678106
Cu       2.80352108       2.55166516       4.39756716
Cu       2.83135474       2.66317312      11.46819049
Cu       2.98392800       9.33799300       4.43029682
Cu       3.05373432       9.44471502      11.42857917
Cu       9.83844441       2.44102014       4.37514563
Cu       9.96101701       2.54258517      11.37942829
Cu       9.98503474       9.25062876       4.33583787
Cu      10.15657856       9.40507496      11.50851792
Cu       6.28973309       0.75559095       2.62089920
Cu       6.28371815       0.94088241       9.69378053
Cu       6.39761793       7.57702677       2.65286828
Cu       6.54386674       7.71077873       9.72086413
Cu      13.34502314       0.63686033       2.58469238
Cu      13.39370699       0.78463809       9.66823718
Cu      13.58533309       7.47871132       2.55579891
Cu      13.54952053       7.57186872       9.68270577
Cu       1.01250154       4.30063695       0.89295304
Cu       1.15027822       4.25866984       7.94475208
Cu       1.13600377      11.03103479       0.94793365
Cu       1.28441319      11.09445195       7.99155372
Cu       8.15247456       4.11378338       0.73282674
Cu       8.19873493       4.23102238       7.85091890
Cu       8.17398086      10.92006587       0.92481869
Cu       8.47532350      10.96204280       7.90500955
Cu       4.62824777       4.25433512       4.40312992
Cu       4.66049660       4.39111765      11.51320309
Cu       4.82833908      11.00533747       4.44339368
Cu       4.86745800      11.05382640      11.57133577
Cu      11.64295869       4.03451917       4.40878195
Cu      11.75466581       4.17361290      11.39448259
Cu      11.86240445      10.85395181       4.38061699
Cu      12.02106566      10.99216837      11.42675368
Cu       1.16060272       6.01115182       2.84040594
Cu       1.13679599       6.01265951       9.76072780
Cu       1.30668840      12.73712561       2.78029763
Mg       1.35433611      12.83248601       9.83691864
Cu       8.10061589       5.83304667       2.59469178
Cu       8.24878472       5.91283507       9.63469616
Cu       8.34697612      12.63005444       2.66216505
Cu       8.42152369      12.73740618       9.72599065
Cu       2.92700048       5.88630559       0.85111003
Cu       2.89057783       5.90078175       7.93901910
Cu       3.07540945      12.68128059       0.92918423
Cu       3.15746650      12.80470954       8.01935604
Cu       9.86554587       5.78948886       0.81468595
Cu      10.13125899       5.97461527       7.85409790
Cu      10.10399990      12.63005953       0.85353345
Cu      10.19853309      12.74758323       7.88707505
Cu       2.79736399       4.24591710       2.63994443
Mg       2.94499795       4.39434328       9.72093312
Cu       3.01522837      11.00770185       2.67594269
Cu       3.11882320      11.12925640       9.69848247
Cu       9.90861190       4.10633176       2.56617148
Cu      10.07249451       4.16318089       9.69454038
Cu      10.02263633      10.93601936       2.66419299
Cu      10.12302102      11.00351409       9.71154534
Cu       4.61085842       2.51262800       2.58831240
Cu       4.64024883       2.65213293       9.73656663
Cu       4.59425190       9.17237580       2.59879724
Cu       4.92351892       9.38637647       9.74769119
Cu      11.58997864       2.34568805       2.62864500
Cu      11.67724014       2.41773594       9.58061657
Cu      11.70623909       9.20778247       2.61130125
Cu      11.91696354       9.35846911       9.80235470
Cu       6.44783865       5.91762570       4.44097405
Cu       6.51032150       5.96995999      11.40726564
Cu       6.64982523      12.69237936       4.43066978
Cu       6.66058137      12.78921795      11.49726783
Mg      13.50280342       5.83092182       4.36571983
Cu      13.57430136       5.80165965      11.42559098
Cu      13.75156231      12.57446972       4.40330413
Cu      13.81866528      12.66939086      11.49148792
Mg       2.69500159       0.93255123       6.17127249
Cu       2.93341297       1.00244645      13.29960758
Cu       2.93129834       7.66903514       6.13788112
Cu       3.04592313       7.76198149      13.26421087
Cu       9.83060527       0.85773887       6.21868333
Cu       9.89484058       0.88685179      13.17185309
Cu       9.98613753       7.58895535       6.23254032
Cu      10.16132700       7.63390013      13.22088831
Cu       0.96678366       0.88126429       4.50082642
Cu       1.00785789       0.98084548      11.52287130
Cu       1.19520084       7.67832732       4.51922128
Cu       1.30178966       7.79270749      11.50278849
Cu       8.06132840       0.85823418       4.31765895
Cu       8.22134852       0.91557775      11.39406622
Cu       8.26881011       7.68106009       4.52088969
Cu       8.27205146       7.71515899      11.43112111
Cu       6.17111638       2.41931605       0.90630416
Cu       6.36577477       2.51773596       7.86741677
Cu       6.40205770       9.26902481       0.98142237
Cu       6.53419252       9.30625359       7.94962732
Cu      13.40423571       2.33365271       0.86236240
Cu      13.41655636       2.49130325       7.93044801
Cu      13.62598030       9.11168762       0.78389716
Cu      13.70024070       9.22213045       7.85583358
Cu       1.08381632       2.67813276       6.18703892
Cu       1.16752561       2.63324605      13.23666634
Mg       1.20258601       9.49089857       6.26690319
Cu       1.33706902       9.53646563      13.18925853
Cu       8.05803342       2.44894581       6.14712293
Cu       8.20227039       2.59697200      13.22362272
Cu       8.22768845       9.23193528       6.18804058
Cu       8.45355662       9.35171154      13.20828061
Cu       4.43748307       0.77905564       0.86932823
Mg       4.55400971       0.88609710       7.84781474
Cu       4.68857170       7.49443059       0.90055161
Cu       4.76776515       7.70901315       7.93492097
Cu      11.53805826       0.70938386       0.78696656
Cu      11.64367077       0.75674460       7.88763156
Cu      11.61738907       7.44704697       0.88802712
Cu      11.84220021       7.61331080       7.92680372
