190
Lattice="14.286604968264456 0.09177292287747006 -0.4301121291550505 0.2889700779107008 14.562838823858103 0.13532874290742458 -0.003916907678792611 0.5094469133817322 14.503104322557487" Properties=species:S:1:pos:R:3 pbc="T T T"
Mg       3.53545062       0.22507087       3.52219904
Mg       3.56720690       0.36620954      10.77506677
Mg       3.68830257       7.49593320       3.62251328
Mg       3.67619583       7.73082612      10.79785785
Mg      10.75700340       0.22832702       3.36152426
Mg      10.68433682       0.50172268      10.55254591
Mg      10.80555907       7.45558695       3.31537429
Mg      10.86382243       7.77013885      10.59629559
Mg       1.86796820       1.95709068       1.77361865
Mg       1.81387802       2.08544555       9.04449809
Mg       1.97770955       9.24788542       1.84841461
Mg       1.95330924       9.45270469       9.15650426
Mg       8.94079342       1.95768566       1.46745601
Mg       9.00451589       2.20856293       8.84935526
Mg       9.11498031       9.28587143       1.69468394
Cu       9.09704612       9.47676381       9.00728122
Mg       0.04121415      -0.02468688      -0.02794823
Mg      -0.02177756       0.31176067       7.22292541
Mg       0.10448667       7.27662748       0.03289378
Mg       0.15003597       7.44484779       7.29994591
Mg       7.10773442       0.03589450      -0.15336499
Mg       7.05385908       0.24274788       7.03609757
Mg       7.35642751       7.38747131      -0.14026279
Mg       7.27351940       7.61524052       7.02929851
Mg       2.00592634       5.59067716       5.37326714
Mg       1.83913379       5.87082287      12.68956770
Mg       2.06502051      12.94906059       5.42071010
Mg       1.98465765      13.16934262      12.73731329
Mg       9.03106900       5.67445883       5.15633874
Mg       9.08306895       5.97257057      12.50142179
Mg       9.18759112      12.91134204       5.33759721
Mg       9.24451195      13.28555739      12.57482342
Mg       5.36317128       2.12849304       5.32309185
Mg       5.42118822       2.18663331      12.57305584
Mg       5.52033574       9.44583902       5.39959475
Mg       5.61157263       9.58460219      12.64685328
Mg      12.49380990       2.06958920       5.17742870
Mg      12.55026071       2.37924644      12.26770063
Mg      12.61659182       9.34548707       5.13646656
Mg      12.57119709       9.61151628      12.44094449
Mg       0.05698148       3.74604772       3.66627121
Cu       0.05271838       4.00324667      10.82359813
Mg       0.19885438      11.09397615       3.70244412
Mg       0.17033677      11.22979186      11.02602833
Mg       7.14380070       3.78382320       3.34946573
Mg       7.22718189       4.10327861      10.70659319
Mg       7.42903530      11.07051910       3.57928729
Mg       7.35263487      11.27791702      10.83656934
Mg       3.68774857       3.64321185      -0.06582420
Mg       3.63794159       3.92649818       7.23270695
Mg       3.76722019      11.00923018       0.03824188
Mg       3.76795099      11.22283249       7.23995173
Mg      10.76945453       3.71003157      -0.34473741
Cu      10.75614850       3.95804924       6.97490009
Mg      10.92368041      10.96244631      -0.17900245
Mg      10.92921602      11.22387064       7.07990541
Mg       5.49141354       5.53571124       1.69845344
Cu       5.45986505       5.84921663       9.07113732
Mg       5.55846420      12.90021428       1.76307054
Mg       5.61636868      13.05202658       9.10575389
Mg      12.65813758       5.57182409       1.51438041
Mg      12.64356083       5.86185690       8.71192198
Mg      12.76206179      12.93472142       1.56917960
Mg      12.79518735      13.07668510       8.82010648
Cu       6.32319384       4.75827327       6.15252268
Mg       6.41686617       5.02176976      13.44953120
Cu       6.39182388      12.01007318       6.22929180
Cu       6.48664522      12.45099680      13.51089062
Cu      13.40783534       4.91340519       5.92233106
Cu      13.53110395       5.09039891      13.24242244
Cu      13.68138168      12.10304593       6.02143238
Cu      13.57058872      12.39615416      13.31217909
Cu       4.65806748       6.56983129       6.24070105
Cu       4.54706297       6.86956408      13.63063648
Cu       4.73866153      13.85143898       6.40533032
Cu      11.74182997       6.65831189       6.11250217
Cu      11.76530104       7.01379003      13.32235126
Cu      11.91281834      13.87453752       6.16541482
Cu      11.88783887      14.16917345      13.41685879
Cu       2.73985640       2.91765551       4.38513122
Cu       2.74627205       3.21964709      11.66018668
Cu       2.91483234      10.13843835       4.47999524
Cu       2.83519921      10.48751365      11.76944717
Cu       9.93093393       3.11997223      11.47183947
Cu      10.00827305      10.28065809       4.33566519
Cu       9.99694796      10.46256926      11.62489971
Cu       6.27729773       1.08471100       2.53937905
Cu       6.25587424       1.36054108       9.81024463
Cu       6.45329516       8.32170284       2.66230600
Cu       6.48248080       8.62054403       9.79281267
Cu      13.33492483       1.05536324       2.35637971
Cu      13.38741751       1.41069133       9.55100606
Cu      13.46403898       8.31718377       2.31089112
Cu      13.50620434       8.71957316       9.63187038
Cu       0.98365228       4.58764399       0.87628161
Cu       0.98296581       4.88442879       8.17462739
Cu       1.16213294      11.80416354       1.04663370
Cu       1.19537136      12.13142419       8.23664817
Cu       8.21754420       4.60286020       0.77433835
Cu       8.20506746       4.90720232       7.94548462
Cu       8.16189490      11.92867005       0.79741193
Cu       8.18457645      12.18022650       7.96654198
Cu       4.50736508       4.70978125       4.42357087
Cu       4.61224665       4.96199360      11.73527819
Cu       4.71806379      11.93556091       4.54026656
Cu       4.64487470      12.17070073      11.74498859
Cu      11.73090793       4.72357255       4.21443678
Cu      11.73318814       5.02055049      11.49758208
Cu      11.80383660      12.08969287       4.26268426
Cu      11.89151566      12.36240461      11.55966339
Cu       0.98913306       6.40465849       2.74214853
Cu       0.99363546       6.69375186      10.05614286
Cu       1.20273919      13.78142825       2.82189054
Cu       1.23633437      13.96457625      10.01527210
Cu       8.13299924       6.52445691       2.56199950
Cu       8.14306229       6.68316554       9.79240718
Cu       8.29632617      13.86766437       2.61774985
Cu       8.28858484      14.12885119       9.93997873
Cu       2.80867804       6.42424577       0.87739963
Cu       2.76602055       6.67562098       8.11588827
Cu       2.97184732      13.74676282       0.99965171
Cu       2.97658921      13.78530169       8.14316310
Cu       9.90145966       6.44599222       0.65481688
Cu       9.97009705       6.77911610       7.94531967
Cu      10.07437491      13.81315996       0.70419887
Cu      10.15625843      13.93561131       7.99512778
Cu       2.75940339       4.68631556       2.70657611
Cu       2.86443410       4.93011490       9.96605547
Cu       2.94991709      11.95443160       2.75723040
Cu       2.90769848      12.36990046       9.98014209
Cu       9.90415474       4.76574111       2.45523124
Cu       9.98553172       5.02991708       9.80420471
Cu      10.10922771      12.03179838       2.57841461
Cu      10.06177915      12.26316332       9.77727116
Mg       4.47651177       2.88772190       2.60011793
Cu       4.57823510       3.07521881       9.89599689
Cu       4.65024511      10.10442538       2.70424080
Cu       4.67991397      10.34641074       9.97232707
Cu      11.65745406       2.89352888       2.49769617
Cu      11.67503178       3.05283601       9.66519023
Cu      11.82162768      10.22274602       2.54823205
Cu      11.71397658      10.40302415       9.74067019
Cu       6.42320093       6.60674182       4.37747587
Cu       6.50257522       6.83263203      11.69913409
Cu       6.50299130      13.83269184       4.44563623
Cu       6.49731304      14.12851813      11.67394523
Cu      13.50991940       6.61112395       4.18092569
Cu      13.50604246       6.84974646      11.47208350
Cu      13.64690044      13.97485134       4.17703313
Cu      13.66575304      14.17653316      11.53585781
Cu       2.64113791       1.13053888       6.24479059
Cu       2.72088424       1.45314561      13.54384572
Cu       2.78546995       8.43677470       6.28656580
Cu       2.81119013       8.71174143      13.66183366
Cu       9.92442617       1.19736019       6.09635151
Cu       9.86019075       1.45975055      13.41439053
Cu       9.97724597       8.55111076       6.18151461
Cu       9.97744915       8.72128955      13.37000727
Cu       0.94372054       1.04623654       4.55890999
Cu       0.89638539       1.27316522      11.79616633
Cu       1.04435364       8.34868289       4.69530305
Cu       1.08341428       8.64999646      11.90305870
Cu       8.03963190       1.10699615       4.31330876
Cu       8.00878175       1.48066978      11.59079597
Cu       8.23679611       8.40649925       4.34154781
Cu       8.19739357       8.66146807      11.68846889
Cu       6.33063861       2.83753569       0.80235058
Cu       6.18828667       3.04788081       8.03992326
Cu       6.46760314      10.21013067       0.83594278
Cu       6.38098070      10.38670780       8.13673327
Cu      13.50462106       2.87856231       0.52561754
Mg      13.45694453       3.11761564       7.84585596
Cu      13.55420105      10.16950508       0.60256803
Cu      13.57450146      10.43536627       7.85278124
Cu       0.82330724       2.94947392       6.30904238
Cu       0.93634624       3.21443484      13.62597420
Cu       1.08986335      10.19554608       6.47139805
Cu       1.15689652      10.41022449      13.72494819
Cu       8.05730860       2.98307429       6.15358772
Cu       8.10782773       3.20630137      13.35243540
Cu       8.22410613      10.24453372       6.10435373
Cu       8.16525912      10.55945322      13.41582815
Cu       4.43786542       1.00113399       0.76510726
Cu       4.34082256       1.30427701       8.11480555
Cu       4.70608795       8.22843984       0.75559687
Cu       4.59894025       8.43858479       8.16235596
Cu      11.54060485       0.96625734       0.54067024
Cu      11.57082421       1.23843100       7.83849828
Cu      11.81433480       8.31986585       0.51689143
Mg      11.74233292       8.52344382       7.81614306
