190
Lattice="14.4186077581891 0.4264443356255595 -0.03885793783155814 0.12083518659493714 14.17431642980263 -0.010625695211283991 -0.07359939001198568 0.16501805350465765 14.4314961034752" Properties=species:S:1:pos:R:3 pbc="T T T"
Mg       3.54082744       0.20011079       3.58859382
Mg       3.54780159       0.17615327      10.84817864
Mg       3.66230479       7.33041506       3.59646715
Mg       3.57261207       7.32370738      10.74519687
Mg      10.76956367       0.40297465       3.68247946
Mg      10.86041821       0.45096915      10.78542245
Mg      10.78888906       7.39821998       3.54991100
Mg      10.84671951       7.50334678      10.75476192
Mg       1.95187269       1.92531431       1.68795950
Cu       1.72065586       1.94479099       8.91603462
Mg       1.89109567       8.91655319       1.81305580
Mg       1.93673171       9.02146185       9.04995642
Mg       9.01698184       2.08152487       1.76059838
Mg       8.96681818       2.14279098       9.05760165
Mg       9.08786152       9.15120770       1.76369040
Mg       9.08374884       9.21366890       8.98040480
Mg       0.10518384      -0.01664714       0.01842236
Mg      -0.08027210      -0.03695928       7.23407161
Mg       0.08472183       7.07058791       0.13073902
Mg       0.01982808       7.16674023       7.07358192
Mg       7.21012087       0.16178130      -0.02442383
Mg       7.23273847       0.37894769       7.17202383
Mg       7.27365655       7.26662227       0.01354369
Mg       7.11611738       7.34813924       7.19136930
Cu       1.79651098       5.53998454       5.34653463
Mg       1.81563591       5.47244683      12.62836790
Mg       1.89956123      12.48730555       5.48438594
Mg       1.88468071      12.59022475      12.59448694
Cu       9.04321075       5.70110424       5.36667748
Mg       8.97778940       5.64349528      12.51097280
Mg       9.08437107      12.67760097       5.40360568
Mg       9.16221640      12.76712208      12.62944226
Mg       5.30878449       1.95693791       5.36768731
Mg       5.28850331       2.04115526      12.64934881
Mg       5.47316452       9.09709571       5.38460456
Mg      12.61270811       2.27961727       5.38761418
Mg      12.50522931       2.30560072      12.61276848
Mg      12.69334298       9.34054122       5.38019609
Mg      12.60391520       9.38454979      12.58977201
Mg       0.02930865       3.62469166       3.64610103
Mg      -0.01596862       3.75041442      10.86542018
Mg      -0.01321936      10.61062733       3.55718310
Mg       0.06100276      10.72040243      10.80245636
Mg       7.22545167       3.68002205       3.60232826
Mg       7.02316283       3.86940730      10.73291993
Mg       7.33606969      10.90918584       3.58903134
Mg       7.26802437      11.03372108      10.75095903
Mg       3.62096219       3.72017911      -0.10133417
Mg       3.57231031       3.66874418       7.28846675
Mg       3.71017600      10.68898205      -0.17907676
Mg       3.59932260      10.78961043       7.20592316
Mg      10.84644224       3.89749896       0.03374752
Mg      10.83376019       3.94050711       7.14984181
Mg      10.86920204      11.01401208      -0.02551362
Mg      10.89317634      10.94611351       7.18257883
Mg       5.30084148       5.59859885       1.79997229
Cu       5.37681862       5.60160256       8.98886760
Mg       5.52848558      12.55990198       1.83386165
Mg       5.39205394      12.56884437       9.13624972
Mg      12.65704941       5.74452798       1.80724460
Mg      12.58352735       5.83905460       9.06507008
Mg      12.72290664      12.83515785       1.77288034
Mg      12.72446760      12.81724751       8.97197330
Cu       6.29151252       4.57858073       6.26966967
Cu       6.31879810       4.78137678      13.47442829
Cu       6.37826236      11.83045429       6.21725649
Cu       6.33910121      11.89889396      13.49072663
Cu      13.51935567       4.91269559       6.26889155
Cu      13.48457764       4.91081598      13.50944937
Cu      13.56001182      11.98407412       6.13474683
Cu      13.56127573      12.07904542      13.52561150
Cu       4.46859306       6.41508664       6.25481492
Cu       4.50298782       6.44426767      13.54786586
Cu       4.62487228      13.51889299       6.27842257
Mg       4.51889672      13.55081649      13.51146822
Cu      11.74848372       6.67066814       6.26730777
Cu      11.75406303       6.77154013      13.52886753
Cu      11.72421422      13.63384352       6.25854819
Cu      11.77464698      13.83787070      13.57132561
Cu       2.65888450       2.76343531       4.49715574
Cu       2.64567969       2.86200167      11.75239636
Cu       2.74924957       9.94092769       4.49379062
Cu       2.79768821       9.92756370      11.71456786
Cu       9.87359453       3.04883926       4.53511840
Cu       9.87048851       3.03064633      11.67865409
Cu       9.96177612      10.06019771       4.48522350
Cu       9.96961201      10.15816626      11.71306339
Cu       6.31501237       1.17209030       2.65744781
Cu       6.29822428       1.21365185       9.87102655
Cu       6.28897049       8.19117247       2.70747983
Cu       6.19451717       8.19488747       9.80658490
Mg      13.59788958       1.32307859       2.58818942
Cu      13.49513283       1.46953836       9.87834238
Cu      13.52741443       8.41593229       2.63785184
Cu      13.61290999       8.59587801       9.85795099
Cu       0.90630819       4.49233437       0.92766880
Cu       0.88505846       4.55975201       8.13719343
Cu       1.09615554      11.52913676       0.85524469
Cu       0.89015311      11.71944009       8.21089890
Cu       8.02255319       4.74065955       0.88881654
Cu       8.08294623       4.77040660       8.12621871
Cu       8.23146458      11.77983445       0.93827213
Cu       8.12349792      11.83152203       8.13307425
Cu       4.47241236       4.58771490       4.53140890
Cu       4.44158428       4.73143783      11.59770336
Cu       4.57383947      11.74645684       4.40729526
Cu       4.51628823      11.79380148      11.73140089
Cu      11.70968787       4.87305070       4.51153179
Cu      11.68518296       4.89883677      11.77175269
Cu      11.79152442      11.93324297       4.46803718
Cu      11.79602037      11.93478549      11.70604531
Cu       0.93654356       6.17932691       2.68428010
Cu       0.87356429       6.28381357       9.83749715
Cu       1.04197718      13.43258912       2.67405182
Cu       0.95601753      13.52167366       9.98189780
Cu       8.24715470       6.46797133       2.63612854
Cu       8.09184860       6.58321416       9.97597529
Cu       8.14235401      13.53398964       2.71119286
Cu       8.23591689      13.59814283       9.92766525
Cu       2.77858215       6.31089893       0.95349851
Cu       2.77930696       6.31048949       8.09347336
Cu       2.80467739      13.37949225       0.91413883
Cu       2.81971757      13.45811875       8.01996842
Cu      10.02567320       6.53958531       0.84156907
Cu       9.93045224       6.61206108       8.10287543
Cu      10.05569603      13.67006949       0.82656442
Cu       9.94791381      13.71297790       8.09154852
Cu       2.69034494       4.46731754       2.76365802
Cu       2.63438828       4.66667652       9.77159530
Cu       2.81864085      11.60873796       2.65294187
Cu       2.78844742      11.70631721       9.90856454
Mg       9.96826954       4.83659724       2.64860374
Cu       9.84657322       4.89615559       9.82946345
Cu      10.03713510      11.90618175       2.61100662
Cu       9.99995821      11.94866330       9.85133866
Cu       4.52752952       2.83659244       2.68608878
Cu       4.49741428       2.91383693       9.93521207
Cu       4.58515813       9.91567951       2.68917142
Cu       4.46472717      10.04219904       9.92034163
Cu      11.78223612       3.09444794       2.73305767
Cu      11.70535058       3.12097784       9.79893433
Cu      11.71113468      10.05636723       2.61640267
Cu      11.70923470      10.26304697       9.93087340
Cu       6.31650828       6.38621753       4.50330843
Cu       6.29546363       6.53804868      11.64842679
Cu       6.38774420      13.49782565       4.61300298
Cu       6.43664200      13.64843576      11.69768117
Cu      13.54200526       6.63917967       4.51244217
Cu      13.52304358       6.80917706      11.70972369
Cu      13.67502085      13.76100752       4.55744985
Cu      13.48078014      13.73123983      11.58980150
Cu       2.65005575       1.03258205       6.33268222
Cu       2.72647435       1.09339073      13.50952025
Cu       2.66571406       8.05296994       6.26653874
Cu       2.76351433       8.12949164      13.65264189
Cu       9.84852130       1.20344091       6.27109130
Cu       9.80724729       1.28748071      13.41378556
Cu       9.94109305       8.34544668       6.21817916
Cu       9.90599889       8.48055384      13.51761672
Cu       0.88795196       0.98436583       4.52187804
Cu       0.91443443       1.10980180      11.71308504
Cu       1.00824779       8.09089531       4.50311843
Cu       1.01428346       8.14517909      11.70334879
Cu       8.07202649       1.22568184       4.57278738
Cu       8.16223044       8.28655012       4.44838843
Cu       8.10728321       8.40141852      11.74271421
Mg       6.25922121       2.96376602       0.88167685
Cu       6.28444682       2.96854696       8.15008060
Cu       6.33912432       9.94859682       0.77234492
Cu       6.34269382       9.98805885       8.05096814
Cu      13.46577816       3.06141360       0.85529714
Cu      13.56729223       3.18152331       8.13564234
Cu      13.62070103      10.15112868       0.87845516
Cu      13.56896152      10.31017428       7.99950968
Cu       0.88504282       2.75046439       6.23473045
Cu       0.90911460       2.84936525      13.47567375
Cu       0.98098427       9.87741243       6.29189300
Cu       0.97418174       9.95190256      13.57421383
Cu       8.14993494       2.90143018       6.19750771
Cu       8.10767602       2.99291725      13.50685948
Cu       8.18094530      10.01287670       6.25128850
Cu       8.14005919      10.10576585      13.49737356
Cu       4.45573661       0.96983667       0.91782308
Cu       4.50343472       1.15284849       8.15156983
Cu       4.60356684       8.20360772       0.85021188
Cu       4.45842473       8.21153157       7.97632297
Cu      11.85257702       1.15936685       0.82246037
Cu      11.71076765       1.31176613       8.11247790
Cu      11.72210561       8.30937432       0.78350195
Cu      11.66955685       8.50035300       8.06684832
