191
Lattice="14.444443416846383 0.10963534456990415 0.2224794518671376 -0.5542080503896908 13.609800531092977 -0.045209467025908355 -0.06680516957473343 -0.08061099015730538 14.35294145787978" Properties=species:S:1:pos:R:3 pbc="T T T"
Mg       3.54931772      -0.01341054       3.67977331
Mg       3.57939437      -0.07832733      10.85541942
Mg       3.31048751       6.77950036       3.53941730
Mg       3.24500433       6.80180375      10.81724334
Mg      10.79963018       0.09342279       3.72390971
Mg      10.71533806       0.01946080      10.92842225
Mg      10.51514014       6.84868839       3.67567337
Mg      10.43947468       6.85848154      10.84671766
Mg       1.71222147       1.66258680       1.85310800
Mg       1.67225529       1.57515362       9.05297362
Mg       1.42402151       8.45241635       1.92037797
Mg       1.38286157       8.50957769       9.08067939
Mg       8.99294488       1.78474267       1.89718854
Mg       8.83325140       1.78228765       9.12229152
Mg       8.76137965       8.55359218       1.99294226
Mg       8.61470373       8.53100353       9.09581552
Mg       0.03282286      -0.01408230      -0.05163670
Mg      -0.04426081      -0.01883247       7.15165314
Mg      -0.17917564       6.81163227       0.06063785
Mg      -0.26049833       6.78662944       7.19858287
Mg       7.21662098       0.08228923       0.06681236
Mg       7.27486362       0.06745489       7.31303404
Mg       6.97030423       6.78973004       0.06080999
Mg       6.78135169       6.81327286       7.22632149
Mg       1.59705578       5.11017310       5.48195153
Mg       1.51163602       5.05056611      12.55068888
Mg       1.30906363      11.92762779       5.42799028
Cu       1.24359758      11.86938270      12.59638218
Mg       8.74993245       5.21616290       5.47895560
Mg       8.74290455       5.07656910      12.74047472
Mg       8.47829460      11.93667760       5.52293069
Mg       8.52005891      11.92047959      12.70905953
Mg       5.27139699       1.68828219       5.45376931
Mg       5.22139672       1.61317936      12.59360313
Cu       5.13705716       8.45679766       5.43701262
Cu       5.02068964       8.43518925      12.62592597
Mg      12.52603300       1.85653083       5.50970037
Mg      12.56380338       1.72146318      12.77006740
Mg      12.23907501       8.60786441       5.46527972
Mg      12.32956532       8.62387185      12.69467419
Mg      -0.26865378       3.48358030       3.55169933
Mg      -0.22168521       3.31392786      10.77550618
Mg      -0.46062344      10.18685211       3.66064018
Mg      -0.45228192      10.20426762      10.71080446
Mg       7.09382900       3.41292816       3.68714608
Mg       7.03477771       3.38297388      10.90588242
Mg       6.75737335      10.24524075       3.71766317
Mg       6.77712117      10.20174663      10.88163615
Mg       3.38630903       3.52144153       0.06509934
Cu       3.48421025       3.44455734       7.21725158
Mg       3.23308818      10.16255005      -0.02779151
Mg       3.01896954      10.10247632       7.19923949
Mg      10.74815651       3.52111940       0.09749035
Mg      10.73082786       3.41730998       7.33348686
Mg      10.48499577      10.29034269       0.07478877
Mg      10.33544276      10.24701421       7.27518838
Mg       5.32164549       5.12515309       1.82377624
Mg       5.25309755       5.12058781       9.08494319
Mg       4.89767641      12.00085617       1.82205134
Mg       4.88338842      11.85017482       9.05713462
Mg      12.46958231       5.16801150       1.93545840
Mg      12.37813650       5.21430528       9.08844293
Mg      12.10628545      11.99527124       1.84813150
Mg      12.15712683      11.97832426       9.10141704
Cu       6.14605820       4.26317866       6.36461838
Cu       6.04836111       4.21945649      13.52162913
Cu       5.81757018      11.04442449       6.35336084
Cu       5.79853771      11.07620603      13.57148240
Cu      13.31593738       4.35615508       6.45366247
Cu      13.33989663       4.26531778      13.62010779
Cu      13.08582253      11.22045283       6.52200295
Cu      13.11055951      11.15056086      13.60565393
Cu       4.33020970       5.97840728       6.28119737
Cu       4.21700488       5.89194442      13.58869405
Cu       3.93475886      12.75055302       6.33750920
Mg       3.86832519      12.59191514      13.47498043
Cu      11.48554688       6.00791211       6.48563748
Cu      11.49074187       5.95029078      13.53027478
Cu      11.14112566      12.80154125       6.42739291
Cu      11.07504554      12.66087114      13.59385432
Cu       2.65514308       2.52899458       4.53483194
Cu       2.56782394       2.46005845      11.62931376
Cu       2.38872932       9.39699337       4.51154749
Cu       2.31151369       9.36827468      11.61615709
Cu       9.74561584       2.62205096       4.58270528
Cu       9.69730666       2.56225959      11.68505978
Cu       9.50390122       9.43379933       4.50105134
Cu       9.49178055       9.33048541      11.83373857
Cu       6.32209077       0.85563111       2.73752434
Cu       6.33863110       0.83486088       9.97435526
Cu       5.97549210       7.61254019       2.72053348
Cu       6.01930812       7.67100751       9.96107366
Cu      13.37300294       0.94886814       2.97262337
Cu      13.44410822       0.91056330      10.07291562
Cu      13.18844879       7.73821771       2.80354929
Cu      13.22602788       7.73424463      10.04670412
Cu       0.73668275       4.16849399       0.92201216
Cu       0.72095549       4.17935607       8.08468796
Cu       0.37271122      11.08605476       0.91758269
Cu       0.46374683      11.01083912       8.01882774
Cu       8.01273783       4.35075535       1.07654143
Cu       7.77058455       4.30219083       8.10255648
Cu       7.74794238      11.15684669       0.89418813
Cu       7.62128721      11.08344291       8.12012182
Cu       4.34191323       4.31991499       4.56812923
Cu       4.27755147       4.26214168      11.68791297
Cu       4.00844508      11.05579730       4.45702816
Cu       4.01693701      10.98803400      11.76269285
Cu      11.47771323       4.24260486       4.72351427
Cu      11.61929079       4.17205356      11.85839583
Cu      11.39055674      11.15904559       4.65117709
Cu      11.17593008      11.11285825      11.74894182
Cu       0.66125056       5.87907360       2.77269026
Cu       0.64775744       5.95901493       9.87807352
Cu       0.34356918      12.74280069       2.68953842
Cu       0.34308392      12.75843492       9.88629667
Cu       7.89217902       5.97937802       2.82296422
Cu       7.79975860       5.94762471       9.98586164
Cu       7.54537472      12.81904377       2.76391204
Mg       7.52954388      12.77929081       9.95875295
Cu       2.43230911       6.10327350       0.95701959
Cu       2.40203276       5.93491298       8.11803439
Cu       2.22218847      12.80311564       0.94419362
Cu       2.22818784      12.69895955       8.09877175
Cu       9.68057593       6.00317009       0.93885756
Cu       9.63927187       5.92672715       8.15859919
Cu       9.40052087      12.81176543       0.93612925
Cu       9.42978374      12.76377300       8.22631778
Cu       2.46265750       4.24298442       2.69771822
Cu       2.46577790       4.21131730       9.84166360
Cu       2.28366577      11.08571733       2.69888196
Cu       2.22768822      10.91662479       9.85789317
Cu       9.77402679       4.35051148       2.89050261
Cu       9.76512488       4.34266027       9.98531853
Cu       9.40995897      11.19325589       2.88416578
Cu       9.33965780      11.15324467      10.08361125
Cu       4.42868417       2.49596292       2.72766592
Cu       4.34717384       2.59889808       9.90526574
Cu       4.11803614       9.36426396       2.72490270
Cu       4.02249272       9.33138420       9.95763588
Cu      11.63279548       2.56851623       2.79253203
Cu      11.57771809       2.60246983       9.97579682
Cu      11.32437589       9.40049341       2.85251547
Cu      11.29052740       9.32006809       9.94145786
Cu       6.02333398       6.02257395       4.61366421
Cu       6.01801735       5.93910624      11.79521452
Cu       5.72388095      12.75394207       4.58839932
Cu       5.66282212      12.72861387      11.69812812
Cu      13.24047356       5.99757662       4.76310193
Cu      13.23946706       5.94560911      11.84371631
Cu      12.97773370      12.73153382      11.70878012
Cu       2.64434438       0.79850560       6.22511488
Cu       2.58021661       0.85238846      13.42610051
Cu       2.30100885       7.64969612       6.29736161
Cu       2.45739563       7.64113585      13.37910642
Cu       9.92248655       0.88244465       6.39056226
Cu       9.85678324       0.89190548      13.49830870
Cu       9.59536850       7.63236922       6.40259468
Cu       9.56377723       7.67326314      13.60021953
Cu       0.76960103       0.88199699       4.55385658
Cu       0.85536654       0.77763329      11.65032750
Cu       0.58094625       7.62008982       4.40124266
Cu       0.54444511       7.60018303      11.62024682
Cu       8.14801368       0.91613411       4.62631562
Cu       8.03902556       0.76429643      11.76638253
Cu       7.71862450       7.68363789       4.57094580
Cu       7.65449959       7.63572011      11.74915865
Cu       6.27958851       2.54369642       0.94731851
Cu       6.06145073       2.43716482       8.18915214
Mg       5.83652186       9.38145805       0.91758153
Cu       5.92162401       9.36667004       8.16224069
Cu      13.41355582       2.63034667       1.09021812
Cu      13.43768452       2.56338148       8.29912883
Cu      13.13539152       9.53634705       1.15470001
Cu      13.10465517       9.42502686       8.29916411
Cu       0.83071022       2.51523706       6.28563820
Cu       0.79531379       2.44942920      13.49559344
Cu       0.57555562       9.41422571       6.22230524
Cu       0.46208479       9.30732090      13.47939034
Cu       7.97024526       2.53915140       6.37542007
Cu       7.97861052       2.48669246      13.70158925
Cu       7.68475083       9.34139209       6.49934101
Cu       7.65022591       9.31449867      13.52231908
Cu       4.49524166       0.87256231       0.90261292
Cu       4.41511122       0.83111358       8.10346694
Mg       4.15234470       7.75640742       0.97423531
Cu       4.12425351       7.59302356       8.07034952
Cu      11.79059305       0.92802581       1.07549515
Cu      11.66557548       0.88135360       8.22354997
Cu      11.35722021       7.77656200       1.02804917
Cu      11.39949085       7.66379249       8.21322926
