191
Lattice="14.0496742682541 0.010845202854586684 -0.17902368738122393 0.05330162621838792 14.963594017220878 0.1330243073130653 0.05607360506742214 0.28570321650141567 14.172207527228267" Properties=species:S:1:pos:R:3 pbc="T T T"
Mg       3.55256120       0.08791357       3.53093019
Mg       3.53720533       0.18101946      10.49233288
Mg       3.52605924       7.44102618       3.58881065
Mg       3.50470954       7.69921967      10.72337687
Mg      10.50152105       0.05006335       3.35098202
Mg      10.59756738       0.19287339      10.54821118
Mg      10.62223278       7.56897730       3.40991954
Mg      10.52268574       7.73888721      10.56308899
Mg       1.72105606       1.94217491       1.64999091
Mg       1.90681966       1.96152467       8.91977379
Mg       1.74308593       9.40328038       1.90234702
Mg       1.74828994       9.57006332       8.84491158
Cu       8.84814978       1.97274869       1.67418374
Mg       8.86405596       2.07518036       8.76364807
Mg       8.86947104       9.50779319       1.78550738
Mg       8.87406975       9.49360548       8.87006666
Mg      -0.02825761      -0.02341099       0.02926231
Mg       0.08982351       0.23499249       7.03563630
Mg       0.07963140       7.54527948       0.07225996
Mg       0.10629221       7.71936044       7.11255311
Mg       6.96809341      -0.01248250      -0.11494747
Mg       6.92631516       0.06668551       6.99961912
Mg       7.01066256       7.49940136       0.02187306
Mg       7.11931237       7.59112942       7.14519331
Mg       1.91558191       5.69716676       5.36866458
Mg       1.87645277       5.73657977      12.47254314
Mg       1.88735722      13.10364453       5.30374318
Mg       1.85056354      13.37329958      12.52253427
Mg       8.86766022       5.76216730       5.19854984
Mg       8.96108858       5.93966939      12.31385168
Mg       8.83302639      13.09650694       5.31812972
Mg       8.80288867      13.35123049      12.44114074
Mg       5.37431759       1.98740671       5.27695798
Mg       5.28298597       2.09880010      12.30479226
Mg       5.32301698       9.41220324       5.34413594
Mg       5.29634332       9.57820623      12.43623178
Mg      12.24118688       1.93015348       5.12852232
Mg      12.31641099       2.05044692      12.34653690
Mg      12.33181557       9.50978461       5.27014487
Mg      12.28857869       9.59178193      12.37162967
Mg       0.00205741       3.86666802       3.60253741
Mg       0.03243675       3.96981868      10.72326505
Mg       0.07068536      11.18545020       3.67678533
Mg       0.08889441      11.43798461      10.73135424
Mg       7.04562653       3.83438366       3.45866962
Mg       7.05044476       3.97321639      10.61522254
Mg       7.10530629      11.34469475       3.52696281
Cu       7.19084381      11.47653417      10.57834216
Mg       3.52935789       3.71080674       0.03103082
Mg       3.53531932       3.85304091       7.05562960
Mg       3.55648773      11.16220226       0.09947808
Mg       3.60055122      11.41276491       7.17507052
Mg      10.62867664       3.78546441      -0.08713796
Cu      10.56717987       3.79293503       7.00933598
Mg      10.54128483      11.38214631      -0.02517552
Cu      10.54782408      11.36636946       7.00058310
Mg       5.30520938       5.64444374       1.67217998
Mg       5.28719583       5.82335779       8.74769400
Mg       5.39886885      13.21442053       1.93125301
Mg       5.27016493      13.30335988       8.94619730
Mg      12.28311212       5.66496293       1.66139447
Mg      12.36328626       5.77172901       8.78165099
Mg      12.34614660      13.17415026       1.78880141
Cu      12.31774487      13.31233513       8.83409291
Mg       6.29700619       4.90394453      13.21099039
Cu       6.11929915      12.33829777       6.25989161
Cu       6.27953455      12.40523718      13.28561604
Cu      13.22021427       4.78468396       6.06738737
Cu      13.21373901       4.91517082      13.13841884
Cu      13.20913985      12.34419318       6.15892542
Mg      13.33659188      12.38302884      13.23712742
Cu       4.41663397       6.71692688       6.24829538
Cu       4.44362993       6.82454684      13.22966924
Cu       4.49830149      14.18927770       6.22084747
Cu       4.41849210      14.42004547      13.31235801
Cu      11.47718899       6.74966026       6.06688824
Cu      11.55120948       6.74706457      13.23741853
Cu      11.46304706      14.20608739       6.17143321
Cu      11.53146751      14.29543991      13.19605578
Cu       2.62079607       2.87525400       4.51877190
Cu       2.82163776       2.95371753      11.46975056
Cu       2.74570287      10.43926209       4.43032202
Cu       2.72476885      10.58468262      11.46983010
Cu       9.66012397       2.94424524       4.34921351
Cu       9.66264510       2.93813327      11.34480538
Cu       9.76837787      10.40772488       4.38914897
Cu       9.72040717      10.51849930      11.50034051
Cu       6.09947484       0.93571883       2.58477381
Cu       6.19030323       1.12219370       9.67803471
Cu       6.12764390       8.59861554       2.57197031
Cu       6.26443590       8.66426843       9.68337870
Cu      13.14981131       1.05858678       2.50341506
Cu      13.23681107       1.02853447       9.58224460
Cu      13.25743296       8.45872848       2.58787857
Cu      13.22158064       8.63667631       9.65733689
Cu       0.92088263       4.74732971       0.95655027
Cu       0.95061385       4.84721295       7.97672472
Cu       0.97194283      12.18692732       0.93143772
Cu       0.93838267      12.36607932       8.09577266
Cu       7.84088397       4.75836796       0.80982856
Cu       7.85788524       4.88434204       7.86640607
Cu       7.89690191      12.20733851       0.86149055
Cu       7.96937396      12.38798339       7.93556087
Mg       4.45608737       4.73620798       4.40917656
Cu       4.42361242       4.90448317      11.52988596
Cu       4.46436962      12.36121099       4.47753861
Cu       4.47797012      12.40801383      11.64054057
Cu      11.41080324       4.75422075       4.32679668
Cu      11.44146654       4.93492057      11.38104787
Cu      11.51492157      12.22298064       4.39222758
Cu      11.55340507      12.39582893      11.45089680
Cu       0.89295329       6.64975916       2.69073287
Cu       1.00227620       6.75933804       9.84992890
Mg       0.91862808      14.10227295       2.69580849
Cu       1.07821024      14.27320178       9.83346225
Cu       8.03105711       6.57941991       2.53749910
Cu       7.99131340       6.77243947       9.68079142
Cu       8.01558771      14.07557594       2.67191322
Cu       7.96195098      14.23312631       9.72733455
Cu       2.71885689       6.54178675       0.87594752
Cu       2.70333307       6.71982412       7.91995284
Cu       2.73872262      14.10737520       1.00788802
Cu       2.73336037      14.17677007       8.01064505
Cu       9.69856490       6.69290442       0.78607834
Cu       9.75132988       6.71891188       7.96251384
Cu       9.74777953      14.02315971       0.94832122
Cu       9.79221358      14.19984430       7.94709335
Cu       2.74706874       4.71679317       2.70375843
Cu       2.67794358       4.90323354       9.69093779
Cu       2.70608807      12.27779125       2.68947019
Cu       2.64653707      12.34553267       9.79261031
Cu       9.68520539       4.75026413       2.51636290
Cu       9.75790924       4.86002722       9.61872724
Cu       9.73585779      12.26232574       2.62095338
Cu       9.75731976      12.31548056       9.63131526
Cu       4.43764388       2.84251040       2.61172894
Cu       4.38052820       3.06864459       9.66608412
Cu       4.41528090      10.39655987       2.72016232
Cu       4.46501191      10.52012142       9.78983308
Cu      11.42343347       2.87191716       2.52088919
Cu      11.51713416       3.04874121       9.64194313
Cu      11.38906999      10.28705569       2.62062341
Cu      11.40665499      10.45619072       9.73863595
Cu       6.27226209       6.75126230       4.50716920
Cu       6.16237266       6.83177226      11.47143400
Cu       6.18958451      14.13537122       4.45019016
Cu       6.24987243      14.23424076      11.48399645
Cu      13.18910666       6.52270333       4.33549026
Cu      13.19735321       6.71882427      11.45193684
Cu      13.25398435      14.12672650       4.44106445
Cu      13.27883586      14.24512840      11.41788221
Cu       2.69622111       1.08030601       6.20682127
Cu       2.74447055       1.18605160      13.33031852
Cu       2.72210051       8.50595026       6.17023323
Cu       2.75120907       8.72124185      13.33370835
Cu       9.75532830       1.04928135       6.14131987
Cu       9.71837692       1.28437398      13.17069133
Cu       9.78255392       8.52612900       6.17670642
Cu       9.78140222       8.61614736      13.23591606
Cu       0.92044508       0.97457971       4.40350258
Cu       0.95093806       1.15986750      11.55530438
Cu       0.97593222       8.53911414       4.48458528
Cu       0.88347588       8.64851865      11.66657376
Cu       7.84550774       1.02765291       4.32142922
Cu       7.91928109       1.05561270      11.46481694
Cu       7.92652631       8.51816845       4.47167265
Cu       8.00684234       8.59142669      11.50244714
Cu       6.21549058       2.78359081       0.76791607
Cu       6.16424751       3.05204368       7.83963390
Cu       6.12635023      10.35735465       0.91935208
Cu       6.26152515      10.49300027       7.95018623
Cu      13.14159316       2.81584828       0.76270945
Cu      13.22693184       2.89327272       7.85007211
Cu      13.30153408      10.35587394       0.72872975
Cu      13.23079972      10.43095024       7.87500666
Cu       1.01985329       2.82873855       6.21388173
Cu       0.93954675       2.97063285      13.27070477
Cu       0.92051667      10.39547388       6.26586166
Cu       0.90044867      10.59088089      13.43547516
Cu       8.04441805       2.97808586       6.18287147
Cu       8.01039914       3.09397732      13.12674870
Cu       7.88032792      10.43679284       6.15696782
Cu       7.98537207      10.61540217      13.37824395
Cu       4.46279583       0.96100613       0.92760252
Cu       4.41915636       1.15591831       7.78572216
Cu       4.39714614       8.49030892       0.92970197
Cu       4.45700111       8.64558095       7.95612838
Cu      11.46903777       0.87940588       0.70854109
Mg      11.40148594       1.14352962       7.86888559
Cu      11.59154290       8.41785701       0.73156025
Cu      11.50673017       8.53577887       7.86651196
