191
Lattice="13.900116925712261 -0.03383627413396296 -0.09915655985569184 -0.2365180789734081 14.340021569959603 0.5366813734549029 0.17586342672101313 -0.03017295586410823 13.87113384548986" Properties=species:S:1:pos:R:3 pbc="T T T"
Mg       3.47492279       0.03799710       3.43910233
Mg       3.55517840      -0.03894785      10.51869243
Cu       3.49433195       7.15443636       3.70139631
Mg       3.53889087       7.19627857      10.68446139
Mg      10.36140574      -0.07189934       3.37574679
Mg      10.60188460      -0.04031156      10.23629779
Mg      10.37197108       7.21776603       3.63083503
Mg      10.46442722       7.16115142      10.60168076
Mg       1.75297203       1.78677167       1.66332195
Mg       1.75021477       1.88677216       8.75916437
Mg       1.70104786       8.89488687       2.02496445
Mg       1.69087116       8.96345951       9.01249670
Mg       8.68453845       1.80808084       1.79071645
Mg       8.83631675       1.74524904       8.61434211
Mg       8.62684454       8.90354363       2.03672031
Mg       8.73538509       8.97725442       8.87794364
Mg       0.01448638      -0.04473402      -0.09010488
Mg       0.11984338       0.06791711       6.95790162
Mg      -0.08574706       7.11172207       0.29564107
Mg      -0.04727496       7.10893917       7.17283385
Mg       6.92884856      -0.05618993      -0.04359640
Mg       6.99258535      -0.02374314       6.97018456
Mg       6.88472101       7.15368451       0.20813978
Mg       6.92935615       7.10012076       7.12711565
Mg       1.67805781       5.38830934       5.37528058
Mg       1.73236315       5.26499059      12.34505935
Mg       1.56114727      12.61212865       5.72650017
Mg       1.65424471      12.49713170      12.63340916
Mg       8.73751106       5.45130349       5.24444287
Mg       8.73741627       5.32686014      12.26706259
Mg       8.51732824      12.51129616       5.63885597
Mg       8.65269059      12.46273114      12.51903447
Mg       5.19788837       1.78914937       5.27035408
Mg       5.28512152       1.68843528      12.13367166
Mg       5.18479792       8.85842751       5.47928801
Mg       5.18878866       8.88018727      12.39723425
Mg      12.20454838       1.78912649       5.17814143
Cu      12.28713758       1.78080125      12.19920433
Mg      12.14676796       9.00472239       5.48661493
Mg      12.18524225       8.87717647      12.39556481
Mg      -0.09755227       3.63321583       3.50039006
Mg       0.03605351       3.60525863      10.53020947
Mg      -0.08979189      10.70242922       3.87570284
Mg       0.02510408      10.77428503      10.76309090
Mg       6.97835469       3.49396294       3.58493395
Mg       7.04029725       3.53890277      10.46214285
Mg       6.78741222      10.68944910       3.76358962
Mg       6.93720571      10.86607513      10.79218605
Mg       3.37086342       3.69481143       0.01002075
Mg       3.48907002       3.66844471       7.08528907
Mg       3.30229050      10.78808199       0.37303116
Mg       3.35454595      10.73358384       7.31098977
Mg      10.38314977       3.59127278       0.00634714
Mg      10.40785851       3.47557935       6.97321728
Cu      10.28400661      10.73447666       0.34780945
Mg      10.30730823      10.72390129       7.17724463
Mg       5.16685070       5.32984173       1.86189134
Mg       5.17969558       5.27955154       8.83182265
Mg       5.03907928      12.59396198       2.13797129
Mg       5.01732416      12.54487683       9.13246024
Mg      12.06948154       5.28831162       1.85843323
Mg      12.19956257       5.44314080       8.85901295
Mg      11.93744457      12.48420448       2.14089548
Mg      12.07170143      12.50937385       9.07626165
Cu       6.17308571       4.52272010       6.26672751
Cu       6.20135976       4.39952619      13.08277806
Cu       5.87954608      11.58909629       6.49572833
Cu       6.11633676      11.60502892      13.49145700
Cu      13.01661185       4.45161787       6.10779764
Cu      13.10457524       4.44804604      13.12656429
Cu      12.92760734      11.65719300       6.39427171
Mg      13.00306886      11.62696068      13.31843139
Cu       4.28458420       6.18692895       6.24669235
Cu       4.41309392       6.26439220      13.22069729
Cu       4.17228204      13.44748455       6.46347356
Cu       4.34767456      13.40111223      13.37864446
Cu      11.29988352       6.18199379       6.22658049
Cu      11.28896774       6.25323260      13.30750727
Cu      11.23135032      13.35524816       6.52343679
Cu      11.26891523      13.35412926      13.51556231
Cu       2.66613145       2.64160328       4.53271345
Cu       2.71184810       2.63497004      11.39815159
Cu       2.48247879       9.76898183       4.70025562
Cu       2.70180427       9.77660645      11.61797567
Cu       9.58685121       2.66573546       4.43410962
Cu       9.62689558       2.65724265      11.28054834
Cu       9.41691353       9.76170674       4.62044879
Cu       9.57711861       9.82427401      11.59877415
Cu       6.10473950       0.88530487       2.65729073
Cu       6.20238071       0.84067856       9.46179685
Cu       5.99191869       8.11839241       2.93159656
Cu       5.94748008       7.97150921       9.73256728
Cu      13.00719574       0.88234335       2.49258821
Mg      13.13320890       0.85176309       9.54417812
Cu      12.94291967       8.02215488       2.79119565
Cu      13.03596062       8.03784633       9.75079897
Cu       0.84341874       4.55454412       1.04326023
Cu       0.79216105       4.41176596       7.93713008
Cu       0.65215613      11.71457658       1.26053935
Cu       0.77267912      11.65744333       8.21089742
Cu       7.71933592       4.41310903       0.94403985
Cu       7.83336062       4.39167939       7.86281118
Cu       7.68642219      11.56274427       1.25439924
Cu       7.76308061      11.67455770       8.12307813
Cu       4.31922791       4.48247883       4.40901420
Cu       4.40471999       4.46064634      11.49936030
Cu       4.16546006      11.54004119       4.71892314
Cu       4.41455011      11.60581447      11.65223187
Cu      11.25017252       4.40814248       4.37369984
Mg      11.36751990       4.36510765      11.37388108
Cu      11.09130330      11.58883819       4.75167368
Cu      11.23979003      11.67584444      11.54748335
Cu       0.84604566       6.32334741       2.71481498
Cu       0.89434857       6.25823531       9.77257862
Cu       0.77618064      13.37157012       3.09602107
Cu       0.84575679      13.43208895      10.09045248
Cu       7.67108879       6.20878336       2.79674291
Cu       7.80759836       6.30164991       9.68064698
Cu       7.61616493      13.42498928       2.99527597
Cu       7.71600539      13.40298710      10.00900783
Cu       2.52235119       6.29385409       1.03556134
Cu       2.73634039       6.26539222       8.02479131
Cu       2.39987868      13.33418259       1.43656252
Cu       2.41223603      13.42395244       8.32093593
Cu       9.44938275       6.29952462       0.99718404
Cu       9.58316499       6.20067694       7.94724978
Cu       9.32507880      13.49773856       1.25550060
Cu       9.35147139      13.41783739       8.15429727
Cu       2.52571352       4.49985803       2.66223055
Cu       2.57147510       4.50593564       9.64295725
Cu       2.51219724      11.72103344       3.08088202
Cu       2.43199985      11.68823170       9.99470963
Cu       9.56937302       4.52793619       2.77617802
Cu       9.67544411       4.46665930       9.67989416
Cu       9.43763645      11.63893753       2.94024160
Cu       9.34751828      11.67872077       9.91171193
Cu       4.39829427       2.70496425       2.68653770
Cu       4.34057731       2.67801176       9.54764344
Cu       4.21448326       9.92237115       2.87126096
Cu       4.26641360       9.80388856       9.92527505
Cu      11.46660263       2.72963979       9.54439093
Cu      11.12812810       9.86423854       2.87023694
Cu      11.26888493       9.91922418       9.77726444
Cu       6.07363994       6.27742707       4.52476815
Cu       6.11097099       6.09925628      11.43540626
Cu       5.81450780      13.37030912       4.80474249
Cu       5.97020188      13.44767702      11.80553617
Cu      13.04455539       6.26226574       4.45033618
Cu      13.04131235       6.24108576      11.42366013
Cu      12.88478707      13.38187371       4.77119082
Cu      12.97780975      13.24840731      11.57154652
Cu       2.72167867       0.94810806       6.17439801
Cu       2.68675108       0.80467927      13.08291711
Cu       2.56528481       8.03413251       6.28728684
Cu       2.62157454       8.06016176      13.25784045
Cu       9.63174917       0.81591139       6.02353761
Cu       9.65290727       0.86034496      12.90195398
Cu       9.56441184       8.02108318       6.32945814
Cu       9.63168759       8.07265597      13.25659635
Cu       0.94970794       0.90745475       4.37605141
Cu       0.94306074       0.88002297      11.36264146
Cu       0.77680536       8.02458352       4.60980963
Cu       0.85770829       8.04219980      11.68574868
Cu       7.79448882       0.95078435       4.32049866
Cu       7.86150247       0.84433341      11.29084419
Cu       7.78934331       8.09243874       4.48828774
Cu       7.87715857       8.09231298      11.51013059
Cu       6.03393233       2.62063830       0.86630248
Cu       6.11165525       2.66022147       7.83898407
Cu       5.80753695       9.87998957       1.20007606
Cu       6.01561284       9.82268484       8.10129165
Cu      12.99582620       2.64832489       1.01381434
Cu      13.09381869       2.64145983       7.76113734
Cu      12.87712265       9.78991265       1.16367675
Cu      12.89473414       9.73238154       8.05435926
Cu       0.82782227       2.71384615       6.12370920
Cu       0.86099698       2.63525761      13.08198515
Cu       0.68145854       9.91139375       6.52360821
Cu       0.87349440       9.88156208      13.37572890
Cu       7.91289286       2.65387345       6.08770811
Cu       7.88986283       2.64432332      13.12559663
Cu       7.72320713       9.82494982       6.42945453
Cu       7.77748384       9.81335323      13.38416661
Cu       4.37202681       0.83011301       0.92102554
Cu       4.47505589       0.86605168       7.88306692
Cu       4.27317174       8.05647255       1.15056269
Cu       4.26691129       8.03862065       8.07658666
Cu      11.33717476       0.87427699       0.87405941
Cu      11.41460604       0.83418267       7.71988435
Cu      11.13552316       8.05488824       1.08879856
Cu      11.29010500       7.95958559       8.11754512
