187
Lattice="14.384579988093124 -0.2025960290550804 -0.25734447117336184 0.023806725966004038 14.300702594833956 0.43740675029398657 -0.41433242414142557 -0.08999372119390099 13.65325277751839" Properties=species:S:1:pos:R:3 pbc="T T T"
Mg       3.49827132      -0.22017586       3.43624667
Mg       3.20252468      -0.16767774      10.18118677
Mg       3.43119678       7.07447149       3.57525036
Mg       3.24429011       7.03431685      10.43207286
Mg      10.63213975      -0.24660166       3.18121833
Mg      10.42940942      -0.17429841      10.07461581
Mg      10.72438930       6.93360805       3.30376731
Mg      10.46149937       6.96358643      10.35771930
Mg       1.75953163       1.89033598       1.76011189
Mg       1.53065558       1.73279084       8.56622703
Mg       1.79956979       8.86463836       2.02220504
Cu       1.61870935       8.91635830       8.82424676
Mg       8.87973486       1.63527046       1.64018426
Mg       8.81326922       1.58061488       8.41682328
Mg       8.71156870       8.75709544       8.66236177
Mg       0.00090936       0.00734236      -0.02043008
Mg      -0.12136978      -0.00656603       6.82283919
Mg       0.02758398       7.16013369       0.21571001
Mg      -0.20331117       7.06162573       7.02458218
Mg       7.13845671      -0.09074597      -0.13918508
Mg       6.98299033      -0.14690442       6.68613775
Mg       7.24897357       7.05412964       0.11591955
Mg       7.06592746       7.06923435       6.88825667
Mg       1.68878167       5.24847967       5.22915788
Mg       1.42086368       5.33364858      12.06263911
Mg       1.54411501      12.51384161       5.40369600
Mg       1.54525816      12.34369286      12.29197578
Mg       8.77714407       5.22471331       5.09394446
Mg       8.58859108       5.18298723      11.87647920
Mg       8.89783007      12.41245900       5.38385414
Mg       8.69952193      12.32183758      12.19638210
Mg       5.21391098       1.70384836       5.06351812
Mg       5.00983263       1.65925851      11.94653860
Mg       5.29178322       8.85908799       5.36370030
Cu       4.99909494       8.76817847      12.16659061
Mg      12.40630807       1.59213657       4.98112580
Mg      12.22906033       1.47450143      11.73629694
Cu      12.35690975       8.70627978       5.16340515
Mg      12.25711959       8.67151092      12.07843598
Mg      -0.14876097       3.56181183       3.50309865
Mg      -0.26221692       3.50900170      10.33647229
Mg      -0.09881049      10.77478010       3.78616837
Mg      -0.34286901      10.68554614      10.54532697
Mg       7.14439684       3.43593393       3.38529200
Mg       6.79806399       3.32783535      10.18235727
Mg       7.15809036      10.62641208       3.56077340
Mg       6.86441936      10.60697167      10.40656920
Mg       3.61554654       3.54627304       0.04476540
Mg       3.34188354       3.43461191       6.95840505
Mg       3.64891172      10.73764516       0.32453460
Mg       3.49788286      10.61855351       7.05738933
Mg      10.76711033       3.45896937      -0.06553036
Mg      10.58452818       3.42799549       6.80069829
Mg      10.82534726      10.72979874       0.14686773
Mg      10.60012917      10.54738961       6.94316513
Mg       5.30129773       5.29287497       1.79395814
Mg       5.23240213       5.19107421       8.63761973
Mg       5.42455538      12.45897165       2.04086862
Mg       5.22159761      12.32040846       8.79562642
Mg      12.49912967       5.15242521       1.59162049
Cu      12.31908783       5.20286275       8.48148251
Mg      12.47630311      12.29035363       1.91508349
Mg      12.24110259      12.32975685       8.65445673
Cu       6.06560668       4.33448512       5.93397664
Cu       5.82171860       4.23015497      12.88367750
Cu       5.96128900      11.43962397      12.97911652
Cu      13.33955434       4.30838345       5.93346182
Cu      13.03263025       4.17313987      12.77630567
Cu      13.31334192      11.34648535       6.05887857
Cu      13.11550396      11.25734974      12.94959383
Cu       4.35180874       6.11140168       5.92497745
Cu       4.15234562       6.08898637      12.96670599
Cu       4.26624635      13.25997508       6.25464817
Cu       4.11403092      13.29392880      13.05931120
Mg      11.57193021       6.01780165       5.91477433
Cu      11.36061832       6.03649739      12.85223537
Cu      11.52193238      13.24797882       6.12825939
Cu      11.33542677      13.13409525      12.95677359
Cu       2.65305225       2.68175210       4.27248312
Cu       2.32985188       2.51022054      11.16861610
Cu       2.62679337       9.79194910       4.54119613
Cu       2.30929936       9.73485018      11.29239195
Cu       9.74325160       2.52625924       4.09394198
Cu       9.61489370       2.53429489      10.97711283
Cu       9.74662711       9.62406526       4.42905217
Cu       9.65485469       9.59603106      11.16927796
Mg       6.15661450       0.75602282       2.50899120
Cu       6.05965316       0.72948966       9.30433684
Cu       6.23497619       7.89121454       2.66673739
Cu       6.01956662       7.89282268       9.50343201
Cu      13.28240916       0.76681181       2.48367329
Cu      13.27694886       0.61362099       9.22796543
Cu      13.49137093       7.85161699       2.65166316
Cu      13.15532187       7.82592750       9.36120435
Cu       0.85769429       4.47265430       1.01695511
Cu       0.70674562       4.34106534       7.82612773
Cu       0.90369823      11.56754029       1.15604765
Cu       0.76871088      11.57156939       8.04729640
Cu       8.04862990       4.31058032       0.83157786
Cu       7.88737838       4.32685126       7.63939161
Cu       8.11750266      11.46468895       1.06548437
Cu       7.86583393      11.53568699       7.84030881
Cu       4.39003311       4.42943058       4.31468039
Cu       4.44333602      11.53721036       4.54858388
Cu       4.15036976      11.51689985      11.36937327
Cu      11.57189272       4.27167802       4.19788181
Cu      11.36992486       4.24976622      10.93154865
Cu      11.54054402      11.41238150       4.37847746
Cu      11.26497345      11.32333789      11.23436088
Cu       0.89075640       6.08609560       2.77269194
Cu       0.53745721       6.12798276       9.67339182
Cu       0.90242313      13.32808279       2.96353097
Cu       0.57564726      13.27445770       9.81621679
Cu       8.07631775       6.19273464       2.56795914
Cu       7.81156583       6.10303122       9.45668375
Cu       8.10473331      13.33458357       2.80734885
Cu       7.84277726      13.14689004       9.68037334
Cu       2.68534564       6.15503533       1.06694984
Cu       2.47327575       6.13135077       7.83542495
Cu       2.63698875      13.33272807       1.27665569
Cu       2.43148022      13.23740610       8.02027405
Cu       9.91756315       6.21011427       0.90663567
Cu       9.73508056       5.99162827       7.73083107
Cu       9.85978223      13.21469914       1.07124415
Cu       9.69232682      13.16591154       7.93509633
Cu       2.63762270       4.41780762       2.66181711
Cu       2.45288863       4.31903927       9.54999422
Cu       2.59493576      11.57855798       2.86769334
Cu       2.40689947      11.50640443       9.70961805
Cu       9.93764141       4.26924298       2.49743588
Cu       9.57843748       4.24105704       9.37108580
Cu       9.81136878      11.50341155       2.73526928
Cu       9.60956169      11.37824377       9.54998202
Cu       4.37880927       2.62421067       2.53047032
Cu       4.20830650       2.56657433       9.40676455
Cu       4.47837810       9.81185177       2.74329493
Cu       4.13348283       9.78833155       9.65694580
Cu      11.68329741       2.49329677       2.46611104
Cu      11.43903747       2.43929666       9.32273829
Cu      11.62170188       9.71446029       2.53458698
Cu      11.30721083       9.51420937       9.57164625
Cu       6.13298240       6.15235986       4.30841125
Cu       6.02980641       6.13619147      11.08329529
Cu       5.90926621      13.31428612      11.39273342
Cu      13.36106655       6.04183256       4.17276784
Mg      13.20359930       5.92918607      11.08948998
Cu      13.44772863      13.17527294       4.47228223
Cu       2.49652700       0.82895979       5.98422013
Cu       2.32676121       0.84228554      12.69258660
Cu       2.55864226       7.89655541       6.14054520
Cu       2.29393009       7.95387282      13.06481207
Cu       9.74347177       0.71076790       5.79443193
Cu       9.51486810       0.63379966      12.65906457
Cu       9.63357748       7.90942318       6.02184487
Cu       9.51689803       7.77850838      12.81381130
Cu       0.75247254       0.83611841       4.28407063
Cu       0.54280468       0.78049279      11.02177753
Cu       0.80632147       7.96752178       4.49633003
Cu       0.53006387       7.98224537      11.27455232
Cu       8.08651644       0.76667578       4.08818374
Cu       7.79943904       0.70494418      11.03286843
Cu       7.91989861       7.87702012       4.43906728
Cu       7.72532195       7.86760922      11.13315265
Cu       6.32775581       2.68784415       0.74925990
Cu       6.02180921       2.59600817       7.64070025
Cu       6.28308858       9.78237471       1.05207869
Cu       5.98674176       9.72911869       7.85556962
Cu      13.47310225       2.49163059       0.63789322
Cu      13.14179243       2.40851968       7.62890312
Cu      13.52438536       9.59191719       0.90103735
Cu      13.27654634       9.62984100       7.71956489
Cu       0.70887144       2.57099237       5.99449536
Cu       0.50060067       2.60298773      12.78492539
Cu       0.74460809       9.76807413       6.22476473
Cu       0.59250900       9.68801091      13.04541433
Cu       7.96915820       2.48988889       5.96061972
Cu       7.73727619       2.55876608      12.71323641
Cu       7.97306352       9.62433713       6.06989994
Cu       7.76493731       9.60225646      12.91494425
Cu       4.44469109       0.85025055       0.85219213
Cu       4.21588927       0.81910407       7.50626393
Cu       4.47260436       7.95467306       1.07398404
Cu       4.32872768       7.88874414       7.86469322
Cu      11.64973671       0.69475357       0.66329503
Cu      11.45063109       0.69808896       7.48366486
Mg      11.78448169       7.83450843       0.80666264
Cu      11.47186626       7.79837495       7.73844013
