191
Lattice="14.471507943022752 -0.3822782974137791 -0.46369296973541996 0.17729339186290308 14.384509016454126 0.365694670613434 0.45173222801637253 0.1419544433386713 13.783278951789834" Properties=species:S:1:pos:R:3 pbc="T T T"
Mg       3.80639983      -0.05577946       3.27884801
Cu       3.94657850       0.07961083      10.19334238
Mg       3.91355799       7.10625251       3.49612709
Mg       4.09879716       7.26326153      10.37761946
Mg      10.95032645      -0.21917454       3.01566296
Mg      11.17718439      -0.20484106       9.94536708
Mg      11.07741418       6.90785293       3.22193446
Mg      11.33726531       7.03342414      10.15461865
Mg       1.82430026       1.81311190       1.67529820
Cu       2.07047434       1.83389924       8.65352756
Mg       1.90685497       8.94647965       1.97259478
Mg       2.19801919       9.03469466       8.73423808
Mg       9.06443538       1.64353090       1.51899948
Mg       9.24598927       1.67366442       8.38521249
Mg       9.18429037       8.86187022       1.63465490
Mg       9.34175443       8.86910305       8.61909411
Mg       0.04762664      -0.05981802       0.02441781
Mg       0.18046520       0.10295052       6.94816164
Mg       0.02753094       7.17833687       0.24275030
Mg       0.33597744       7.25705760       7.08137373
Mg       7.22538382      -0.15545570      -0.21301125
Mg       7.47086220      -0.03506275       6.63341671
Mg       7.25065248       7.04813866      -0.12536827
Mg       7.54667277       7.07063485       6.83946538
Mg       2.13045894       5.40441126       5.20737512
Mg       2.26887166       5.54003432      12.16861608
Mg       2.13610896      12.60964407       5.44728061
Mg       2.37203474      12.69849076      12.30072237
Mg       9.25479701       5.16840970       5.07374015
Cu       9.48399574       5.31442739      11.86328546
Mg       9.33225002      12.37997349       5.19616098
Cu       9.61741845      12.40254775      12.05438555
Mg       5.69487291       1.74309722       5.00427174
Mg       5.90915598       1.73314247      11.89417054
Mg       5.66693525       8.93093930       5.26449521
Mg       5.93048825       8.94510681      12.16213022
Mg      12.83866601       1.55143409       4.82729360
Mg      13.09825245       1.59647755      11.76287303
Mg      12.97832980       8.73147116       5.00199338
Mg      13.15744358       8.82489258      11.89591461
Mg       0.16963477       3.64147203       3.50970704
Mg       0.52637048       3.73104717      10.41724724
Cu       0.24935381      10.91374470       3.73125400
Cu       0.58946932      10.78913425      10.65762809
Mg       7.41067596       3.49894078       3.34984070
Mg       7.69333990       3.50612455      10.24470175
Mg       7.44484230      10.63157578       3.39824353
Mg       7.78701871      10.69857308      10.42283818
Mg       3.69721688       3.39540374      -0.07287284
Mg       3.97019302       3.51164329       6.94085298
Mg       3.64997703      10.72923104       0.12309845
Mg       4.02189835      10.73268363       7.08857603
Mg      10.79007358       3.25493682      -0.18456892
Mg      11.10911412       3.44860093       6.60108762
Mg      11.02081128      10.45930643      -0.01026050
Mg      11.19488748      10.54850701       6.87196156
Mg       5.51376695       5.27586518       1.73280286
Mg       5.72457224       5.38549983       8.55204700
Mg       5.62705466      12.51757099       1.90508244
Mg       5.90241436      12.51496293       8.69726645
Mg      12.74058090       5.12765691       1.48781948
Mg      13.01453880       5.13879261       8.32685502
Mg      12.85245774      12.26465299       1.71077469
Cu      13.09897996      12.37212518       8.52868144
Cu       6.58852048       4.40301322       6.00142145
Cu       6.83162708       4.53713785      12.86059792
Cu       6.69961307      11.58917653       6.15768985
Cu       6.91918537      11.62115180      12.99301319
Cu      13.79052876       4.18482193       5.65312361
Cu      13.95773480       4.36213032      12.61206237
Cu      13.81854394      11.30039115       5.83253585
Cu      14.10937645      11.37490304      12.75014229
Cu       4.80873456       6.22166856       6.02596245
Cu       4.98475006       6.29171950      12.86624536
Cu       4.91532577      13.50159282       6.32590534
Cu       5.12212853      13.54261487      13.12437441
Cu      12.03466584       6.03964072       5.85219710
Cu      12.30416018       6.18471109      12.73299832
Cu      12.10416160      13.29332049       5.99393435
Cu      12.37390715      13.29259747      12.85350291
Cu       2.90295391       2.69914898       4.39644304
Cu       3.06332608       2.75471663      11.08688947
Cu       3.01384901       9.86469739       4.44806626
Cu       3.22572940       9.95638283      11.32234640
Cu      10.17133907       2.46164660       4.05940932
Cu      10.32535076       2.54971317      10.92016830
Cu      10.19038314       9.70377278       4.17922319
Cu      10.46986725       9.70358309      11.14104745
Cu       6.53763040       0.66967810       2.40323852
Cu       6.65656290       0.76925171       9.29188438
Cu       6.54962969       7.95487611       2.60295911
Mg       6.64914381       8.07660068       9.58130854
Cu      13.71981702       0.49596003       2.20665747
Cu      13.86074730       0.68001861       9.08205555
Cu      13.76356687       7.78287440       2.30689485
Cu      14.02298660       7.81581546       9.18988303
Cu       0.96516805       4.40206918       0.99526978
Cu       1.29731397       4.52953199       7.83276391
Cu       1.02387889      11.69752868       1.21597811
Cu       1.38370036      11.73730860       7.98218776
Cu       8.24551801       4.30530102       0.71129302
Cu       8.42303476       4.45756114       7.67195631
Cu       8.37546704      11.43567143       0.93774611
Cu       8.53660546      11.57098428       7.83128682
Cu       4.73293881       4.43192753       4.29998859
Cu       4.99242990       4.55032834      11.18070189
Cu       4.83360685      11.56683232       4.46814455
Cu       5.14919887      11.71102638      11.41573716
Cu      11.92442283       4.20497360       4.05946662
Cu      12.13980604       4.31014716      10.88921361
Cu      11.95309740      11.51288574       4.13271239
Cu      12.21702832      11.46702479      11.10594053
Cu       1.10261847       6.33000306       2.75319283
Cu       1.22013545       6.39675083       9.53591191
Cu       1.13996234      13.46753594       2.93434725
Mg       1.34255008      13.60535989       9.75483251
Cu       8.25909341       5.99794645       2.44935594
Cu       8.48935658       6.20789105       9.30893471
Cu       8.41906198      13.33789606       2.64106097
Cu       8.69452510      13.40962183       9.61845728
Mg       2.74853444       6.26486742       0.84881866
Cu       3.09711930       6.30818654       7.75944674
Cu       2.96373338      13.45530068       1.14726505
Cu       3.22083632      13.43885424       7.99395332
Cu      10.12079934       6.01535536       0.71046767
Cu      10.25049579       6.14159953       7.68280537
Cu      10.16773738      13.21178201       0.92925881
Cu      10.48597787      13.33149918       7.80644349
Cu       2.87879601       4.40943028       2.59238971
Cu       3.03591296       4.50934351       9.52297310
Cu       2.99983988      11.61768325       2.82872022
Cu       3.13142073      11.75291990       9.74532570
Mg      10.05692475       4.36506825       2.39771196
Cu      10.34019945       4.28788271       9.23922217
Cu      10.20597551      11.44932909       2.58090614
Cu      10.40645125      11.47328500       9.43591798
Cu       4.58996334       2.61746251       2.41442074
Cu       4.80732196       2.68001608       9.38179491
Cu       4.71914173       9.73320526       2.55103155
Cu       5.02103874       9.76079358       9.56655462
Cu      11.95949446       2.43224642       2.30496745
Cu      12.20944536       2.44647218       9.16913921
Cu      11.99114809       9.65836589       2.52244770
Cu      12.17823185       9.66216391       9.31134090
Cu       6.83566570       6.11724488      11.14442414
Cu       6.60301297      13.36750129       4.45225121
Cu       6.88177058      13.33291616      11.37245122
Cu      13.81287915       6.00648620       3.93177708
Cu      14.07216507       6.05900372      10.87743612
Cu      13.88347412      13.25280285       4.16888706
Cu      13.99548973      13.19120792      11.15312021
Cu       2.87432671       0.83529605       5.91862101
Cu       3.16941721       0.96987066      12.85715662
Cu       2.97904675       7.96368572       6.05198038
Cu       3.24258491       8.15952452      13.06572943
Cu      10.18674354       0.73308885       5.75291613
Cu      10.41997767       0.67696302      12.62638428
Cu      10.22149854       7.84659480       5.94914830
Cu      10.43541918       7.97064120      12.88320090
Mg       1.15480268       0.83623260       4.30628880
Cu       1.16528641       1.07709174      11.26711719
Cu       1.07886903       8.01526376       4.52131221
Cu       1.33401739       8.22869141      11.44606182
Cu       8.29408052       0.75011324       3.99183588
Cu       8.50936968       0.86027996      10.95806099
Cu       8.28048899       7.92916602       4.28522726
Cu       8.59712048       7.98885984      11.18868335
Cu       6.30436127       2.56944966       0.81978404
Cu       6.58436622       2.64075322       7.67379712
Cu       6.52128205       9.74073366       0.80232646
Cu       6.67163294       9.76415818       7.86346500
Cu      13.69746794       2.37161090       0.49965198
Cu      13.79809532       2.41550810       7.38102839
Cu      13.64188148       9.57170142       0.71037795
Cu      13.94646537       9.64212614       7.58980325
Cu       1.11432075       2.75828235       6.03288024
Cu       1.40276049       2.88744335      12.93754304
Cu       1.15395074       9.94122467       6.21508518
Cu       1.55613941      10.09518590      13.22582662
Cu       8.37295826       2.56621279       5.83398338
Cu       8.62379827       2.60691032      12.76429707
Cu       8.44013336       9.72818994       6.03239564
Cu       8.75278177       9.84111117      12.91163266
Cu       4.51486323       0.88069239       0.73831130
Cu       4.83823229       0.82809806       7.63735869
Cu       4.73136253       8.08309990       0.88510476
Mg       4.93036799       8.07866832       7.90643421
Mg      11.82432609       0.62132873       0.54640056
Cu      12.05317882       0.72861748       7.26950660
Cu      11.89140317       7.80041073       0.68581715
Cu      12.13372870       7.78057268       7.65273230
