189
Lattice="14.112362997198748 -0.06437788002865363 0.4165766142845608 0.11356857420227687 14.04497484531842 0.02887571762946242 -0.29006761637713757 0.05864138696935186 13.991826701691602" Properties=species:S:1:pos:R:3 pbc="T T T"
Mg       3.44464153      -0.04055994       3.51584147
Mg       3.30685192       0.10344721      10.63760206
Mg       3.48106527       7.04334018       3.58423251
Mg       3.43687762       6.98289693      10.57579933
Mg      10.51978389       0.08064172       3.78914765
Mg      10.36104939       0.03861420      10.70908677
Mg      10.49534918       7.01853969       3.84518083
Mg      10.40015726       6.95579893      10.80827311
Mg       1.77703490       1.83783434       1.78906836
Mg       1.68644705       1.78355070       8.73342599
Mg       1.85471861       8.79208349       1.90502613
Mg       1.60768998       8.81082495       8.87970488
Cu       8.80959563       1.60895986       1.97506029
Mg       8.70098137       1.71842396       9.06306474
Mg       8.83354053       8.78447299       2.00902849
Mg       8.79894891       8.73031641       9.05897226
Mg      -0.00450078       0.06301241      -0.04784519
Mg      -0.16154689       0.13555302       7.01942628
Mg       0.07250466       6.99526802       0.05670287
Mg      -0.06538754       7.02256789       7.03375850
Mg       7.02701291      -0.06328670       0.22195100
Mg       6.88963718       0.03048115       7.24609964
Mg       7.11460087       7.02843885       0.28708932
Mg       1.74166000       5.18863689       5.35940835
Mg       1.53709948       5.24769682      12.20452368
Mg       1.80943602      12.31417764       5.37281966
Mg       1.65526217      12.26997252      12.35857541
Mg       8.73007707       5.30269951       5.49998542
Mg       8.56729178       5.27631540      12.47836823
Mg       8.94695282      12.23861942       5.49747103
Mg       8.65326378      12.40442376      12.60019793
Mg       5.20435286       1.83782196       5.35026416
Mg       5.02422384       1.75793106      12.47136035
Mg       5.27392160       8.75547552       5.43529338
Mg       5.10707468       8.76909560      12.31742219
Mg      12.34239465       1.70065291       5.64800570
Mg      12.05551306       1.85077455      12.67816227
Mg      12.30924074       8.72106625       5.68745557
Mg      12.19753193       8.73818897      12.64213760
Mg      -0.05823442       3.46367789       3.48647707
Mg      -0.24147694       3.58932657      10.56843726
Mg       0.00624753      10.47428262       3.43080646
Mg      -0.11763626      10.49708478      10.48265387
Mg       6.99983950       3.49855942       3.68247684
Mg       6.93874284       3.52450598      10.72358199
Mg       7.10494422      10.46990194       3.74878338
Mg       7.00373522      10.53075198      10.77402807
Cu       3.60423702       3.55216946       0.03544562
Mg       3.32236411       3.57218719       7.10200740
Mg       3.57385867      10.47302067       0.06538540
Cu       3.47804053      10.49706830       7.11486260
Mg      10.54557061       3.39285014       0.22867475
Mg      10.46387615       3.40027376       7.27679628
Mg      10.62581828      10.38365992       0.32732477
Mg      10.52362484      10.47287883       7.30117679
Mg       5.38333467       5.35491164       1.88134122
Mg       5.14311907       5.33641730       8.80786388
Mg       5.36136704      12.33706701       1.88954540
Mg       5.22883509      12.29619845       8.85992073
Mg      12.38548438       5.21754937       2.09505448
Mg      12.20037916       5.22360368       9.13740659
Mg      12.48107433      12.18464883       2.22899362
Mg      12.26464435      12.30897280       9.16703587
Cu       6.06013349       4.41001844       6.24913848
Cu       5.93664654       4.37831352      13.35942261
Cu       6.13903131      11.46517381       6.28001648
Cu       5.95761375      11.48038509      13.25714091
Cu      13.10755290       4.40811038       6.51405432
Cu      13.07545233       4.46988717      13.55258086
Cu      13.21147097      11.26735621       6.55267721
Cu      13.12430808      11.38890942      13.57022346
Cu       4.24914980       6.26705924      13.28305090
Cu       4.37869725      13.15391070       6.36440942
Cu       4.24847033      13.15685088      13.29872342
Cu      11.41832801       6.17678948       6.45672762
Cu      11.25601453       6.18723028      13.47423387
Cu      11.38324880      13.06524612       6.44312712
Cu      11.32226525      13.09541849      13.43000868
Cu       2.59461898       2.56414472       4.45307079
Mg       2.43687652       2.67326171      11.42561041
Mg       2.62001397       9.73691862       4.48229031
Cu       2.57152099       9.73805649      11.41467377
Cu       9.62817459       2.72401920       4.65794626
Cu       9.36285312       2.56619098      11.72472830
Cu       9.63629381       9.72284360       4.68034252
Cu       9.59063104       9.70540996      11.70807610
Cu       6.11219198       0.80755243       2.73826720
Cu       6.04178018       0.78845349       9.70523827
Cu       6.19392982       7.84528891       2.80157716
Cu       6.07975415       7.88508458       9.89332048
Cu      13.19959535       0.81808443       2.99020481
Cu      12.93649155       0.88794367      10.01499539
Cu      13.28825816       7.78086766       2.99807505
Cu      13.07733447       7.97145343      10.07354900
Cu       0.98556600       4.36799121       0.97526365
Cu       0.86590230       4.39248912       7.93980065
Cu       1.03840179      11.41051779       0.87926844
Cu       0.87203955      11.37485549       7.95686439
Cu       7.82962405       4.36590864       1.04788299
Cu       7.80228195       4.36595778       8.11743151
Cu       8.03790320      11.41089296       1.14940854
Cu       7.79176683      11.45636044       8.20342331
Cu       4.34726018       4.38758214       4.52361235
Cu       4.10481217       4.40121441      11.52908369
Cu       4.39320068      11.41263013       4.47215088
Cu       4.23290067      11.40978316      11.52540232
Cu      11.46937426       4.39494902       4.75617897
Cu      11.29069543       4.43914191      11.77999191
Cu      11.47919852      11.47559732       4.71996315
Cu      11.37180599      11.31296063      11.67751641
Cu       0.79592118       6.15366515       2.63254335
Cu       0.76939553       6.12418369       9.68468468
Cu       0.77808573      13.12212711       9.59480827
Cu       7.96937699       6.07794612       2.81314326
Cu       7.72374103       6.17149967       9.85248575
Cu       8.03920086      13.15736103       2.86677423
Cu       7.85974440      13.20320386       9.81797586
Cu       2.80753556       6.14663563       0.98182011
Cu       2.55316868       6.15134669       7.98693140
Cu       2.69308113      13.15153836       0.98374436
Cu       2.56052244      13.20062039       7.82912545
Cu       9.66204785       6.16532913       1.20247621
Cu       9.63245182       6.11332079       8.19675174
Cu       9.75370916      13.11652382       1.11490086
Cu       9.63568715      13.18616819       8.18780466
Cu       2.56473132       4.31259627       2.71999419
Cu       2.46607060       4.44140174       9.65194395
Cu       2.61143605      11.42419994       2.75969646
Cu       2.45779165      11.41073962       9.69888773
Cu       9.72446292       4.41356832       2.91320955
Cu       9.46027112       4.45084887       9.91495437
Cu       9.81561881      11.31121870       2.98967074
Cu       9.53673336      11.38678576       9.91248966
Cu       4.31577146       2.63499246       2.73058890
Cu       4.20763295       2.63504002       9.84152212
Cu       4.49995109       9.66609439       2.83650778
Cu       4.32467295       9.69799408       9.77903740
Cu      11.39669954       2.63532979       2.95858108
Cu      11.20503924       2.64279091      10.00392759
Cu      11.46960685       9.59506538       2.89487239
Cu      11.40119529       9.60582669      10.03193492
Cu       6.09253018       6.12179897       4.53632073
Cu       6.05621463       6.31891351      11.57661689
Cu       6.21679508      13.12998184       4.59846882
Cu       6.08171940      13.22997677      11.54689918
Cu      13.23994735       6.06397613       4.78422637
Cu      13.06315691       6.15079971      11.77301438
Cu      13.16992399      13.10292968       4.73194121
Cu      13.18396783      13.15804372      11.78170678
Cu       2.62290149       0.87655825       6.27768745
Cu       2.33997533       0.86807648      13.21679830
Cu       2.55917157       7.99983267       6.29871812
Cu       2.47352018       7.87789450      13.21896095
Cu       9.64364343       0.89422878       6.42182208
Cu       9.33881485       0.89183235      13.47501250
Cu       9.61842967       7.92508264       6.35748610
Cu       9.48554262       7.88516385      13.40739857
Cu       0.82838551       0.87925090       4.34609136
Cu       0.64635893       0.91622590      11.36028079
Cu       0.83407703       7.89638410       4.38628508
Cu       0.69531698       7.89582542      11.36026161
Cu       7.84751143       0.78396156       4.60642719
Cu       7.73558680       0.87805584      11.55882100
Cu       7.85852242       7.98494247       4.67792897
Cu       7.71487559       7.93367652      11.62805878
Cu       6.09953283       2.59061444       1.04251795
Cu       6.06097032       2.65684957       8.00377745
Cu       6.15996008       9.60931685       1.00928581
Cu       5.97739712       9.74930391       8.13622803
Cu      13.11584476       2.49551666       1.22999947
Cu      13.11962541       2.60737127       8.26558834
Cu      13.33073320       9.53142008       1.35502950
Cu      13.14817157       9.63800406       8.19808940
Cu       0.85888688       2.65436621       6.13817235
Cu       0.60400158       2.64573256      13.11601141
Cu       0.85190981       9.64171018       6.22557483
Cu       0.58674457       9.66081932      13.14508402
Cu       7.85506599       2.69648724       6.30827757
Cu       7.69219577       2.65943012      13.42376862
Cu       7.85078287       9.62739731       6.35594713
Cu       7.70299660       9.67396638      13.35995005
Cu       4.43472278       0.90836707       0.97068694
Cu       4.20105501       0.87531369       7.97879303
Cu       4.55436938       7.90282970       1.07191201
Cu       4.35483421       7.84180460       7.96798592
Cu      11.49998158       0.87447423       1.26273942
Cu      11.30252528       0.88309923       8.18368381
Cu      11.50530672       7.78382931       1.23765965
Mg      11.44607950       7.79689912       8.21217664
