191
Lattice="14.20753418445718 -0.5424191861837111 -0.1978134151227559 0.009592815716701621 14.794527341513875 0.1507027689801162 -0.016359815135900263 0.35616553637338166 14.41795509496163" Properties=species:S:1:pos:R:3 pbc="T T T"
Mg       3.46556410      -0.05531950       3.61784751
Mg       3.48646342       0.18304702      10.71086256
Cu       3.59476168       7.31567077       3.58789688
Mg       3.55639920       7.56230294      10.93387662
Mg      10.73015280      -0.31073607       3.43908328
Cu      10.62844003      -0.13631784      10.70996734
Mg      10.63379983       7.00365466       3.56503814
Mg      10.63801102       7.27519973      10.66914579
Mg       1.76828173       1.87087015       1.73138004
Mg       1.78074132       1.97734694       8.97268987
Mg       1.80121681       9.26922273       1.90837673
Mg       1.88398051       9.41230751       9.02216091
Mg       8.80181702       1.48555656       1.62558229
Mg       8.87015188       1.68958436       8.88126855
Mg       8.89749516       8.93403718       1.72958803
Mg       8.88472143       9.12554057       8.89970031
Mg       0.02885456      -0.01018609      -0.00193178
Mg       0.04527938       0.21074554       7.24074636
Mg      -0.06357735       7.45199846       0.11830938
Mg      -0.05047054       7.56894622       7.35748695
Mg       7.05604055      -0.26210226      -0.12857344
Mg       7.09533446      -0.12880532       7.07121071
Mg       7.14073867       7.11093018      -0.10052003
Mg       7.10068276       7.30869950       7.12266480
Mg       1.82550785       5.58817598       5.50565507
Mg       1.87946559       5.74399711      12.60570126
Mg       1.65524208      12.98068985       5.56514408
Mg       1.73843556      13.20624387      12.63525689
Mg       8.91619509       5.30741905       5.33970066
Mg       8.84346631       5.47779205      12.54943695
Mg       8.87850841      12.71228102       5.44612023
Mg       8.89285566      12.98511957      12.61301317
Mg       5.38171959       1.76806594       5.33869404
Mg       5.35520960       1.93805422      12.47422934
Mg       5.23786601       9.22066023       5.43103059
Mg       5.37983430       9.38689168      12.64712644
Mg      12.42662917       1.49301855       5.25553032
Mg      12.41838533       1.70496077      12.43500520
Mg      12.42079702       8.95063835       5.28596781
Mg      12.46846573       9.10392570      12.58792002
Mg      -0.08228094       3.74127878       3.78603260
Mg      -0.10106483       3.96155862      10.92970113
Mg       0.02093699      11.15623055       3.65625163
Mg      -0.04033642      11.43330855      10.88046939
Mg       7.04241409       3.46477497       3.49569041
Mg       7.07584937       3.78489867      10.80095627
Cu       7.20927774      10.90039145       3.61809595
Mg       6.98263354      11.11003199      10.87902883
Mg       3.52686357       3.56000076      -0.05516169
Mg       3.50555376       3.77278661       7.27462810
Mg       3.49781050      11.01977088       0.14864019
Mg       3.45208473      11.18664261       7.33676369
Mg      10.54371961       3.39409131      -0.11618026
Mg      10.57267461       3.44895195       7.04290634
Mg      10.67225887      10.74729099      -0.17107574
Mg      10.58859825      10.89701304       7.17952029
Mg       5.36792293       5.39246212       1.75153787
Mg       5.26387130       5.52967488       8.94634299
Mg       5.28710984      12.79129643       1.94220081
Mg       5.33935880      12.98466222       9.06602943
Mg      12.54411715       5.17168586       1.74856096
Mg      12.36366639       5.22617536       8.78244083
Mg      12.46764400      12.54239566       1.78991691
Mg      12.43492614      12.72735382       8.97259610
Cu       6.30339989       4.57787500       6.25837987
Cu       6.26992389       4.65932575      13.46113266
Cu       6.17826556      11.99923165       6.27649646
Cu       6.18814681      12.08760248      13.59982480
Cu      13.30285332       4.18895822       6.14754590
Cu      13.34736656       4.52952050      13.36665554
Cu      13.31871849      11.69094178       6.33701927
Cu       4.52734977       6.46036051       6.36000724
Cu       4.47367922       6.73694670      13.47594220
Cu       4.43580776      13.94868490       6.41399800
Cu       4.50320229      14.02948390      13.50785771
Cu      11.53142045       6.21914088       6.23493262
Cu      11.54187052       6.35408300      13.43824537
Cu      11.53319652      13.65091612       6.25776508
Cu      11.60422543      13.79521883      13.51173140
Cu       2.64134867       2.65706662       4.53433939
Cu       2.64395778       2.93411115      11.71416897
Cu       2.67059546      10.21742270       4.58411244
Cu       2.67425309      10.40221628      11.82474593
Cu       9.71680439       2.52549584       4.37243912
Cu       9.74499992       2.76259416      11.69414339
Cu       9.73697860       9.92845740       4.43651637
Cu       9.75158196      10.04479202      11.61532731
Cu       6.20047364       0.67561859       2.60471156
Cu       6.18743975       0.97475048       9.78658867
Cu       6.16670812       8.17471099       2.75440118
Cu       6.28826041       8.36752339       9.82317066
Cu      13.27111668       0.43173873       2.59268065
Cu      13.22729690       0.63021496       9.83333462
Cu      13.38645094       7.85760716       2.58339851
Cu      13.25675450       8.01427320       9.83481495
Cu       0.85474843       4.66959373       0.92193740
Mg       0.92017712       4.84337716       8.13952942
Cu       0.91443957      12.02440326       1.02988954
Cu       0.83691380      12.10785158       8.28623698
Cu       7.99718004       4.29473262       0.78243786
Cu       7.97013874       4.51837928       8.02663939
Cu       8.04523270      11.72316505       0.89956800
Cu       8.09111768      11.91530266       8.12482362
Cu       4.41939253       4.50345092       4.52856681
Cu       4.43901519       4.76949790      11.63485617
Cu       4.47342722      11.90254443       4.61084234
Cu       4.40743751      12.18484326      11.74797976
Cu      11.63719700       4.31100156       4.45293065
Cu      11.44790077       4.41256799      11.56562048
Cu      11.55012412      11.66021864       4.52422996
Cu      11.53963436      11.83194661      11.68861591
Cu       0.84615442       6.51382544       2.71690307
Cu       0.91247732       6.62109184      10.02632438
Cu       0.86872422      13.86108167       2.90845140
Cu       0.88162410      14.05605100      10.17751074
Cu       8.00031710       6.27798910       2.74731496
Cu       7.99276362       6.35898838       9.88710607
Cu       7.98984386      13.66873233       2.63810299
Cu       7.97637038      13.83330069       9.88807398
Cu       2.59418262       6.49857620       0.89088166
Cu       2.70719928       6.56056288       8.21642054
Cu       2.61813137      13.75719867       0.95647189
Cu       2.68278834      13.91036643       8.14982309
Cu       9.80136329       6.17809547       0.81030326
Cu       9.75723587       6.38319831       8.06452604
Cu       9.82296715      13.47479539       1.00601178
Cu       9.71962454      13.72567255       8.14388259
Cu       2.60096293       4.55983074       2.72682267
Cu       2.70698340       4.73020687       9.83610991
Cu       2.62770472      12.07527713       2.70907916
Cu       2.61152229      12.12404590      10.01390225
Cu       9.82885168       4.28870966       2.57771813
Cu       9.73951400       4.47463146       9.85329274
Cu       9.75426111      11.73170354       2.76612221
Cu       9.72954129      11.84066877       9.88600768
Cu       4.37453998       2.66704489       2.53013181
Cu       4.52321420       2.88751714       9.95645633
Cu       4.46285540      10.17152002       2.79554922
Cu       4.42693025      10.19418095       9.91537366
Cu      11.54211676       2.35485779       2.62259734
Cu      11.59574128       2.60951337       9.76706118
Cu      11.54222803       9.78471386       2.63252257
Cu      11.56245433       9.98120059       9.86308885
Cu       6.30905801       6.39857763       4.50143061
Cu       6.22192539       6.47419624      11.75605842
Cu       6.21895742      13.68859865       4.46839783
Mg       6.14364171      13.92069583      11.76872915
Cu      13.31965948       6.04430074       4.37179760
Cu      13.35045548       6.19881959      11.59231829
Mg      13.32761803      13.35769694       4.38727698
Cu      13.25885751      13.69345321      11.68510223
Cu       2.66239022       0.93121587       6.30699321
Cu       2.63311029       1.17136101      13.45087472
Cu       2.67519043       8.36031070       6.36891209
Cu       2.61612119       8.63177511      13.57962103
Cu       9.64901247       0.77713766       6.19651605
Cu       9.78018911       0.81597483      13.32361130
Cu       9.81016986       8.07977627       6.33408554
Cu       9.69403488       8.34958524      13.48992007
Cu       0.83219313       1.00997235       4.53364043
Cu       0.90492427       1.11827124      11.69583931
Cu       1.03338113       8.39543832       4.57315205
Cu       0.92211908       8.55543275      11.79901640
Cu       7.98910779       0.72997394       4.31393922
Cu       8.01420112       0.96965939      11.56696997
Cu       7.96316293       8.18862375       4.52638288
Cu       8.04527072       8.22014471      11.72565135
Cu       6.25388063       2.51395909       0.87775924
Cu       6.27153527       2.60382742       8.16312688
Cu       6.21694208       9.95081835       1.00278154
Cu       6.17219721      10.21500273       8.08060459
Cu      13.27163793       2.15013171       0.77246853
Cu      13.34947503       2.42522537       7.96762718
Cu      13.34608074       9.63795827       0.70924144
Cu      13.37303282       9.92406930       7.93161789
Cu       0.83758655       2.88139067       6.33719314
Cu       0.92276957       3.05624594      13.55841690
Cu       0.91967651      10.31949648       6.41213118
Cu       0.92173106      10.49442869      13.59203277
Cu       7.99427959       2.71042617       6.17251152
Cu       8.04031392       2.78154265      13.47377873
Cu       8.03501483      10.02935640       6.34989225
Cu       7.93108330      10.21817372      13.38738156
Cu       4.50836654       0.80471718       0.89355219
Cu       4.43687558       1.02629526       8.10737681
Cu       4.44245283       8.17229774       0.97890898
Cu       4.44668170       8.27519095       8.17602244
Cu      11.50063651       0.54337375       0.75195911
Cu      11.43052461       0.64946610       7.92481439
Cu      11.63831977       7.81807500       0.85115593
Cu      11.62237857       8.09922269       8.14041694
