191
Lattice="13.97635196117566 -0.08514103075564766 0.2900761782125668 0.7193322747058118 14.50372821117805 0.2810698578991377 -0.017971108564341254 -0.03923852304504351 14.543947346709613" Properties=species:S:1:pos:R:3 pbc="T T T"
Mg       3.49224031      -0.07952898       3.71722479
Mg       3.40413269      -0.05915545      10.86430942
Mg       3.80053918       7.27620621       3.90555338
Mg       3.79547706       7.21794574      11.16728296
Mg      10.48100849      -0.06337694       3.93633357
Mg      10.48711216      -0.05560921      11.17159501
Mg      10.84912379       7.17637617       3.92133319
Mg      10.86563627       7.23268633      11.19243015
Mg       1.94010730       1.81517704       1.80263835
Mg       1.83075224       1.70660397       9.13903212
Mg       2.24371081       9.04930789       2.03218080
Mg       2.23079845       8.98697609       9.24707297
Mg       8.85546444       1.74715620       1.96486651
Mg       8.80828224       1.62916774       9.29184789
Mg       9.24746699       8.97777034       2.16399694
Mg       9.22280137       8.96466228       9.39695307
Mg      -0.04847794       0.04613037      -0.08468874
Mg       0.08836010      -0.02118331       7.33530510
Mg       0.29267290       7.18220057       0.17224211
Mg       0.41827729       7.18887769       7.47553774
Mg       7.01313969      -0.03568623       0.13519065
Mg       6.98128030       0.00934253       7.37964037
Mg       7.41825532       7.19518037       0.29805301
Mg       7.39126794       7.15634933       7.58906565
Mg       2.10401779       5.42662784       5.60434215
Mg       2.05814683       5.40609236      12.91161226
Mg       2.36578130      12.73829739       5.75956132
Mg       2.45095906      12.69452727      13.05019247
Mg       9.03502035       5.43695293       5.74997927
Mg       9.04063071       5.39204232      13.05730658
Mg       9.35303793      12.64656499       5.88082320
Mg       9.34050331      12.64342529      13.19851112
Mg       5.27087718       1.75079219       5.65062541
Mg       5.33474839       1.70015510      12.73964399
Mg       5.76753293       9.05017634       5.68925639
Mg       5.72595359       9.03595020      12.97280468
Mg      12.32699273       1.74028153       5.76788134
Mg      12.31479202       1.75608591      13.02508322
Mg      12.74478827       9.05480091       5.86825434
Mg      12.64146978       8.91041526      13.02158179
Mg       0.14216041       3.61427785       3.63522482
Mg       0.13547372       3.61139086      10.87567429
Mg       0.52097711      10.95401493       3.91966675
Mg       0.50762731      10.84900154      11.04849168
Mg       7.19330661       3.53911938       3.85810039
Mg       7.19245880       3.53320157      11.14049140
Mg       7.54476585      10.79564272       4.01475367
Mg       7.49645996      10.87337356      11.26128409
Mg       3.64920403       3.57274932       0.06721649
Mg       3.69547747       3.57579820       7.38275977
Mg       4.07254989      10.93174286       0.25513157
Mg       3.97785263      10.85402953       7.52143026
Mg      10.56786480       3.61626636       0.27027074
Mg      10.56428448       3.50248755       7.56201009
Mg      11.10352418      10.93677434       0.48926001
Mg      10.97469601      10.71373302       7.74144908
Mg       5.44228949       5.39741576       2.03755672
Mg       5.55936288       5.29192893       9.22283889
Mg       5.81890266      12.59995822       2.17378228
Mg       5.90163662      12.64880300       9.31777433
Mg      12.46635933       5.30059065       2.12183736
Mg      12.56243097       5.34550722       9.42194268
Mg      12.87522044      12.58734855       2.33751367
Mg      12.81132279      12.59314828       9.56010174
Cu       6.32081626       4.48224702       6.63387425
Cu       6.28649862       4.38123323      13.79534140
Cu       6.70050289      11.77498149       6.74911959
Cu       6.75335652      11.71426241      13.88067869
Cu      13.37622308       4.37567983       6.75816794
Cu      13.32178673       4.38863643      14.02885552
Cu      13.70357014      11.83078317       6.83786340
Cu      13.69898737      11.74447428      14.16871505
Cu       4.65841853       6.33118445       6.61399128
Cu       4.65280864       6.28121210      13.88222468
Cu       5.11537009      13.59645282       6.67642055
Cu       4.99915747      13.53157287      13.92776038
Cu      11.66470434       6.31625239       6.64419475
Cu      11.66554181       6.22557319      13.97571468
Cu      11.99497022      13.59597665       6.81883923
Cu      12.05378039      13.49701597      14.01927993
Cu       2.75947202       2.71599027       4.70963963
Cu       2.76033848       2.62534880      11.94747461
Cu       3.07951358       9.98368093       4.71831946
Cu       3.14725587      10.00953739      12.05546832
Cu       9.72728798       2.66265735       4.88033958
Cu       9.71260474       2.65820500      12.06906858
Cu      10.12692613       9.90756707       4.96429836
Cu      10.15192834       9.88022466      12.21391086
Cu       6.12675432       0.80030071       2.87256042
Cu       6.17411080       0.86828990      10.17917436
Cu       6.48634202       8.03144280       3.05710069
Cu       6.50539905       8.20585904      10.30311323
Cu      13.14960664       0.74928328       2.95623320
Cu      13.16062005       0.83832113      10.26796202
Cu      13.59791376       8.07386174       3.20102122
Cu      13.47801735       8.05698079      10.40163502
Cu       1.11700468       4.54452047       1.01403757
Cu       1.12876600       4.48987258       8.25213630
Cu       1.50049885      11.83180438       1.15670481
Cu       1.42341983      11.74400055       8.37224477
Cu       8.02431321       4.46125170       1.08375082
Cu       8.11937266       4.43597590       8.48464159
Cu       8.39052089      11.67472362       1.26181942
Cu       8.36405337      11.75744655       8.60933555
Cu       4.55390439       4.58090102       4.74261344
Cu       4.54595574       4.42071672      11.98733494
Cu       5.01590516      11.71951183      12.22924138
Cu      11.54544712       4.47206591       4.91496655
Cu      11.58684278       4.45502986      12.14317958
Cu      12.04584399      11.65795118       5.06160467
Cu      11.89641106      11.67236115      12.23532986
Cu       1.16582791       6.29410221       2.82409859
Cu       1.19158970       6.34368250      10.08996032
Cu       1.65698659      13.56290563       3.00911346
Cu       1.56283008      13.57124575      10.29100213
Cu       8.18116202       6.31297680       3.05488303
Cu       8.11631066       6.23478592      10.34179611
Cu       8.57499941      13.60847385       3.07837915
Cu       8.53558309      13.52467986      10.39627144
Cu       3.00048481       6.35851244       1.19504038
Cu       2.92941279       6.25401386       8.40115847
Cu       3.28128774      13.60643337       1.26981017
Cu       3.25205572      13.49891283       8.48241447
Cu       9.94228416       6.25131177       1.17131932
Cu       9.94576744       6.24191226       8.57182478
Cu      10.32530727      13.62230303       1.39743111
Cu      10.24040299      13.51878589       8.57332872
Cu       2.85976048       4.45914358       2.85053279
Cu       2.82083753       4.42815756      10.05807053
Cu       3.23159808      11.76980050       3.00255962
Cu       3.19030366      11.68841948      10.23362911
Cu       9.71878533       4.47009737       2.86350392
Cu       9.78468168       4.34952634      10.23353722
Cu      10.29805686      11.68119488       3.06492478
Cu      10.16380185      11.75497222      10.37010563
Cu       4.51511443       2.65870494       2.84995750
Cu       4.45993185       2.60045193      10.21428434
Cu       4.86015206       9.90607574       3.02408576
Cu       4.89201577       9.93004007      10.20650230
Cu      11.44349385       2.69361130       3.00742510
Cu      11.50079414       2.60343705      10.23633078
Cu      11.92882572       9.92688996       3.15616934
Cu      11.87582878       9.91171495      10.43339746
Cu       6.42813338       6.26713419       4.78636430
Cu       6.37314256       6.36779409      11.92226878
Cu       6.72254353      13.60833229       4.95818885
Cu       6.79869604      13.47372730      12.21025559
Cu      13.36770734       6.29986575       5.00225809
Cu      13.41171533       6.22636589      12.18152590
Cu      13.77975836      13.52404400       5.10026274
Cu      13.76044105      13.47680200      12.38403470
Cu       2.68775937       0.87278622       6.51910603
Cu       2.66389379       0.88353557      13.74336434
Cu       2.99637431       8.10373883       6.56309087
Cu       3.04723435       8.10500955      13.85683934
Cu       9.66341077       0.74922887       6.60422127
Cu       9.68274934       0.79109693      13.83745178
Cu      10.07210897       8.04088388       6.80609303
Cu      10.04392166       8.01643039      14.00658264
Cu       0.90636570       0.90125188       4.57888572
Cu       0.95458567       0.83715559      11.90499409
Cu       1.28552314       8.15035778       4.70936441
Cu       1.28007853       8.11230815      11.93320944
Cu       7.89757604       0.89844659       4.69216037
Cu       7.95619401       0.79849188      12.06690804
Cu       8.35815994       8.06876345       4.91773089
Cu       8.24307283       8.11494488      12.23850628
Cu       6.19479820       2.78722475       1.06898603
Cu       6.21463112       2.61973988       8.40053371
Cu       6.63812585       9.95454071       1.19884758
Cu       6.53410795       9.90292524       8.61466182
Cu      13.26997825       2.63184995       1.32584630
Cu      13.19456880       2.52841925       8.53442018
Cu      13.69142057       9.86496169       1.30183387
Cu      13.56216907       9.85772698       8.59421584
Cu       0.93452274       2.68054548       6.48080588
Cu       1.01784154       2.65000257      13.73078673
Cu       1.31576116       9.89680447       6.57537339
Cu       1.29568111       9.90917812      13.77140279
Cu       8.01746060       2.68007077       6.58790564
Cu       7.95696125       2.55945870      13.88470562
Cu       8.40149672       9.86722992       6.73792719
Cu       8.28677995       9.90249983      13.98718955
Cu       4.39548223       0.93937188       0.98474585
Cu       4.38019069       0.82937399       8.19265836
Cu       4.86445674       8.14845248       1.14296631
Cu       4.83584778       8.08211158       8.45730107
Cu      11.49229414       0.84965584       1.16857395
Cu      11.48901052       0.78072752       8.52199933
Cu      11.80160257       8.08989220       1.34550226
Cu      11.76803491       8.16365823       8.51439663
