188
Lattice="13.839983327814798 -0.43686633548884857 -0.21266005701073415 0.39937304108341387 14.073716931208114 -0.034657660545412285 0.10920405004164295 0.22152900042369908 14.283975359084076" Properties=species:S:1:pos:R:3 pbc="T T T"
Mg       3.53906713      -0.10059340       3.60239256
Mg       3.42390142       0.06342067      10.63476449
Mg       3.69797456       6.98473141       3.46040507
Mg       3.72681085       7.03159703      10.62606862
Mg      10.36744967      -0.25295501       3.47261599
Mg      10.43854144      -0.16344967      10.50215019
Mg      10.63543109       6.77821808       3.42271817
Mg      10.64367476       6.88912407      10.57737630
Mg       1.84040030       1.71922925       1.80653632
Mg       1.82789272       1.87757277       8.80573380
Mg       1.98849590       8.74694952       1.82892780
Mg       2.01543401       8.87680256       8.92515682
Mg       8.69311645       1.57166233       1.55100027
Mg       8.70311877       1.65867845       8.79677909
Mg       9.02699511       8.54142771       1.62569288
Mg       8.99300049       8.71054612       8.81137315
Mg      -0.02835517      -0.01347553      -0.00228769
Mg       0.00888714       0.05434161       7.19723918
Mg       0.20213159       7.11282139      -0.08903896
Cu       0.21628699       7.16134991       7.13105089
Mg       6.94153558      -0.23707859      -0.07100679
Mg       6.99169630      -0.21436991       6.99268852
Mg       7.08256592       6.74213675      -0.08850679
Mg       7.19555687       6.96782666       7.01588577
Mg       1.94460754       5.33621024       5.37128108
Mg       2.00881175       5.36461622      12.54001380
Mg       2.08827431      12.32331020       5.21286896
Mg       2.31269511      12.45646402      12.43997234
Mg       8.78450331       5.16927864       5.14886347
Mg       8.94488709       5.12182945      12.41439951
Mg       9.04758521      12.13412908       5.12744065
Cu       9.05146283      12.27497450      12.32506069
Mg       5.28455838       1.71718848       5.20551096
Mg       5.38298842       1.71137717      12.43754017
Mg       5.45032780       8.62827572       5.22152968
Mg       5.52845207       8.76772735      12.49561420
Mg      12.26224094       1.43280480       5.07809523
Mg      12.17743604       1.61641068      12.19430288
Mg      12.33070745       8.58325163       5.08689152
Mg      12.37657457       8.58274497      12.27057074
Mg       0.13463332       3.55801618       3.63588298
Mg       0.16735710       3.69637837      10.72988562
Mg       0.32142567      10.58775895       3.62357893
Mg       0.35604661      10.70323044      10.76104329
Mg       7.03978655       3.31038538       3.41843497
Mg       7.13941447       3.43653250      10.54176850
Mg       7.21830119      10.31394697       3.46570150
Mg       7.26333280      10.41241865      10.60387683
Mg       3.60131972       3.49337276      -0.07217379
Mg       3.65733226       3.50434836       6.92276438
Mg       3.72965719      10.41088869      -0.06238834
Mg       3.78282762      10.59062939       6.94758848
Mg      10.49101350       3.35298557       7.02727951
Mg      10.78321266      10.27829894      -0.15359936
Mg      10.76671204      10.32560516       6.86317004
Mg       5.26629017       5.10288805       1.76267093
Mg       5.44453384       5.22664032       8.88442252
Mg       5.50435466      12.20541712       1.66401187
Mg       5.65025591      12.27892261       8.77626520
Mg      12.29578797       4.90707774       1.52062301
Mg      12.40152054       5.07221420       8.71800769
Mg      12.50718748      12.00130737       1.58755074
Mg      12.55142518      12.15818250       8.75953755
Cu       6.24769810       4.33268048       6.10959704
Cu       6.23151929       4.49913293      13.23081517
Cu       6.38922201      11.42168662       6.10578361
Cu       6.46537000      11.47823617      13.22260385
Cu      13.10288825       4.00902951       6.00361163
Cu      13.15119158       4.18875328      13.11025239
Cu      13.41886322      11.14799452       6.03572908
Cu      13.36713046      11.19534541      13.19850451
Cu       4.50350539       6.12376431       6.17254253
Cu       4.56404723       6.29699182      13.23960160
Cu       4.72956799      13.11336680       6.18008857
Cu      11.47644336       5.99681845       6.15862919
Cu      11.70715647      12.94095930       6.14098229
Cu      11.73773659      13.01739355      13.19817677
Cu       2.73710281       2.64950471       4.39101897
Cu       2.70292112       2.74243242      11.55945839
Cu       2.82857875       9.79760802       4.42211707
Cu       2.91306912       9.74650598      11.49524477
Cu       9.60982198       2.45754328       4.40545355
Cu       9.64188569       2.55334277      11.54986281
Cu       9.74802962       9.50093589       4.33853135
Cu       9.93332328       9.59733603      11.45613114
Cu       6.11654391       0.66858040       2.58513912
Cu       6.14792241       0.87598334       9.77554596
Cu       6.34107393       7.74715568       2.60379921
Cu       6.34686468       7.83834045       9.72221882
Cu      12.97277543       0.49685647       2.46839335
Cu      13.08696317       0.62786189       9.69163570
Cu      13.11676082       7.58115531       2.49432655
Cu      13.19610477       7.66398605       9.53658131
Cu       0.98849908       4.35919093       0.91826897
Cu       1.03510616       4.45709119       7.98798555
Cu       1.25089626      11.36214955       0.93544244
Cu       1.25406988      11.54835074       7.98511097
Cu       7.90860379       4.18429827       0.69877432
Cu       8.02125822       4.37032887       7.85146666
Cu       8.16193016      11.12989232       0.68744074
Cu       8.14797287      11.29010961       7.85530425
Cu       4.41138456       4.34799219       4.40900406
Cu       4.59674446       4.40911189      11.51118720
Cu       4.67532921      11.36985632       4.30754121
Cu       4.70617966      11.45028991      11.55940520
Cu      11.47722216       4.17454716       4.32940524
Cu      11.65430993      11.12798107       4.19939591
Cu      11.63931870      11.21359565      11.27788734
Cu       1.03848743       6.17576598       2.63157670
Cu       1.12679549       6.25463428       9.81191388
Cu       1.30374771      13.19053317       2.59657741
Cu       1.41130647      13.28534509       9.79961803
Cu       7.93553927       5.95137999       2.57710597
Cu       8.07809069       6.05489935       9.64587268
Cu       8.21850211      12.99380400       2.51688852
Cu       8.19534093      13.07844160       9.65657128
Cu       2.74930745       6.13213758       0.87393949
Cu       2.89119014       6.25125607       7.97142352
Cu       2.94438784      13.13389762       0.92293232
Cu       2.93409036      13.21040531       7.95418228
Cu       9.66168757       5.89269151       0.79789533
Cu       9.68778949       5.97552904       7.83632941
Cu       9.86566131      12.89962972       0.70981345
Cu       9.96394578      12.94804424       7.92028782
Cu       2.74272915       4.35031668       2.57974943
Cu       2.80265779       4.40177712       9.87272113
Cu       3.02658773      11.32250770       2.52043768
Cu       3.03142899      11.60974332       9.70452011
Cu       9.60420108       4.15946160       2.54910200
Cu       9.73768456       4.27075419       9.65252757
Cu       9.89377917      11.29223261       2.46888196
Cu       9.89150251      11.22832849       9.71277336
Cu       4.40116180       2.49763126       2.65660552
Cu       4.44196971       2.70960505       9.76492638
Mg       4.72794049       9.52574711       2.47560657
Cu       4.69923362       9.64059567       9.63217704
Cu      11.36159833       2.35016996       2.47611982
Cu      11.46249881       2.49274259       9.61991034
Cu      11.57924578       9.43336894       2.49533895
Cu      11.59141645       9.42229416       9.64953928
Cu       6.23561447       5.98292508       4.42080264
Cu       6.33552311       6.18543885      11.49720256
Cu       6.40831875      13.03021656       4.34772205
Cu       6.58272281      13.14146433      11.48792739
Cu      13.25843965       5.78445170       4.29296548
Cu      13.15759236       5.96490599      11.33970665
Cu      13.32645650      12.80985125       4.19583876
Cu      13.40708498      12.95021396      11.32753973
Cu       2.67036291       0.90685551       6.13217752
Cu       2.69094764       0.98515286      13.33802099
Cu       2.85835375       7.93852388       6.25917632
Cu       2.99157419       8.09511214      13.31896623
Cu       9.63033029       0.67218697       6.13731794
Cu       9.62102884       0.71934774      13.19018942
Cu       9.82149109       7.74744179       5.96150730
Cu       9.82265023       7.85394413      13.16081907
Cu       0.91142099       0.91489610       4.36603642
Cu       0.96153637       0.99882781      11.55878653
Cu       1.16154642       7.94506510       4.42861311
Cu       1.14354976       7.98178503      11.55577568
Cu       7.87057815       0.68642142       4.31542020
Cu       7.81953388       0.80067422      11.39911743
Cu       8.13261874       7.68235061       4.33104573
Cu       8.10331404       7.79232767      11.39163737
Cu       6.13530630       2.45656292       0.73905248
Cu       6.20668849       2.62787044       7.88498421
Cu       6.37991426       9.45382023       0.77076290
Cu       6.39688069       9.60722242       7.89371769
Cu      13.03653833       2.26996928       0.65555426
Cu      13.14816422       2.21123932       7.82257499
Cu      13.30660690       9.32164578       0.68973173
Cu      13.26945756       9.46408347       7.88488736
Cu       1.03480711       2.70185044       6.24495519
Cu       0.97619738       2.77366771      13.34590904
Cu       1.23116073       9.75891014       6.25706830
Cu       1.21067863       9.85936512      13.35618845
Cu       7.86284717       2.49445138       6.17468744
Cu       7.97998435       2.57363333      13.30160278
Cu       8.16611511       9.52308089       6.10656554
Cu       8.20564220       9.68524634      13.20925364
Cu       4.31902531       0.73985470       0.88213986
Cu       4.36733775       0.85189792       7.89152212
Cu       4.53876859       7.76761464       0.79252548
Cu       4.60333866       7.90346969       7.92332928
Cu      11.32387230       0.53230703       0.63964485
Cu      11.35859284       0.60890712       7.82626176
Cu      11.49476080       7.52157195       0.68713133
Cu      11.57250099       7.73109654       7.88590326
