190
Lattice="13.84094770189706 0.18889033654239396 0.4628477471958868 0.3055107438437761 14.08032928723198 0.5201538708072189 0.3047348853220424 -0.005410171771173426 13.936679272649403" Properties=species:S:1:pos:R:3 pbc="T T T"
Mg       3.65910884       0.08131550       3.59547098
Mg       3.75812683       0.05321226      10.53954110
Cu       3.65344592       7.10166189       3.85174910
Mg      10.48513786       0.19784901       3.84989852
Mg      10.46361948       0.09934678      10.72553562
Mg      10.59519169       7.05280729       4.09446186
Mg      10.84654149       7.26929127      11.05425441
Mg       1.93517659       1.70074957       8.86988294
Mg       1.99714656       8.89314658       2.03960710
Mg       2.13119302       8.80282352       9.11554799
Mg       8.69718907       1.86618803       2.11506269
Mg       8.88624311       1.94217276       9.12727932
Mg       8.93660072       8.89230445       2.35154041
Mg       8.99485727       8.81713422       9.31844202
Mg       0.06441012       0.01357712      -0.01328941
Mg       0.13965237      -0.02085115       7.01885639
Mg       0.12101239       7.05957233       0.27552377
Mg       0.34398639       7.14237134       7.21991590
Mg       6.93900355       0.17328015       0.25398571
Mg       7.03958579       0.01951193       7.24712228
Mg       7.06166300       7.12120022       0.56272791
Mg       7.16216615       7.10316327       7.43517069
Mg       1.91015829       5.21259656       5.48237596
Mg       2.08814791       5.35253378      12.56240180
Mg       2.12158243      12.30340865       5.68362051
Mg       2.25146445      12.38810443      12.67737252
Mg       8.82250398       5.38435229       5.69238759
Mg       9.10147299       5.39907603      12.71487973
Mg       8.98133191      12.37911822       5.89230580
Mg       9.21210872      12.47723401      12.92226816
Mg       5.35015751       1.85854208       5.45967275
Mg       5.51995860       1.76538219      12.48881854
Mg       5.49895441       8.92049863       5.70173130
Mg       5.60235374       8.79086954      12.64613086
Mg      12.26178108       1.89667396       5.68685286
Mg      12.43143663       1.90097968      12.56550628
Mg      12.39735488       8.99422384       5.97707482
Mg      12.49400581       8.91844467      12.93230543
Mg       0.13525044       3.49534292       3.60495372
Mg       0.26063268       3.49497161      10.52888596
Mg       0.29450212      10.52437807       3.89302631
Cu       0.47220761      10.60176495      10.90079762
Mg       7.12342199       3.63241752       3.74741388
Mg       7.20259673       3.63492459      10.83031425
Cu       7.20491170      10.64456014       4.16049364
Mg       7.32567213      10.65803571      11.03440064
Mg       3.61355284       3.59281375       0.24385162
Cu       3.66752110       3.52956512       7.19929303
Mg       3.73649551      10.53065140       0.59363660
Mg       3.86753428      10.59480520       7.42784139
Cu      10.48581552       3.67510855       0.48715664
Mg      10.58473193       3.67002610       7.43478679
Mg      10.56646901      10.60554734       0.70568388
Mg      10.61255304      10.64994194       7.72859716
Mg       5.36713652       5.29514903       2.11863656
Mg       5.57774582       5.42112705       9.03062752
Mg       5.46898488      12.49706010       2.37924812
Mg       5.61801717      12.39489076       9.32666520
Cu      12.24619790       5.45539393       2.38780822
Mg      12.37719795       5.46818508       9.28474021
Mg      12.52532264      12.41951890       2.56834619
Mg      12.60333608      12.47365473       9.52186739
Cu       6.20028590       4.51239022       6.45022188
Cu       6.42530655       4.50475660      13.50834647
Cu       6.43948622      11.56533179       6.73340719
Cu       6.53878563      11.43454364      13.71297914
Cu      13.05204855       4.54377871       6.63606938
Cu      13.31092200       4.57483824      13.66511031
Cu      13.36045203      11.66271440       6.90977581
Cu      13.54949248      11.64844983      13.87885190
Cu       4.59658559       6.17361236       6.49007075
Cu       4.73751199       6.19977254      13.42557714
Cu       4.75577226      13.25430508       6.64680299
Cu       4.99453677      13.30622305      13.69338660
Cu      11.45731434       6.36175606       6.63737055
Cu      11.74333521       6.33276501      13.70925573
Cu      11.66664436      13.35922390       6.97406123
Cu      11.71910846      13.35300035      13.96124911
Cu       2.71537779       2.65965238       4.57518026
Cu       2.85380553       2.57968601      11.36862838
Cu       2.89107090       9.71132114       4.75979753
Mg       3.10864848       9.71421261      11.80407834
Cu       9.72269009       2.79947842       4.74280652
Cu       9.75991695       2.70596554      11.76316171
Cu       9.81467491       9.75586030       5.09439382
Cu      10.00019857       9.79411877      12.01589130
Cu       6.13341435       0.93528653       2.77968559
Cu       6.33085559       0.88088932       9.92993798
Cu       6.23054642       7.96490905       3.08918173
Cu       6.46595398       7.91032803      10.11482983
Cu      12.99647181       1.00338049       2.99307940
Cu      13.20425280       1.09787823      10.09021063
Cu      13.24129479       8.02361845       3.35393693
Cu      13.42118180       8.11321451      10.32164310
Cu       1.01977937       4.38846056       1.14027137
Cu       1.22789060       4.50086139       8.00154675
Cu       1.25609357      11.37032629       1.29304718
Cu       1.28497360      11.41176251       8.35384328
Cu       7.87128394       4.53883022       1.35857380
Cu       8.05012779       4.50808712       8.08621311
Mg       8.02046974      11.61132973       1.50980400
Cu       8.17508115      11.55573361       8.50768225
Cu       4.51714573       4.43645322       4.62303460
Cu       4.58079054       4.43781423      11.65702390
Cu       4.73304438      11.50939919       4.89595597
Cu       4.86587957      11.40981053      11.87112848
Cu      11.51314314       4.55137172       4.86935930
Cu      11.54279425       4.51173305      11.88375898
Cu      11.61718146      11.55380892       5.18905149
Cu      11.67170306      11.66673598      12.14834669
Cu       1.05735776       6.20678636       2.89702190
Mg       1.14309441       6.15479400       9.78364148
Cu       1.15232831      13.19679275       3.09424035
Cu       1.36490481      13.28757157      10.11413999
Cu       7.88565917       6.29290981       3.03071196
Cu       8.15951195       6.24808095      10.03331094
Cu       8.12244803      13.22999795       3.40547835
Cu       8.32434845      13.27511400      10.30854751
Cu       2.70439441       6.19388897       1.10501777
Cu       2.89044320       6.15021334       8.18339284
Cu       2.91203144      13.22433355       1.39725617
Cu       3.11557602      13.30119684       8.40010748
Cu       9.68005407       6.27847932       1.44537818
Cu       9.82666865       6.35533169       8.42249805
Cu       9.80453372      13.37498002       1.72045469
Cu       9.97462816      13.25532655       8.50868993
Cu       2.80000024       4.43364648       2.92733648
Cu       2.84044545       4.48035385       9.78164417
Cu       2.82771769      11.45215429       3.15562170
Cu       2.94774913      11.42769340      10.04172331
Cu       9.60939731       4.43627996       3.02738639
Cu       9.87972851       4.39827256       9.97412083
Cu       9.73535520      11.57983366       3.39311403
Cu       9.94329002      11.63594949      10.30031374
Cu       4.53520424       2.69081701       2.76181812
Cu       4.60398810       2.60924100       9.82379919
Cu       4.62318111       9.74365701       3.07062735
Cu       4.82490438       9.79693810      10.02925510
Cu      11.38282010       2.88030003       3.05797392
Cu      11.51066658       2.79988569       9.99414622
Cu      11.49570749       9.79632459       3.39547413
Cu      11.75843380       9.87121472      10.31643039
Cu       6.18087502       6.24562293       4.80549002
Cu       6.36723238       6.21402997      11.75115144
Cu       6.53597229      13.17908961       4.99758631
Cu       6.68674668      13.34208392      12.02562519
Cu      13.23603007       6.24085493       4.95805925
Mg      13.37689724       6.31984020      12.03663228
Cu      13.34306323      13.28948580       5.28290132
Cu      13.49400705      13.36617607      12.18060158
Cu       2.71853996       0.90783795       6.21015024
Cu       2.89538518       0.89128140      13.31351313
Cu       2.90895138       7.88069015       6.52159118
Cu       2.93653617       7.89892643      13.40179361
Cu       9.64511495       0.97127497       6.41547931
Cu       9.79941662       0.97173755      13.34134453
Cu       9.86269224       8.05706181       6.64079090
Cu      10.03019589       8.04773278      13.65990442
Cu       0.96922453       0.82156659       4.46141241
Cu       1.19714566       0.88807363      11.36371729
Cu       1.20102809       7.92669869       4.67459615
Cu       1.31978723       7.96265562      11.63703115
Cu       7.86315970       1.04977406       4.56062898
Cu       7.99120160       0.97575699      11.58701277
Cu       7.95929263       7.98874410       4.93810973
Cu       8.23597979       7.99420044      11.86589862
Cu       6.15375856       2.70437790       1.09830990
Cu       6.29141994       2.77274687       8.13612600
Cu       6.29938544       9.80772066       1.43082006
Mg       6.37952931       9.71429854       8.33532508
Cu      13.01022182       2.85243413       1.34595269
Mg      13.22289352       2.83167882       8.31691956
Cu      13.19388706       9.83538045       1.55235142
Cu      13.40384281       9.80048780       8.64962455
Cu       1.07576364       2.58022593       6.24330375
Cu       1.23304293       2.69774866      13.14816404
Cu       1.16979579       9.75837325       6.42605307
Cu       1.39025992       9.73174355      13.49787910
Cu       7.97042110       2.81474529       6.43581904
Cu       8.14363682       2.80938928      13.49530886
Cu       8.25710663       9.74089149       6.70118840
Cu       8.29862732       9.78020781      13.74957228
Cu       4.38827247       0.99869645       1.16509920
Cu       4.52808347       0.87859920       8.00653647
Cu       4.43389478       7.99278418       1.36106213
Cu       4.65236903       7.86266943       8.22131851
Cu      11.26250057       1.05554197       1.28287150
Cu      11.45055207       1.01155743       8.28023246
Cu      11.51029604       8.04835237       1.58528695
Cu      11.51349537       8.11373178       8.51559956
