191
Lattice="14.61403181886655 0.11174377489936956 0.39377921610017036 -0.06047255693664019 14.240294719835763 -0.3459761051109393 0.2039491444537319 0.05062455401538022 14.481433850019243" Properties=species:S:1:pos:R:3 pbc="T T T"
Mg       3.73131280      -0.04656446       3.64669189
Cu       3.91505759       0.03945957      11.03642313
Mg       3.59949746       7.15620016       3.48562881
Mg       3.79817987       7.30939529      10.79886924
Mg      10.95767853      -0.04745573       3.94285415
Mg      11.12908996       0.18198362      11.11782809
Mg      11.02344371       7.22651256       3.87391002
Mg      11.09487749       7.26003637      10.97450518
Mg       1.82401578       1.76221596       1.79321877
Mg       1.92038583       1.76356010       9.09171062
Mg       1.82090543       9.03125695       1.76762995
Mg       1.98597026       8.97092750       8.82909314
Mg       9.09923339       1.69649560       2.05855218
Mg       9.31859495       1.90211842       9.40194680
Mg       9.17146238       8.88410949       1.79379898
Cu       9.22781704       8.98568866       9.05392539
Mg       0.06335541       0.01244616      -0.02250268
Mg       0.09104983      -0.01682699       7.31119832
Mg       0.06160572       7.15405957      -0.14218230
Mg       0.07765786       7.14266000       7.08193323
Mg       7.24047729       0.04044230       0.32486591
Mg       7.37748237       0.08730454       7.40410606
Mg       7.30501093       7.12713149       0.00311321
Mg       7.43017241       7.24231674       7.27730442
Mg       1.93145985       5.30722711       5.36807918
Mg       1.97071397       5.37576516      12.61222174
Mg       1.89357234      12.44388783       5.16324153
Mg       1.92741795      12.51985279      12.49329435
Mg       9.12151854       5.44415923       5.47103221
Mg       9.32289875       5.44806773      12.81530952
Mg       9.18442130      12.47483205       5.41383577
Mg       9.21930915      12.61665743      12.55777016
Mg       5.50130220       1.76693610       5.49843737
Mg       5.70512567       1.82806519      12.82938189
Mg       5.48186841       8.95667754       5.29871773
Mg       5.61182364       9.00103086      12.69702874
Mg      12.89202166       1.80605059       5.78917363
Mg      13.04416667       1.89736667      12.90696180
Mg      12.78887370       9.04532482       5.55140715
Mg      12.92039559       9.08584480      12.81440918
Mg       0.05352331       3.66491910       3.47884974
Mg       0.12121596       3.63511586      10.87914770
Mg       0.04058381      10.71036758       3.27962481
Mg       0.09057942      10.72730802      10.63771913
Mg       7.26454911       3.68728293       3.77679487
Mg       7.44743709       3.64759178      11.03111934
Mg       7.29685708      10.82178592       3.53682174
Mg       7.38422154      10.73811045      10.81802286
Mg       3.63149387       3.66784491      -0.05886177
Mg       3.70852166       3.59042396       7.22608697
Mg       3.64287457      10.75420779      -0.16957384
Mg       3.72885789      10.72431686       7.02150829
Cu      10.95672120       3.74697784       0.11671463
Mg      10.95232517       3.73877978       7.41846608
Mg      10.88677808      10.79199462       0.10761967
Mg      10.96568758      10.78541352       7.27706324
Mg       5.50700323       5.33346609       1.91155098
Mg       5.59181230       5.29922505       9.02604192
Mg       5.45599260      12.52612376       1.62979097
Mg       5.51964859      12.57042919       8.90040623
Mg      12.83250624       5.37235942       2.05188917
Mg      12.91041521       5.52432934       9.29510471
Cu      12.66909445      12.57454383       1.86268973
Mg      12.85238163      12.55739280       9.13420870
Cu       6.42544473       4.56864308       6.39310373
Cu       6.54046993       4.48827936      13.61493731
Cu       6.42599105      11.63332142       6.30532736
Cu       6.62258762      11.80354383      13.46116595
Cu      13.72704668       4.52512894       6.61719284
Cu      13.82793696       4.65099878      13.78520453
Cu      13.77585960      11.69547371       6.40288681
Cu      13.88311648      11.71821714      13.62293355
Cu       4.70115864       6.28723288       6.29377678
Cu       4.76333999       6.31707697      13.47364512
Cu       4.54802375      13.37566146       6.20091348
Cu       4.71624751      13.45747599      13.40097566
Cu      11.80314491       6.32840793       6.46940842
Cu      12.03685981       6.32704797      13.74499368
Cu      11.94823597      13.59787211       6.28574687
Cu      11.99156124      13.48827472      13.59503703
Cu       2.79157433       2.76606437       4.54068372
Cu       2.83947294       2.72745039      11.78315802
Cu       2.75886974       9.76497470       4.26151150
Cu       2.92949587       9.89219932      11.62683571
Cu      10.06979473       2.66242290       4.74383557
Cu      10.23434536       2.78414605      11.94617569
Cu      10.05168474       9.91508645       4.57121533
Cu      10.18688690       9.92145099      11.85758908
Cu       6.40684845       0.89932770       2.88378311
Cu       6.49045269       1.07175980      10.10857997
Cu       6.38623485       7.96712253       2.75059320
Cu       6.53230598       8.09138641       9.99346321
Cu      13.73396464       1.14142900       2.98732855
Cu      13.84554194       1.01760578      10.30194367
Cu      13.70314263       8.07860243       2.85716708
Cu      13.82188144       8.16776620      10.15366765
Cu       0.76613353       4.49780933       0.81330206
Cu       0.92183733       4.41427061       8.02476662
Cu       0.83231774      11.48605009       0.66544084
Cu       1.00715017      11.58961239       7.84622567
Cu       8.18657722       4.43886965       0.92770175
Cu       8.36456687       4.60489335       8.22027900
Cu       8.12233729      11.65235642       0.90004600
Cu       8.27991923      11.63234436       8.07285428
Cu       4.53805371       4.55951537       4.47671784
Cu       4.74711548       4.53430404      11.84322152
Cu       4.56592718      11.70205690       4.30197828
Cu       4.70738601      11.75864033      11.54030648
Cu      11.92438901       4.52479702       4.74377090
Cu      11.94255782       4.60116981      11.95737641
Cu      11.77377774      11.77894565       4.46330126
Cu      12.01519205      11.71118479      11.74946390
Cu       0.90376260       6.25434625       2.61679967
Cu       0.94791540       6.25144756       9.85482348
Cu       0.98151827      13.39037897       2.41985555
Cu       0.96598606      13.42760545       9.60257218
Cu       8.28956947       6.15916768       2.83080005
Cu       8.33582374       6.27753001      10.05008538
Mg       8.18264680      13.41397644       2.59022127
Cu       8.27577161      13.49703102       9.93818817
Cu       2.72789438       6.36427469       0.81903238
Mg       2.84157872       6.28651503       7.97842262
Cu       2.69286650      13.31983175       0.66578707
Cu       2.84960850      13.41049737       7.91223206
Cu      10.02533474       6.34049486       1.08537987
Cu      10.19533287       6.39294642       8.23829032
Cu       9.97243372      13.40191639       0.82005456
Cu      10.11070942      13.46562670       8.08690013
Cu       2.81360160       4.51068140       2.65385500
Cu       2.86658099       4.45805560      10.01693235
Cu       2.71346502      11.62413964       2.44718061
Cu       2.86613309      11.62946242       9.75942279
Cu      10.06152071       4.51796212       2.85623302
Cu      10.19067436       4.55432717      10.12715811
Cu      10.03157301      11.66604598       2.70293463
Cu      10.15438468      11.71544945       9.86397673
Cu       4.57776322       2.73618306       2.84074783
Cu       4.62269638       2.77048824       9.97173972
Cu       4.59652761       9.88424081       2.54927390
Cu       4.67627958       9.92054794       9.85060514
Mg      11.91350690       2.77224095       2.89440002
Cu      11.99938171       2.86998571      10.28264237
Cu      11.86808334       9.86086123       2.79964369
Cu       6.50740698       6.27970840       4.42503106
Cu       6.51967299       6.32182974      11.73480657
Cu       6.41885357      13.36878185       4.29627352
Cu       6.50982651      13.38255805      11.65954389
Cu      13.81469091       6.24373975       4.73676315
Cu      13.80135196       6.45767464      11.95849669
Cu      13.75700233      13.45708902       4.60931457
Cu      13.79205728      13.51149172      11.83831925
Cu       2.84967814       0.99386945       6.32165635
Cu       2.88900034       0.91301212      13.67411559
Cu       2.76663577       8.14247903       6.22863331
Cu       2.89796490       8.10383090      13.45682270
Cu      10.09633760       0.99690512       6.50617528
Cu      10.23468753       0.95745883      13.82776609
Cu      10.06724016       8.13136359       6.48991019
Cu      10.09674601       8.23916116      13.60268746
Cu       0.92669328       0.96533281       4.53938266
Cu       1.05719894       0.94534447      11.81155097
Cu       0.95971573       8.03415604       4.32473759
Cu       1.01180595       8.10895583      11.68537105
Cu       8.35669346       1.03069833       4.71134249
Cu       8.39023332       0.96854563      11.92804941
Cu       8.31243218       8.14230285       4.59383708
Cu       8.31993585       8.10968893      11.81464767
Cu       6.37516765       2.73160000       1.05868454
Cu       6.50791173       2.78232721       8.34670101
Cu       6.32855694       9.85554327       0.82781374
Cu       6.40231641       9.94346621       7.90805856
Cu      13.74093608       2.78183448       1.19740304
Cu      13.75438166       2.80831225       8.40033219
Cu      13.64826656       9.90482135       0.90618384
Cu      13.69291661       9.88278483       8.17250986
Cu       0.98981122       2.85020400       6.33615164
Cu       1.10549818       2.69028082      13.60938706
Cu       0.94657361       9.78499483       6.07038086
Cu       1.07499139       9.78277087      13.39463097
Cu       8.41206103       2.73101948       6.47850155
Cu       8.41273468       2.76450261      13.67829885
Cu       8.26125102       9.77591806       6.32622148
Cu       8.43399227       9.87976162      13.60521759
Cu       4.54319679       0.90951690       1.06976581
Cu       4.69404896       0.93611374       8.28341247
Cu       4.47601923       8.02615362       0.80269181
Mg       4.61122226       8.10395894       7.99451153
Cu      11.84034753       1.00163530       1.07369580
Cu      11.97083342       1.01624830       8.39286458
Cu      11.84949209       8.08913654       1.02420141
Cu      11.98158136       8.18596973       8.30339065
