191
Lattice="14.306613683549458 -0.009975742563854022 -0.012347363101381277 -0.008091612522631351 14.261225691839805 -0.11148008764410766 -0.3061932710767935 0.23009886082213718 14.156347353543179" Properties=species:S:1:pos:R:3 pbc="T T T"
Mg       3.46595047       0.05855895       3.46750401
Mg       3.26156438       0.24765906      10.63321074
Mg       3.48075498       7.18545931       3.41672891
Mg       3.33973598       7.38428219      10.49550948
Mg      10.69491090       0.02393107       3.53912244
Mg      10.45169636       0.16555135      10.49638776
Mg      10.65665802       7.14204821       3.45171855
Mg      10.38680510       7.23446487      10.49252612
Cu       1.81654609       1.78828974       1.69009751
Mg       1.62350626       1.90025634       8.81680738
Mg       1.80090439       8.91709920       1.63069840
Mg       1.63981634       9.13596239       8.74996354
Cu       8.86244580       1.74712056       1.70380405
Mg       8.77554934       1.95578135       8.80575605
Mg       8.92064516       8.95417790       1.56121104
Mg       8.77780948       9.05377806       8.86074643
Cu       0.03031769      -0.07250996       0.04025214
Mg      -0.11513529       0.03102383       7.01523869
Mg       0.05260891       7.14942616      -0.00385343
Cu      -0.19428900       7.30381169       7.07673523
Mg       7.27714890       0.00943778      -0.05152651
Mg       6.99224122       0.11018633       7.07196924
Mg       7.15176510       7.15561997      -0.08027261
Mg       6.92755651       7.18384728       7.00119626
Mg       1.70334415       5.51325455       5.28022535
Mg       1.49433009       5.51351960      12.28169930
Mg       1.67564738      12.58997526       5.17381911
Mg       1.56662177      12.68482739      12.24786704
Mg       8.79605112       5.38174760       5.32084513
Mg       8.60429478       5.47554759      12.28638033
Mg       8.84961699      12.57167723       5.12944554
Mg       8.60383069      12.61728151      12.28585831
Mg       5.17868261       1.83866715       5.26934493
Mg       5.08913766       1.93612028      12.35736964
Mg       5.28575967       8.95224917       5.28885383
Mg       5.03097547       9.12800568      12.19597565
Mg      12.46344758       1.82499322       5.27639272
Mg      12.19862334       1.97669112      12.34172020
Cu      12.41058848       8.92386144       5.15788330
Mg      12.21501502       9.13023979      12.25483245
Mg      -0.09538036       3.68836791       3.55428988
Mg      -0.25378323       3.75937123      10.67875239
Mg      -0.05700403      10.76664653       3.42455609
Mg      -0.19502322      10.80868660      10.47436719
Mg       7.11025311       3.63960436       3.50586770
Mg       6.90064063       3.73353829      10.56045951
Cu       6.99374452      10.75114603       3.53207556
Cu       6.96285868      10.77425717      10.49564567
Mg       3.55833645       3.62146613       0.00694205
Cu       3.41869535       3.67566473       7.06534338
Mg       3.48639868      10.79097634      -0.11917199
Mg       3.40589726      10.91562506       7.04842249
Mg      10.77194926       3.58610961      -0.00744574
Mg      10.73366982       3.67366150       7.04006067
Mg      10.66855023      10.64866419      -0.06548482
Mg      10.60831415      10.77132943       6.96660414
Mg       5.32257867       5.37201581       1.73045105
Mg       5.18136163       5.44094609       8.80132777
Mg       5.37914882      12.49618556       1.71354778
Mg       5.11092080      12.61399212       8.72391657
Mg      12.46450464       5.42444813       1.73015950
Mg      12.28901453       5.45507343       8.92607917
Mg      12.47405378      12.44014455       1.62644695
Mg      12.28410565      12.60036042       8.84385209
Cu       6.05989406       4.57009020       6.14538405
Cu       5.88838143       4.65489008      13.20571721
Cu       6.12459119      11.70373048       6.10509137
Cu       5.96237377      11.79820974      13.24684222
Cu      13.21678316       4.56740238       6.16078638
Mg      13.25745946      11.63309852       6.03276836
Cu      13.05244838      11.70980265      13.12406381
Cu       4.28529731       6.38885737       6.13009747
Mg       4.20034534       6.43034260      13.16910546
Cu       4.27933559      13.43523906       6.10156497
Cu       4.14310357      13.50402000      13.07344844
Cu      11.50439543       6.31897250       6.18860410
Cu      11.34903721       6.43603651      13.09918992
Cu      11.51631391      13.49146747       6.03627329
Cu      11.33437602      13.50173118      13.16959283
Cu       2.51984881       2.70858711       4.40828614
Cu       2.44490317       2.83576502      11.41162666
Cu       2.48332345       9.88562558       4.33481801
Cu       2.45520357      10.03844880      11.48482411
Cu       9.72358413       2.71371648       4.31236026
Cu       9.54591855       2.85633761      11.35203127
Cu       9.72390157       9.85162687       4.36986900
Cu       9.57960444      10.01119243      11.42460264
Cu       6.25958107       0.91676286       2.58984544
Cu       6.05286836       1.08217002       9.77549181
Cu       6.16156869       8.13489778       2.58936534
Cu       6.04511408       8.20245350       9.60781109
Cu      13.32920863       0.90316948       2.61201114
Cu      13.10855225       1.10111185       9.76059990
Cu      13.33469972       8.04014334       2.58161282
Cu      13.20053020       8.26511383       9.63392075
Cu       0.79717030       4.45088595       0.95033042
Cu       0.76752181       4.60669378       7.88519885
Cu       0.76686565      11.58440503       0.74712356
Cu       0.88180390      11.74027840       7.87831235
Mg       7.90676039       4.38983385       0.86090088
Cu       7.90421749       4.58712719       7.95987857
Cu       8.02287460      11.61050675       0.74233128
Cu       7.92950723      11.59849897       7.86499389
Cu       4.40728527       4.56963512       4.37753043
Cu       4.20562889       4.56962253      11.44182986
Cu       4.32231243      11.64824588       4.25326696
Cu       4.15484059      11.78126557      11.37851706
Cu      11.56018807       4.53843309       4.41198158
Cu      11.33434000       4.60633841      11.42096427
Cu      11.52503778      11.64229987       4.33632048
Cu      11.37566262      11.78412705      11.46209849
Cu       0.90598874       6.31431391       2.64508354
Cu       0.65199827       6.34100021       9.63958010
Cu       0.79531255      13.39399003       2.57142476
Cu       0.63981542      13.50733259       9.61118396
Mg       8.00035478       6.31231624       2.62836005
Cu       7.74941681       6.46303672       9.70738293
Cu       7.95451816      13.39728560       2.57171341
Cu       7.85551568      13.47886523       9.63619773
Cu       2.65137622       6.20771007       0.86556467
Cu       2.53063913       6.38882289       7.92955807
Cu       2.63236943      13.38201662       0.76980898
Cu       2.46698676      13.39953742       7.90018689
Cu       9.86134854       6.21512023       0.88521047
Cu       9.61990615       6.40908925       7.98186050
Cu       9.84985268      13.36000375       0.76037506
Cu       9.61774736      13.49841917       7.87366091
Cu       2.59289085       4.54325274       2.60691071
Cu       2.46364046       4.58211444       9.69773815
Cu       2.64611707      11.68436285       2.55470695
Cu       2.49712418      11.79352116       9.65898604
Cu       9.79573375       4.44964571       2.56252438
Cu       9.64709527       4.65684885       9.65606329
Cu       9.86273020      11.59214839       2.63856242
Mg       9.59361854      11.72514601       9.61351101
Cu       4.45195634       2.79765024       2.65630626
Cu       4.21951700       2.86122730       9.71267045
Cu       4.32338458       9.74977754       2.63747200
Cu       4.35062232       9.95401723       9.62601810
Cu      11.61342292       2.70246143       2.71276105
Cu      11.51916630       2.85417910       9.73291370
Cu      11.61383388       9.81169132       2.47617253
Cu      11.38334504       9.91015072       9.72051947
Cu       6.09851899       6.30365311       4.36885460
Cu       6.00404985       6.36742076      11.57815705
Mg       6.13823354      13.48460691       4.27396631
Cu       6.02372578      13.60434828      11.41355691
Cu      13.35849480       6.34111953       4.41464376
Cu      13.14112594       6.40244235      11.37617490
Cu      13.35175340      13.42700523       4.34091511
Cu      13.18883970      13.48620617      11.44756456
Cu       2.58069357       1.06097630       6.15498248
Cu       2.39811921       1.18993789      13.25901496
Cu       2.60430347       8.07895888       6.11085930
Cu       2.44660423       8.22112581      13.15254763
Cu       9.70089003       0.93585886       6.16252636
Cu       9.55002403       1.16187456      13.32737959
Cu       9.68543509       8.06193071       6.18742655
Cu       9.55114982       8.16357120      13.24393745
Cu       0.79671347       1.00841188       4.43913484
Cu       0.59007123       1.12491156      11.41786228
Cu       0.89131631       8.10403258       4.40265121
Cu       0.62132793       8.19478692      11.51350886
Cu       7.97001377       0.99226611       4.37136084
Cu       7.78279568       1.07964089      11.55468672
Cu       7.95548908       8.08760728       4.31795822
Cu       7.78558391       8.24517599      11.33653510
Cu       6.33229280       2.74134642       0.89232342
Cu       6.08671367       2.79576463       7.90373128
Cu       6.18435091       9.76395133       0.81921442
Mg       6.09136104       9.88034628       7.82563793
Cu      13.36152070       2.68605935       0.87918262
Cu      13.26784401       2.80877279       7.85468846
Cu      13.45582627       9.88019770       0.83140924
Mg      13.25585362       9.95260435       7.83378945
Cu       0.70625326       2.84464286       6.14934789
Cu       0.71841981       2.90387086      13.25906490
Cu       0.68127681       9.82686463       6.12893683
Cu       0.57688913      10.04772804      13.16439930
Cu       7.91842762       2.73586605       6.16834957
Cu       7.77091494       2.86597020      13.24786359
Cu       7.83804993       9.89329151       6.11687553
Cu       7.71158542       9.94816083      13.16370167
Cu       4.43582041       0.93645495       0.85081647
Cu       4.30272845       1.05411181       8.06717383
Cu       4.45066863       8.08683329       0.80279891
Cu       4.13258654       8.19755068       7.83574970
Cu      11.61694821       0.88450408       0.88473586
Cu      11.46520003       0.97976903       7.94794417
Cu      11.49830587       8.00060261       0.82332899
Cu      11.42722294       8.14118383       7.93736664
