190
Lattice="14.116316048878955 -0.13899274022315394 -0.31406581503968206 -0.06853279441998408 13.466579236626629 0.14631056723395827 0.3156664184912529 0.5628759518816719 14.11471334612379" Properties=species:S:1:pos:R:3 pbc="T T T"
Mg       3.60745762       0.11378109       3.40520045
Cu       3.78716628       0.51656865      10.49051424
Mg       3.59288254       6.90284483       3.55766903
Mg       3.72026630       7.14433100      10.58844085
Mg      10.65973947       0.05295106       3.22732932
Cu      10.84647102       0.35314080      10.32438781
Mg      10.61829135       6.71195520       3.38230320
Mg      10.80933371       7.06681316      10.43370528
Mg       1.85873155       1.76162545       1.74489300
Mg       1.94821885       2.04816422       8.87758397
Mg       1.75984690       8.46071402       1.84653874
Mg       1.91952913       8.72173862       8.84296561
Mg       8.85314077       1.64249017       1.56447997
Mg       8.96404918       1.94627239       8.76187041
Mg       8.86988084       8.36875710       1.64694379
Mg       9.04203833       8.72905864       8.67459533
Mg      -0.03330367       0.00294390       0.02304065
Mg       0.09354186       0.24895300       7.06076310
Mg      -0.01125753       6.71546014       0.03661503
Mg       0.07282630       7.01971708       7.12069254
Cu       7.13578600      -0.03297841      -0.21326434
Mg       7.15104182       0.19962704       6.87584378
Mg       6.99913173       6.62186782      -0.15440438
Mg       7.14177969       6.91477891       6.93756763
Mg       1.75408035       5.27384703       5.40070059
Cu       1.97846093       5.58664848      12.35560001
Mg       1.84842020      12.08600518       5.32035069
Mg       1.97411083      12.23969125      12.48014562
Mg       8.97647583       5.12088900       5.08791155
Mg       9.07689844       5.41457146      12.20517740
Mg       8.89444412      11.79113204       5.28126177
Mg       8.89795745      12.24531922      12.24281805
Mg       5.39854398       1.82857419       5.21813636
Mg       5.58254845       2.18996089      12.17762937
Mg       5.32036127       8.64841740       5.30709372
Mg       5.57849015       8.86137588      12.26510140
Mg      12.53699714       1.73376835       5.03600926
Mg      12.58528884       2.02673303      12.09022163
Mg      12.46787855       8.50700630       5.07400648
Mg      12.57480091       8.70902916      12.19075996
Mg       0.11984971       3.50196920       3.50763019
Mg       0.13022905       3.83985803      10.56642154
Mg       0.04861608      10.34370522       3.66021726
Mg       0.25178322      10.57698962      10.68726939
Mg       7.12063941       3.40807221       3.37431888
Mg       7.25189768       3.66607878      10.42470914
Mg       7.05486710      10.13836966       3.50450995
Mg       7.23566408      10.52549583      10.51924637
Mg       3.52341097       3.30197804      -0.01081928
Mg       3.61000116       3.65810492       7.04937105
Mg       3.46427950      10.02522381      -0.03446656
Mg       3.63371042      10.33769214       7.06663753
Mg      10.59338879       3.21547088      -0.22288542
Mg      10.75569682       3.52606297       6.82867378
Mg      10.46485840       9.97119867      -0.07455870
Mg      10.65901390      10.38021578       6.96412903
Mg       5.34089420       5.09576647       1.83756069
Mg       5.46482331       5.32687108       8.87338238
Mg       5.32119167      11.82797552       1.77476451
Mg       5.40160008      12.01212818       8.91089490
Mg      12.33837427       5.06706702       1.51541910
Mg      12.54726638       5.27921947       8.67183773
Mg      12.27087247      11.65327204       1.57272942
Cu      12.47882068      12.08869420       8.65981804
Cu       6.25909156       4.41522847       6.09923463
Cu       6.52154835       4.64681207      13.10237596
Cu       6.25493303      11.16471050       6.08769347
Cu       6.44663382      11.40584974      13.23662358
Cu      13.31348317       4.33531112       5.88989600
Cu      13.49591520       4.61520230      12.94788090
Cu      13.27175915      11.02879611       5.99905161
Cu      13.53990895      11.32513513      13.07170197
Cu       4.50359257       6.13085646       6.08222589
Cu       4.70643504       6.43103262      13.16604489
Cu       4.45558068      12.84799317       6.18695250
Cu       4.64940619      13.13572406      13.21656206
Cu      11.64083722       6.02758268       6.01024764
Cu      11.73671049       6.30669147      13.00805871
Cu      11.58419796      12.79186142       6.00056584
Cu      11.76266171      13.04690857      13.07214623
Cu       2.84800531       2.64121265       4.35533790
Cu       2.88546480       2.98723947      11.44045969
Cu       2.67587169       9.36996077       4.48864085
Cu       2.82040020       9.63970220      11.45454704
Cu       9.76894694       2.57896623       4.16338737
Cu       9.87655343       2.87983229      11.21511440
Cu       9.73093030       9.33058804       4.38163635
Cu       9.96446155       9.67096577      11.26859640
Cu       6.26135644       0.89666888       2.50607001
Cu       6.29880147       1.15315071       9.61110048
Cu       6.21869641       7.59731118       2.59620058
Cu       6.39032705       8.00814304       9.63558633
Cu      13.17458878       0.85593622       2.37758651
Cu      13.45256110       1.10160682       9.40984408
Mg      13.25179259       7.57836207       2.44858625
Cu      13.40537799       7.81108595       9.48837258
Cu       0.97074217       4.16773257       0.85628163
Cu       0.98787742       4.49688303       7.99925027
Cu       0.85893504      10.97642751       0.91380882
Cu       1.00503629      11.19298417       8.07585051
Cu       7.98406289       4.20934943       0.91564846
Cu       7.82293950      10.86103580       0.73904416
Cu       8.08450689      11.12263191       7.86092880
Cu       4.51155415       4.29662157       4.42462122
Cu       4.66221822       4.66566451      11.36804152
Cu       4.45452496      11.07118896       4.40974121
Cu       4.73502955      11.32113198      11.51829636
Cu      11.49483394       4.33081583       4.19204673
Cu      11.72480737       4.61789668      11.25367812
Cu      11.43831924      11.04997137       4.32959840
Cu      11.62444282      11.33697583      11.38325780
Cu       0.94560365       5.94799164       2.69275300
Cu       0.94534735       6.32595236       9.84007907
Cu       0.82843013      12.76298838       2.74584579
Cu       1.03201575      12.97016504       9.81322546
Cu       7.91880635       5.98525840       2.53954581
Cu       8.04263831       6.20105100       9.54558913
Cu       8.07639452      12.63007507       2.55324577
Cu       8.11437008      12.79742077       9.68119538
Cu       2.67321820       5.79642411       0.82065513
Cu       2.80022385       6.20051729       7.93986070
Cu       2.58059787      12.63699814       0.95169264
Cu       2.79544690      12.87264273       8.01234979
Cu       9.75354722       5.81785188       0.73183332
Cu       9.82467024       6.11334534       7.71029941
Cu       9.71843283      12.55757799       0.82275761
Cu       9.81587031      12.87135089       7.83768275
Cu       2.64464342       4.18325468       2.65391017
Cu       2.95128311       4.57052637       9.69231919
Cu       2.64921746      11.00195336       2.69127930
Cu       2.83140800      11.26344198       9.76107830
Cu       9.69094839       4.18592559       2.34663372
Cu       9.88122575       4.43757658       9.50538240
Cu       9.63589344      10.89964235       2.51734547
Cu       9.89437824      11.20332943       9.65304192
Cu       4.50193290       2.55164168       2.60352751
Cu       4.61035233       2.86739135       9.66573516
Cu       4.44093071       9.36865948       2.61426984
Cu       4.66066031       9.62530112       9.67671559
Cu      11.51861649       2.49044074       2.43767871
Cu      11.69928728       2.74851229       9.44734601
Cu      11.45877729       9.21540938       2.44116204
Cu      11.70135675       9.50263913       9.57269913
Cu       6.24510122       5.99353036       4.28121163
Cu       6.47413378       6.32122033      11.38191693
Cu       6.17550635      12.75558726       4.38344636
Mg       6.43311283      13.06920972      11.47165979
Cu      13.34462709       5.91357678       4.13815250
Cu      13.41277797       6.20464809      11.23288807
Cu      13.21973408      12.76069625       4.27317232
Cu      13.43608895      13.02440532      11.21788899
Cu       2.85362824       1.06555630       6.11095664
Cu       2.99836560       1.33266466      13.31831963
Cu       2.74645473       7.79344738       6.22773684
Cu       2.95741688       8.02493597      13.26086821
Cu       9.82413298       1.00441723       5.94395297
Cu      10.05374680       1.34341172      13.09815660
Mg       9.87352716       7.69811513       5.98947758
Cu       9.93845515       8.00503057      13.09678371
Cu       0.95123466       0.96553259       4.42762431
Cu       1.08955023       1.23660867      11.38474891
Cu       1.03216766       8.06247268      11.62432988
Cu       8.02476838       0.87245908       4.27653807
Cu       8.23462212       1.23187921      11.29635231
Cu       8.02391008       7.70639415       4.31068187
Cu       8.14669925       7.96684283      11.43448598
Cu       6.17573228       2.47595743       0.76958763
Cu       6.29008254       2.73155447       7.75537937
Cu       6.06551107       9.20098733       0.92592225
Mg       6.30721063       9.53325238       7.86834452
Cu      13.26079446       2.41467410       0.65108504
Cu      13.43249752       2.73336907       7.66500060
Cu      13.28952882       9.17175515       0.80788267
Cu      13.33931290       9.45621765       7.67917196
Cu       1.03923683       2.78167575       6.16543182
Cu       1.18426059       3.11609348      13.34851355
Cu       0.96471717       9.44921294       6.23198586
Cu       1.14012296       9.79062097      13.25628272
Cu       8.04831190       2.69008752       6.02162758
Cu       8.26486011       2.93531237      13.06090334
Cu       8.02380303       9.50357666       6.06671823
Cu       8.18982192       9.72271982      13.18938539
Mg       4.38113842       0.88650021       0.88148877
Cu       4.54433032       1.14554262       7.83148176
Cu       4.36128296       7.54606852       0.82818318
Cu       4.62601733       7.78093910       7.90231558
Cu      11.47267035       0.77168056       0.61914488
Cu      11.64943603       0.98937187       7.79099890
Cu      11.46902347       7.43414411       0.70687515
Cu      11.64861167       7.75518865       7.72937604
