192
Lattice="14.09327356271007 -0.39541446295623905 0.3227216565155328 -0.14753273849194262 13.954939478474268 0.6350473489222666 0.16818055869748919 -0.13468203092658124 14.10325627534285" Properties=species:S:1:pos:R:3 pbc="T T T"
Mg       3.58153458      -0.08284362       3.67242031
Mg       3.67721143      -0.20736354      10.66820329
Mg       3.49660624       6.85559568       3.88869637
Mg       3.64194326       6.76199181      10.96094670
Mg      10.52395142      -0.36925474       3.84839234
Mg      10.64846355      -0.45710431      10.85169490
Mg      10.45565680       6.66786640       4.05224200
Mg      10.63166521       6.58539533      11.14424165
Mg       1.72398916       1.69276594       1.89428175
Mg       1.84489428       1.50040894       8.92400833
Mg       1.63240545       8.67707976       2.13338978
Mg       1.79987720       8.63507096       9.23572364
Mg       8.79838566       1.44030578       2.02716251
Mg       8.94771449       1.43441517       9.16130034
Mg       8.82579396       8.40070314       2.38703135
Mg       8.91265555       8.42314998       9.42305708
Mg      -0.02959847       0.07526924      -0.10424966
Mg       0.07903116      -0.03625900       7.10679250
Mg      -0.10980275       6.86063775       0.31325779
Mg      -0.03486279       6.89497659       7.34086222
Mg       6.99326287      -0.20528210       0.13559053
Mg       7.16737623      -0.30253096       7.18397687
Mg       6.95916200       6.76454460       0.51460145
Mg       7.11602572       6.69633433       7.49652115
Mg       1.79094200       5.09965608       5.55156120
Mg       1.75511865       5.10711914      12.64226186
Cu       1.75247451      12.08192413       5.90344940
Mg       1.67529854      12.04987234      12.90642578
Mg       8.75153650       4.91426314       5.75698250
Mg       8.92245663       4.89638622      12.82258069
Mg       8.71608843      11.95061869       6.05611812
Mg       8.74442934      11.79792368      13.15857142
Mg       5.29879816       1.62511595       5.54011904
Mg       5.37637551       1.49063682      12.53883863
Mg       5.30568455       8.52929078       5.81708685
Mg       5.27969519       8.39982954      12.81893727
Mg      12.38220385       1.38869849       5.63941622
Mg      12.53045806       1.34155011      12.76047290
Mg      12.31992387       8.23651534       5.97020578
Mg      12.33118201       8.24155514      13.11034459
Mg       0.03111403       3.39775618       3.68270175
Cu       0.07102560       3.38993976      10.78209854
Mg      -0.07627888      10.41409007       3.89047176
Mg      -0.01026671      10.31863596      11.05374223
Mg       7.01432165       3.28523994       3.84855571
Mg       7.14143345       3.16879748      10.92787679
Mg       6.90099591      10.24090540       4.15739270
Mg       7.11765870      10.20140706      11.25445368
Mg       3.53878875       3.38562807       0.26078733
Mg       3.56023883       3.30063749       7.34129187
Mg       3.45609773      10.30658381       0.47015413
Mg       3.57767163      10.35884093       7.50822661
Mg      10.59143200       3.18007189       0.32070946
Mg      10.53100064       3.16310422       7.42544409
Mg      10.42337471      10.12271747       0.71020099
Mg      10.55282503      10.05586165       7.61668689
Mg       5.23960343       5.06087039       2.09625495
Mg       5.22515805       4.98726773       9.18197787
Mg       5.26186270      12.13311750       2.44280151
Mg       5.23974706      12.05455728       9.51825711
Mg      12.39775261       4.92415188       2.26482156
Mg      12.38268087       4.77880963       9.37005263
Mg      12.20294063      11.90221218       2.64520900
Mg      12.44554059      11.81796369       9.64091325
Cu       6.20067469       4.15106084       6.55140103
Cu       6.29483208       4.06939937      13.51767308
Cu       6.08205130      11.11904150       6.78562089
Cu       6.20314114      10.99072715      13.89702105
Cu      13.26435130       3.94920266       6.61232053
Cu      13.30941401       3.92334497      13.68601583
Cu      13.19148629      10.93732751       6.95592198
Cu      13.26000410      10.73861717      14.01798776
Cu       4.48289223       5.88890071       6.49311012
Cu       4.53782923       5.82400616      13.52462246
Cu       4.39209179      12.94377190       6.89091159
Cu       4.36062774      12.87134272      13.91619698
Cu      11.43442043       5.66464408       6.66254293
Cu      11.52474761       5.71143510      13.77062149
Cu      11.31322779      12.67685551       7.00789242
Cu      11.43361342      12.69602037      14.12127787
Cu       2.60284501       2.46269171       4.63404320
Cu       2.69528663       2.42466493      11.65288999
Cu       2.59708127       9.47920111       4.86167539
Cu       2.65158917       9.33832338      11.92054628
Cu       9.66062246       2.33910079       4.77881537
Cu       9.82991737       2.29075871      11.86049620
Cu       9.63934286       9.37181242       5.01996581
Cu       9.64588343       9.32007973      12.02217381
Cu       6.16606854       0.75464943       2.87754128
Cu       6.24809909       0.62040153       9.80277844
Cu       6.07987854       7.62507315       3.15792285
Cu       6.20305987       7.61289568      10.17080761
Cu      13.25605775       0.45031787       2.99945076
Cu      13.29376477       0.43197438      10.08377922
Cu      13.17426673       7.41453425       3.32839423
Cu      13.21407817       7.34617752      10.34914003
Cu       0.82614931       4.30920212       1.09657871
Cu       0.98386008       4.28081558       8.18491146
Cu       0.75512260      11.24805914       1.44360044
Cu       0.91638028      11.19970165       8.50173601
Cu       7.94148461       4.20443050       1.27509635
Cu       7.95769569       4.02362644       8.28836971
Cu       7.80048566      11.15685559       1.57334263
Cu       7.81516925      10.96311627       8.58129023
Cu       4.39532588       4.28851057       4.67756796
Cu       4.51030718       4.13661382      11.71443344
Cu       4.30996375      11.17220477       5.01195371
Cu       4.42628701      11.05463252      12.07934611
Cu      11.37823532       4.03302483       4.91497646
Cu      11.56807324       3.90222755      11.92331757
Cu      11.36056741      10.98255755       5.24637732
Mg      11.48513939      10.83946867      12.30022192
Cu       0.87778781       6.04815732       2.92863518
Cu       0.91444267       5.95935220      10.01296942
Cu       0.80602569      13.02518885       3.31477475
Cu       0.86517517      12.93702238      10.37158303
Cu       7.93962637       5.84276146       3.08129596
Cu       7.98642191       5.82016366      10.21659171
Cu       7.86710536      12.89279373       3.52085990
Cu       7.86278802      12.76580889      10.44402981
Cu       2.62564120       5.99842540       1.24291591
Cu       2.61284031       5.95446989       8.33073938
Cu       2.55669208      13.04908666       1.60136534
Cu       2.58972724      12.94959247       8.60454980
Cu       9.61213119       5.82820308       1.39256567
Cu       9.63768332       5.72022695       8.43531088
Cu       9.60751552      12.75601223       1.69955650
Cu       9.61048029      12.64603747       8.74976155
Cu       2.59905350       4.27563179       2.84324144
Cu       2.64979146       4.23706782       9.90851340
Cu       2.56766757      11.24012962       3.31645755
Cu       2.65865127      11.21748076      10.28361245
Cu       9.52442455       4.06505060       3.07223327
Cu       9.74126043       3.99719302      10.09373061
Cu       9.59039233      11.04591512       3.35438981
Cu       9.65984893      10.95841917      10.45928170
Cu       4.29771373       2.45277914       2.81186822
Cu       4.47147490       2.31422363       9.93547348
Cu       4.29328008       9.50341824       3.13299669
Cu       4.38931441       9.41493570      10.27641623
Cu      11.52039902       2.12715012       3.04394864
Cu      11.53540832       2.21943205      10.04567191
Cu      11.36711372       9.27626917       3.26513874
Cu      11.54711698       9.12385473      10.38083287
Cu       6.12171377       5.92964949       4.80437137
Cu       6.22499616       5.82326580      11.86871021
Cu       6.07796527      12.80788869       5.13953453
Cu       6.20167219      12.83106396      12.20784950
Cu      13.21711867       5.66927658       4.97809062
Cu      13.33136413       5.62645252      12.06300623
Cu      13.09293599      12.67282396       5.25813034
Cu      13.17985596      12.55029082      12.31152824
Cu       2.63684166       0.72617110       6.31920297
Cu       2.80762462       0.70628216      13.41031564
Cu       2.59700125       7.73202572       6.51941808
Cu       2.79433168       7.56570898      13.66023705
Cu       9.68817946       0.61496197       6.49335049
Cu       9.81587992       0.54257541      13.51660809
Cu       9.66788442       7.52054684       6.72339973
Cu       9.77452500       7.45093310      13.68737279
Cu       0.84218839       0.82129029       4.43432579
Cu       1.08999822       0.70654359      11.43598203
Cu       0.93570003       7.70240547       4.75287318
Cu       0.91038294       7.65650417      11.81280817
Cu       7.96557525       0.68171823       4.58734404
Cu       7.94201981       0.61348737      11.66957826
Cu       7.98179057       7.62532991       4.92349415
Cu       7.97855164       7.54500673      11.99696103
Cu       6.17772471       2.46006153       1.17022471
Cu       6.15659134       2.34258885       8.12677857
Cu       6.03957761       9.51928914       1.54555069
Cu       6.13681813       9.35049708       8.51058960
Cu      13.16997393       2.17400093       1.26348579
Cu      13.36988041       2.20084512       8.37797180
Cu      13.12354755       9.26683997       1.66973507
Cu      13.21349984       9.07696228       8.60634286
Mg       0.90935580       2.53725700       6.35070524
Cu       1.08122778       2.49398102      13.35773029
Cu       0.86186022       9.47716900       6.69383044
Cu       0.85076835       9.44453327      13.59488762
Cu       8.02552727       2.32515919       6.45184235
Cu       8.01002481       2.31889735      13.53261498
Cu       7.83127333       9.32388999       6.73162992
Cu       7.97925672       9.23450229      13.82022685
Cu       4.40227607       0.74608500       1.04223113
Cu       4.40404716       0.63485687       8.05001029
Cu       4.31922393       7.67913762       1.32889500
Cu       4.38230594       7.59485390       8.37522253
Cu      11.42048969       0.58068388       1.17928277
Cu      11.53864707       0.50447373       8.17142747
Cu      11.38419516       7.56715182       1.48182423
Cu      11.49359318       7.44731449       8.55524759
