190
Lattice="14.252192480841694 0.1360930807261796 0.05509077807103837 -0.28977374444275944 13.950814746003587 -0.06457755354093386 0.11676868407284814 -0.4220761289173176 13.916716763145125" Properties=species:S:1:pos:R:3 pbc="T T T"
Mg       3.67302661      -0.06031498       3.52112021
Mg       3.72557274      -0.34418188      10.39248601
Mg       3.48929208       6.88455385       3.49057928
Mg       3.45253248       6.70794066      10.34033125
Mg      10.71835576      -0.01123651       3.64316691
Mg      10.79018801      -0.25785194      10.50902335
Mg      10.56012888       7.01422506       3.42965232
Mg      10.61755425       6.81435434      10.38947248
Mg       1.80417099       1.65687832       1.80672819
Mg       1.83327119       1.55562896       8.72259665
Mg       1.62020756       8.67342140       1.69947645
Mg       1.78810341       8.41718341       8.78801908
Mg       8.87698640       1.73006945       1.77283793
Mg       9.02115856       1.62630423       8.79606312
Mg       8.75013139       8.75735433       1.78510104
Mg       8.81728515       8.54478427       8.62998128
Cu       0.04297780       0.09121211      -0.02808513
Mg      -0.03280963      -0.17981782       6.99737220
Mg      -0.23175941       6.94884819      -0.10112993
Mg      -0.15465145       6.74626637       6.95690353
Mg       7.08472918       0.12106638       0.02300890
Mg       7.20921173      -0.07447270       6.92967070
Mg       7.02987541       7.05636027      -0.02987236
Mg       7.07938089       6.79099232       6.94836308
Mg       1.81789378       5.15275558       5.32258022
Cu       1.75856151       4.84493716      12.22249193
Mg       1.57828145      12.05681548       5.12531342
Mg       1.58829153      11.79303799      12.18195260
Mg       8.89981498       5.21180278       5.31233208
Mg       8.94862321       4.93320742      12.14906751
Cu       8.73035838      12.16266920       5.20515033
Mg       8.77618920      11.82582334      12.14139759
Mg       5.25589128       1.63607899       5.23979658
Mg       5.44272285       1.41531406      12.26268356
Mg       5.17221663       8.53292330       5.20961902
Mg       5.27070877       8.38524827      12.22390488
Mg      12.41518862       1.71722221       5.25941403
Mg      12.43071003       1.49296717      12.29539112
Mg      12.42196701       8.77281956       5.26324322
Mg      12.43308887       8.49503329      12.14729679
Cu      -0.08301661       3.35172416       3.46542144
Mg       0.02758421       3.18936889      10.40103104
Mg      -0.21492904      10.34415991       3.42694306
Mg      -0.10892916      10.20192088      10.46525672
Mg       6.98023349       3.39215172       3.43214372
Mg       7.14340611       3.28389053      10.43841588
Mg       6.94284387      10.44453475       3.35360823
Mg       7.02944985      10.26985418      10.39054144
Mg       3.47822811       3.55264716      -0.05606177
Mg       3.52045118       3.29702648       6.89329582
Mg       3.39042127      10.46259704      -0.07571747
Mg       3.41259356      10.32669310       6.94098102
Mg      10.64584393       3.59256884      -0.00767889
Mg      10.69711478       3.29579750       7.05032055
Mg      10.37294424      10.51545862       0.00835668
Mg      10.56652340      10.38587698       6.89763575
Mg       5.25358605       5.21728020       1.67417190
Mg       5.25194404       5.08297516       8.75144725
Mg       5.04841304      12.18665981       1.64550315
Mg       5.18958676      11.90509400       8.69831676
Mg      12.40558444       5.31648854       1.82223429
Mg      12.43073217       5.10276603       8.73069886
Mg      12.36994709      12.24680575       1.72171980
Mg      12.36379110      12.05659194       8.63397949
Mg       6.22776934       4.23533024       6.04513268
Cu       6.20827200       3.99737598      13.00262177
Cu       6.12240983      11.25228238       6.13410829
Cu       6.11223137      11.03280908      13.02759483
Cu      13.33266805       4.40594138       6.11450205
Cu      13.31330990       4.17355618      13.05576080
Cu      13.20177912      11.30545990       5.99227887
Cu      13.23485655      11.04193179      13.01044021
Cu       4.37743345       5.93509185       6.05737040
Cu       4.36717622       5.72975025      12.97556040
Cu       4.25044661      12.90889703       5.95392005
Cu       4.26308072      12.72824937      13.11644178
Cu      11.59414012       6.03335285       6.07858825
Cu      11.49337551       5.80667270      13.04571501
Cu      11.37104687      13.01305907       6.06637465
Cu      11.41875739      12.73577865      12.95816958
Cu       2.75579703       2.46867379       4.48149525
Cu       2.75231048       2.29768553      11.30942683
Cu       2.53353834       9.49521688       4.39347967
Cu       2.51304706       9.22251509      11.33793165
Cu       9.76346147       2.58204033       4.36659668
Cu       9.81849774       2.37697808      11.36296459
Cu       9.63037681       9.53937555       4.31251809
Mg       6.23862395       0.89057271       2.65176669
Cu       6.29433593       0.72495659       9.54942631
Cu       6.19145912       7.98225700       2.62427799
Cu       6.23291072       7.59117772       9.59464816
Cu      13.33370362       0.95758115       2.56681266
Cu      13.35105678       0.79436059       9.66591437
Cu      13.20738183       7.96642953       2.66225240
Cu      13.28314234       7.69457117       9.57641050
Cu       0.86975117       4.30644521       0.79584165
Cu       0.83895162       4.06047225       7.81458756
Cu       0.67896677      11.36036114       0.78649626
Cu       0.76609638      11.04714385       7.79227669
Cu       7.95247124       4.42207494       0.86029195
Cu       8.04595738       4.17789718       7.89975341
Cu       7.80497836      11.37021657       0.85364669
Cu       7.85411763      11.09375919       7.89086377
Cu       4.44407446       4.23599111       4.42417717
Cu       4.43438664       4.06558248      11.31543347
Cu       4.34736890      11.20482255       4.38141864
Cu       4.31489643      11.04763445      11.38803827
Cu      11.49827831       4.45358863       4.31731481
Cu      11.56975731       4.12698699      11.30659624
Cu      11.31882496      11.28588054       4.34754282
Cu      11.40690017      11.16527244      11.28986065
Cu       0.87770033       6.06493415       2.69925423
Cu       0.92620291       5.70578487       9.62257803
Cu       0.64650457      12.90672828       2.64209077
Cu       0.69121101      12.72866502       9.55571942
Cu       7.94013478       6.12627508       2.60892751
Cu       8.02119355       5.86935311       9.57333624
Cu       7.77848242      13.06359240       2.46315683
Cu       7.83233666      12.88487014       9.58354522
Cu       2.56464384       6.15240461       0.86990289
Cu       2.60506666       5.86539345       7.79078036
Cu       2.49548113      13.08970259       0.80286229
Cu       2.42971948      12.90166940       7.75311224
Cu       9.68241663       6.04435106       0.83676719
Cu       9.70620970       5.93629963       7.90620231
Cu       9.45409319      13.14175590       0.77502624
Cu       9.60797696      12.94807706       7.74303023
Cu       2.65829602       4.25402814       2.56362805
Cu       2.56693328       3.95181804       9.59051650
Cu       2.30504800      11.24745808       2.49661739
Cu       2.53599758      11.14258516       9.45984586
Cu       9.71846891       4.41010493       2.46847985
Cu       9.75668941       4.09857274       9.68194790
Cu       9.64659366      11.39314587       2.59583131
Cu       9.58027265      11.08117027       9.53884545
Cu       4.48867878       2.59367334       2.60960153
Cu       4.49808188       2.40953199       9.66228610
Cu       4.27255051       9.51087748       2.51856676
Cu       4.39891213       9.37974395       9.54025669
Cu      11.61353255       2.70199783       2.76542667
Cu      11.54361861       2.50092500       9.60161079
Cu      11.39545106       9.64677651       2.62412470
Cu      11.54886593       9.40664311       9.52353497
Mg       6.15982111       6.00603297       4.28659973
Cu       6.19585478       5.84834901      11.26360509
Cu       6.07061291      12.93778554       4.26129446
Cu       6.03914334      12.79224023      11.30413475
Cu      13.39590766       6.07989569       4.31478138
Cu      13.39768217       5.81113881      11.35761600
Cu      13.17082288      13.09811137       4.34761300
Cu      13.12293539      12.84159198      11.37732145
Cu       2.71751399       0.68854610       6.04274369
Mg       2.78952707       0.49695272      13.08620236
Cu       2.52866863       7.64526194       6.13094246
Cu       2.65132605       7.50814396      13.06624849
Cu       9.80878882       0.77061214       6.10478793
Cu       9.77368139       7.73980154       6.15060578
Cu       9.77783645       7.53334293      12.98135049
Cu       0.90418827       0.88222417       4.39142275
Cu       0.95040121       0.48118975      11.31309683
Cu       0.82187194       7.80987441       4.24729367
Cu       0.84648116       7.48994111      11.28933134
Cu       8.05585395       0.78554200       4.46467610
Cu       8.14070646       0.58663337      11.25138853
Cu       7.84322945       7.77605793       4.34783052
Cu       7.98704606       7.63655446      11.30850305
Cu       6.29931315       2.58736316       0.87123901
Cu       6.25617484       2.56659468       7.83523022
Cu       6.06152150       9.71289586       0.91499273
Cu       6.11539740       9.51883734       7.73431218
Cu      13.37806789       2.79731623       0.89407411
Cu      13.38392174       2.49798871       7.87847477
Cu      13.10883447       9.67116537       0.82988639
Cu      13.24929777       9.48343749       7.84071290
Cu       0.86124138       2.44918337       6.01825970
Cu       0.94391898       2.18509787      13.03592739
Cu       0.68912770       9.44233837       6.06200310
Cu       0.75157325       9.24801811      12.99011372
Cu       7.99293238       2.50370312       6.12900195
Cu       8.06335340       2.35952646      13.01630230
Cu       7.91119100       9.56523670       6.07522812
Cu       8.00564130       9.23347448      12.99281066
Cu       4.36742184       0.91999604       0.93054376
Cu       4.53688596       0.68751665       7.85079549
Cu       4.35017453       7.77878729       0.82961398
Cu       4.25544024       7.68093454       7.74087876
Cu      11.58115468       0.97239051       0.89138164
Cu      11.70161648       0.82940968       7.75725436
Cu      11.37917317       7.87198219       0.78491637
Cu      11.46814608       7.63243014       7.85462285
