188
Lattice="14.616392081176382 -0.022496535567335177 0.10044221358350175 0.1559918768532463 14.465390031577963 0.08413831048842256 0.014119500447574191 0.08566478051190547 14.077412442523334" Properties=species:S:1:pos:R:3 pbc="T T T"
Mg       3.71086735       0.03250375       3.54173601
Cu       3.65543959       0.03220091      10.58355876
Mg       3.80002692       7.27162701       3.60438356
Mg       3.78020835       7.36958744      10.63789706
Mg      10.94283154       0.01925330       3.58998904
Mg      10.95443063       0.00409190      10.68073945
Mg      11.01508229       7.28372788       3.69908348
Mg      11.03733695       7.22224133      10.72297754
Mg       1.84380699       1.77755547       1.82398441
Mg       1.78973253       1.87591797       8.81794539
Mg       1.89655513       9.02723998       1.77879349
Mg       1.93148187       9.05729923       8.79722945
Mg       9.13547678       1.78174104       1.79764640
Mg       9.14676429       1.89035400       8.87677342
Mg       9.32031536       9.10076483       1.91502419
Cu       9.30067162       9.02614088       9.00129585
Mg      -0.02484412       0.04122801       7.09564897
Mg       0.00683086       7.11181258       0.08433567
Mg       0.06228443       7.35933094       7.06051841
Mg       7.30929154       0.02737089      -0.03410237
Mg       7.25573977       0.06938359       7.05459783
Mg       7.35868533       7.26302435       0.07139783
Mg       7.31893889       7.34107500       7.09470742
Mg       1.83862816       5.43234691       5.23501750
Mg       1.94183465       5.50263654      12.37726840
Mg       2.00914265      12.64481421       5.41114495
Mg       1.99512497      12.69436913      12.34070932
Mg       9.17393825       5.47904817       5.32941599
Mg       9.23218353       5.49036843      12.46559548
Mg       9.26084005      12.64332819       5.46540710
Mg       9.31816682      12.70180773      12.46716039
Mg       5.45630173       1.83737456       5.32354601
Mg       5.61221724       1.91830974      12.38015060
Mg       5.64423601       9.01825784       5.38767117
Mg       5.65130987       9.08222761      12.39207386
Mg      12.84168197       1.87979895       5.34388678
Mg      12.84462416       1.84015535      12.38293162
Cu      12.90447975       9.07720454       5.41363990
Mg      12.89553521       9.05600887      12.38366809
Mg       0.05697628       3.68624896       3.54150663
Mg       0.10045596       3.65113597      10.62304820
Mg       0.09045361      10.82049307       3.62515420
Mg       0.02921395      10.85221260      10.59557144
Mg       7.34569132       3.71296654       3.60808954
Mg       7.31284767       3.76322706      10.55823266
Mg       7.41130142      10.84941004       3.63824764
Mg       7.54494492      10.87630404      10.59492473
Mg       3.69345609       3.59593410       0.12766421
Mg       3.62776464       3.70451568       7.04463318
Mg       3.76759474      10.86835159       0.12767355
Mg      11.00967764       3.54080788       0.07738739
Mg      10.91896311       3.62086319       7.17273990
Mg      11.08928015      10.76836410       0.11687577
Mg      11.13222643      10.91338475       7.11537044
Mg       5.56100505       5.42003737       1.73438072
Mg       5.53176220       5.40993282       8.91857806
Mg       5.59157929      12.69833487       1.84609496
Mg       5.62112650      12.79319677       8.93198926
Mg      12.90078802       5.41492860       1.88260957
Mg      12.79261105       5.45089770       8.91678450
Mg      12.89611001      12.59299743       1.93547819
Cu       6.42279309       4.49886662       6.12688875
Cu       6.41962098       4.57972137      13.35224514
Cu       6.48289096      11.79214435       6.21627883
Cu       6.54866861      11.89986115      13.34080142
Cu      13.74465702       4.50267439       6.27446125
Cu      13.80858053       4.58184386      13.36175646
Mg      13.92571414      11.74392512       6.31257567
Cu      13.88834032      11.78066860      13.39649559
Cu       4.62910449       6.40780560       6.21348876
Cu       4.62886972       6.39056655      13.25374459
Cu       4.78429464      13.58853601       6.30426765
Cu       4.74837287      13.64771938      13.33218638
Cu      11.96104173       6.34421536       6.30009122
Cu      11.94193375       6.45402246      13.37510810
Cu      11.98789511      13.50073857       6.34309449
Cu      12.08482822      13.65570102      13.47152919
Cu       2.79257388       2.73587155       4.48091154
Cu       2.91273858       2.81054559      11.43501844
Cu       2.88376337      10.05713468       4.46841052
Cu       2.84751240      10.03744562      11.48332850
Cu      10.10249566       2.71816128       4.51156501
Cu      10.13148887       2.79309051      11.52648157
Cu      10.09435664       9.95096359       4.52118952
Cu      10.17465656       9.92195918      11.63346744
Cu       6.43418516       0.97546628       2.62896662
Cu       6.41169094       0.93540965       9.71866665
Mg       6.41856793       8.16528722       2.82708913
Cu       6.53470623       8.12556670       9.75026305
Cu      13.69830616       0.88512500       2.66779644
Cu      13.70177322       1.00390969       9.80724972
Cu      13.82190925       8.05561476       2.85461358
Cu      13.73765982       8.12786997       9.83075254
Cu       0.91481543       4.57348794       0.75702822
Cu       1.04285136       4.52734488       7.89605909
Cu       1.01650066      11.69304900       0.89622285
Cu       1.10622590      11.79859322       7.92090618
Cu       8.28069931       4.60592007       0.93638813
Cu       8.23663695       4.49959974       8.00145485
Cu       8.43890470      11.73989658       1.06190039
Cu       8.39571727      11.71285362       7.99338512
Cu       4.63975301       4.55450376       4.44990502
Cu       4.62737140       4.60883133      11.46575402
Cu       4.72395933      11.78034843       4.49671619
Cu       4.68874337      11.93789068      11.54323971
Cu      11.91270493       4.55048678       4.50517397
Cu      12.02251918       4.61030205      11.57666997
Cu      12.07483990      11.72207186       4.54419192
Cu      12.03654365      11.84819827      11.61474600
Cu       0.96152037       6.29043767       2.71130625
Cu       1.02448481       6.40649589       9.68237280
Cu       1.02377382      13.52254689       2.66843636
Cu       1.10125426      13.64236588       9.77081894
Cu       8.25050888       6.37158567       2.78194170
Cu       8.34049028       6.36515333       9.86486211
Cu       8.33485160      13.63000673       2.79391137
Cu       8.38419784      13.60255024       9.82588840
Cu       2.78784873       6.38277728       0.96269865
Cu       2.77217509       6.44609514       8.03285140
Cu       2.74525637      13.54127191       0.90136150
Cu       2.86573242      13.64158896       7.98013348
Cu      10.15549604       6.33338974       0.98825051
Cu      10.17702895       6.30043712       7.97507710
Cu      10.15875000      13.63233170       1.04852342
Cu      10.20685453      13.57983005       8.05927509
Cu       2.77831470       4.57054578       2.70479876
Cu       2.70785757       4.67360355       9.78020918
Mg       2.81481607      11.77420995       2.82207879
Cu       2.85174650      11.88898416       9.75649934
Cu      10.15571582       4.48539777       2.67444489
Cu      10.15998131       4.51631994       9.85232226
Cu      10.24927453      11.87426596       2.70340240
Cu      10.19754436      11.83803514       9.78017613
Cu       4.56423422       2.75687845       2.70774165
Cu       4.61129502       2.74081107       9.65893918
Cu       4.68280670      10.00258144       2.79211221
Cu       4.71868926      10.04706555       9.75622703
Cu      11.92522519       2.78405289       2.76645212
Cu      11.88926362       2.77783322       9.85126432
Cu      11.97608423       9.95635608       2.74279779
Cu      11.86494550       9.99066157       9.78688962
Cu       6.39837632       6.32408145       4.48125801
Cu       6.45235013       6.38251466      11.45129427
Cu       6.53411206      13.52432603       4.47380876
Cu       6.48852496      13.64974490      11.60684585
Cu      13.71721149       6.39609070       4.55995392
Cu      13.72132282       6.41505951      11.57645588
Cu      13.76385347      13.51239990       4.52685464
Cu      13.84017045      13.59937645      11.65998770
Cu       2.83236095       1.01879269       6.19681647
Cu       2.68855972       0.93091362      13.25845101
Cu       2.87299657       8.18354607       6.22044430
Cu       2.79483076       8.13051870      13.21782165
Cu      10.10978042       0.91640686       6.27068891
Cu      10.08452846       1.05775529      13.30715558
Cu      10.04110489       8.16142933       6.35514006
Cu      10.11429740       8.23356054      13.24608953
Cu       0.91898883       0.91904662       4.45923719
Cu       0.99407205       0.91209797      11.39870209
Cu       1.04270242       8.18225403       4.38757993
Cu       1.09414254       8.22285672      11.48837933
Cu       8.21025225       0.91132597       4.37070285
Cu       8.31532664       0.95452241      11.54273368
Cu       8.39215572       8.16306987       4.53648775
Cu       8.33197417       8.19530627      11.55252159
Cu       6.38782579       2.64103258       0.94427965
Cu       6.35215458       2.75850237       8.05974319
Cu       6.56029308       9.87114379       0.93981274
Cu       6.47745418       9.93764963       7.99187755
Cu      13.76779029       2.66003029       1.01142788
Cu      13.83737349       2.77735576       8.03142766
Cu      13.82124199       9.87031585       1.03106522
Cu      13.82452712      10.00753198       8.09587875
Cu       0.89435279       2.74601854       6.16557166
Cu       0.97777014       2.79487241      13.13971979
Cu       1.07419737      10.08212324       6.16939148
Cu       8.34229228       2.67203726       6.24482826
Cu       8.17497232       2.78321629      13.30962275
Cu       8.36719881      10.00218206       6.25597874
Cu       8.30479983      10.00081524      13.19763213
Cu       4.53936651       0.80445016       0.86949848
Cu       4.58119087       0.93690900       7.95912639
Cu       4.62800686       8.19600966       0.97757444
Cu       4.61455715       8.16272646       8.00295347
Cu      11.84195684       0.97730375       0.96632219
Cu      11.91708309       0.91252639       8.07937755
Cu      12.07737337       8.22294330       1.03360570
Cu      11.91469768       8.24736724       8.08440555
