192
Lattice="14.56732121392449 0.40960710248107723 -0.03489717572761674 0.12269266100146127 14.394700652362127 0.06536282351700064 0.2555168085101015 0.00811433066947436 14.484951791708173" Properties=species:S:1:pos:R:3 pbc="T T T"
Mg       3.75490885       0.14409213       3.64292268
Mg       3.81715839       0.10185328      10.79875791
Mg       3.70536874       7.20073848       3.64264887
Mg       3.91775817       7.28032551      10.87568731
Mg      10.88181672       0.32782015       3.55891755
Mg      11.07331036       0.32596841      10.84255982
Mg      11.07388660       7.55855510       3.56423388
Mg      11.27460693       7.49431370      10.92901286
Mg       1.80604113       1.93170386       1.81480318
Mg       2.05310480       1.89492445       8.95751368
Cu       1.98703388       9.12343967       1.86702516
Mg       2.04606677       9.02116292       9.13949559
Mg       9.17574544       2.02477056       1.76533732
Mg       9.30705569       2.12536768       9.09810290
Mg       9.21439744       9.19497533       1.89147740
Mg       9.43570970       9.22857126       9.14783292
Mg      -0.03840078      -0.02857461       0.00676115
Mg       0.10800505      -0.04360848       7.20977974
Mg      -0.02547908       7.13070015      -0.03240215
Mg       0.15633529       7.13369424       7.36675695
Mg       7.34830784       0.28545620      -0.02220981
Mg       7.45131580       0.13636128       7.21301211
Cu       7.40805687       7.39360040      -0.00957480
Mg       7.48370707       7.40745197       7.21166344
Mg       1.98973994       5.51476481       5.46396588
Mg       2.12818864       5.47987992      12.64813876
Mg       2.01520651      12.56401635       5.54014984
Mg       2.21328180      12.65443407      12.71555426
Mg       9.30691424       5.61605790       5.48100695
Mg       9.36464421       5.66098107      12.59430574
Mg       9.22618583      12.88866115       5.43607836
Mg       9.44861520      12.91657621      12.65775028
Mg       5.49885649       1.96840495       5.43393420
Mg       5.66946500       1.94710681      12.78518257
Mg       5.70269631       9.13651530       5.50277045
Mg       5.83457501       9.18012030      12.74930822
Cu      12.87623994       2.22466272       5.43670194
Mg      12.94947381       2.07950869      12.60082085
Mg      12.95407211       9.28880856       5.39202946
Mg      13.10277393       9.32373010      12.72033050
Mg       0.01698755       3.53282214       3.68839427
Mg       0.23557325       3.62139057      10.83803361
Mg       0.12109351      10.77886488       3.62965253
Mg       0.27882880      10.73827995      10.92915609
Mg       7.42452731       3.88244875       3.60635929
Mg       7.43236623       3.78432559      10.86809995
Mg       7.51177001      11.05738671       3.57202595
Mg       7.50801835      11.01942490      10.86407833
Mg       3.70784685       3.73058280      -0.01097916
Mg       3.79159544       3.71975798       7.32133995
Mg       3.65398998      10.85005269       0.04659295
Mg       3.81977144      10.90235517       7.29850208
Mg      10.89711473       3.83447886      -0.05285538
Mg      11.00081232       3.89715923       7.33323960
Mg      11.01041752      11.11360924      -0.02032099
Mg      11.02053566      11.09991414       7.36461538
Mg       5.64791458       5.50683801       1.81713925
Mg       5.67887287       5.51638792       9.08030081
Cu       5.58150873      12.76191942       1.85192978
Mg       5.67723430      12.79361344       9.06361668
Mg      12.79756238       5.73414763       1.80232920
Mg      12.97641973       5.78600361       9.03948175
Mg      12.94333538      12.88275577       1.76708468
Mg      12.87281229      13.02276633       9.02215467
Cu       6.51175402       4.71436814       6.36687019
Cu       6.62370075       4.67103337      13.46226614
Mg       6.54164627      11.82772168       6.38661710
Cu       6.77743077      11.84206620      13.61762810
Cu      13.82576817       4.90021956       6.24709598
Cu      13.94343601       4.96866435      13.50023614
Cu      13.95898164      12.11845841       6.29086651
Cu      13.88254001      12.12338967      13.53707102
Cu       4.60457013       6.35709771       6.32327348
Cu       4.85735451       6.42187665      13.66016466
Cu       4.74345468      13.61916290       6.42805940
Cu       4.87837466      13.57617209      13.62952200
Cu      12.02559142       6.64771982       6.36035220
Cu      12.19062261       6.61287211      13.58502596
Cu      11.99804097      13.76129308       6.43576826
Cu      12.18367597      13.89538076      13.60835560
Cu       2.84992460       2.83409863       4.53796158
Cu       3.01566553       2.83160116      11.70474105
Cu       2.87879972       9.89767322       4.56938168
Cu       3.01422270       9.98226064      11.85295680
Cu      10.04039628       2.98643819       4.52699687
Cu      10.29118857       2.91727604      11.82336068
Cu      10.15190881      10.16363807       4.55975443
Cu      10.32139229      10.13784823      11.75306320
Cu       6.38914335       1.10085575       2.72576540
Cu       6.47988651       1.12434438       9.93427957
Cu       6.44468382       8.24296509       2.75461000
Cu       6.58105839       8.29463489       9.92350123
Cu      13.71131708       1.21562731       2.66903122
Cu      13.84311507       1.21829261       9.93499907
Cu      13.76687145       8.51529031       2.84248542
Cu      13.94920049       8.48364606       9.89853094
Cu       0.96466485       4.49594973       0.90911088
Cu       1.03346663       4.61608405       8.14444554
Cu       1.02554827      11.67523791       0.96324598
Cu       1.11653277      11.63070355       8.17397708
Cu       8.31890393       4.73071601       0.85743422
Cu       8.30701493       4.72574492       8.00303223
Cu       8.27787347      11.83793683       0.88509640
Cu       8.50884890      11.96832700       8.12688923
Cu       4.72445416       4.66033022       4.42621476
Cu       4.79214565       4.64366872      11.73805015
Cu       4.81560181      11.89230819       4.53157888
Cu       4.89753197      11.88381782      11.86095853
Cu      11.95339254       4.80808413       4.62845339
Cu      12.00834753       4.82648510      11.69005090
Cu      12.01137672      12.08304292       4.54721755
Cu      12.14574593      12.03592223      11.85760923
Cu       0.97193139       6.39859007       2.64497042
Cu       1.11811983       6.34141741       9.96476589
Cu       1.06522720      13.52664912       2.74655570
Cu       1.22564736      13.53352869      10.01620540
Cu       8.22338927       6.45080188       2.68711620
Cu       8.44517052       6.48826189       9.95413093
Cu       8.34962481      13.77515681       2.88996895
Cu       8.49532655      13.74503764      10.04765943
Cu       2.76258731       6.37334789       0.80341428
Cu       2.97898206       6.49062332       8.19706045
Cu       2.83878913      13.55060382       0.89419816
Cu       3.05348726      13.56714011       8.17984736
Cu      10.15112907       6.58160019       0.90217208
Cu      10.22469992       6.60275445       8.06974684
Cu      10.04707749      13.81545912       0.98644085
Cu      10.29381033      13.84356554       8.23496601
Cu       2.77669148       4.58036105       2.68227875
Cu       2.93368652       4.51864777       9.99635734
Cu       2.76980568      11.76367813       2.87611243
Cu       3.03928031      11.78193566       9.92489817
Cu      10.00867037       4.75473036       2.78060968
Cu      10.22280205       4.78687765       9.87975848
Cu      10.24808095      11.99679556       2.79969184
Cu      10.29637152      12.04552163      10.01887666
Cu       4.68537198       2.78435767       2.73934631
Cu       4.79162754       2.78990557       9.93873565
Cu       4.68177468      10.02974518       2.68756297
Mg       4.77058718      10.11067161       9.97989091
Cu      11.78793275       3.05057443       2.65172694
Cu      12.04790845       2.99591815       9.99853799
Cu      11.93288998      10.08854783       2.78647331
Cu      12.08947304      10.30723090       9.92906395
Cu       6.51118567       6.47699789       4.66496944
Cu       6.57931600       6.51554111      11.76956981
Cu       6.55328550      13.63284397       4.65756617
Cu       6.79567456      13.70096689      11.82073386
Cu      13.77048326       6.65669196       4.48216329
Mg      13.88104069       6.67720488      11.73753100
Cu      13.83987882      13.89200960       4.51338493
Cu      13.93434937      13.88582475      11.76377470
Cu       2.75437411       0.88553273       6.34407803
Cu       2.94930616       1.07768194      13.59549320
Cu       2.88606171       8.09368668       6.28961614
Cu       3.01681706       8.06005154      13.70924072
Cu      10.11665018       1.21307588       6.33991769
Cu      10.30851769       1.16530760      13.54802012
Cu      10.29844906       8.44254632       6.37736210
Cu      10.37032547       8.41308670      13.64815027
Cu       0.97247334       0.74941061       4.48472150
Cu       1.04300409       0.92645647      11.76992286
Cu       1.06179018       8.20591977       4.51070272
Cu       1.20994578       8.13500633      11.88409876
Cu       8.22815343       1.10855074       4.60179939
Cu       8.50578234       1.09434473      11.75240698
Cu       8.42831871       8.27266964       4.49076836
Cu       8.40863040       8.35211169      11.86671756
Cu       6.32734667       2.88060789       0.92413660
Cu       6.50975337       2.88150126       8.25037282
Mg       6.53859393      10.07344002       1.00718858
Cu       6.58928185      10.08266050       8.20042597
Cu      13.71631640       3.07262605       0.83000714
Cu      13.79580373       3.05734340       8.05698797
Cu      13.71775725      10.31309305       1.02569653
Cu      13.90531946      10.26512895       8.18966484
Cu       1.05618928       2.73125390       6.36970835
Cu       1.12365036       2.69721185      13.57855055
Cu       1.19872712       9.92682973       6.38936023
Cu       1.24809826       9.87711645      13.60303013
Cu       8.29653580       2.86599091       6.37679472
Cu       8.38469393       2.98937917      13.53499124
Cu       8.41627056      10.08759434       6.40145885
Cu       8.60560560      10.18276398      13.46828566
Cu       4.62037960       1.09146486       0.90342623
Cu       4.66858144       1.00695227       8.16811980
Cu       4.71177686       8.14246752       0.88130892
Cu       4.79581086       8.28403757       8.20245476
Cu      11.93976371       1.34297252       0.92799569
Cu      11.94827403       1.23530956       8.10190878
Cu      11.96410605       8.45283751       0.84796338
Cu      12.09133809       8.42968565       8.33304465
