191
Lattice="14.195138564778919 0.35677342959346725 -0.23401075871286073 -0.4032279407657952 14.230692833723424 0.07965518870225374 0.3423573746162928 0.15184069934426656 14.191717121014431" Properties=species:S:1:pos:R:3 pbc="T T T"
Mg       3.69045706       0.15421709       3.50617342
Mg       3.81335929       0.14741674      10.53604971
Mg       3.49037883       7.17349082       3.50375863
Mg       3.57452834       7.26947084      10.53668429
Cu      10.78592623       0.24297491       3.41014321
Mg      10.91872024       0.32826853      10.49608455
Cu      10.54170180       7.44612812       3.42177340
Mg      10.71397577       7.46841968      10.45637971
Mg       1.83986711       1.83895984       1.77909063
Mg       1.99589244       1.89680258       8.80631506
Mg       1.50175378       8.89913509       1.77996022
Mg       1.75916496       9.05212642       8.85901104
Mg       8.89250395       2.07908031       1.64489923
Mg       8.99096728       2.05194997       8.82303627
Mg       8.60000578       9.09520038       1.65855972
Mg       8.88133722       9.20598729       8.81720882
Mg       0.04604017      -0.01946127      -0.04942404
Mg       0.25090249       0.09883173       7.14909899
Mg      -0.19447284       7.09919914       0.06243344
Mg       0.01407166       7.18520700       7.08574757
Mg       7.08858925       0.08070591      -0.06075387
Mg       7.31890473       0.28848674       6.97167748
Mg       6.87716720       7.24082064      -0.11516165
Mg       7.15249030       7.36295385       7.02870532
Mg       1.73484444       5.48082937       5.33245509
Mg       1.88624586       5.46702834      12.34333722
Mg       1.57127990      12.57108627       5.35546246
Mg       1.75972855      12.54623828      12.38208792
Mg       8.86375036       5.66073679       5.25538370
Mg       8.99092581       5.67346853      12.31751988
Mg       8.56862192      12.70747107       5.22807632
Mg       8.73228580      12.83469751      12.33111685
Mg       5.36490243       1.94796064       5.19594270
Mg       5.57855382       2.01994197      12.34494160
Mg       5.18532698       9.20817072       5.31728720
Mg       5.36617316       9.21442718      12.42190350
Mg      12.46105166       2.26000857       5.10105660
Mg      12.64936143       2.23111581      12.17813694
Cu      12.28539464       9.17951828       5.18610457
Mg      12.46798239       9.36385408      12.21156487
Mg       0.01629925       3.55993734       3.55112691
Mg       0.14934102       3.61255946      10.70258923
Mg      -0.33617895      10.72553323       3.60162945
Mg      -0.08212133      10.83507909      10.70514910
Mg       7.18492912       3.82878394       3.52513678
Mg       7.27316029       3.91860548      10.55149431
Mg       6.95385691      10.80787660       3.51089338
Mg       6.95202668      10.90206311      10.58942476
Mg       3.44989403       3.58781041      -0.09325645
Cu       3.48717974       3.66462166       7.03785447
Mg       3.26867956      10.68553654       0.02116359
Mg       3.45517411      10.86710744       7.01927121
Mg      10.54689177       3.77954554      -0.26624511
Mg      10.81555704       3.83270587       6.96181859
Mg      10.38836514      10.94819373      -0.12258019
Mg      10.49714705      10.98682391       6.92729573
Mg       5.25124912       5.49087100       1.74438825
Mg       5.37840495       5.53349286       8.85079138
Mg       5.04735712      12.52437403       1.71173882
Cu       5.17609294      12.68361074       8.83893387
Mg      12.30396055       5.53548643       1.56243358
Mg      12.43698795       5.74603618       8.79369426
Mg      12.01930012      12.76060054       1.64006701
Mg      12.29434125      12.87806461       8.73323062
Cu       6.25510991       4.68683770       6.14353064
Cu       6.38367965       4.72972728      13.25788458
Cu       6.02641193      11.78411196       6.15147029
Cu       6.30661349      11.95484063      13.21328666
Cu      13.37091846       4.82178716       5.99651564
Cu      13.49726578       5.01530457      13.06815670
Cu      13.12189341      11.97529476       6.12790515
Cu      13.33988715      12.06561945      13.15271099
Cu       4.40927250       6.43607861       6.15093829
Cu       4.54764131       6.53807793      13.28934485
Cu       4.18715023      13.59216228       6.23065140
Cu       4.29294225      13.52935871      13.27360831
Cu      11.49084560       6.63363343       6.07667922
Cu      11.81279591       6.74382833      13.10740209
Cu      11.29774123      13.74782228       6.06497506
Cu      11.52906884      13.78999574      13.27739489
Cu       2.62248181       2.77350997       4.38837184
Cu       2.96441351       2.94253746      11.61371066
Cu       2.41033341       9.95369775       4.43698596
Cu       2.62551729      10.01053318      11.53122004
Cu       9.78375691       2.94517532       4.27374920
Cu      10.03204188       3.01177278      11.37032213
Cu       9.49875728      10.05726834       4.34121759
Cu       9.68539889      10.13394950      11.45053988
Cu       6.18049251       1.16609536       2.62947694
Cu       6.40177442       1.20508841       9.65644131
Cu       6.05720680       8.14276773       2.65587132
Cu       6.27742847       8.27966739       9.73180851
Cu      13.30976255       1.17330392       2.46318079
Cu      13.51117089       1.31532036       9.48719773
Mg      13.14904756       8.30349182       2.44823038
Cu      13.32594302       8.42075152       9.56177167
Cu       0.76034748       4.49729185       0.89946853
Cu       0.95942366       4.55189391       7.85847427
Cu       0.58955559      11.62261321       0.91062256
Cu       0.70502758      11.70872044       8.03298550
Cu       7.87213851       4.54771874       0.91035560
Cu       7.98389267       4.79831305       7.92379275
Cu       7.65035958      11.72186569       0.77318155
Cu       7.80865969      11.85087126       7.97024097
Cu       4.43533380       4.60063111       4.43435940
Cu       4.66241530       4.65866833      11.51492946
Cu       4.15679801      11.67419246       4.39995424
Cu       4.39476685      11.82361385      11.54354303
Cu      11.50262436       4.79453624       4.27884731
Cu      11.70371178       4.89532035      11.35880698
Cu      11.29956916      11.84980621       4.29283503
Cu      11.52800114      11.98982498      11.43639625
Cu       0.81820163       6.23353186       2.67389876
Cu       0.95529596       6.35396839       9.81813546
Cu       0.59853647      13.45541837       2.65075958
Cu       0.77668417      13.47234212       9.73952392
Cu       7.82592173       6.49205968       2.65302420
Cu       8.14393977       6.51732916       9.60049877
Cu       7.72160958      13.62030868       2.59738311
Cu       7.83283557      13.65451952       9.60522928
Cu       2.48032690       6.29729706       0.87788138
Cu       2.73645050       6.39520890       7.98196027
Cu       2.23779347      13.37171528       1.00825959
Cu       2.53056475      13.43503739       7.98362663
Cu       9.58369679       6.43684108       0.69147574
Cu       9.68835064       6.51930007       7.85691842
Cu       9.39985322      13.54986054       0.88395687
Mg       9.58403092      13.64029840       7.86081203
Cu       2.50543416       4.54234759       2.61353669
Cu       2.73519786       4.62313152       9.71005716
Mg       2.40754834      11.58870834       2.71784180
Cu       2.53187442      11.75185331       9.81087648
Cu       9.69340449       4.64920775       2.54865805
Cu       9.86901671       4.75727032       9.76024510
Mg       9.41915694      11.91684792       2.58704881
Cu       9.60586379      12.02783834       9.60444171
Cu       4.47637989       2.79584588       2.65246204
Cu       4.59114548       2.84586437       9.73123954
Cu       4.31578437       9.88998971       2.57437415
Cu       4.44527179       9.93879423       9.66719449
Cu      11.50466250       2.99503336       2.35116145
Cu      11.64177415       3.09710331       9.54872775
Cu      11.31936473      10.16596102       2.52785893
Cu      11.44017947      10.15216477       9.61252087
Cu       6.08851834       6.46768219       4.37125985
Cu       6.22674878       6.57203256      11.51104003
Cu       5.85697681      13.57531915       4.45243420
Cu       6.10860472      13.57703548      11.46764849
Cu      13.24035192       6.63383247       4.25907793
Cu      13.33363428       6.71536800      11.33249451
Cu      13.03686690      13.70000906       4.36585849
Cu      13.10579479      13.79816458      11.42387290
Cu       2.80772812       1.08123112       6.18113714
Cu       2.87334370       1.08234803      13.32053462
Cu       2.53532223       8.25250421       6.27812806
Cu       2.72311823       8.24681224      13.24833605
Cu       9.85160751       1.18765454       6.01155188
Cu      10.01503236       1.36484544      13.05177242
Cu       9.67643991       8.34715687       6.01458774
Cu       9.83941856       8.38856315      13.15496842
Cu       1.03269847       0.95852832       4.36750449
Cu       1.07432111       0.94856388      11.52613740
Cu       0.75982597       8.10653303       4.49930725
Cu       0.99431914       8.20794236      11.47895977
Cu       8.11479433       1.15398863       4.29016079
Cu       8.29532507       1.11844047      11.33588813
Cu       7.87555492       8.20364935       4.31019061
Cu       8.08281554       8.25451006      11.47086202
Cu       6.16368174       2.92074568       7.88676939
Cu       5.96344172       9.98374174       0.86258764
Cu       6.07992443      10.04001308       7.82580773
Cu      13.20329717       2.98096473       0.68823611
Mg      13.40371348       3.10746432       7.83706388
Cu      13.00618366      10.12390126       0.66516202
Cu      13.18186390      10.18204731       7.84185576
Cu       1.02456946       2.69831495       6.25495647
Cu       1.11391538       2.82020832      13.31969196
Cu       0.79174391       9.92585463       6.19424057
Cu       0.90391921       9.91418986      13.36858911
Cu       8.01772209       2.90381535       6.15934983
Cu       8.21952604       3.08800334      13.16692046
Cu       7.89942018      10.07468630       6.17644120
Cu       8.04405047      10.08999347      13.20667701
Cu       4.42727592       1.02971534       0.83419879
Cu       4.64249303       1.07078643       7.88609633
Cu       4.26447303       8.13672666       0.85365569
Cu       4.35824177       8.18140161       7.99602109
Cu      11.53685341       1.19447513       0.63133306
Cu      11.73468713       1.22765427       7.83438264
Cu      11.29353386       8.34285884       0.73040682
Cu      11.57230937       8.42179673       7.88101362
