189
Lattice="14.615461278403655 -0.1378270284507535 0.14650669148188486 0.025650480853996363 14.391417151320171 -0.2593907958236493 0.07822605697499116 0.48824582438869746 14.821620095375543" Properties=species:S:1:pos:R:3 pbc="T T T"
Mg       3.70678407       0.11840635       3.68032453
Mg       3.62947250       0.26249131      11.15786924
Mg       3.75093863       7.25367793       3.57195037
Mg       3.72062806       7.54961382      11.10517684
Mg      10.91685401      -0.10175084       3.74850137
Mg      10.97445443       0.30593383      11.25722686
Mg      11.00018255       7.25039220       3.77685214
Mg      11.05781091       7.37719227      11.12996281
Mg       1.89131624       1.84554800       1.80762621
Mg       1.98317703       2.13529949       9.22150102
Mg       1.85793224       9.11426014       1.80944220
Mg       1.84755014       9.28649416       9.17312564
Mg       9.09150747       1.75893816       1.92532500
Mg       9.19611369       1.94036261       9.33062145
Mg       9.10253890       8.97854649       1.86542637
Mg       9.22554162       9.15939201       9.21763680
Mg      -0.04246309      -0.01323127       0.01818726
Mg      -0.03024770       0.19518864       7.43256271
Mg       0.08436175       7.21640749      -0.16612287
Mg       0.10659314       7.49001169       7.28245067
Mg       7.32014690      -0.11173469       0.09768076
Mg       7.40322357       0.20897092       7.43128150
Mg       7.35282768       7.22403551      -0.02111293
Mg       7.39990584       7.41247405       7.36305575
Mg       1.88774294       5.63738081       5.51835115
Mg       1.90973246       5.84286796      12.88005379
Mg       1.90347473      12.98625946      12.70016044
Mg       9.16419426       5.55835754       5.55872960
Mg       9.16327813       5.77373870      12.94872002
Mg       9.16600958      12.79414777       5.50159854
Mg       9.20883212      12.92265320      12.85299436
Mg       5.46501621       1.96060768       5.56711122
Mg       5.56401252       2.15659426      12.96546794
Mg       5.43945783       9.15045354       5.48064623
Mg       5.60371603       9.40348261      12.84058588
Mg      12.87035869       1.79854244       5.57558703
Mg      12.89160046       2.09704917      13.11652548
Cu      12.82450599       9.00270526       5.46908889
Mg      12.89264403       9.32576680      12.95356816
Mg       0.06520889       3.75790307       3.61484369
Mg      -0.02182763       3.95883874      11.07409486
Mg      -0.03312258      10.91819848       3.42324598
Mg      -0.03349784      11.23450382      10.98746876
Mg       7.34490857       3.61246754       3.72757544
Cu       7.24507479       3.87012625      11.15412844
Mg       7.39567539      10.82444585       3.51994617
Mg       7.38161922      11.10866202      10.96151175
Mg       3.68844559       3.58502105      -0.08148507
Mg       3.76562591       3.78858317       7.44980505
Mg       3.76810455      10.94235417       7.19826612
Mg      10.95424560       3.47337907       0.03260864
Mg      10.97767745       3.67644001       7.48458847
Mg      11.01747221      10.67275877      -0.06124898
Mg       5.56238777       5.43283737       1.86217412
Mg       5.57321141       5.64455602       9.27320200
Mg       5.49294774      12.57911820       1.67216120
Mg       5.53958679      12.75480989       9.13246862
Mg      12.74979045       5.28175658       1.80372196
Mg      12.81658302       5.57909800       9.32374449
Mg      12.86903915      12.45644702       1.75500797
Mg      12.87562212      12.80995022       9.19572116
Cu       6.42172281       4.71274956       6.56892894
Cu       6.40671800       4.88956861      13.86696032
Cu       6.40854296      11.87846135       6.26296051
Cu       6.47611157      12.15134798      13.75657283
Cu      13.87371926       4.58159968       6.51964253
Cu      13.72609334       4.83223686      14.01307608
Mg      13.73494184      11.79024149       6.44295846
Cu      13.80815644      12.00903052      13.72602848
Cu       4.64039946       6.49281747       6.43160270
Cu       4.70696550       6.69812577      13.82484206
Cu       4.65643777      13.64306277       6.31289060
Cu       4.64310012      13.80130802      13.69829472
Cu      11.91176232       6.37664388       6.48723969
Cu      11.89250838       6.71358138      13.92713232
Cu      11.87542716      13.68157412       6.27681962
Cu      12.05034382      13.81446773      13.77693902
Cu       2.78850664       2.74745023       4.59025727
Cu       2.78355001       3.14823314      12.04154696
Cu       2.70841921       9.96446985       4.52992453
Cu       2.81355190      10.25942837      11.90502129
Cu      10.07454057       2.83541719       4.72397414
Cu      10.19399793       3.00024743      12.07345023
Cu      10.03363712       9.94159356       4.49200016
Cu      10.11215316      10.27165474      11.95139237
Cu       6.37093239       0.80806648       2.79777186
Cu       6.46873378       1.18074468      10.15194518
Cu       6.36899736       8.12119668       2.74492451
Cu       6.40011496       8.29985001      10.05518379
Cu      13.68004901       0.81771149       2.96293048
Cu      13.71794909       1.16493537      10.44055605
Cu      13.73818971       8.06149592       2.70597068
Cu      13.75997470       8.31642499      10.18696840
Cu       0.84700281       4.40589073       0.83545190
Cu       0.99928370       4.69767232       8.27107435
Cu       0.93454742      11.73325072       0.68324529
Cu       0.91759125      11.88825201       8.17202999
Cu       8.32143864       4.45446730       0.91531357
Cu       8.29709003       4.76116765       8.41246554
Cu       8.31561051      11.64745113       0.82581006
Cu       8.27825106      11.89594600       8.23327663
Cu       4.63260583       4.52437376       4.59300916
Cu       4.66588188       4.77149319      12.06925298
Cu       4.60415250      11.69679460       4.49843101
Cu       4.56900127      12.07706348      11.75957647
Cu      11.86145241       4.54802238       4.71026921
Cu      11.91970449       4.83246143      11.94597697
Cu      11.93151326      11.67381710       4.48859331
Cu      11.96808694      12.02760855      11.98368274
Cu       1.01040404       6.40940674       2.64342798
Cu       1.00434082       6.60681064      10.10583631
Mg       1.01916750      13.53886427       2.57588196
Cu       1.01385975      13.81894515      10.05517961
Cu       8.22552003       6.26376822       2.68141220
Cu       8.28744100       6.55003097      10.20584791
Cu       8.28019148      13.51506234       2.64211437
Cu       8.21273115      13.78306494      10.02013320
Cu       2.80625430       6.36254832       0.89124112
Cu       2.91255777       6.58734487       8.20075217
Cu       2.80245397      13.50925573       0.64531520
Cu       2.92619060      13.71187714       8.13680825
Cu       9.96564075       6.23857255       0.90835604
Cu      10.07972244       6.46155027       8.26643541
Cu      10.08183402      13.39280328       0.84257185
Cu      10.18178317      13.72933478       8.21579488
Cu       2.82882990       4.57694582       2.83794955
Cu       2.77973597       4.81420088      10.07145653
Cu       2.75666470      11.75543419       2.58239157
Cu       2.81898373      12.01919999       9.94952211
Cu      10.06867617       4.54414354       2.83051765
Cu      10.00680843       4.70644659      10.19076209
Cu       9.94480758      11.63819073       2.67563498
Cu      10.15441426      11.95990303      10.03904215
Cu       4.61911268       2.65919750       2.70121271
Cu       4.64152365       2.96528349      10.23664826
Cu       4.59362444       9.94487492       2.68263913
Cu       4.67239127      10.23352739      10.05699076
Cu      11.82348657       2.64759036       2.87920607
Cu      11.96625875       2.89933866      10.29475740
Cu      11.93999240       9.99649934       2.67299178
Cu      11.92143150      10.05974824      10.08843087
Cu       6.47895805       6.40526805       4.58058192
Cu       6.47656114       6.64570973      11.95541848
Cu       6.37596256      13.55244317       4.47837218
Cu       6.40725262      13.71989949      11.86875232
Cu      13.69076248       6.31887289       4.67675396
Cu      13.72763213       6.56226161      12.08429054
Cu      13.77488485      13.43703206       4.34860553
Cu      13.70022768      13.75292960      11.89808934
Cu       2.74538912       1.13402545       6.48844661
Cu       2.74775453       1.26312907      13.93770275
Cu       2.82311746       8.33231191       6.40873623
Cu       2.92574799       8.46476544      13.72068019
Cu      10.07238878       1.07189504       6.58908981
Cu      10.15794202       1.25848226      13.97966301
Cu      10.12193053       8.14836700       6.49268987
Cu      10.12592179       8.47788965      13.93390020
Cu       1.04265759       0.99498074       4.56900044
Cu       0.95709783       1.37457150      11.92910322
Cu       0.94347905       8.22909653       4.52855006
Cu       0.97589017       8.48301086      11.91296279
Cu       8.19840233       0.92652289       4.81337421
Cu       8.28887041       1.21630883      12.15359980
Cu       8.26317407       8.11549237       4.51890006
Cu       8.28690431       8.36582066      11.94825124
Cu       6.36642763       2.59836910       1.01474726
Cu       6.52492718       2.90241565       8.30694446
Cu       6.34497411       9.81018478       0.78855716
Cu       6.43575049      10.15514094       8.25181162
Cu      13.68894177       2.55811858       1.06300107
Cu      13.60478241       2.89102957       8.45821694
Cu      13.68053718       9.81054028       0.93472366
Cu      13.72498748      10.02180801       8.36768984
Cu       0.99706114       2.87667231       6.45414771
Cu       0.96853242       3.20015419      13.80347505
Cu       0.96418543      10.13075005       6.29265567
Cu       0.95548601      10.37710487      13.76360687
Cu       8.28427993       2.80959604       6.46445276
Cu       8.34184497       3.04670355      14.00149484
Cu       8.29651584      10.02267285       6.35509072
Cu       8.28405179      10.16290748      13.78476737
Cu       4.59265014       0.90376272       0.95073801
Cu       4.72223959       1.21362756       8.35281118
Cu       4.66494667       8.08887187       0.81414534
Cu       4.69972001       8.32001818       8.13386243
Cu      11.91358698       0.85142971       0.99840784
Cu      11.89542567       1.07313926       8.44308636
Cu      11.92234602       7.91762311       0.88852529
Cu      11.91174513       8.24331309       8.35619743
