189
Lattice="14.642229256961654 0.34063999711351556 -0.02504185172559813 -0.1946172606493992 14.663456503650005 -0.3734724442207788 0.19460909633602683 0.1270411529286936 14.37285058558177" Properties=species:S:1:pos:R:3 pbc="T T T"
Mg       3.81867358       0.07510354       3.61029130
Mg       3.92284629       0.21362275      10.81855279
Mg       3.57382437       7.36294285       3.38013992
Mg       3.68036818       7.49975229      10.53629559
Mg      11.05799004       0.29200220       3.58843077
Mg      11.14795985       0.31848644      10.77357948
Mg      10.94351358       7.51560649       3.38395390
Mg      11.04239584       7.75848111      10.50799804
Mg       1.80926921       1.90969302       1.69910687
Mg       1.91417236       2.01937654       8.85801799
Mg       1.72113931       9.23359843       1.48742615
Mg       1.78626999       9.23214262       8.82115810
Mg       9.21055929       2.06099297       1.72917227
Mg       9.29058151       2.14542881       8.87762447
Mg       9.14231333       9.39794679       1.50675825
Mg       9.01218192       9.42793794       8.75305341
Mg      -0.00746920       0.00830482      -0.03119108
Cu       0.18016552       0.07434867       7.12011608
Mg      -0.07041851       7.27672254      -0.12875559
Mg       0.04531394       7.47130176       7.01268643
Mg       7.32456908       0.23208903       0.01157140
Mg       7.36641342       0.18962786       7.16373522
Mg       7.24158907       7.48928459      -0.20131182
Mg       7.33949598       7.67138921       6.92936768
Mg       1.81249093       5.62872364       5.26105721
Mg       2.01597302       5.76682095      12.40262573
Mg       1.73822386      12.91103881       5.04359481
Mg       1.75145761      12.92331418      12.24601378
Mg       9.14846079       5.76599288       5.18386071
Cu       9.36309072       5.85872122      12.47803282
Mg       9.15551017      13.07167821       4.98866481
Mg       9.18083758      13.12284690      12.17700078
Cu       5.55184428       1.88304945       5.37917419
Mg       5.63378059       2.06539286      12.52900180
Mg       5.45659540       9.38786008       5.13693368
Mg       5.55343726       9.43599929      12.42355291
Mg      12.77563246       2.07869836       5.29261573
Cu      12.94774963       2.25527251      12.46553227
Mg      12.76869877       9.54892805       5.13605754
Mg      13.00523130       9.60134841      12.31604564
Mg      -0.10379581       3.65028136       3.49900938
Mg       0.08671872       3.78663567      10.72108798
Mg      -0.04709308      11.01658362       3.36436564
Mg      -0.05204837      11.05715807      10.53104359
Mg       7.30719738       3.88854395       3.50952371
Mg       7.48245208       3.96904910      10.68356999
Mg       7.28470914      11.30391139       3.28922927
Mg       7.33249668      11.17284415      10.43467602
Mg       3.60478984       3.86673202      -0.07468200
Mg       3.81604904       3.86671709       7.10827861
Mg       3.51354218      11.15809927      -0.28076900
Mg       3.63959509      11.24634199       7.00151564
Mg      11.00741926       3.96978085      -0.16083744
Mg      11.09751201       4.00086894       7.11761900
Mg      10.79849778      11.24444306      -0.29679305
Mg       5.48353052       5.67706739       1.67185302
Mg       5.55945083       5.66600366       8.85121505
Mg       5.29821524      13.03186311       1.42400528
Mg       5.54820889      13.00016553       8.71689520
Mg      12.69464811       5.82860765       1.61493587
Mg      12.87255207       5.90672142       8.84805792
Mg      12.66144020      13.15932112       1.45159183
Mg      12.76660955      13.29399846       8.58638705
Cu       6.39898889       4.75953976       6.26545538
Cu       6.46812022       4.89881658      13.33170768
Cu       6.29929452      12.14545132       5.94982278
Cu       6.44001624      12.14551565      13.16409354
Cu      13.81636124       5.00215722       6.23958716
Cu      13.82092260       4.99957318      13.34380061
Cu      13.65618329      12.23168866       6.04304901
Cu      13.76576574      12.32187873      13.12653773
Cu       4.60079263       6.60432543       6.11891655
Cu       4.64175114       6.69538261      13.28967852
Cu       4.41049568      13.87249571       5.95409536
Cu       4.59682854      14.00539498      13.14948589
Cu      11.91490430       6.72833083       6.05210973
Cu      12.01555905       6.83980845      13.22796890
Cu      11.83228904      14.00968798       5.98067433
Cu      11.91849519      14.20866450      13.05348589
Cu       2.72215284       2.85986477       4.44491926
Cu       2.96568803       2.90661481      11.58580324
Cu       2.75521154      10.21558937       4.23027139
Cu       2.78906759      10.29074049      11.42971476
Cu      10.02403635       3.04071522       4.44746149
Cu      10.22052509       3.04560137      11.52725492
Cu      10.02616454      10.30353100       4.15984861
Cu      10.03338872      10.45225945      11.48568806
Cu       6.40804460       1.07707861       2.64818102
Cu       6.54156206       1.15899140       9.85856157
Cu       6.23727976       8.44074398       2.38960584
Cu       6.51719520       8.53722849       9.71236599
Mg      13.69703755       1.32375195       2.65053389
Cu      13.88675067       1.35289087       9.78281081
Cu      13.72610938       8.52001158       2.38427527
Mg      13.72308417       8.70369656       9.59197346
Cu       0.83423415       4.69744466       0.78073211
Cu       1.00729644       4.60374761       7.89248679
Cu       0.80922678      11.97998540       0.66761107
Cu       0.85664041      12.05735783       7.81385643
Cu       8.17955218       4.80698444       0.73741496
Cu       8.19736000       4.80122747       7.88692120
Cu       8.12578578      12.17391640       0.62209919
Cu       8.20096228      12.12283568       7.72293174
Cu       4.58005467       4.80263832       4.30629319
Cu       4.66486574       4.79355746      11.62978851
Cu       4.56737422      12.05264103       4.24311673
Cu       4.50902759      12.17459650      11.32717591
Cu      11.92313844       4.97163516       4.31203629
Cu      12.03349012       4.98379209      11.58238064
Cu      11.85383225      12.27909833       4.24201279
Mg      11.91204628      12.27350458      11.32753401
Cu       0.88245500       6.51594886       2.59237596
Cu       0.93890320       6.46103106       9.79516618
Cu       0.73272184      13.79442888       2.34567784
Cu       0.94006836      13.89153965       9.44670520
Cu       8.21447005       6.67237803       2.51663130
Cu       8.36979089       6.88583703       9.61518187
Cu       8.04588722      13.89313994       2.20356157
Cu       8.20104413      14.01803864       9.50636268
Cu       2.70780619       6.44910367       0.66958081
Mg       2.77847827       6.57839676       7.96146990
Cu       2.54460309      13.77812805       0.64070983
Cu       2.66350329      13.75962437       7.67891861
Cu      10.01332050       6.53419899       0.61169444
Cu      10.10469853       6.79924497       7.84495698
Cu       9.92495541      14.15817223       0.51100481
Cu       9.97035943      14.02092262       7.72512513
Cu       2.74782567       4.72158200       2.51776673
Cu       2.84808234       4.81372937       9.76211873
Cu       2.71386685      11.91641453       2.43332606
Cu       2.65165722      12.18183756       9.64855615
Cu      10.05308283       4.81062478       2.54838302
Cu      10.04459776       4.83218939       9.66245561
Cu       9.93729588      12.19212771       2.37657194
Cu      10.00412145      12.28428693       9.48351970
Cu       4.66350125       2.91978477       2.58571154
Cu       4.78423291       3.01985129       9.83765726
Cu       4.48097575      10.09235137       2.46765565
Cu       4.53988506      10.26542903       9.56976006
Cu      11.89364798       2.94577999       2.58877135
Cu      12.08762353       3.14797077       9.83753694
Cu      11.85527345      10.47092021       2.40716726
Cu      11.95797525      10.49482585       9.59623729
Cu       6.39133973       6.62184180       4.34422494
Cu       6.48113286       6.73353576      11.52448233
Cu       6.32332408      14.03374241       4.27428921
Cu       6.42476791      13.98203044      11.37484362
Cu      13.64299414       6.66453218       4.29077452
Cu      13.88734789       6.86466105      11.49596356
Cu      13.47665864      14.17246527       4.13800065
Cu      13.75196078      14.11465362      11.39849398
Cu       2.76065841       0.94605399       6.22933531
Cu       2.87123263       1.12510295      13.48983879
Cu       2.68339981       8.34257029       5.95354838
Cu       2.94461083       8.39744345      13.25613308
Cu      10.01609553       1.22285071       6.27461763
Cu      10.16945488       1.27426506      13.44986978
Cu      10.06219756       8.58112108       6.01935042
Cu      10.15799821       8.53291185      13.10667386
Cu       1.02088492       1.01788498       4.44944866
Cu       1.16269681       1.05871999      11.66019921
Cu       0.80214180       8.39538743       4.26081508
Cu       0.95075715       8.25480600      11.48893930
Cu       8.31777028       1.21220185       4.39295289
Cu       8.37859361       1.19417303      11.59351685
Cu       8.26880505       8.36902272       4.25263334
Cu       8.19576410       8.58844881      11.51669083
Cu       6.34331326       2.87052011       0.74175997
Cu       6.28110447      10.22059967       0.71216503
Cu       6.34210754      10.29049231       7.75816081
Cu      13.65261999       3.08231500       0.83774842
Cu      13.86964328       3.09896960       8.04557807
Cu      13.58598117      10.38670645       0.55089873
Cu      13.63117258      10.48526585       7.86053490
Cu       0.97423945       2.85424413       6.22744044
Cu       0.99082023       2.88094705      13.34433032
Cu       0.88966797      10.13225852       6.02423165
Cu       0.93200945      10.26362541      13.23010276
Cu       8.25300789       2.94748745       6.18024302
Cu       8.14295638      10.39044094       6.02026078
Cu       8.29839413      10.43874010      13.13307059
Cu       4.49445861       1.07079716       0.84448402
Cu       4.62354290       1.09575255       7.97593529
Cu       4.48346337       8.23459642       0.61243334
Cu       4.62878821       8.35642840       7.85481685
Cu      11.87261880       1.25882600       0.94518485
Cu      12.02173781       1.25776151       7.94544217
Cu      11.77543386       8.48205112       0.67771398
Cu      11.92722570       8.55676218       7.79927030
