191
Lattice="14.22532366918608 0.12425989768075144 0.5343620069060262 0.17715538461375926 14.250113874601478 0.008964370045549777 0.11254571044260128 0.45323194338590705 14.36094101137561" Properties=species:S:1:pos:R:3 pbc="T T T"
Mg       3.67574926       0.18721811       3.76544403
Mg       3.63326359       0.38571150      10.87441107
Cu       3.75180329       7.27430932       3.73956664
Mg       3.64701691       7.45659058      10.92357707
Mg      10.71156154       0.20449935       3.91344270
Mg      10.76376446       0.43141316      11.24006358
Mg      10.72562312       7.28193850       3.92783527
Mg      10.81785198       7.57072149      11.16780786
Mg       1.69581534       1.83374563       1.88332727
Mg       1.79679420       2.09642866       8.92911770
Mg       2.00909950       8.98851027       1.87423880
Mg       2.02984923       9.22597992       9.01523352
Mg       8.86958641       1.95364765       2.05006441
Mg       9.05502240       2.10595876       9.32897888
Mg       8.97416213       9.10696422       2.17985557
Mg       9.06829711       9.25570339       9.40689564
Mg       0.01577028      -0.04801331      -0.03861727
Mg       0.09402549       0.28852583       7.12434520
Mg       0.12792575       7.13033639       0.05227057
Cu       0.15363308       7.46324737       7.10103734
Mg       7.10840829       0.02678839       0.29036273
Mg       7.17706572       0.31203032       7.45728983
Mg       7.15900049       7.13584938       0.32987297
Mg       7.27367678       7.44435229       7.45402159
Mg       1.90430475       5.50797953       5.47141670
Mg       1.97407323       5.75401064      12.63545272
Mg       2.01137388      12.57412680       5.39005016
Mg       2.05113238      12.90151516      12.70253004
Mg       8.97800311       5.62958845       5.75104344
Mg       9.06051492       5.74503289      12.81719508
Mg       9.06596364      12.61347087       5.76402044
Mg       9.10962316      12.95003169      12.92652959
Mg       5.42070018       1.91413724       5.56399720
Cu       5.42681638       2.19170979      12.70824509
Mg       5.46441741       9.11085983       5.61747302
Mg       5.53994182       9.40288645      12.74439075
Mg      12.55335360       2.01056618       5.76787442
Mg      12.56718437       2.23700443      12.99581545
Cu      12.56155594       9.21759609       5.89359326
Mg      12.62295227       9.48375523      13.06048913
Mg       0.01204657       3.62407181       3.64889712
Mg       0.15244826       3.89670860      10.85436587
Mg       0.19351994      10.74347653       3.55924257
Mg       0.20897677      11.01906153      10.79411050
Mg       7.14916785       3.72654671       3.83026252
Cu       7.27367552       3.94027952      11.01995062
Mg       7.27023723      10.90418226       3.92735740
Mg       7.35469723      11.08794321      11.03934815
Mg       3.58546664       3.60171583       0.13313148
Mg       3.60391548       3.89214247       7.22904447
Mg       3.67197116      10.66981416       0.20500882
Mg       3.76799562      10.86745843       7.33054963
Mg      10.68424410       3.64745182       0.43678729
Mg      10.73399631       3.92387894       7.55707395
Mg      10.80004053      10.70982258       0.42977632
Mg      10.78681562      11.00412814       7.65718138
Mg       5.48500766       5.49191458       1.98130109
Mg       5.46526205       5.64712667       9.20422953
Mg       5.63818838      12.51860285       1.97830014
Mg       5.54673975      12.79831229       9.19924476
Mg      12.53002629       5.55207610       2.14064974
Mg      12.57771989       5.66957433       9.43904897
Mg      12.64860880      12.71757153       2.18551612
Mg      12.70415525      12.89013260       9.46319754
Mg       6.24787598       4.65260096       6.43516609
Cu       6.38797309       4.91539318      13.65761360
Cu       6.49734385      11.86315678       6.52648606
Mg       6.48546813      12.08212146      13.62999494
Cu      13.39204489       4.78902580       6.84172851
Cu      13.49472333       4.95408936      13.90371691
Cu      13.57202787      11.93263885       6.73939983
Cu      13.58350693      12.10916890      13.98629944
Cu       4.63342811       6.41747553       6.47717531
Cu       4.64599169       6.69952215      13.57400707
Cu       4.66599893      13.56359043       6.43356010
Cu       4.76999570      13.76068426      13.61596005
Cu      11.64452946       6.58187371       6.71955790
Cu      11.77167910       6.82129358      13.87731213
Cu      11.71221255      13.63661868       6.77633442
Cu      11.88057722      13.91505387      13.90602866
Cu       2.82161108       2.84677114       4.58052479
Cu       2.81249302       2.98487338      11.70057823
Cu       2.96406425      10.00536625       4.59806685
Cu       2.84005884      10.09802716      11.79355597
Cu       9.73326186       2.98695364       4.83075634
Cu       9.94637608       3.09379683      12.05723742
Cu       9.93902109      10.05419839       4.94637448
Cu      10.00645269      10.26842056      12.02706365
Cu       6.29185858       1.04569287       2.88541732
Cu       6.28143248       1.20530223      10.10534309
Cu       6.28762251       8.15823911       3.01107051
Cu       6.43536320       8.30598391      10.03568723
Cu      13.32166602       1.10021202       3.24463186
Cu      13.41024687       1.23682428      10.38753648
Cu      13.48155193       8.04408711       3.21008405
Cu      13.46303299       8.51301794      10.41171199
Mg       0.91579280       4.53545006       0.97137756
Cu       1.11631254       4.62428748       8.14170561
Cu       1.02127108      11.57181527       1.00971625
Cu       1.09718814      11.92500673       8.11302763
Cu       7.91855561       4.54897449       1.26970728
Cu       8.14835589       4.79197806       8.47709075
Cu       8.08535501      11.67667633       1.21948693
Cu       8.25173691      11.92677112       8.38873322
Cu       4.63163387       4.62664359       4.71380430
Cu       4.65033562       4.89644712      11.85231757
Cu       4.65401779      11.75296734       4.71448400
Cu       4.67625449      11.98841706      11.94323352
Cu      11.65254031       4.68604741       4.89145947
Cu      11.67338605       4.91434389      12.04821463
Cu      11.66675993      11.80808718       4.91220485
Cu      11.77608907      12.03616289      12.02054916
Cu       1.09891440       6.32280020       2.69233042
Cu       1.02638390       6.47964735       9.94443870
Cu       1.05595173      13.42117449       2.76310558
Cu       1.16719048      13.68995439       9.93444975
Cu       8.15313526       6.46741274       3.03750708
Cu       8.13860898       6.60914654      10.15689526
Cu       8.14322159      13.55218063       2.99581027
Mg       8.23874597      13.75842303      10.24421267
Cu       2.76224392       6.29617454       0.97444539
Cu       2.83108650       6.56755274       8.26552066
Cu       2.81767164      13.36448826       0.96910516
Cu       2.93015954      13.58698421       8.27430012
Cu       9.82885978       6.43621530       1.25809426
Cu       9.90765896       6.65646105       8.49379013
Cu       9.88501724      13.48200042       1.24424014
Cu       9.97078217      13.73060465       8.41305452
Cu       2.76291631       4.54649578       2.78908775
Cu       2.80298245      11.65170035       2.76929478
Cu       2.93327586      11.93215362       9.96211789
Cu       9.85914933       4.60431929       3.10018143
Cu       9.87556296       4.85319774      10.25087339
Cu       9.93800882      11.81266817       3.14160793
Cu       9.90487363      11.95329365      10.23559234
Cu       4.43179833       2.79627482       2.90091725
Cu       4.61528843       2.97524511      10.06888915
Cu       4.65505807       9.86499017       2.90094764
Cu       4.65308897      10.12268400      10.07795198
Cu      11.60107700       2.84810579       3.07921151
Cu      11.76433359       3.12435305      10.26526039
Cu      11.67533640      10.03436389       3.17558981
Cu      11.63786383      10.13832344      10.21433121
Cu       6.42824859       6.45014696       4.70988579
Cu       6.39563075       6.69556716      11.87023097
Cu       6.42111514      13.55358330       4.69208203
Cu       6.53855988      13.77240187      11.98139309
Cu      13.43369540       6.48502868       4.93027649
Cu      13.43097392       6.73347905      12.18506160
Cu      13.48499783      13.58474071       5.06894754
Cu      13.59153612      13.82257277      12.15480727
Cu       2.76816999       1.13909809       6.38525128
Cu       2.72452173       1.35441234      13.48795891
Cu       2.83968971       8.20426612       6.41973181
Cu       2.86967728       8.42383764      13.55889571
Cu       9.87413609       1.14246403       6.72366491
Cu       9.93289720       1.37800735      13.76656450
Cu       9.91354325       8.31999191       6.64313001
Cu       9.99952949       8.53347538      13.90544974
Cu       0.93523228       1.09397793       4.60278017
Cu       1.05168431       1.36794378      11.62648168
Cu       0.96575589       8.19296341       4.49915031
Cu       1.12748268       8.35445425      11.71119248
Cu       8.14556602       1.05592597       4.79754443
Cu       8.10843447       1.27538736      11.96041921
Cu       8.13734861       8.29952976       4.81496045
Cu       8.17474831       8.44467185      11.99118225
Cu       6.14152475       2.77773645       1.13892883
Cu       6.18527115       2.96680537       8.39991310
Cu       6.30328755       9.88713495       1.13583015
Cu       6.34969824      10.13980817       8.31628605
Cu      13.39956180       2.79892141       1.38879901
Cu      13.41358541       3.01260996       8.59039270
Cu      13.49597821       9.93941498       1.38090528
Cu      13.52079983      10.14017063       8.62846582
Cu       1.01783118       2.86998752       6.31589700
Cu       1.03850565       3.05105796      13.48977708
Cu       0.98789050       9.99651141       6.33246445
Cu       1.15019866      10.25266521      13.52822276
Cu       8.18543333       2.96824149       6.66429070
Cu       8.14096532       3.15943651      13.73452323
Cu       8.15460088       9.98853018       6.57576961
Cu       8.20786018      10.30095685      13.80444100
Cu       4.54775043       0.93221507       1.06037047
Mg       4.46054302       1.17936576       8.30150812
Cu       4.56257972       8.08419855       1.10404744
Cu       4.62525172       8.30277523       8.28438431
Cu      11.54908701       1.06763030       1.30077058
Cu      11.70275970       1.15745476       8.51566439
Cu      11.66375168       8.14435340       1.46895191
Cu      11.83996020       8.39716882       8.51826085
