192
Lattice="14.475518447494663 0.2739576138979302 0.392310003169187 -0.4507492399577198 14.047157032543083 0.125363517799601 -0.18326113599136318 0.16491707945046405 13.83944531599166" Properties=species:S:1:pos:R:3 pbc="T T T"
Mg       3.42349155       0.15132890       3.47400157
Mg       3.44270075       0.22457058      10.47526620
Mg       3.36468072       7.10137683       3.68775913
Mg       3.30580419       7.20510937      10.52787109
Cu      10.88040230       0.27402063       3.78182376
Mg      10.69726784       0.32776791      10.62464649
Mg      10.53375700       7.29608490       3.82430820
Mg      10.51203807       7.32183997      10.81318148
Mg       1.68477029       1.87995619       1.79735269
Mg       1.70779303       1.92827027       8.70479990
Mg       1.51951874       8.90317832       1.90613700
Mg       1.49190056       8.96134702       8.80708693
Mg       9.02970294       1.95628116       1.96279175
Mg       8.94288209       2.03608250       8.95435845
Cu       8.72977503       8.93604083       2.13849530
Mg       8.74329927       9.08342133       9.01789729
Mg      -0.04495815      -0.03458482      -0.07118574
Mg      -0.07924977      -0.02718266       6.89549203
Mg      -0.16266839       7.06620150       0.09907547
Mg      -0.30246106       7.16002207       7.16710504
Mg       7.24991660       0.20084933       0.14530499
Cu       7.15602395       0.11254976       7.05697229
Cu       7.03874905       7.19129964       0.22985488
Mg       6.92096199       7.21135791       7.26287121
Cu       1.57492261       5.41979769       5.23279673
Mg       1.44246140       5.50813504      12.19937551
Mg       1.32899064      12.33857414       5.34767346
Mg       1.32613274      12.41900672      12.22320942
Cu       8.77895679       5.55313674       5.40422885
Cu       8.75511572       5.47667906      12.42874521
Mg       8.57122034      12.55171871       5.54713865
Mg       8.36917091      12.67252345      12.45475606
Cu       5.37797760       1.93505202       5.36892922
Mg       5.21365630       2.02704726      12.34869209
Cu       5.06620766       9.09716321       5.41677596
Mg       4.93598282       9.07662890      12.30626095
Mg      12.54554087       2.00033295       5.66893819
Mg      12.39934153       2.20383747      12.49270178
Mg      12.29850605       9.07783502       5.58876747
Mg      12.19839531       9.17045266      12.53462049
Mg      -0.27130525       3.52305113       3.51161749
Mg      -0.25353841       3.70032038      10.36869155
Mg      -0.33879604      10.60340280       3.51476035
Mg      -0.41498754      10.60708291      10.43862751
Mg       7.04326504       3.75113040       3.68072203
Mg       6.96711513       3.74510402      10.52523684
Mg       6.90618933      10.72405591       3.73448279
Mg       6.68065118      10.86777942      10.70397755
Mg       3.45277506       3.51069890       0.21846613
Mg       3.35550893       3.63436488       7.06109211
Mg       3.36841337      10.51336443       0.08787786
Mg       3.14749302      10.67227195       7.06895325
Mg      10.70934164       3.79532744       0.34332284
Mg      10.64482628       3.89987693       7.24060380
Mg      10.60504792      10.71743486       0.39921007
Mg      10.52515836      10.83674836       7.22849286
Mg       5.20305756       5.38975402       1.91104069
Cu       5.23763945       5.51144364       8.88070610
Mg       4.97600868      12.46282636       1.93135652
Mg       4.98472476      12.53938189       8.87876921
Mg      12.59727064       5.57414341       2.12083954
Cu      12.32473483       5.67098457       9.07188152
Mg      12.16060439      12.58295873       2.11938386
Mg      12.20456733      12.55543924       9.13635738
Cu       6.08848211       4.56305246       6.29935326
Cu       5.94318800       4.54570263      13.18009044
Cu       5.94768341      11.65448368       6.35637600
Cu       5.84806436      11.77345051      13.24838051
Cu      13.31432746       4.74873392       6.35946343
Mg      13.30121641       4.86550132      13.32032320
Mg      13.10867747      11.68159415       6.54890996
Cu      12.98791968      11.78350205      13.46181001
Cu       4.29782911       6.40073797       6.16582049
Cu       4.14809462       6.38306884      13.14428221
Cu       4.05190401      13.31196460       6.34071236
Cu       3.87820078      13.44295503      13.15268375
Cu      11.52386406       6.36081815       6.37063330
Cu      11.37856978       6.49388793      13.30864575
Cu      11.19365578      13.42338172       6.49378230
Mg      11.16367346      13.54696057      13.40984152
Mg       2.58629427       2.66291743       4.44891997
Cu       2.47999411       2.84089847      11.27541683
Mg       2.31244598       9.78666575       4.45032341
Cu       2.21115973       9.86777753      11.43196159
Cu       9.81734823       2.85963880       4.71782908
Cu       9.75516435       2.94523102      11.51762996
Cu       9.63332806       9.95265832       4.74531075
Cu       9.53468837       9.91994582      11.53060499
Cu       6.20745808       0.98286237       2.80698042
Cu       6.16959280       1.16328405       9.69242586
Cu       6.11651127       8.06761903       2.90128870
Cu       5.90794652       8.15489780       9.73735921
Cu      13.55873491       1.11896321       2.94431487
Cu      13.43104490       1.19317609       9.87482359
Cu      13.30594899       8.20057277       3.06916932
Mg      13.21458382       8.30508193       9.91657677
Cu       0.73235194       4.45800540       0.94392114
Cu       0.67833473       4.44223970       7.83580429
Cu       0.62676081      11.46959061       1.00887940
Cu       0.48367515      11.48637533       7.88439319
Cu       7.97193622       4.47746981       1.18917415
Cu       7.84230569       4.60299590       8.05405405
Cu       7.81875294      11.61381491       1.20396204
Cu       7.75346929      11.59813775       8.14344741
Cu       4.35657449       4.52036080       4.49225593
Cu       4.16074509       4.60572811      11.38794902
Cu       4.11969488      11.56153885       4.54071361
Mg       4.05285660      11.73599839      11.50621494
Cu      11.62248669       4.55716279       4.64124873
Cu      11.43388506       4.68813257      11.54251403
Mg      11.30204821      11.70912624       4.69324448
Cu      11.26853390      11.79262918      11.67528105
Cu       0.65266705       6.22756816       2.67884847
Cu       0.58929734       6.29978679       9.57528298
Cu       0.40990287      13.08521900       2.72485954
Cu       0.32455802      13.26120822       9.70623657
Cu       7.90487061       6.41833196       2.88490130
Cu       7.77724460       6.34556616       9.71972634
Cu       7.60777564      13.31318747       2.84864295
Cu       7.55789063      13.41037802       9.80025786
Cu       2.47802755       6.19801444       1.07103159
Cu       2.46149665       6.31155358       7.93750426
Cu       2.18781640      13.30518186       1.05379209
Cu       2.16437836      13.26705047       7.96797584
Cu       9.75875114       6.36933733       1.21789399
Cu       9.67954686       6.46578863       8.08055896
Cu       9.54065138      13.43923838       1.28965669
Mg       9.40114137      13.35258986       8.20568590
Cu       2.57566915       4.53615178       2.66000619
Cu       2.45553008       4.57685211       9.59840460
Cu       2.26938543      11.56439430       2.67587156
Cu       2.26465730      11.55871020       9.67243368
Cu       9.84260994       4.66749903       2.84208543
Cu       9.68767670       4.69703619       9.78311422
Cu       9.46635187      11.57813847       2.90557648
Cu       9.42872163      11.71075391       9.85407005
Cu       4.41666007       2.77071914       2.75298097
Cu       4.26959939       2.88416764       9.68513285
Cu       4.22643829       9.81793658       2.79332646
Cu       4.04774144       9.82307319       9.67872453
Cu      11.58434482       2.86229488       2.96383404
Cu      11.52181675       2.97133671       9.84769709
Cu      11.47193085       9.83629404       2.92204232
Cu      11.33559973       9.94839008       9.95976623
Cu       6.07860910       6.30400169       4.60123058
Cu       5.96560101       6.37558305      11.54693591
Cu       5.78206393      13.28080149       4.66002739
Cu       5.76204977      13.33167251      11.55047889
Mg      13.37283930       6.36936759       4.74251597
Cu      13.25171856       6.54122548      11.74380687
Cu      13.07437616      13.51558144       4.81610770
Cu      12.94156761      13.56313369      11.74265795
Cu       2.55951850       1.05220643       6.14540514
Cu       2.49608694       1.02790565      13.12961742
Cu       2.35622959       8.08462436       6.21801588
Cu       2.27636033       8.11680110      13.14771150
Cu       9.90936486       1.15925517       6.28902445
Cu       9.80120900       1.32348070      13.25494091
Cu       9.62730387       8.13253552       6.37953762
Cu       9.53736943       8.21916017      13.28763841
Cu       0.82235445       0.93456162       4.35421638
Cu       0.76000419       1.02672245      11.24133673
Cu       0.68849776       7.85827333       4.45270609
Cu       0.55262776       8.10168784      11.38419298
Cu       8.11463667       1.12423712       4.54602551
Cu       7.95889904       1.23400230      11.45024195
Cu       7.82904354       8.05110610       4.60607353
Cu       7.71179930       8.13941597      11.60389247
Cu       6.21825653       2.88812820       0.99632798
Cu       6.11871790       2.92423331       7.96820307
Cu       6.00193191       9.82654038       1.10632764
Cu       5.88836389       9.92480425       8.10214790
Cu      13.44206419       2.95957994       1.26773909
Cu      13.34362824       2.99495284       8.17396976
Cu      13.23971448       9.94865453       1.29009294
Cu      13.16342393       9.96601130       8.31927479
Cu       0.73417857       2.69553694       6.11075317
Cu       0.58134552       2.77633804      13.07752697
Cu       0.46084680       9.73407517       6.19600497
Cu       0.49377404       9.77497907      12.97713955
Cu       7.89576256       2.93665183       6.39966637
Cu       7.81370142       2.98922333      13.23502013
Cu       7.77452456       9.86404382       6.33551644
Cu       7.62094210       9.96717727      13.26610320
Cu       4.60627105       0.99128465       0.97675432
Cu       4.41321867       1.10357125       7.93920126
Cu       4.25897179       8.11693207       1.05740337
Mg       4.13906673       8.12361149       8.07035808
Cu      11.77853188       1.08778557       1.21664335
Cu      11.62144059       1.12680116       8.07979889
Cu      11.51270604       8.19091873       1.30549608
Cu      11.44138486       8.21342967       8.12786478
