192
Lattice="14.262336084517463 -0.2162611423442076 0.5091462832235112 -0.00638749901880594 14.368871430987609 0.0971199406806628 0.15546909146906318 0.5848402739380935 14.469891110083687" Properties=species:S:1:pos:R:3 pbc="T T T"
Mg       3.57199418       0.07208786       3.68645066
Mg       3.70763350       0.37810758      10.98972339
Mg       3.60399540       7.24897354       3.72615056
Mg       3.77584164       7.58682911      11.01466466
Mg      10.73606369      -0.08502407       4.05140457
Mg      10.78119614       0.28418381      11.13177945
Mg      10.77481358       7.17141634       4.13500326
Mg      10.83639890       7.47778706      11.27585371
Mg       1.79039240       1.70068466       1.82092434
Mg       1.89076604       2.02797849       9.10527587
Mg       1.77132176       9.13375289       1.90855609
Mg       1.77872622       9.24563177       9.22950200
Mg       8.92856532       1.78489966       2.16750584
Mg       9.06209334       2.15132646       9.42379359
Mg       8.93155984       8.90311664       2.09691430
Mg       8.89742263       9.27340820       9.41076190
Mg       0.05769643      -0.01851595       0.05885166
Mg       0.03863026       0.23928220       7.25206902
Mg       0.01069071       7.15525129      -0.01403887
Mg       0.02153150       7.49918634       7.22391801
Mg       7.13144395       0.00166316       0.29211603
Cu       7.22731170       0.12643461       7.46704363
Mg       7.21761640       7.09120171       0.30068592
Mg       7.10500528       7.34375519       7.47987892
Mg       1.98986226       5.47694477       5.51759615
Mg       1.92368637       5.81616880      12.68535582
Cu       1.80175179      12.80424917       5.55405052
Mg       1.95629263      12.98661039      12.83860332
Mg       8.86458085       5.37652595       5.70870922
Cu       9.03391839       5.75208175      13.06145351
Mg       8.91044620      12.70645407       5.75246905
Mg       9.02134625      12.92491168      13.06643095
Mg       5.34945276       1.95531712       5.66917962
Mg       5.45562769       2.24212096      12.88136151
Mg       5.41668814       9.09580169       5.63829470
Mg       5.57329549       9.43997166      12.83869472
Mg      12.51809689       1.88622420       5.92683161
Mg      12.63897585       2.07561069      13.04848399
Mg      12.55336048       9.04548288       5.91895622
Cu      12.56662409       9.21592647      13.15505867
Mg       0.10809977       3.76059440       3.68582054
Mg       0.10406229       4.05102596      10.90396429
Mg       0.07268418      10.85941598       3.59645763
Mg       0.08628349      11.28657563      10.87322855
Mg       7.15279621       3.69424994       3.93038816
Mg       7.18519806       3.88632263      11.15551346
Mg       7.17302979      10.77118378       3.96983871
Mg       7.21831037      10.93430167      11.19779635
Mg       3.59677899       3.59517800       0.13739322
Mg       3.67495728       3.79232509       7.38683546
Mg       3.58458522      10.69588333       0.19295296
Mg       3.61352935      11.02322472       7.41794239
Mg      10.68494891       3.42543966       0.36981711
Mg      10.71287900       3.70220655       7.72114613
Mg      10.72839754      10.64455766       0.41408064
Mg      10.75543938      10.89870627       7.72996807
Mg       5.46802996       5.22404569       2.05163250
Mg       5.43593474       5.66283289       9.28176459
Mg       5.43663732      12.57525581       2.12382140
Mg       5.43093935      12.88352073       9.21408110
Mg      12.49453938       5.28308045       2.36455665
Mg      12.51014148       5.55332436       9.50947148
Mg      12.57704882      12.43637080       2.36885637
Mg      12.58675732      12.67597891       9.64206934
Cu       6.27546670       4.68372353       6.60904954
Cu       6.39540887       4.92670194      13.80047551
Cu       6.31803301      11.84420105       6.64849664
Cu       6.38613457      12.09251015      13.87285301
Cu      13.47205740       4.52695550       6.82675047
Cu      13.54361974       4.82987107      14.11865105
Cu      13.42531687      11.73199862       6.85730062
Cu      13.55939534      12.01221254      14.13511025
Cu       4.50722728       6.55050759       6.56065180
Cu       4.61993837       6.76999010      13.83581092
Cu       4.48254928      13.61184378       6.61108242
Cu       4.52201835      13.96061184      13.80945342
Cu      11.77160217       6.30579055       6.77799926
Cu      11.74719278       6.68539315      14.04323670
Cu      11.61587980      13.46657816       6.70348677
Cu      11.74284680      13.91337567      14.14686816
Cu       2.67290321       2.91557334       4.65779734
Cu       2.84345347       3.13086738      11.92103613
Cu       2.73562434      10.03313626       4.66113932
Cu       2.79801274      10.33409384      11.91053565
Cu       9.82973028       2.77002102       4.85401932
Mg      10.00100304       3.00799636      12.16033499
Cu       9.81859383       9.94781011       4.87894512
Cu       9.91310018      10.16541312      12.10415497
Cu       6.17647933       0.96312037       2.91775829
Cu       6.39464596       1.21783945      10.12044202
Cu       6.33555775       8.09569438       2.92256949
Cu       6.35045251       8.46026031      10.22242708
Cu      13.35741861       0.81901730       3.26766745
Cu      13.42949120       1.13529689      10.44904419
Cu      13.41059528       7.95715110       3.21944859
Cu      13.44063460       8.33305623      10.47509143
Cu       0.96622391       4.50666111       1.00192276
Cu       0.99502857       4.76492267       8.32689656
Cu       0.92698892      11.61439791       1.02051742
Cu       1.00466480      11.96721473       8.25163654
Mg       8.07046935       4.36020064       1.28674064
Cu       8.09581596       4.60950828       8.42393780
Cu       7.98679914      11.55901937       1.18793874
Cu       8.10814543      11.95172472       8.56535498
Cu       4.56484255       4.52304600       4.67620397
Cu       4.59591379       4.86931965      11.96873011
Cu       4.53137102      11.73643046       4.73803987
Cu       4.52342244      12.06926952      11.99897009
Cu      11.66210903       4.46954284       4.94745190
Cu      11.64910691       4.80560182      12.17750208
Cu      11.66099849      11.70607375       5.02995832
Cu      11.65814250      12.03401696      12.33112407
Cu       0.87718795       6.35095052       2.84340829
Cu       0.90356956       6.71393005      10.01794454
Cu       0.86045005      13.62838346       2.83044300
Cu       0.97726704      13.77315538      10.06973045
Cu       8.04369249       6.36224370       3.09872916
Cu       8.12097298       6.56990566      10.21439979
Cu       8.02793931      13.55228456       3.15885771
Cu       8.15198750      13.80657903      10.40299167
Cu       2.66542797       6.36381927       0.99879572
Cu       2.78096011       6.48213501       8.28788754
Cu       2.59276617      13.50643391       1.14955863
Cu       2.79325260      13.80559192       8.30840633
Cu       9.82248742       6.17654167       1.33192337
Cu       9.95815806       6.40334472       8.49089215
Cu       9.75293329      13.41631328       1.31879603
Cu       9.79082822      13.68787543       8.48453843
Cu       2.75196469       4.60721570       2.89854139
Cu       2.76375849       4.83993889      10.08918692
Cu       2.71734102      11.70568384       2.89184797
Cu       2.75227642      11.99968021      10.15830159
Cu       9.81352556       4.46510230       3.12924593
Cu       9.93606355       4.70041628      10.33984278
Cu       9.89125055      11.59762496       3.09498367
Cu       9.92660260      11.90148671      10.37936977
Cu       4.52752956       2.74282250       2.83946438
Cu       4.57346907       3.07460198      10.12725418
Cu       4.50551520       9.86963831       2.92530510
Cu       4.50498463      10.21101465      10.12626953
Cu      11.64906246       2.59629960       3.15960596
Cu      11.64839134       3.01313104      10.38684960
Cu      11.59557296       9.74282996       3.24380453
Cu      11.69890714      10.10010322      10.32604934
Cu       6.29171826       6.36353271       4.79438297
Cu       6.39763554       6.67591132      12.03338436
Cu       6.27068842      13.59807264       4.81301207
Cu       6.39015544      13.74552773      12.04249893
Cu      13.46740902       6.25561957       5.02308934
Cu      13.48074081       6.58675797      12.38452520
Cu      13.42813659      13.43555613       5.12819505
Cu      13.46709119      13.74719209      12.33460543
Cu       2.79323612       1.04423260       6.41935820
Cu       2.87817591       1.40786580      13.65575681
Cu       2.70308399       8.24008590       6.47832875
Cu       2.79154698       8.58204046      13.78195626
Cu       9.94545685       1.06616933       6.72700776
Cu       9.84757340       1.33168776      13.90937452
Mg       9.86851525       8.10488819       6.75365267
Cu       9.91963909       8.46107677      13.95469660
Cu       0.94281372       1.14422084       4.61258883
Cu       0.95327923       1.32454923      11.77351918
Cu       0.89447388       8.23606293       4.57602168
Cu       1.02778462       8.53162377      11.83427561
Mg       8.04274850       0.87308033       4.71339771
Cu       8.11286627       1.21464947      12.11595275
Cu       8.08916678       8.27411285       4.88838805
Cu       8.09606430       8.47158288      12.04209783
Cu       6.19985412       2.61010653       1.12137508
Cu       6.32379778       3.02866990       8.43043505
Cu       6.29311283       9.82286648       1.19285845
Cu       6.29483374      10.07407396       8.42738309
Cu      13.40610924       2.41061542       1.43623042
Cu      13.42806296       2.84617525       8.68783433
Cu      13.41062663       9.78741808       1.50037712
Cu      13.40901698       9.99912369       8.62120562
Cu       0.99032054       2.91872261       6.35307684
Cu       1.08661651       3.30064049      13.58642529
Cu       0.91825906      10.11217244       6.39400346
Cu       1.01707059      10.42308851      13.66053329
Cu       8.04425586       2.84189438       6.66597835
Cu       8.23940350       3.17114300      13.82994915
Cu       8.11028931      10.04596604       6.76400990
Cu       8.20856456      10.31057112      13.91257824
Cu       4.48799794       0.91341065       1.05483875
Cu       4.41149141       1.17696333       8.23356876
Cu       4.44528600       8.04367859       1.16941083
Cu       4.58494830       8.31283794       8.42587864
Cu      11.64436068       0.74237251       1.24639060
Cu      11.68429846       1.03658938       8.52756327
Cu      11.61969708       7.89375635       1.39610153
Cu      11.62128316       8.20879789       8.67972793
