191
Lattice="14.40279798995574 0.5389961896463815 0.04880082176233109 0.019294600125194926 14.485935357208614 0.7416038590888164 0.5066089694759314 0.6387834817924315 14.768272224512529" Properties=species:S:1:pos:R:3 pbc="T T T"
Mg       3.69770840       0.35008191       3.76992439
Mg       3.81010221       0.52349907      11.14744385
Mg       3.77587585       7.52836723       4.07638046
Cu       4.06513880       7.84282829      11.46444810
Mg      10.94691499       0.65033265       3.84404285
Cu      11.17657108       0.83458782      11.12761127
Mg      10.94205341       7.76345795       4.07849823
Mg      11.18427961       8.13630639      11.54723440
Mg       1.64691989       2.05352537       1.97542568
Mg       2.15169537       2.28705516       9.34886452
Mg       1.87642799       9.22829264       2.28805805
Mg       2.12339842       9.59087501       9.68013750
Mg       8.95395820       2.20305969       1.89093042
Mg       9.31119728       2.56544261       9.41158741
Mg       8.98424094       9.46385971       2.22406702
Mg       9.25028357       9.70045597       9.73845267
Mg      -0.02806605       0.01457285      -0.02342233
Mg       0.20450710       0.27478114       7.34977027
Mg      -0.01853037       7.21509156       0.35657565
Mg       0.29949212       7.60537953       7.73979884
Mg       7.22391198       0.22335101      -0.02080570
Mg       7.39429105       0.55526480       7.40662542
Mg       7.16544328       7.49450636       0.35863587
Mg       7.51399271       7.82206189       7.83327103
Cu       1.98773781       5.64719002       5.75885103
Mg       2.26460586       6.02657789      13.33014381
Mg       2.08741991      12.96113003       6.07621286
Mg       2.14709120      13.34284033      13.58141596
Mg       9.21811733       6.08739202       5.77540080
Mg       9.51518672       6.32122382      13.26787881
Mg       9.18532914      13.26387797       6.18828046
Mg       9.49941039      13.54623527      13.58071179
Mg       5.62228818       2.34429634       5.73268364
Mg       5.83752976       2.65585889      13.04859220
Mg       5.54609042       9.56694754       6.03469899
Mg       5.84803905       9.86155890      13.44563792
Mg      12.94984804       2.50804851       5.67957716
Mg      13.11035244       2.76667570      13.06170302
Mg      12.76730168       9.78986184       6.02872321
Mg      13.05666673      10.05751341      13.50621507
Mg       0.10120292       3.83158745       3.90827659
Cu       0.42591952       4.07579673      11.18178358
Mg       0.15073044      11.10181120       4.28027485
Mg       0.37485807      11.33957407      11.57509695
Mg       7.31850702       4.01503510       3.91482455
Mg       7.54989376       4.36623954      11.20578886
Mg       7.32061620      11.24919870       4.17488571
Mg       7.62887481      11.65616139      11.69088508
Mg       3.47205245       3.71303915       0.25865434
Cu       3.85795767       4.09882802       7.63295008
Mg       3.57845821      11.06101977       0.50356553
Mg       3.81531657      11.41968097       8.01926289
Mg      10.78477355       4.09340159       0.27425288
Cu      11.09412418       4.30108085       7.63968991
Mg      10.85982721      11.25237646       0.66929369
Mg      11.08510796      11.61521671       7.96026202
Cu       5.37672012       5.77594572       2.17798060
Mg       5.65516209       5.97389849       9.53212991
Mg       5.49819519      12.90527561       2.55897306
Mg       5.84981502      13.37749341       9.97361393
Mg      12.67843376       6.01118960       2.21934915
Mg      13.00175324       6.26957045       9.50195038
Mg      12.70749446      13.28618564       2.59904632
Mg      12.94785931      13.55637998       9.86708372
Cu       6.61239564       5.15260692       6.58323074
Cu       6.95508057       5.40022052      14.14580698
Cu       6.41378090      12.22005008       7.11175664
Cu       6.84600489      12.52539680      14.45415735
Cu      13.64642916       5.32932114       6.77501431
Cu      14.02986363       5.64792492      14.10583416
Cu      13.72494881      12.63896601       7.09769256
Mg      13.97125666      12.93997356      14.52144681
Cu       4.76269637       6.71066789       6.76867121
Cu       4.99166396       7.07087647      14.17182511
Mg       4.77816930      14.07699636       7.20873926
Cu       4.91273437      14.40279882      14.54736112
Cu      11.92729619       7.04810483       6.83163805
Cu      12.07385277       7.47170199      14.24663723
Mg      11.95274927      14.33537935       7.32506538
Cu      12.18439240      14.61436797      14.63842115
Cu       2.88568789       3.02782446       4.77552477
Cu       3.15068373       3.39212931      12.21594567
Cu       2.81575742      10.26855371       5.04210935
Cu       3.21128328      10.51675194      12.47031397
Cu      10.09519532       3.29874747       4.82853807
Cu      10.34438176       3.68708313      12.15114896
Cu      10.04974733      10.49667712       5.27700130
Cu      10.36941222      10.83682175      12.54965823
Cu       6.41845405       1.21828987       2.92000564
Cu       6.53771294       1.60672285      10.36935601
Cu       6.40080660       8.51387126       3.16767220
Cu       6.64690498       8.74972596      10.61963355
Cu      13.64069437       1.57404797       2.69120229
Cu      13.88828449       1.87889549      10.34216277
Cu      13.62343420       8.76120179       3.29010823
Cu      13.94829594       9.22670648      10.61695495
Cu       0.95163945       4.56307854       1.13426075
Cu       1.13611008       4.91464105       8.44967438
Cu       0.86710248      11.85076778       1.43919985
Cu       1.26715217      12.18333444       8.91162409
Mg       8.17693612       4.78952249       1.24431179
Cu       8.36736009       5.18112546       8.66061649
Mg       8.17231939      12.13144400       1.69094983
Cu       8.48511066      12.43117742       8.97467311
Cu       4.59952431       4.89006606       4.85078242
Cu       4.95990916       5.19963013      12.27674420
Cu       4.67684221      12.15678793       5.23949085
Cu       4.90248211      12.47708971      12.57338208
Cu      11.85743325       5.19620273       4.88274242
Cu      12.12208219       5.47964900      12.25027118
Cu      11.83863660      12.40044452       5.31464077
Cu      12.16681237      12.66607994      12.57692552
Cu       1.08855508       6.37764944       3.11659983
Cu       1.23251843       6.79936574      10.56147033
Cu       1.03104963      13.73163177       3.38486753
Mg       1.22066877      14.10502482      10.87709892
Cu       8.19394081       6.77822561       3.15967515
Cu       8.46660408       7.03001006      10.38861265
Cu       8.18583752      13.94946249       3.42013028
Cu       8.39463832      14.35382536      10.91405345
Cu       2.70034565       6.49338702       1.23526967
Cu       3.01630040       6.83726419       8.58291836
Cu       2.75819298      13.72847041       1.67546815
Cu       3.07817953      14.13501858       9.00027129
Cu       9.87982045       6.74980012       1.19217707
Cu      10.21587045       7.08143345       8.66021648
Cu       9.83213626      14.02052967       1.61823902
Cu      10.24433344      14.33574325       9.03679116
Cu       2.76856909       4.76721031       3.06499863
Cu       3.02359423       5.05720230      10.34837425
Cu       2.76904628      12.08449591       3.36747042
Cu       3.03452255      12.36307230      10.69110091
Cu      10.04365152       5.06057567       3.06524415
Cu      10.17951766       5.31095877      10.37144077
Cu      10.06118463      12.20058105       3.45264106
Cu      10.31241924      12.56453027      10.84118270
Cu       4.91765881       3.44528781      10.31031383
Cu       4.62696954      10.36863796       3.26068700
Cu       4.89559150      10.54443920      10.68673306
Cu      11.92674041       3.25395357       2.97911722
Cu      12.10154333       3.61508228      10.36713291
Cu      11.76925749      10.55280818       3.28838937
Cu      12.15021122      10.79351413      10.78923538
Cu       6.51413314       6.69015711       4.96455058
Cu       6.74056371       7.08713770      12.35893517
Cu       6.50518894      14.04521237       5.24853677
Cu       6.72017034      14.33365954      12.64972917
Cu      13.67768909       7.10977102       5.07899340
Cu      13.85458849       7.38434830      12.40309643
Cu      13.71118677      14.36049028       5.45244130
Cu      13.93350952      14.65015615      12.71746236
Cu       2.87508374       1.28319312       6.47727307
Cu       3.21152478       1.58539314      13.86108200
Cu       2.90057489       8.44317977       6.85696902
Cu       3.17174213       8.79833558      14.26531344
Cu      10.14175851       1.47949515       6.46277928
Cu      10.33941093       1.84088410      13.88111236
Cu      10.12606448       8.81131482       6.92929068
Cu      10.42237881       9.12034540      14.29059604
Cu       0.99564044       1.14705486       4.67039238
Cu       1.27068818       1.45606152      12.07929095
Cu       1.00587593       8.31958570       4.98872144
Mg       1.36761694       8.76868224      12.37406020
Cu       8.28531186       1.34123643       4.63365239
Cu       8.50782956       1.72923610      12.05330372
Cu       8.25008903       8.68734226       5.01525889
Cu       8.55517278       8.94369056      12.47990079
Cu       6.36961780       2.98224991       1.09625865
Cu       6.63751039       3.33331471       8.58475517
Cu       6.32626902      10.18007091       1.44837373
Cu       6.52665483      10.54082915       8.83013832
Cu      13.54425138       3.24081056       1.20785587
Cu      13.82284649       3.49011236       8.48888822
Cu      13.52003190      10.54055536       1.61975352
Cu      13.81604885      10.77530555       8.85133690
Cu       1.13053756       3.12109985       6.64749228
Cu       1.53860861       3.35132859      13.99572512
Cu       1.18101050      10.22929026       6.93588630
Cu       1.45819024      10.65956613      14.28939030
Cu       8.39886260       3.31875761       6.65234937
Cu       8.53278981       3.55984714      14.06395698
Cu       8.36307568      10.57023425       6.95051439
Cu       8.63583290      10.88353868      14.24014990
Cu       4.53987777       1.11004848       1.01547360
Cu       4.80535441       1.27924822       8.41214599
Cu       4.52273726       8.41159620       1.33475984
Cu       4.83680539       8.71282013       8.75125399
Cu      11.74654922       1.38611923       0.98597759
Cu      11.90037298       1.62946144       8.32703622
Cu      11.65312078       8.61703658       1.38209996
Cu      12.02106638       8.89999892       8.84652726
