191
Lattice="14.306642400106528 0.10951380484025626 -0.07631269350517655 0.02850579175377819 14.24292716319946 -0.0029191854456060685 0.38714258430615883 -0.1948398734053502 13.987797493322665" Properties=species:S:1:pos:R:3 pbc="T T T"
Mg       3.70595623      -0.04922919       3.49563214
Mg       3.84192113      -0.13017091      10.45981182
Mg       3.70147804       7.12656606       3.41098647
Mg       3.79482564       7.01039640      10.47726648
Mg      10.87754278       0.03069171       3.48030456
Cu      11.05919805      -0.07869723      10.46097755
Cu      10.78885637       7.20494146       3.31329014
Mg      11.01570770       7.04609959      10.41287448
Mg       1.80316056       1.77798028       1.78106649
Mg       2.02713275       1.70397287       8.73772954
Mg       1.84753581       8.79831366       1.71204708
Mg       2.06372198       8.78397059       8.76202141
Mg       8.89951173       1.78248024       1.70021605
Mg       9.13159777       1.68416875       8.65096084
Mg       9.02330959       8.99171231       1.70980079
Mg       9.16951969       8.82492793       8.73822828
Mg      -0.04658476       0.04438119      -0.00776250
Mg       0.12059070      -0.13986923       6.96183739
Mg      -0.10449470       7.07452361       0.00990212
Mg       0.23100011       7.01596668       6.94655118
Mg       7.08088289       0.01764719      -0.02809359
Mg       7.33663152       0.04076828       6.95690125
Mg       7.11581246       7.29662205      -0.03093371
Mg       7.39328971       7.11405339       6.98090572
Mg       2.01134834       5.27179832       5.19745023
Cu       2.23867804       5.12803391      12.34094114
Mg       1.95928511      12.41365188       5.23978787
Mg       2.04809558      12.30523985      12.22138479
Cu       9.09901028       5.32416219       5.19303722
Mg       9.29324850       5.13127613      12.20632062
Mg       9.10281746      12.44975447       5.14207354
Mg       9.25207378      12.37782131      12.09691488
Mg       5.51177034       1.81625695       5.19348006
Mg       5.68118338       1.62216232      12.18772425
Mg       5.57361101       8.79041354       5.19572064
Cu       5.77263343       8.79494009      12.24635107
Mg      12.63997524       1.77207789       5.24478169
Mg      12.88419379       1.72205829      12.24650591
Mg      12.67312826       8.85233287       5.16204032
Mg      12.83632809       8.78870903      12.13844462
Mg      -0.00041084       3.46177287       3.46469448
Mg       0.29501858       3.40837170      10.53701903
Mg       0.16046292      10.68839224       3.50224801
Cu       0.35456586      10.54375850      10.43293664
Mg       7.25014801       3.63943542       3.44223301
Mg       7.50790932       3.43836689      10.46446623
Mg       7.22558371      10.69449923       3.49930302
Mg       7.51974977      10.69515943      10.41417720
Mg       3.57472776       3.52827133      -0.09124422
Mg       3.78727113       3.38864927       6.98605844
Mg       3.59600518      10.65353385      -0.02941878
Mg       3.75511354      10.51331886       6.98920845
Mg      10.78716571       3.73585701      -0.08889300
Mg      10.98457955       3.59732514       6.89636301
Mg      10.66960729      10.70562286      -0.14915852
Mg      10.94360777      10.64626692       6.94560856
Mg       5.46290276       5.26413289       1.79232144
Mg       5.61666906       5.31788577       8.71291304
Mg       5.47543840      12.53646721       1.75597684
Mg       5.57437622      12.31016752       8.65319891
Mg      12.56720466       5.39864452       1.71060440
Mg      12.82897562       5.37356773       8.64118992
Mg      12.54447562      12.58124172       1.65595305
Mg      12.63796087      12.43421667       8.68672494
Cu       6.36200487       4.36393654       6.17392018
Cu       6.64724001       4.25262604      13.09909087
Cu       6.45857599      11.55595322       6.11077756
Cu       6.62922568      11.48632757      13.12470403
Cu      13.61519439       4.50542431       5.93925883
Cu      13.74186369       4.35536917      13.09205293
Cu      13.58575307      11.57683214       6.05133505
Cu      13.85484243      11.46480847      13.15765465
Cu       4.66160585       6.26271613       6.04589880
Cu       4.76894154       6.02233991      13.07698906
Cu       4.83510619      13.24144447      13.12357056
Cu      11.82101098       6.18338844       6.11841647
Cu      12.03379645       6.16571099      13.01577122
Cu      11.80932371      13.43381838       6.11272971
Mg      12.02195918      13.24568522      13.03301345
Cu       2.79030232       2.57938153       4.31694517
Cu       2.89786570       2.58422966      11.38533879
Cu       2.83407908       9.69996548       4.37289697
Cu       2.97360370       9.65296225      11.23455331
Cu       9.87550748       2.72506253       4.24947706
Cu      10.18749837       2.55693811      11.26168649
Cu      10.02583764       9.75531854       4.31758396
Cu      10.10417593       9.63501389      11.30104363
Cu       6.39990743       0.90486264       2.55364420
Cu       6.56702864       0.80672303       9.67234775
Cu       6.33727671       8.02380127       2.55666946
Cu       6.53048265       7.82582610       9.57268521
Cu      13.47226322       0.90029918       2.52070112
Cu      13.71883624       0.90602122       9.53652895
Cu      13.42204548       8.08838747       2.53131217
Cu      13.72688211       8.10842147       9.51392088
Cu       0.88408244       4.40866545       0.83983747
Cu       1.13618115       4.31215947       7.80358210
Cu       0.89869188      11.61532751       0.78207902
Cu       1.09870523      11.46661575       7.85387447
Cu       8.11634131       4.53324450       0.89494847
Cu       8.27443238       4.38188465       7.74406418
Cu       8.07633393      11.65486691       0.88224426
Cu       8.20888259      11.54662267       7.76542565
Cu       4.60013707       4.46608000       4.33756344
Cu       4.76838565       4.30878494      11.25101373
Cu       4.60924636      11.37510778       4.36455163
Cu       4.90852397      11.47375410      11.31500416
Cu      11.78491823       4.54538227       4.30435678
Cu      12.03511079       4.38017347      11.37169843
Cu      11.78372221      11.59307976       4.27585401
Cu      12.02746100      11.54616038      11.29481570
Cu       1.02089692       6.15676225       2.67726949
Mg       1.08155315       6.03770439       9.55679264
Mg       0.87981423      13.24631017       2.61690697
Mg       1.15758535      13.25391824       9.63201974
Cu       8.19885596       6.26876022       2.51776043
Cu       8.22588405       6.17685356       9.62127112
Cu       8.17987000      13.47406830       2.52229391
Cu       8.29247807      13.30495078       9.52638671
Cu       2.68184591       6.25361278       0.85890073
Cu       2.93866942       6.08754099       7.79070284
Cu       2.69207377      13.41131642       0.90598695
Cu       2.98230007      13.22205999       7.85415847
Cu       9.81710430       6.30020715       0.83344015
Cu      10.05706236       6.14411481       7.80594252
Cu       9.92741202      13.51466209       0.84068813
Cu      10.03594124      13.26290763       7.85107404
Cu       2.65385401       4.46866033       2.63435728
Cu       2.93576509       4.39198599       9.66325960
Cu       2.85354237      11.57531108       2.63334600
Cu       2.97098933      11.57911793       9.63412704
Cu       9.86893280       4.38947856       2.57973417
Cu      10.04987616       4.43083556       9.54978043
Cu       9.92603189      11.52289117       2.57283900
Cu      10.21238130      11.53483673       9.55150003
Cu       4.57653932       2.62865608       2.59012828
Cu       4.74222831       2.55389358       9.59816735
Cu       4.54708091       9.75207243       2.54007116
Cu       4.77930919       9.73382049       9.63629482
Cu      11.64787402       2.79475085       2.52169714
Cu      11.87229040       2.78050865       9.55421437
Cu      11.65360114       9.91235635       2.54423594
Cu      11.83767499       9.69345225       9.48201112
Cu       6.36572571       6.16752293       4.35343818
Cu       6.64708986       6.12492704      11.40444359
Cu       6.43836753      13.37163662       4.32181239
Cu       6.63814028      13.11587793      11.26472476
Mg      13.55157590       6.37006557       4.31762131
Cu      13.78872616       6.11162289      11.25720210
Cu      13.46757659      13.42403295       4.34337193
Cu      13.75572012      13.31785067      11.34398429
Cu       2.83333088       0.86402200       6.05753126
Cu       2.99670013       0.67300888      13.13479127
Cu       2.90396169       7.96153790       6.06344149
Cu       3.00929044       7.88588964      13.14272474
Cu      10.03310753       0.88031250       6.06076055
Cu      10.20034584       0.80742417      13.07425064
Cu      10.06330157       8.03523252       6.09087959
Cu      10.21679233       7.87167721      12.97524267
Cu       1.04008929       0.81527796       4.27321471
Cu       1.26812213       0.82176683      11.38782191
Cu       1.03221088       7.94843008       4.34712906
Cu       1.22468637       7.80247577      11.30195524
Cu       8.25608440       0.83495864       4.22405436
Cu       8.45655850       0.94436208      11.29984144
Cu       8.10059860       8.05281699       4.34375001
Cu       8.30460686       7.83669471      11.33771133
Cu       6.32887073       2.72211347       0.82767822
Cu       6.51422064       2.64895832       7.83292620
Cu       6.31093960       9.84469799       0.85830345
Cu       6.43616130       9.73324916       7.84102521
Cu      13.47253250       2.82700803       0.78464810
Cu      13.64847508       2.64462224       7.70629132
Cu      13.53961277       9.85417879       0.82496579
Cu      13.60818928       9.83670686       7.85963563
Cu       1.15457942       2.63357966       6.10965159
Cu       1.24806697       2.45951827      13.09734674
Cu       1.13407254       9.70609189       6.12297818
Cu       1.25124727       9.56344465      13.04147078
Cu       8.30334072       2.56745017       6.14648322
Cu       8.38433868       2.45203238      13.04326136
Cu       8.27050583       9.79428107       6.02420644
Cu       8.47922131       9.69365628      13.08978322
Cu       4.46834197       0.91561749       0.87703068
Cu       4.77202725       0.85460085       7.93611364
Mg       4.54937154       8.00487655       0.86809250
Cu       4.79863486       7.99943785       7.84547901
Cu      11.55902893       1.00795817       0.79270695
Cu      11.82582014       0.81133838       7.81630113
Cu      11.71331254       8.08007380       0.73375069
Cu      11.88699840       7.97183889       7.88807048
