190
Lattice="14.330441417433786 0.01014143154087788 -0.03190890955636267 -0.29128099459878365 14.461573317787918 0.026126787338476898 0.6581858508039701 -0.0791356479734166 14.556530276699494" Properties=species:S:1:pos:R:3 pbc="T T T"
Mg       3.63994297      -0.07716907       3.63523503
Mg       4.08678934      -0.11772076      10.93985722
Mg       3.58663689       7.30006577       3.58193549
Mg       3.92073214       7.23688529      11.00020614
Mg      10.88873220      -0.07266182       3.63413112
Mg      11.21947433      -0.07993895      10.87879934
Mg      10.73865166       7.24863425       3.76214172
Mg      11.11172781       7.12033081      10.89224723
Mg       1.84667166       1.90883530       1.87062875
Mg       2.13597301       1.77730646       9.00621621
Mg       1.61189395       9.03172360       1.81793194
Mg       2.04087318       8.97402591       8.99794953
Mg       9.06461188       1.94280022       1.85860899
Mg       9.37704270       1.77284318       9.05340254
Mg       8.83885530       9.09278484       1.82295037
Mg       9.14512118       8.98239720       9.07596869
Mg      -0.04656040      -0.01137003      -0.12176503
Mg       0.37719189      -0.12220447       7.34902212
Mg      -0.22822916       7.31378965      -0.00417255
Mg       0.21158106       7.27903455       7.25721100
Mg       7.10360674      -0.04878457       0.04455264
Mg       7.47043159      -0.07488739       7.27198935
Mg       6.99568832       7.28811975      -0.02306872
Mg       1.90810981       5.41383229       5.50244704
Mg       2.18976274       5.28031574      12.73017741
Mg       1.79448942      12.69670552       5.46881061
Mg       2.14517550      12.52989058      12.79211159
Mg       9.11116950       5.37444521       5.49853866
Mg       9.33121881       5.20733046      12.70435076
Mg       8.93179655      12.60683704       5.46876092
Mg       9.18552419      12.48204327      12.81720355
Mg       5.55757711       1.79951073       5.41767233
Mg       5.88684906       1.64246094      12.78206140
Mg       5.50889911       9.02118199       5.43899146
Cu       5.71234979       8.95772606      12.71038450
Mg      12.75996411       1.85121768       5.41363461
Mg      13.00175962       1.70388562      12.69035998
Mg      12.52339349       8.97734575       5.40001194
Mg      12.98139549       8.91081464      12.71275750
Mg       0.16877139       3.65335866       3.66976587
Mg       0.44197531       3.51458471      10.95757466
Mg      -0.11414086      10.79693929       3.65522635
Mg       0.27008703      10.76580113      10.92631169
Mg       7.29129662       3.58602496       3.55086698
Mg       7.58775614       3.54987354      10.91965492
Mg       7.11256934      10.88801869       3.61248880
Mg       7.39731340      10.81490533      10.92832543
Mg       3.55957662       3.65126236      -0.01060220
Mg       3.85320439       3.49316663       7.22970523
Mg       3.32950227      10.89089969      -0.03031279
Mg       3.68862204      10.86660363       7.29153711
Mg      10.66150059       3.52458377      -0.00191811
Mg      10.99830497       3.55909840       7.22834402
Mg      10.46390463      10.78180075      -0.04969726
Mg      10.78820230      10.82169236       7.26580583
Mg       5.37950751       5.48123796       1.79880433
Mg       5.60592758       5.41740542       9.10514051
Mg       5.27672152      12.55797238       1.81353087
Mg       5.41914873      12.59884952       9.05722529
Mg      12.54555362       5.44242011       1.79031526
Mg      12.82011876       5.38309444       9.02973347
Mg      12.30542769      12.65133535       1.82078619
Mg      12.66566757      12.65702348       9.06396345
Cu       6.42174461       4.50776595       6.28417464
Cu       6.77938503       4.53274129      13.69829664
Cu       6.28775696      11.66200472       6.28509588
Cu       6.65504529      11.74229647      13.71975376
Cu      13.55144033       4.63133750       6.31480021
Cu      13.98556495       4.54416272      13.53571263
Cu      13.58849189      11.73149202       6.32640187
Cu      13.80303024      11.72764665      13.63714727
Cu       4.64240801       6.28043100       6.43792907
Cu       4.94404508       6.14616440      13.69817433
Cu       4.38856674      13.57345299       6.42615824
Cu       4.86179317      13.50470462      13.67393508
Cu      11.76797010       6.25321644       6.42817777
Cu      12.15403685       6.33118501      13.64287682
Cu      11.58774103      13.55987756       6.43505126
Cu      11.96723935      13.47345500      13.59626669
Cu       2.87008360       2.69775139       4.53314916
Cu       3.20655787       2.71175897      11.87412153
Cu       2.72990705       9.89515966       4.59152114
Cu       2.95927589       9.79526067      11.84888182
Cu       9.99886896       2.71216576       4.55319718
Cu      10.31080499       2.67333453      11.84299646
Cu       9.89941476       9.89715547       4.55709509
Cu      10.22279439       9.89685432      11.80883870
Cu       6.30746666       0.94541042       2.72416281
Cu       6.65970607       0.79289812      10.06139246
Cu       6.24601578       8.17898422       2.61578175
Cu       6.46775694       8.10563792       9.98910902
Cu      13.53224752       0.94350377       2.72279698
Cu      13.92081261       0.80433229       9.87338624
Cu      13.37899686       8.12158136       2.70696284
Cu      13.80653958       8.04549799      10.03985836
Cu       0.80385164       4.51933848       0.82451541
Cu       1.18339935       4.40077813       8.22994688
Cu       0.72732216      11.65968253       0.82043139
Cu       1.05461331      11.64310513       8.20097055
Cu       7.97281372       4.46810024       1.01396557
Cu       8.38400804       4.49180590       8.18323125
Cu       7.77104343      11.63814918       0.91812005
Cu       8.09735613      11.69814693       8.14147382
Cu       4.56153437       4.45122970       4.51972180
Mg       4.91337424       4.41887200      11.94562613
Cu       4.46841885      11.78915930       4.56578880
Cu       4.77138761      11.56569902      11.87449455
Cu      11.77063200       4.52230578       4.52539231
Cu      12.08307206       4.43825994      11.83270879
Cu      11.61486531      11.72233589       4.56641624
Cu      11.82488082      11.78900777      11.81902171
Cu       0.85676351       6.34521394       2.67647082
Cu       1.26060619       6.30780768       9.97887617
Cu       0.76746757      13.54609943       2.82889500
Cu       1.08481703      13.52051514      10.06855865
Cu       8.07954690       6.34169430       2.69397532
Cu       8.44052617       6.26017563      10.04272915
Cu       7.90940221      13.57835935       2.76942836
Cu       8.24597984      13.51998291      10.04926640
Cu       2.56718011       6.35982040       0.88142373
Cu       2.91689986       6.29871187       8.18778261
Cu       2.40004069      13.49376951       0.80212061
Cu       2.76342845      13.58858752       8.17104356
Cu       9.72853332       6.27702068       0.96137161
Cu      10.19573576       6.24623132       8.17989494
Cu       9.68276925      13.59120599       0.99772039
Cu       9.96973699      13.54857701       8.17270598
Cu       2.62984990       4.54597072       2.65740981
Cu       3.03213926       4.46993529      10.01377451
Cu       2.62789386      11.77667712       2.81720060
Cu       2.91267198      11.73134197      10.01036862
Cu       9.94345414       4.51127314       2.80648794
Cu      10.26912137       4.50408106      10.01153658
Cu       9.79993178      11.72626673       2.81743523
Cu      10.06413159      11.75907267      10.03883488
Cu       4.53679878       2.67680875       2.76955805
Cu       4.86695830       2.72765239      10.10986409
Cu       4.36143325       9.88105546       2.52121147
Cu       4.70213314       9.95827528       9.93118093
Cu      11.70310209       2.77098452       2.62242734
Cu      12.06681403       2.76180654       9.95533659
Cu      11.61252868       9.88219975       2.82357094
Cu      11.87970813       9.85919953      10.03598159
Cu       6.33850110       6.34517596       4.59147152
Cu       6.68383241       6.28960205      11.80252869
Cu       6.16738837      13.54916286       4.59359806
Cu       6.58369087      13.50655083      11.82778135
Cu      13.55097537       6.37401862       4.51261643
Cu      13.78051523       6.27438898      11.86233683
Cu      13.34165450      13.52846122       4.53954430
Cu      13.66569841      13.60611946      11.78282971
Cu       3.01438170       0.84026020       6.45714912
Cu       3.28023544       0.71540500      13.70124947
Cu       2.72171599       8.05244553       6.19043019
Cu       3.21896004       8.13590614      13.60176851
Cu      10.02985393       0.83893173       6.32405754
Cu      10.41405550       0.81397816      13.70703778
Cu      10.01118863       8.13521648       6.38436664
Cu      10.28914803       8.07073546      13.64747030
Cu       1.10615789       0.86041070       4.57082727
Cu       1.42000091       0.91739222      11.85334862
Cu       0.89714560       8.02544585       4.58128434
Cu       1.27739718       8.11550113      11.78572067
Cu       8.61536341       0.87325170      11.81522274
Cu       8.06387203       8.13075442       4.49757701
Cu       8.39765664       8.02347256      11.78561538
Cu       6.13434663       2.71559028       0.89864753
Cu       6.61503778       2.69062234       8.21750442
Cu       6.08915434       9.88369404       0.90116466
Cu       6.50032307       9.87262690       8.19020185
Cu      13.40077540       2.62424438       0.85000293
Cu      13.76406902       2.54948354       8.08507625
Cu      13.23453687       9.90063048       0.93519609
Cu      13.58219108       9.78455906       8.18101774
Cu       1.08553601       2.76346956       6.41849392
Cu       1.42323385       2.62685791      13.54419114
Cu       0.98084767       9.89546722       6.30503326
Cu       1.30928169       9.93827941      13.67728537
Cu       8.29701464       2.62211955       6.41193501
Cu       8.68554513       2.58965283      13.57481563
Cu       8.18720582       9.85198084       6.31855399
Cu       8.53139768       9.85899923      13.78284993
Cu       4.51888474       0.92390287       0.93714595
Cu       4.79033214       0.86537161       8.17583953
Cu       4.35769016       8.13782125       0.96238028
Cu       4.63816795       8.08397666       8.15359917
Cu      11.70410594       0.92634270       0.85011323
Cu      11.95062890       0.83441834       8.08746162
Cu      11.53577844       8.23507969       0.97517801
Cu      11.86326917       8.07470769       8.15939297
