191
Lattice="14.216459368301757 0.11936669908122771 0.01978400159803298 -0.47416095124317764 14.181857890946118 -0.09993395984120662 0.35271591697058347 -0.06797368975085397 14.265576202881869" Properties=species:S:1:pos:R:3 pbc="T T T"
Mg       3.70585187       0.00854268       3.54402611
Mg       3.75840904       0.03924241      10.65876899
Mg       3.42802698       7.23045897       3.53097055
Mg       3.58742489       7.06321864      10.59824080
Mg      10.72842215       0.15129765       3.56418911
Mg      10.92583815       0.09408210      10.71093603
Mg      10.49873807       7.08693947       3.48832831
Cu      10.65189592       7.11434777      10.61811862
Mg       1.70529657       1.76686163       1.79319310
Mg       1.90165117       1.71155522       8.92254238
Mg       1.51173007       8.85744962       1.77985048
Mg       1.78678603       8.82860154       8.90296836
Mg       8.83497594       1.79589097       1.80287307
Mg       9.02937911       1.83180295       8.85459285
Mg       8.62869972       8.92996089       1.68811154
Mg       8.79154322       8.87051602       8.81901064
Mg       0.00723307       0.04086896      -0.05077491
Mg       0.16276539       0.00400293       7.08104333
Mg      -0.29843791       7.05476457      -0.06569380
Mg      -0.02966523       7.06528825       7.03968762
Cu       7.20282984       0.12394888       0.10381979
Mg       7.25177898       0.03702834       7.11562544
Mg       6.87818535       7.15115069      -0.10659156
Mg       7.00998562       7.17759693       7.08226908
Mg       1.82801623       5.30173612       5.25199588
Mg       1.83188072       5.31514235      12.45826873
Mg       1.47546627      12.37947964       5.20194745
Mg       1.66074223      12.41450509      12.40094056
Mg       8.83098631       5.36254924       5.39750632
Mg       9.02918049       5.32206958      12.46826358
Mg       8.52320433      12.45030870       5.30070162
Mg       8.74988948      12.43565039      12.36503891
Mg       5.34779522       1.76727874       5.29985231
Mg       5.53865696       1.80634800      12.43849892
Mg       5.18427292       8.86854436       5.25951762
Mg       5.35610549       8.82781601      12.37976064
Mg      12.57263898       1.82283916       5.32463075
Mg      12.71928603       1.89680859      12.43079195
Mg      12.33342456       8.86912897       5.29001114
Mg      12.57549291       8.96191685      12.46118795
Mg       0.00569802       3.47444793       3.49801335
Mg       0.29312059       3.38384055      10.56482130
Mg      -0.28696975      10.68845641       3.56415863
Mg      -0.07533833      10.62999481      10.54812229
Cu       7.06647040       3.58609049       3.50242936
Mg       7.21021771       3.51724316      10.65509679
Mg       6.87872351      10.63934743       3.46928899
Mg       6.97593807      10.70378742      10.68033981
Mg       3.51669226       3.60706851      -0.04879885
Mg       3.54634101       3.53775390       7.16076634
Mg       3.18436382      10.68054951      -0.07834029
Mg       3.35607642      10.61557065       7.03558413
Cu      10.67852525       3.69723290      -0.01477672
Mg      10.74937948       3.56301989       6.98740759
Mg      10.35716698      10.63050349      -0.07321416
Mg      10.48396630      10.71680076       7.11489349
Mg       5.21584745       5.41276780       1.71409277
Mg       5.30915987       5.27979459       8.84751268
Mg       4.94123019      12.45610201       1.76323704
Mg       5.15432644      12.46445421       8.89826555
Mg      12.29231208       5.50986021       1.76125408
Mg      12.48029891       5.37501342       8.89088329
Mg      12.02420725      12.49294493       1.67014129
Mg      12.24319483      12.57216033       8.92532495
Cu       6.28535684       4.44161801       6.08510184
Cu       6.45867170       4.50635501      13.37964065
Cu       6.07294424      11.58281992       6.23382709
Cu       6.12003606      11.50025943      13.18903042
Cu      13.36939166       4.57220503       6.30195909
Cu      13.55110981       4.33929422      13.40926158
Cu      13.13850244      11.58293981       6.13303902
Cu      13.22450068      11.55895829      13.28981306
Cu       4.38505708       6.26790600       6.20213184
Cu       4.54455782       6.19084284      13.31335342
Cu       4.07463567      13.25170684       6.17003127
Cu       4.35046619      13.35565571      13.27887334
Cu      11.52465570       6.28493535       6.23760212
Mg      11.69009582       6.23225765      13.30617692
Cu      11.18769677      13.39019661       6.17988753
Cu      11.52150610      13.27505730      13.29305668
Cu       2.66074588       2.62193553       4.43654357
Cu       2.83719334       2.65240583      11.55974652
Cu       2.39450541       9.73726624       4.42529566
Cu       2.56750626       9.79416719      11.56294190
Cu       9.84107021       2.74071030       4.41559417
Cu       9.94377654       2.66487006      11.64067663
Cu       9.68278304       9.87590605       4.49325050
Cu       9.74460095       9.83433966      11.58972575
Cu       6.26204439       0.99084376       2.71226944
Mg       6.43471646       0.95260698       9.80810592
Cu       6.04913841       8.02304083       2.62817789
Cu       6.16830688       7.93985990       9.84098524
Cu      13.31726331       1.13318691       2.66967975
Cu      13.54114451       1.01088980       9.73842750
Cu      13.07734181       8.04917035       2.62504134
Cu      13.41079008       8.04099882       9.73621092
Cu       0.80598026       4.52118569       0.86482943
Cu       0.82807118       4.39949977       8.02926492
Cu       0.49292225      11.49089283       0.75626470
Mg       0.72837061      11.46164857       7.96264518
Cu       7.86617043       4.40782920       0.88078700
Cu       8.05277576       4.50503032       8.04681465
Cu       7.72298221      11.59786240       0.80050960
Cu       7.74569674      11.55013225       7.95187280
Cu       4.43437249       4.39810600       4.43531590
Cu       4.57831797       4.44326572      11.47783146
Cu       4.17954236      11.54588342       4.33977698
Cu       4.30027839      11.55363710      11.57727645
Cu      11.56575631       4.38477850       4.48055443
Cu      11.73770698       4.54306638      11.57038855
Cu      11.23896218      11.72455864       4.41475653
Cu      11.46774386      11.59756494      11.52772173
Cu       0.81675323       6.11789440       2.67058553
Cu       0.89392426       6.22734101       9.72975522
Cu       0.57657109      13.22116869       2.56415193
Cu       0.64717302      13.29304531       9.79323955
Cu       8.12214817       6.21413675       9.72940037
Cu       7.63354369      13.43974940       2.50660468
Cu       7.77260342      13.33229082       9.74405137
Cu       2.46407050       6.23752064       0.83078328
Cu       2.64974138       6.07102186       7.95451444
Cu       2.33816711      13.27515807       0.77957859
Cu       2.42321858      13.24256049       7.96628378
Cu       9.63935046       6.18119847       0.85024042
Cu       9.74807631       6.28897807       8.08833061
Cu       9.33212717      13.45436719       0.78109642
Cu       9.45778165      13.30228552       8.01855369
Cu       2.56724800       4.41936752       2.67155283
Cu       2.75108160       4.39186373       9.83889868
Cu       2.31449563      11.53722705       2.62290867
Cu       2.53397831      11.52850115       9.67186204
Cu       9.71289951       4.47997489       2.68156461
Cu       9.83720678       4.47365672       9.80581407
Cu       9.47163677      11.62250157       2.65928949
Cu       9.61258447      11.52996296       9.70941975
Cu       4.45252686       2.64928088       2.63224696
Cu       4.67894065       2.66569987       9.75381837
Cu       4.18247539       9.79741008       2.65018396
Cu       4.38538157       9.73100435       9.83192325
Cu      11.50195603       2.73987165       2.70807974
Cu      11.67870822       2.63995470       9.84708264
Cu      11.26031352       9.83529406       2.62939894
Cu      11.57845456       9.88186741       9.73888346
Cu       6.12719354       6.25654853       4.42911915
Cu       6.26792244       6.28914922      11.47443286
Cu       6.00683116      13.34604192       4.40279049
Cu       6.06591382      13.30056146      11.50447248
Cu      13.22386255       6.22968390       4.37286310
Cu      13.44161972       6.26374746      11.59583547
Cu      12.99571558      13.35738423       4.40974255
Cu      13.17490237      13.35263341      11.50761773
Cu       2.78707561       0.92035237       6.19372650
Cu       3.12323427       0.82802333      13.52811804
Cu       2.53676839       8.04851409       6.15189877
Cu       2.71616471       7.94309280      13.37904091
Cu       9.89366722       0.92138329       6.35315932
Cu      10.11720452       0.94702796      13.38891397
Cu       9.61430235       7.99945612       6.12846598
Cu       9.77820439       8.03345399      13.35664080
Mg       1.04868607       0.80929405       4.46190478
Cu       1.15880990       0.80099419      11.50051511
Cu       0.75272900       7.98091402       4.37146438
Cu       0.99527243       7.95817214      11.51541117
Cu       8.06823054       0.91159064       4.48060856
Cu       8.31491417       0.83447791      11.55884551
Cu       7.77623448       7.94080729       4.46706709
Cu       8.05868834       8.04422108      11.56090732
Cu       6.14612390       2.67925185       0.92773799
Cu       6.32988230       2.58996583       7.98407720
Cu       5.93103402       9.84647599       0.81666285
Cu       6.09382667       9.73565393       7.86956446
Cu      13.33187150       2.83693567       0.88511573
Cu      13.44701584       2.71716296       7.97911673
Cu      13.01316749       9.91563666       0.80403834
Cu      13.26594461       9.88906136       7.92196845
Cu       0.99370642       2.62401295       6.25308515
Cu       1.15451441       2.58473340      13.37498066
Cu       0.72253433       9.76936460       6.21316509
Cu       0.87793839       9.67744699      13.22745646
Cu       8.07535358       2.74281596       6.19982160
Cu       8.20026693       2.72184589      13.35923374
Cu       7.80429364       9.86775523       6.24762603
Cu       7.94322031       9.77588040      13.33508104
Cu       4.40215870       1.03682740       0.93986006
Cu       4.65403543       0.97588124       8.04048622
Cu       4.20543336       8.03738952       0.93043546
Cu       4.32630155       8.00826703       8.04437908
Cu      11.52033628       0.96488721       0.88654901
Cu      11.68948876       0.86807298       8.02684482
Cu      11.27035032       7.99705063       0.87087331
Cu      11.53938317       8.02736532       8.02353112
