189
Lattice="14.371769627210089 0.20325279758363252 -0.025940257934751146 -0.37004767358857543 14.312793189903616 -0.16050810917950234 -0.0770233321636081 0.4005987602360854 14.357122749660205" Properties=species:S:1:pos:R:3 pbc="T T T"
Mg       3.60903418       0.22208707       3.60356094
Mg       3.53234772       0.38560524      10.73259065
Mg       3.46229794       7.27623160       3.51957022
Mg       3.30007006       7.48552999      10.76605120
Mg      10.82044137       0.29766316       3.50433042
Mg      10.67302072       0.48699126      10.76550244
Mg      10.56731943       7.40787108       3.38444825
Mg      10.58313234       7.54193419      10.67631163
Mg       1.75504387       1.86984957       1.74937804
Mg       1.74266199       2.06785040       8.92080069
Mg       1.53856611       9.00725836       1.66236037
Mg       1.54358930       9.22156037       8.88508281
Mg       8.94485763       2.01861311       1.72910200
Mg       8.81010180       2.19568872       8.91057428
Mg       8.81788195       9.16273912       1.75708445
Mg       8.71567223       9.31193715       8.81912159
Mg      -0.10408520       0.20743709       7.17611234
Mg      -0.19947676       7.21953302      -0.15784769
Mg      -0.28357994       7.32831084       7.08803015
Mg       7.13299957       0.09190695      -0.02376365
Mg       7.09311512       0.37019509       7.11416350
Mg       6.97755015       7.23398783      -0.07226429
Mg       6.97597343       7.48842109       7.04548496
Mg       1.62104001       5.55502305       5.32986408
Mg       1.56791088       5.75391657      12.56678002
Mg       1.45639792      12.74766941       5.28691931
Mg       1.35057059      12.96674824      12.47846645
Mg       8.82251586       5.69143650       5.39913172
Mg       8.79029732       5.92434994      12.53711755
Mg       8.70220595      12.71483081       5.21753414
Mg       8.59401150      13.02423008      12.37140320
Mg       5.31453026       2.09733867       5.32606034
Mg       5.25532705       2.23087127      12.55047872
Mg       5.15398045       9.16691304       5.30530627
Mg       5.16526091       9.35352249      12.49957667
Mg      12.46400350       2.01663954       5.31811042
Mg      12.48511948       2.31192367      12.52126333
Mg      12.31687168       9.27112610       5.30496003
Mg      12.27131786       9.48432186      12.38794448
Mg      -0.07823816       3.68656297       3.48065086
Mg      -0.15952888       3.83579077      10.72675817
Mg      -0.27605911      10.84062676       3.42803610
Mg       7.02140411       3.75128906       3.50951239
Mg       7.04311805       3.94062912      10.78918379
Mg       6.84813605      10.86415900       3.46937930
Mg       6.84784117      11.02339645      10.60804757
Mg       3.50686721       3.69614911      -0.06425158
Mg       3.45558796       3.79098755       7.07712731
Mg       3.32309543      10.75882533      -0.07701028
Mg       3.23345704      10.99039009       7.02831728
Mg      10.59960616       3.65907246      -0.01879997
Mg      10.65886922       3.90459012       7.06436755
Cu      10.46397083      10.82304149      -0.17424481
Mg      10.34489266      11.09482468       7.10369241
Mg       5.14746503       5.48376764       1.65788049
Mg       5.18705930       5.69172678       8.86971967
Mg       5.03279924      12.62912872       1.59086427
Mg       5.05931383      12.95886195       8.80607454
Mg      12.36773907       5.60571080       1.74541562
Mg      12.27192664       5.83323973       8.80939595
Mg      12.21650597      12.72137032       1.65015647
Mg      12.16992107      12.93782506       8.82747249
Cu       6.05216119       4.70275575       6.16866987
Cu       6.10532751       4.84772453      13.37237640
Cu       5.98359276      11.95158384       6.25048406
Cu       5.89571543      12.04100716      13.29016479
Cu      13.35173624       4.77847038       6.20709764
Cu      13.28859200       5.02223635      13.29246161
Cu      13.19792389      11.94983508       6.07200578
Cu      13.12961414      12.17908029      13.35080383
Cu       4.32722064       6.50050934       6.17449433
Cu       4.23248564       6.66272770      13.27930591
Cu       4.10999845      13.56987180       6.08356603
Cu       3.98169183      13.81100166      13.33220126
Cu      11.50123017       6.59220745       6.14867831
Cu      11.45062120       6.74853297      13.32302867
Cu      11.30680778      13.78285321       6.13609250
Cu      11.23708874      13.94757215      13.30991072
Cu       2.58898600       2.75130747       4.41825387
Cu       2.51600446       3.09591395      11.60702562
Cu       2.47052881      10.01198002       4.33114874
Cu       2.40448840      10.14878234      11.57212272
Cu       9.79008062       2.90752363       4.42613095
Cu       9.85856498       3.23065318      11.63889568
Cu       9.60373490      10.07921752       4.42396342
Cu       9.57311090      10.26958639      11.60331697
Cu       6.28242953       1.02609820       2.62947921
Cu       6.20969258       1.38713947       9.85806222
Cu       6.02925188       8.15525645       2.60606429
Cu       6.01873207       8.47047235       9.73821166
Cu      13.50397098       1.20527838       2.63184655
Cu      13.39412644       1.33159915       9.80011652
Cu      13.28996157       8.36012490       2.63881916
Cu      13.32981899       8.51129898       9.72861462
Cu       0.90628215       4.54758323       0.88518477
Cu       0.70444769       4.61992234       8.07335712
Cu       0.57965026      11.66797604       0.74008813
Cu       0.50737979      11.89021521       7.91990451
Cu       7.96945873       4.67650552       0.83003994
Cu       8.02026155       4.84402349       7.98438310
Cu       7.76131722      11.71125621       0.70703427
Cu       7.78456536      11.98038946       7.88374408
Cu       4.33256807       4.71389897       4.48087594
Cu       4.33704028       4.76997506      11.56313934
Cu       4.15447445      11.82237810       4.35032595
Cu       4.06038178      12.00038936      11.65122090
Cu      11.61655104       4.77683580       4.49767730
Cu      11.47522087       4.97611034      11.61326635
Cu      11.38699393      11.91136392       4.27316668
Cu      11.34493352      12.12047826      11.52665309
Cu       0.71895534       6.37425852       2.67098105
Cu       0.63796486       6.65179334       9.82239230
Cu       0.50831261      13.60522821       2.52433723
Cu       0.47692433      13.65222384       9.67528346
Cu       7.92018816       6.37205308       2.57207288
Cu       7.84971908       6.57926077       9.73079122
Cu       7.64269322      13.67403147       2.47843188
Cu       7.72829684      13.81885869       9.64651793
Cu       2.51479531       6.35610298       0.84186861
Cu       2.46308546       6.50059652       7.98324713
Cu       2.32029715      13.46858853       0.86056513
Cu       2.23755848      13.63780713       7.90553055
Cu       9.68211522       6.39062398       0.81163126
Cu       9.71926778       6.64580683       7.97768793
Cu       9.53974656      13.64054648       0.69103040
Cu       9.52755536      13.79480677       7.83691033
Cu       2.68426168       4.68296214       2.58496646
Cu       2.54952416       4.74311011       9.80708127
Cu       2.40833796      11.62256188       2.66617599
Cu       2.42144853      11.94178823       9.77707593
Cu       9.66945594       4.67996844       2.57267588
Cu       9.66692340       4.81559561       9.82578876
Cu       9.54525817      11.86283894       2.53206883
Cu       9.53838038      12.04511035       9.76358166
Mg       4.41358274       2.86549595       2.71651879
Cu       4.32235703       3.04046614       9.76665442
Cu       4.19632410       9.92922525       2.57217866
Cu       4.22159161      10.10488943       9.66710501
Cu      11.64152330       2.86327750       2.60945443
Cu      11.58444298       3.09903646       9.81073270
Cu      11.28520726      10.16577987       2.56016900
Cu      11.44759949      10.25709117       9.68021657
Cu       6.03503397       6.46450789       4.36868980
Cu       6.05332403       6.65268656      11.57404370
Cu       5.94726321      13.65465885       4.31965223
Cu       5.90511770      13.89018075      11.56981867
Cu      13.30623472       6.59991461       4.33806524
Cu      13.17183116       6.79564385      11.56796688
Cu      13.12697854      13.77120669       4.41657770
Cu      13.09710130      13.93808031      11.48676395
Cu       2.64534539       1.12473066       6.25924682
Cu       2.56099292       1.32318311      13.44617520
Cu       2.41421454       8.23300223       6.23732435
Cu       2.42295474       8.46345010      13.38172952
Cu       9.75443220       1.23847057       6.30445346
Cu       9.82824863       1.36456209      13.49322556
Cu       9.60056629       8.42954572       6.14362385
Cu       9.50421977       8.57484612      13.27835570
Cu       0.87403556       1.05732043       4.51793961
Cu       0.79663063       1.26072662      11.59081004
Cu       0.70379694       8.22770697       4.38082404
Cu       0.62789006       8.41526898      11.49542324
Cu       8.07538967       1.19578739       4.46475945
Cu       8.00496314       1.34045761      11.58540825
Cu       7.86887625       8.31841378       4.38014820
Cu       7.81037523       8.54705348      11.49919713
Cu       6.17347688       2.80673374       0.81672944
Cu       6.20443758       2.97446676       8.12299473
Cu       5.96676101      10.01486299       0.81421040
Cu       5.91721385      10.16350003       7.90498435
Cu      13.41400429       2.82955153       0.81499121
Cu      13.28899244       3.13025955       8.01984247
Cu      13.14783392      10.08899072       0.76067508
Cu      13.16038167      10.20383499       7.93181282
Cu       0.86400259       2.92211572       6.29813975
Cu       0.79481378       3.10209228      13.40234716
Cu       0.64844113      10.01090677       6.19678286
Mg       0.58563085      10.24306674      13.34290702
Cu       7.97494674       2.95995888       6.16850785
Cu       7.94053924       3.13301643      13.37035033
Cu       7.76744308      10.14767664       6.15744311
Cu       7.82624910      10.27497978      13.28074195
Cu       4.46801660       1.15929179       8.01059363
Cu       4.28621677       8.09461643       0.74846909
Cu       4.22907577       8.41896210       8.05551127
Cu      11.67012065       1.05672764       0.97701543
Cu      11.66901059       1.29815887       7.98609502
Cu      11.40940438       8.24819301       0.77099797
Cu      11.42933874       8.38524785       8.01125918
