190
Lattice="14.099667997450226 -0.46493187637524 0.06380528440866502 -0.7078891375282746 13.894830087764767 0.471943702496255 -0.3101458994064253 0.43280284170409167 14.399271964973016" Properties=species:S:1:pos:R:3 pbc="T T T"
Mg       3.47101076       0.03067179       3.58958020
Mg       3.28612231       0.25675729      10.82679660
Mg       3.11916721       6.98243547       3.87231017
Mg       2.96821647       7.11584769      11.02571022
Mg      10.54135575      -0.18928679       3.64614169
Mg      10.29932131      -0.01811728      10.86752036
Cu      10.17385621       6.75420925       3.87410249
Mg       9.98717683       6.92952803      11.10654001
Mg       1.66735396       1.78208296       1.84230992
Mg       1.58219878       1.90468128       9.11108658
Mg       1.27331756       8.63695121       2.09172854
Mg       1.07867648       8.98009357       9.24011579
Mg       8.79735827       1.46522584       1.84981507
Mg       8.52013519       1.71466006       9.07971371
Mg       8.36131762       8.37580164       2.11353907
Mg      -0.07302031      -0.00242952       0.07575888
Mg      -0.09635044       0.14594846       7.12679223
Mg      -0.33569297       6.84444658       0.23260604
Mg      -0.54193511       7.21823080       7.38703644
Mg       7.07547052      -0.26400808       0.02862522
Mg       6.92832829       0.06791629       7.24376255
Mg       6.66474916       6.73663733       0.26398275
Mg       6.59313992       6.92116551       7.46579119
Cu       1.39852074       5.36267168       5.57888856
Mg       1.19321396       5.54406114      12.74392753
Mg       1.08358804      12.22352531       5.85523093
Mg       0.84806877      12.43951378      13.10051156
Cu       8.44406251       5.02249204       5.58455381
Mg       8.31394648       5.26350297      12.66067369
Mg       8.02663507      12.02439099       5.86746523
Mg       7.95842834      12.15581763      13.11888164
Mg       5.02269857       1.69980563       5.55425336
Mg       4.94991530       1.87032453      12.62770594
Mg       4.73514031       8.65306104       5.72880310
Mg       4.56789782       8.93198120      12.90951928
Mg      12.17678991       1.45103802       5.65774629
Mg      11.97145605       1.66461777      12.70324433
Mg      11.84244921       8.42398721       5.70522236
Mg      11.59178038       8.69455718      12.94599161
Mg      -0.40553675       3.61310801       3.73779954
Mg      -0.40187772       3.81356409      10.96227987
Mg      -0.65695139      10.49662204       3.92703551
Mg      -0.73748257      10.82558564      11.06473286
Mg       6.74291461       3.38678553       3.72179114
Cu       6.61094261       3.57426419      10.99424019
Mg       6.42371175      10.29673964       3.96043786
Mg       6.30995351      10.46320909      11.11497626
Mg       3.31900386       3.38479232       0.19752282
Mg       3.15574346       3.53819406       7.43619435
Mg       2.99581432      10.34191957       0.42216638
Mg       2.82441933      10.52254899       7.45745742
Mg      10.48814568       3.13586830       0.20985991
Mg      10.31087688       3.34627450       7.39368833
Mg      10.07729366      10.05393238       0.38067447
Mg       9.91435979      10.37671938       7.51364615
Mg       4.99716992       5.13919685       1.89800552
Mg       4.76137445       5.35851933       9.18297356
Mg       4.64350408      12.05305969       2.20751537
Mg       4.42003504      12.30702460       9.44887819
Mg      11.98324871       4.79788942       2.07077609
Mg      11.89952004       4.97512691       9.26679284
Cu      11.71821315      11.75345303       2.26897532
Mg      11.60800324      11.97889573       9.40799464
Cu       5.70780177       4.31261746       6.52768984
Cu       5.67440622       4.54253858      13.69574371
Cu       5.47965285      11.31520407       6.62318478
Cu       5.29085243      11.48378756      13.88622537
Cu      12.87772697       4.10289792       6.53730492
Cu      12.61862031       4.34488161      13.64699046
Cu      12.49522490      11.00964386       6.66396207
Cu      12.30939994      11.24356547      13.94794133
Cu       4.06916826       6.00008521       6.43313734
Cu       3.86769818       6.35646366      13.66338583
Cu       3.61319622      13.08141424       6.77163730
Cu       3.46161497      13.24299712      14.03059357
Cu      10.91599449       5.86152037       6.48933052
Mg      10.80274615       6.09406096      13.85973701
Cu      10.70536155      12.90802464       6.76267968
Cu      10.53431854      13.09452377      13.97656540
Cu       2.50953461       2.68009407       4.60853822
Cu       2.25726293       2.88172453      11.92651796
Cu       2.05232854       9.57855985       4.81806812
Cu       1.93495452       9.87003887      11.95481443
Cu       9.56869469       2.43878898       4.62585709
Cu       9.25293465       2.64707492      11.83532541
Cu       8.97988850       9.29823637       4.86630371
Cu       9.04098706       9.67500468      11.99420109
Cu       6.13066033       0.70002607       2.75229091
Cu       5.86567067       0.90209638       9.96127851
Cu       5.71249399       7.73269232       3.10132100
Cu       5.52679824       7.92013710      10.17984738
Cu      13.03322121       0.50007324       2.85900932
Cu      12.92640249       0.73963374       9.94047697
Cu      12.69151066       7.44074115       2.99245265
Cu      12.59413057       7.67974046      10.26867298
Cu       0.61526133       4.33523220       0.92526619
Cu       0.47562684       4.55640914       8.21982914
Cu       0.39763377      11.25660921       1.29846505
Cu       0.13443899      11.40348263       8.46298309
Cu       7.68872804       4.14342007       1.10387593
Cu       7.51404932       4.30185780       8.24581052
Cu       7.35927078      11.07605400       1.41348098
Cu       7.20224145      11.24262226       8.55627338
Cu       4.05389760       4.38039892       4.54656330
Cu       3.95215512       4.51661783      11.94002885
Cu       3.70260973      11.26484659       4.95984878
Cu       3.63455489      11.48036432      12.03791541
Cu      11.15742947       4.02095383       4.72064899
Cu      10.97899769       4.34160502      11.89907905
Cu      10.89872871      11.03228588       4.90255695
Cu      10.57725883      11.23460212      12.10230957
Cu       0.53939403       6.09386356       2.97200712
Cu       0.30710110       6.38909873      10.14947379
Cu       0.20208532      13.12913088       3.18570442
Cu       0.06876738      13.32088833      10.45833158
Cu       7.66604173       5.95735540       2.93022445
Cu       7.39469627       6.11470888      10.21764430
Cu       7.23582881      12.79383441       3.17334328
Cu       7.01043058      13.03762459      10.44170188
Cu       2.26849257       5.97585498       1.14364362
Cu       2.17427374       6.18103186       8.19122991
Cu       1.92555600      12.93316558       1.31590715
Cu       1.69026430      13.24102778       8.51138826
Cu       9.46631410       5.86382064       1.16461792
Cu       9.24381241       6.04768916       8.39592632
Cu       9.01408285      12.66856725       1.37269726
Cu       8.89529272      13.02326316       8.61571021
Cu       2.27924271       4.40130949       2.86278692
Cu       2.20996906       4.64140403      10.01029904
Cu       1.97311084      11.24304084       3.07867484
Cu       1.83972354      11.54416012      10.31602088
Cu       9.44659636       4.18740636       2.80715509
Cu       9.28357133       4.25920663      10.09874608
Cu       9.02661636      11.02925307       3.08834772
Cu       8.93012596      11.26187682      10.33627804
Cu       4.23318253       2.66145007       2.86371161
Cu       4.17190714       2.75016340       9.98695474
Cu       3.84444474       9.47629720       3.02804632
Mg       3.71572957       9.67838217      10.22959501
Cu      11.27813661       2.31744245       2.89657114
Cu      11.09777872       2.59478434      10.07217495
Cu      10.94118929       9.24533056       3.11498468
Cu      10.69332577       9.52752996      10.18199108
Cu       5.66005131       6.11367282       4.63965748
Cu       5.53668151       6.25500953      11.93703601
Cu       5.39588678      12.99710613       5.04333314
Cu       5.19210511      13.23736447      12.18982931
Cu      12.80805954       5.67217222       4.71329279
Cu      12.58633341       5.96700145      11.99917701
Cu      12.39122806      12.75371266       4.99747451
Mg      12.31200870      12.91997533      12.20841723
Cu       2.43764913       0.97769485       6.33602145
Cu       2.27141703       1.20950391      13.52276072
Cu       2.03119189       8.01969718       6.55094877
Cu       2.06741515       8.05212402      13.79213767
Cu       9.56569145       0.74458548       6.28099143
Cu       9.41525419       0.94736386      13.66089883
Cu       9.19499994       7.80901610       6.68701853
Cu       9.00157284       7.87597512      13.81756891
Cu       0.82602205       0.99069619       4.50050464
Cu       0.56519909       1.24793467      11.76703184
Cu       0.36613264       7.95641092       4.83039083
Cu       0.20730729       8.14893911      12.01160063
Cu       7.78145304       0.64400828       4.60924153
Cu       7.56709988       0.99664893      11.69415716
Cu       7.44897758       7.65680623       4.71035705
Cu       7.25145116       7.87299989      11.96447773
Cu       5.99261650       2.40089942       1.07701142
Cu       5.88949936       2.62054302       8.19533955
Mg       5.62180793       9.34750889       1.22022838
Cu       5.49695456       9.53658081       8.49719972
Cu      13.14605872       2.29397999       0.98956594
Cu      12.97485177       2.46874127       8.30276508
Cu      12.72016572       9.11444852       1.30300530
Cu      12.51374844       9.30682834       8.44827942
Cu       0.38180660       2.94110075      13.58940002
Cu       0.29721205       9.74046933       6.63601905
Cu       0.10934247       9.88454915      13.81158051
Cu       7.69672287       2.62055081       6.34413325
Cu       7.47141340       2.81591315      13.61722698
Cu       7.32391077       9.44406109       6.62551425
Cu       7.13336764       9.74860727      13.81306015
Cu       4.25982081       0.64115255       0.93946644
Cu       4.10821612       0.95741667       8.12668763
Cu       4.02566181       7.72358498       1.17595625
Cu       3.82913210       7.94460227       8.34809912
Cu      11.39754588       0.46872776       0.96595505
Mg      11.26786586       0.78192799       8.06359004
Cu      11.08956807       7.41158981       1.23773130
Cu      10.84073461       7.65127836       8.42734472
