190
Lattice="14.182975836548836 0.205116295325943 -0.173064754008391 0.33211157311888667 13.97437514900439 0.11657770279178523 -0.002409579755252314 -0.4181693528954322 14.837717847395512" Properties=species:S:1:pos:R:3 pbc="T T T"
Mg       3.54440409       0.01311907       3.62995122
Mg       3.51161773      -0.25200840      11.02770788
Mg       3.72444370       6.96982564       3.72645647
Mg       3.82952808       6.69202922      11.26453723
Mg      10.55706369       0.04414390       3.60713690
Mg      10.75207155      -0.05440580      10.94850902
Mg      10.85402484       7.07125825       3.68071393
Mg      10.84192526       6.77725979      11.00452912
Mg       1.77705694       1.74432941       1.73427971
Mg       1.86471168       1.41644395       9.20652768
Mg       1.98046449       8.67016734       1.92389668
Mg       1.94094182       8.46281531       9.25241845
Mg       8.83832944       1.82962711       1.72962727
Mg       8.85379187       1.63008006       9.12383395
Mg       9.06826593       8.76366522       1.87554808
Mg       9.18065763       8.61836583       9.29183473
Mg       0.03409090       0.00442552      -0.00973405
Mg       0.07276913      -0.19942306       7.37687288
Mg       0.14853915       6.97931498       0.09546272
Mg       0.14620206       6.81462828       7.42147554
Mg       7.17656079       0.12484232      -0.09505425
Mg       6.98486373      -0.17076355       7.28501500
Mg       7.32786979       7.11564020      -0.03409685
Mg       7.23603445       6.94121271       7.45614797
Mg       1.89819452       5.05323522       5.62340495
Mg       1.78973127       4.74385225      13.02787989
Mg       2.14422845      12.18336455       5.71695815
Mg       2.14161931      11.92359635      13.06849477
Mg       8.99097216       5.17199152       5.52453180
Mg       9.00236120       4.98777499      12.96025830
Cu       9.19041650      12.29970682       5.59896540
Mg       9.12851010      12.05010741      12.99052420
Cu       5.43319599       1.62118424       5.47879365
Mg       5.31213091       1.49286761      12.90039674
Mg       5.49735425       8.63385933       5.63090710
Mg       5.50782496       8.43082644      13.00807449
Mg      12.50460844       1.68731801       5.45006113
Mg      12.42079761       1.59902532      12.85712217
Mg      12.65028220       8.61375542       5.57162868
Cu      12.63032607       8.47412696      12.81418825
Mg       0.15529802       3.43491343       3.73759640
Mg       0.05868995       3.15976714      11.24438143
Mg       0.18695527      10.34701910       3.72687506
Mg       0.22574633      10.18031960      11.18465621
Cu       7.21149345       3.54829734       3.64746359
Mg       7.16521383       3.24379897      11.15271400
Mg       7.33733029      10.50609057       3.68082857
Mg       7.18316773      10.25638375      11.21092425
Mg       3.65015397       3.50385028      -0.08260797
Mg       3.58257342       3.34282549       7.37197724
Mg       3.78044641      10.31723212       7.52535472
Mg      10.79149091       3.61950895      -0.05742909
Mg      10.77943685       3.46110097       7.27346910
Mg      10.90491090      10.59400024       0.00437191
Mg      10.96850695      10.40660102       7.35875960
Mg       5.47194836       5.26523855       1.88324538
Mg       5.41757864       5.04082776       9.35042689
Mg       5.62563810      12.21275380       1.88357333
Cu       5.63061565      12.10452999       9.27276463
Mg      12.48881242       5.45911188       1.74727601
Mg      12.50991921       5.13228169       9.15350370
Cu      12.70476821      12.34279877       1.75734296
Mg      12.78057689      12.08332729       9.20867251
Cu       6.31492022       4.24668009       6.50019412
Cu       6.25390961       4.09078405      13.95039418
Cu       6.51622466      11.26221706       6.58778593
Cu       6.49508874      11.02659897      13.86956532
Cu      13.37832449       4.41690267       6.37721180
Cu      13.35023910       4.17531600      13.73338340
Cu      13.56796443      11.28167088       6.39516113
Cu      13.56613097      11.19550386      13.88637862
Cu       4.59396015       5.99307175       6.47382399
Cu       4.60235237       5.77563496      13.87553367
Cu       4.81009869      12.88147636       6.56404157
Cu       4.73118100      12.70894014      14.03244949
Cu      11.68952168       6.10299484       6.31107844
Cu      11.67849036       5.86467315      13.80403592
Cu      11.87874854      13.05571502       6.44581502
Cu      11.83876725      12.95463555      13.88538182
Cu       2.66916465       2.54822040       4.56151920
Mg       2.65376796       2.29647869      11.99279023
Cu       2.91177170       9.45674714       4.71837273
Cu       2.88258767       9.27045268      12.14705021
Cu       9.79441732       2.59645429       4.57963971
Cu       9.80137862       2.43552693      12.00070056
Cu      10.05090060       9.58301500       4.55200266
Cu       9.94330155       9.41997757      11.98426540
Cu       6.28778940       0.91163450       2.76619269
Cu       6.25984999       0.73826413      10.21706857
Cu       6.43794497       7.88077795       2.76728107
Cu       6.31766143       7.62838804      10.16639287
Cu      13.43744109       0.97260108       2.64559947
Cu      13.37836173       0.77921293      10.02625992
Cu      13.53622952       7.94371148       2.72031052
Cu      13.43235192       7.79436800      10.13492134
Cu       1.03696341       4.32614120       0.96842295
Cu       0.97652003       4.11231463       8.31677922
Cu       1.15782298      11.41390096       1.10063471
Cu       1.12477533      11.10179268       8.42133132
Cu       7.96032062       4.45616825       0.87054818
Cu       8.13891409       4.27447354       8.37037784
Cu       8.25181805      11.41063651       0.92001122
Cu       8.23228957      11.21615469       8.29831479
Cu       4.49930779       4.26277055       4.66313823
Cu       4.51083691       4.07705167      12.10706484
Cu       4.70737271      11.28556633       4.59745206
Cu       4.71287691      11.03660516      12.01487803
Cu      11.69938136       4.41461185       4.55819031
Cu      11.68674873       4.19257104      12.01706845
Cu      11.85583846      11.38555650       4.54914761
Cu      11.89234118      11.15369076      12.05779435
Cu       1.01040888       6.05274485       2.75355023
Cu       1.06641413       5.84111793      10.27895766
Cu       1.16456572      13.01673170       2.91237384
Cu       1.20436399      12.82812775      10.31584510
Cu       8.14285587       6.14998593       2.78842973
Cu       8.15311166       5.94804279      10.23092444
Cu       8.13726315      13.10898767       2.81202830
Cu       8.21322657      12.90435090      10.20410269
Cu       2.72134940       6.10749980       1.00048029
Cu       2.78805793       5.97759031       8.33683340
Cu       2.89997406      13.08213277       0.95405435
Mg       2.93417377      12.99818423       8.37567022
Cu       9.99073254       6.18262260       0.88521714
Cu       9.86140390       6.07036662       8.27958919
Cu      10.11456541      13.19006217       0.94411002
Cu       9.94084555      12.89713344       8.37616787
Cu       2.74461315       4.38771183       2.75831410
Cu       2.74146264       4.14678463      10.22291505
Cu       3.07029308      11.27258682       2.82195980
Mg       2.98906581      11.09233854      10.39578567
Cu       9.84008657       4.38886316       2.70336738
Cu      10.01338053      11.44786071       2.83608407
Cu       9.93881190      11.11444530      10.10670315
Cu       4.38613084       2.57297480       2.77129512
Cu       4.45950246       2.43330418      10.12561227
Cu       4.59093463       9.54394892       2.84963666
Cu       4.74898393       9.34869546      10.22739206
Cu      11.50617841       2.82432531       2.72091527
Cu      11.58033412       2.56246366      10.01237404
Cu      11.85961579       9.65232359       2.67479269
Cu      11.78733108       9.44615391      10.11384005
Cu       6.37567615       6.12216439       4.54623701
Mg       6.39930288       5.88212107      12.08077915
Cu       6.43520078      13.08309321       4.62564982
Cu       6.37630036      12.91356337      12.12798395
Mg      13.50797245       6.17896764       4.45804602
Cu      13.43499900       5.97711933      11.90646751
Mg      13.65311219      13.18311927       4.55724740
Cu      13.52850398      12.93779663      11.98086810
Cu       2.68561500       0.63673031       6.44876515
Cu       2.60762143       0.43252908      14.00882926
Cu       2.82332939       7.73560167       6.56682837
Cu       2.87594876       7.57331113      13.94740586
Cu       9.77563687       0.83579713       6.43142828
Cu       9.79026224       0.67218522      13.81291839
Cu       9.82585816       7.81556941       6.47226979
Cu       9.89269344       7.49929510      13.87378670
Cu       0.92909124       0.72816535       4.66627265
Cu       0.90808959       0.55077786      12.01155044
Cu       1.05302267       7.79466177       4.66959783
Cu       1.08204593       7.51398992      12.08046954
Cu       7.95957556       0.74770892       4.55507315
Cu       8.07116718       0.66110069      12.07031216
Cu       8.08471146       7.73718925       4.59009088
Cu       8.24296770       7.66013436      11.94299185
Cu       6.21312521       2.63651405       0.75565061
Cu       6.25856668       2.43505057       8.33480282
Cu       6.41655108       9.71046606       0.99212999
Cu       6.42896776       9.44000012       8.30820314
Cu      13.37118574       2.79167269       0.80570755
Cu      13.34498496       2.47330990       8.19453829
Cu      13.52849325       9.79089676       0.89237294
Cu      13.55411313       9.51960498       8.38459523
Cu       0.93661422       2.47595970       6.48484051
Cu       0.84694059       2.28313415      13.88843083
Cu       1.07669382       9.42679440       6.58107518
Cu       1.19650132       9.18964456      14.01105939
Cu       8.07958487       2.59402854       6.50623636
Cu       7.97666023       2.29081164      13.88764011
Cu       8.21668005       9.57249773       6.54174518
Cu       8.26057651       9.35637099      13.90658249
Cu       4.41191767       0.89682151       0.91296607
Cu       4.41254708       0.67058873       8.30744093
Cu       4.54752325       7.86180847       0.99485369
Cu       4.62266623       7.71968383       8.35921395
Cu      11.55289784       1.04426554       0.80768601
Cu      11.48865093       0.81239173       8.13945099
Cu      11.74949134       7.96780958       0.79376667
Cu      11.69538040       7.81541438       8.30857591
