191
Lattice="13.53335009553691 0.12815017183327518 -0.3779344937296704 0.020297797860766374 14.272811577936665 -0.059711334765239536 -0.31331469812673274 0.17642432566437782 13.71504058248138" Properties=species:S:1:pos:R:3 pbc="T T T"
Mg       3.38665556       0.10645464       3.36199272
Mg       3.06004257       0.25738157      10.18623451
Mg       3.34719294       7.25728976       3.32169151
Mg       3.18850432       7.30677263      10.16284814
Mg      10.15952365       0.14262659       3.12897645
Mg       9.86423224       0.14454263      10.13542070
Mg      10.09710825       7.36241016       3.15441959
Mg       9.82631108       7.34932867      10.00314952
Mg       1.71238100       1.81443960       1.67269774
Mg       1.51452019       1.88161017       8.50341729
Mg       1.60362023       8.91313467       1.54851185
Mg       1.59850187       9.02347264       8.53502311
Mg       8.44016155       1.91916417       1.53016935
Cu       8.33262317       2.00070962       8.42017961
Mg       8.42588621       9.05112409       1.38669410
Mg       8.20127705       9.03603636       8.19432468
Mg      -0.02726876       0.07481712      -0.07094539
Mg      -0.17660092       0.16833233       6.87188983
Mg      -0.04485832       7.11237858      -0.10838269
Mg      -0.06564967       7.13487126       6.83223427
Mg       6.80184416       0.10458932      -0.09979097
Mg       6.57227841       0.12120368       6.73429329
Mg       6.78679788       7.23399785      -0.16623800
Mg       6.54141955       7.32909397       6.62916646
Mg       1.60237325       5.52405544       5.10108828
Mg       1.53027812       5.48137128      11.93667504
Cu       1.64649269      12.63011517       5.10467208
Mg       1.49547968      12.61665199      11.86317553
Cu       8.33388263       5.36687774       4.89244622
Mg       8.25601298       5.55498184      11.67993983
Mg       8.25595499      12.64009071       4.83064209
Mg       8.28102236      12.72913914      11.81050067
Mg       4.97976013       1.97049271       4.96275390
Mg       4.83936096       1.99083878      11.88779417
Mg       5.06262722       8.98554831       4.87638982
Mg       4.81203930       9.12716725      11.83785353
Mg      11.77177172       1.96758039       4.80180801
Cu      11.65440925       2.09942856      11.63479335
Mg      11.74173465       9.13085635       4.84912531
Mg      11.52610730       9.15880728      11.61178441
Mg       0.02360592       3.63017883       3.40235187
Mg      -0.22812944       3.69480414      10.32779246
Mg      -0.06476384      10.66628275       3.29154707
Mg      -0.21313679      10.87756269      10.26789974
Cu       6.68469816       3.76335596       3.18880074
Mg       6.56904533       3.71037592      10.03184885
Mg       6.67577677      10.82404279       3.20031079
Mg       6.55144927      10.90329971      10.03248416
Mg       3.42359283       3.60976221      -0.14696567
Mg       3.21722797       3.64661423       6.73361362
Mg       3.37426993      10.85431577      -0.11812001
Mg       3.24163108      10.91486780       6.70149910
Mg      10.15451670       3.69114768      -0.26675363
Mg      10.02296881       3.70173279       6.52692549
Mg      10.08288244      10.79466216      -0.25247640
Mg      10.00243477      10.92320876       6.60195597
Mg       5.04273049       5.45539010       1.65448862
Mg       4.89053166       5.56764660       8.43207962
Mg       5.05845208      12.50567028       1.64874624
Mg       4.82925892      12.63696567       8.38334925
Mg      11.88885361       5.53273491       1.39674259
Mg      11.60637007       5.58358254       8.22176011
Mg      11.81283709      12.65554465       1.26843152
Mg      11.67451817      12.86142174       8.25382785
Cu       5.78390446       4.66910664       5.82635912
Cu       5.69371533       4.65129651      12.71430884
Cu       5.76727738      11.70833858       5.79999664
Cu       5.63548777      11.74719465      12.69799400
Cu      12.54447215       4.66826803       5.63104114
Cu      12.39427179       4.78072446      12.47340694
Cu      12.52931463      11.72561262       5.66739682
Cu      12.36851648      11.77624267      12.39865869
Cu       4.12474079       6.33191671       5.90729005
Cu       4.05932256       6.43837451      12.65487443
Cu       4.14262857      13.48868756       5.81161380
Cu       3.91710658      13.59662565      12.66633958
Cu      10.77219815       6.43854851       5.68688096
Cu      10.73213854       6.49671468      12.54264915
Cu      10.87870030      13.52841939       5.60732295
Cu      10.76472402      13.66077807      12.49457895
Cu       2.51365818       2.63892190       4.16882642
Cu       2.35543828       2.92323634      11.03083495
Cu       2.40861490       9.92003246       4.09021311
Cu       2.26175247       9.99617248      10.93606952
Cu       9.17849430       2.79885005       3.94547854
Cu       9.06392140       2.91810067      10.90727748
Cu       9.17591533       9.96005073       3.92570581
Cu       9.05932509       9.94476120      10.92215029
Cu       5.88056840       0.95092188       2.43009982
Cu       5.67650692       1.14443884       9.25636251
Cu       5.82533698       8.17784627       2.43207640
Cu       5.73115860       8.20124791       9.22660682
Cu      12.64426534       1.01350465       2.25838534
Cu      12.42477285       1.06278404       9.16439994
Cu      12.68496093       8.20770777       2.17268906
Cu      12.45783355       8.32023898       9.10559899
Cu       0.81395907       4.50675769       0.88233346
Cu       0.68367971       4.60050997       7.54017965
Mg       0.75933856      11.79233100       7.65314784
Cu       7.63798984       4.52508108       0.64707961
Cu       7.38516115       4.57803942       7.48813301
Cu       7.67110772      11.69042134       0.61448370
Cu       7.44722074      11.77917917       7.40228526
Cu       4.13585388       4.70995336       4.20713640
Cu       3.93298532       4.58306734      10.93298035
Cu       4.08868453      11.74791995       4.14533281
Cu       4.02851394      11.82219769      10.93586301
Cu      10.88463283       4.61187259       3.97920401
Cu      10.72989822       4.76605272      10.77876128
Cu      10.86856903      11.71186365       3.87247697
Cu      10.73909167      11.91530071      10.69249757
Cu       0.73789871       6.30087653       2.57661862
Cu       0.66128999       6.31932201       9.47711720
Cu       0.90133187      13.38634185       2.46518612
Cu       0.70087620      13.40889881       9.38415953
Cu       7.48145547       6.30877812       2.35202845
Cu       7.34659843       6.44266490       9.24541708
Cu       7.70798871      13.42584734       2.29394491
Cu       7.43416111      13.63682762       9.14222502
Cu       2.42859515       6.26028543       0.76072143
Cu       2.41577734       6.33984732       7.63469649
Cu       2.46513676      13.45179985       0.69491178
Cu       2.44111608      13.49013308       7.58333814
Cu       9.38250468       6.36247454       0.58634048
Mg       9.16423618       6.47626953       7.41478263
Cu       9.36790242      13.56056782       0.54981079
Cu       9.08299607      13.64991920       7.39811841
Cu       2.47115289       4.53822033       2.44682040
Cu       2.30628557       4.65613463       9.38167229
Cu       2.41272120      11.64560638       2.49343050
Cu       2.36083772      11.74916441       9.35600202
Cu       9.19686176       4.66016940       2.32233818
Mg       9.09949233       4.67920217       9.08890351
Cu       9.20675206      11.71859125       2.28996627
Cu       9.02552610      11.73605830       9.07543443
Cu       4.12473822       2.70869733       2.48261907
Cu       3.97425714       2.79132859       9.26360235
Cu       4.17219829       9.87149811       2.41474709
Cu       3.92096427       9.91725717       9.27336367
Cu      10.96367973       2.77156902       2.23714298
Cu      10.81041677       2.90216523       9.13231721
Cu      10.88509239       9.94870105       2.17074005
Cu      10.76359186      10.09558991       9.01241659
Cu       5.88547310       6.40806134       4.07240792
Cu       5.64700728       6.49400983      10.86565734
Cu       5.90686331      13.51287798       3.94976171
Cu       5.69025949      13.52880871      10.97518449
Cu      12.60423120       6.40955530       4.00465759
Cu      12.45697183       6.45336789      10.74598870
Cu      12.63930097      13.60604206       3.84633319
Cu      12.52416701      13.59405566      10.69482564
Cu       2.46335369       0.97431488       6.01281230
Cu       2.19186188       1.16376556      12.83849077
Cu       2.42140139       8.17836031       5.94976750
Cu       2.21222637       8.20598294      12.73123462
Cu       9.09233749       1.02663514       5.81699696
Cu       9.07028922       1.15183065      12.60748627
Cu       9.18696344       8.19713267       5.68998375
Cu       8.96663511       8.36083403      12.56407419
Cu       0.76700935       0.93517756       4.21376037
Cu       0.57022175       1.10092351      11.11303176
Cu       0.74666905       8.10295272       4.13166950
Cu       0.61397801       8.13922974      11.07665811
Cu       7.50439783       0.95611188       4.02550069
Cu       7.49265199       1.03329887      10.88535466
Mg       7.51946977       8.18197744       4.03578820
Cu       7.37534937       8.19481411      10.88220392
Cu       5.76444210       2.68670865       0.66730190
Cu       5.73006960       2.86840602       7.60539649
Cu       5.94749423       9.83543795       0.58604345
Cu       5.74834480      10.02320986       7.45543150
Cu      12.61131690       2.84143877       0.49675726
Cu      12.50735269       2.88927948       7.40786827
Cu      12.74925190       9.92851013       0.50146391
Cu      12.61431382      10.01849814       7.29976457
Cu       0.74859417       2.76064211       5.95142579
Cu       0.56011801       2.86266204      12.73824704
Cu       0.74367928       9.97048302       5.95330856
Cu       0.61577396      10.04148493      12.74351625
Cu       7.47244675       2.85898232       5.81647050
Cu       7.32453524       2.98407794      12.60800472
Cu       7.49333394       9.97748184       5.73361580
Cu       7.35748840      10.04249124      12.63976951
Cu       4.24723662       0.91214213       0.74626773
Mg       4.05203627       1.06773311       7.57277365
Cu       4.29273041       8.02577917       0.68524092
Cu       4.13091960       8.11897422       7.56581472
Cu      10.95100932       1.03795680       0.56777533
Cu      10.76437026       1.20523845       7.34253590
Cu      11.04030036       8.04348779       0.46812687
Cu      10.85957031       8.14875681       7.33540767
