190
Lattice="14.459489773933973 0.5364790219145547 0.47991712421589267 0.16825501821737457 14.104668509126364 -0.193458667064919 -0.0067262088013442 -0.09833225508426914 14.497625773983877" Properties=species:S:1:pos:R:3 pbc="T T T"
Mg       3.62191723       0.11393786       3.80835129
Mg       3.57390250       0.05454316      11.04685624
Mg       3.65668010       7.16554904       3.67366943
Mg       3.68700920       7.17256134      10.86345183
Mg      10.86479438       0.34516320       3.89908800
Mg      10.86622479       0.33098754      11.25451646
Mg      10.92457649       7.39475038       3.94809493
Mg      10.85752996       7.39008984      11.17612931
Mg       1.79608089       1.78133159       1.83600046
Mg       1.83751837       1.78390267       9.11943375
Mg       2.02435887       8.85879500       1.73678081
Mg       1.84083285       8.79251043       8.96640538
Mg       9.15866475       2.13966100       2.11606427
Mg       9.00894246       2.02779447       9.33802657
Mg       9.17315816       9.22881230       2.03488927
Cu       9.00383020       9.06758697       9.25181983
Mg       0.01321247      -0.00151803       0.04141647
Mg       0.05976329      -0.07970744       7.26756940
Mg       0.08470274       7.10107623      -0.11727439
Mg      -0.02029723       7.00714302       7.21109216
Mg       7.32560028       0.34524722       0.12720223
Mg       7.21935693       0.24694998       7.49876066
Mg       7.31169591       7.33493658       0.21067262
Mg       7.28579078       7.25548912       7.39505447
Mg       1.86748747       5.30083613       5.42098699
Mg       1.84817285       5.24697668      12.66924798
Mg       1.98932828      12.37617237       5.38992186
Mg       2.02863818      12.36523334      12.59016651
Mg       9.11869554       5.55752995       5.58909216
Mg       9.09851360       5.49455050      12.81719635
Mg       9.23531092      12.65265610       5.58830476
Mg       9.18907169      12.63798919      12.87354863
Mg       5.52286269       1.83026231       5.59749990
Mg       5.55030856       8.95839976       5.48885328
Mg       5.56669238       8.95269547      12.80914605
Mg      12.63622547       2.12537570       5.87082056
Mg      12.63946663       2.10371265      13.00894919
Cu      12.75883351       9.17647662       5.83899667
Mg      12.68303035       9.14268996      12.96830150
Mg      -0.04381163       3.41053957       3.58940862
Mg       0.01422146       3.48307905      10.81725387
Mg       0.19865791      10.60212025       3.44546650
Cu       0.15647189      10.46616264      10.72640623
Mg       7.18821355       3.78865400       3.80967322
Mg       7.30192638       3.62319380      11.06693150
Mg       7.34179523      10.78786614       3.70852140
Mg       7.35601855      10.74201989      10.87202639
Mg       3.69151432       3.71397125       0.02912674
Mg       3.54170414       3.61857898       7.26746643
Cu       3.76373313      10.71068814       0.05567799
Mg       3.76567165      10.69493862       7.17356291
Mg      10.89610713       3.90932800       0.32471417
Mg      10.90297096       3.83124800       7.54194725
Mg      10.97158519      10.97646490       0.28804285
Mg      11.01894370      10.94687327       7.48728974
Mg       5.40135018       5.48163643       1.94952704
Mg       5.46034668       5.45721840       9.07061714
Mg       5.57623085      12.51914967       1.87023012
Mg       5.54578337      12.51294504       9.10300304
Mg      12.78510168       5.78694930       2.24679830
Mg      12.69229399       5.78060187       9.38725541
Mg      12.74566780      12.68675328       2.07994263
Mg      12.74868855      12.81219737       9.36991648
Cu       6.32619354       4.63047684       6.45186589
Cu       6.45062338       4.66219433      13.76204263
Cu       6.48159450      11.64773837       6.42569902
Cu       6.47317496      11.66748021      13.65084195
Cu      13.57134227       4.94452338       6.71305924
Cu      13.65961929       4.75197186      14.03603259
Cu      13.70816437      11.90490063       6.52226806
Cu      13.75013259      11.87793397      13.79883405
Cu       4.64578648       6.39558685       6.46445903
Cu       4.54892564       6.25949803      13.72694341
Cu       4.62892028      13.32175114       6.28395510
Cu       4.68706513      13.33611908      13.61884760
Cu      11.73993920       6.59198692       6.64422715
Cu      11.75565808       6.52288791      13.94980305
Cu      11.86278278      13.59403548       6.53159581
Cu      11.88048068      13.52020854      13.77868160
Cu       2.78197287       2.62430427       4.62847769
Cu       2.74399682       2.60673494      11.82020902
Cu       2.83861159       9.80943467       4.55614689
Cu       2.81659336       9.74576280      11.68174064
Cu      10.06920143       3.01163285       4.82014934
Cu      10.06099394       2.86988123      12.02256617
Cu      10.05699401      10.04209848       4.79528123
Cu      10.09411585      10.03021072      11.99842324
Cu       6.30362787       1.08966905       2.92701235
Cu       6.25919456       1.06257518      10.14493893
Mg       6.43790333       8.17695143       2.79612123
Cu       6.47154538       8.13819571      10.05949936
Cu      13.63203276       1.50194147       3.09330248
Cu      13.64726337       8.53410225       3.06363949
Cu      13.73057063       8.42190244      10.33345725
Cu       0.94466317       4.49769733       0.85739352
Cu       0.95502126       4.37311494       8.06146466
Cu       1.07689473      11.45515576       0.67338744
Cu       1.11895568      11.43268834       8.07339675
Cu       8.29162263       4.74131604       1.15527065
Cu       8.07746909       4.68005490       8.40269565
Cu       8.27718307      11.76393560       1.02180754
Cu       8.28245518      11.68190028       8.24575730
Cu       4.45693977       4.58382114       4.51383040
Cu       4.49250266       4.50213486      11.90354332
Mg       4.71049696      11.57660362       4.59340887
Cu       4.71346299      11.51129340      11.79347815
Cu      11.71853158       4.83887848       4.80882064
Cu      11.80932166       4.75106552      12.17218948
Cu      11.90830570      11.86074960       4.74587224
Cu      11.85694351      11.78498881      11.99465485
Cu       1.01061028       6.16952919       2.59953040
Cu       0.94880758       6.06802043       9.94872176
Cu       1.05077419      13.17223801       2.57224304
Cu       1.02460695      13.20124654       9.74201344
Cu       8.17880353       6.40504951       2.93483664
Cu       8.23513850       6.44786310      10.16328696
Cu       8.28915088      13.58316235       2.79850519
Cu       8.29596141      13.45177068      10.11026603
Mg       2.72614441       6.27767337       0.94200026
Cu       2.72141540       6.22468107       8.15412762
Cu       2.81593185      13.32034618       0.77743792
Cu       2.87688031      13.29465111       8.07593416
Cu       9.96536402       6.42774944       1.28726667
Cu       9.98088483       6.41996560       8.38253294
Cu      10.06418538      13.66545173       1.03493740
Cu      10.16181516      13.57430702       8.35707530
Mg       2.71980222       4.46816065       2.71863018
Cu       2.70937757       4.44495545       9.94467696
Cu       2.91929914      11.60046018       2.69347329
Cu       2.83539808      11.51272130       9.92428175
Cu       9.88166211       4.71785436       3.02218594
Cu      10.07081523       4.75400099      10.27838477
Cu       9.98142089      11.91136290       2.93028203
Cu      10.03200374      11.82079057      10.07754549
Cu       4.60316750       2.81420947       2.88216019
Cu       4.52191224       2.70144861      10.08230658
Cu       4.60020965       9.85885666       2.64139972
Cu       4.60332868       9.87315663       9.92913367
Cu      11.88122876       3.06498625       3.09899209
Cu      11.71652438       3.03134750      10.31109412
Cu      11.86748978      10.03359944       3.04266363
Cu      11.82260230      10.06980422      10.24528274
Cu       6.35898016       6.35357429       4.64400862
Cu       6.50580331       6.34441102      11.88913556
Cu       6.52133155      13.37780759       4.50992167
Cu       6.46102099      13.43897064      11.84428477
Cu      13.50781347       6.76203004       4.96634283
Cu      13.67850910       6.57155159      12.15423765
Cu      13.71278198      13.63915607       4.72343507
Cu      13.71597328      13.60055264      11.99574764
Cu       2.67288284       0.93812380       6.36454817
Cu       2.77066994       0.92732583      13.59551246
Cu       2.85716323       7.98759856       6.33871881
Cu       2.85991338       7.89695439      13.55782045
Cu      10.08529641       1.12819338       6.74929960
Cu       9.92305808       1.17320208      13.89685054
Cu      10.02409858       8.27209032       6.60814755
Cu      10.04619189       8.09296939      13.74170655
Cu       0.94915642       0.90969280       4.56631981
Cu       0.87588841       0.82022857      11.85349121
Cu       0.96433941       7.99971836       4.49497389
Cu       0.99651678       7.86541881      11.71170333
Cu       8.15039485       1.09404282       4.75684316
Cu       8.20694904       1.12216946      12.08820388
Cu       8.26749518       8.17124100       4.61982381
Cu       8.27340612       8.23156772      11.94620409
Cu       6.33847349       2.92554287       1.08939166
Cu       6.34142172       2.80907613       8.32716119
Cu       6.48512074       9.84728521       0.91604861
Cu       6.51905467       9.92553413       8.27141252
Cu      13.53989639       3.28076859       1.28221337
Cu      13.60585063       3.08826392       8.56150372
Cu      13.68261856      10.22015594       1.21247457
Cu      13.61615895      10.16034718       8.51629220
Cu       0.98950418       2.70721370       6.33559812
Cu       0.98664625       2.68036292      13.64676531
Cu       1.03974741       9.66702362       6.28963362
Cu       0.97153492       9.61746388      13.46783492
Cu       8.20055084       2.92909919       6.59900507
Cu       8.10443670       2.82774976      13.85208258
Cu       8.16654384       9.95023984       6.40988294
Cu       8.30256856       9.85959090      13.68660771
Cu       4.42386341       1.07993670       1.04806424
Cu       4.47936803       0.97532208       8.24918800
Cu       4.67659101       8.01514689       1.00990786
Cu       4.62979087       8.02894081       8.17019481
Cu      11.85420938       1.26204108       1.27141878
Cu      11.76389620       1.25507396       8.47122604
Cu      11.73135896       8.41536582       1.24632999
Cu      11.88540992       8.32309405       8.35078475
