190
Lattice="14.26856501412852 0.502762471522523 -0.5056850314723309 0.2129460967625246 14.041665732417338 -0.26816012180159227 0.12766293606651033 -0.3246218894096189 14.155148228425197" Properties=species:S:1:pos:R:3 pbc="T T T"
Mg       3.57640965       0.00214155       3.38382587
Mg       3.60588061      -0.17777691      10.44406922
Mg       3.67501202       7.07279948       3.21115660
Mg       3.75867820       6.86681196      10.28252376
Mg      10.77171542       0.31652344       3.16422971
Mg      10.84346729       0.17508592      10.36320212
Mg      10.80220089       7.38181740       3.03784679
Mg      10.94472799       7.11890842      10.02779426
Mg       1.76093176       1.77066857       1.72960331
Mg       1.95745707       1.58605349       8.62712792
Mg       1.98417616       8.77168773       1.54696918
Mg       2.01535355       8.55585424       8.63530687
Mg       8.99052055       2.10089434       1.43116218
Mg       8.95122070       1.77899783       8.52269393
Mg       9.13341960       9.06574841       1.33745218
Mg       9.23009561       8.90476374       8.35104269
Cu       0.02023676       0.01552919       0.02733774
Mg       0.16019882      -0.11726172       7.08883272
Mg       0.18288360       7.09652819      -0.11598705
Mg       0.23244879       6.88357509       6.97370759
Mg       7.08541458       0.22832586      -0.20125404
Cu       7.27020178       0.13494734       6.74762045
Mg       7.21958510       7.26257620      -0.30510871
Mg       7.38373536       7.18271505       6.67270615
Mg       1.94866660       5.25495837       5.13661501
Cu       1.90558670       4.97505731      12.23668134
Mg       1.96718468      12.22044171       5.07568754
Mg       2.03796616      12.08871048      12.15476508
Mg       9.11617650       5.46869629       4.94574901
Cu       9.15726628       5.23456466      12.00146866
Cu       9.09423120      12.50560489       4.74328819
Mg       9.18954608      12.31334775      11.82068367
Mg       5.45067490       1.91238142       5.09147848
Mg       5.44377551       1.61523827      12.11083634
Mg       5.63360513       8.83549732       5.02496791
Mg       5.58933103       8.58568233      12.00290542
Mg      12.58227950       2.14885536       4.86750891
Mg      12.65651908       1.91125611      11.86326878
Mg      12.61743350       9.07420401       4.64751723
Mg      12.72277585       8.98735934      11.82116822
Mg       0.01390042       3.35366119       3.41992569
Mg       0.16515121       3.30088707      10.57430747
Cu       0.25269960      10.36316517       3.33566599
Mg       0.27886847      10.25167452      10.42965233
Mg       7.24604893       3.71089863       3.12885168
Mg       7.34262100       3.49668480      10.32466668
Mg       7.33920550      10.76090045       3.13259605
Cu       7.43346416      10.55299921      10.18563321
Mg       3.67277707       3.57787758      -0.25107018
Mg       3.73116466       3.47843334       6.96736783
Mg       3.76898560      10.65785935      -0.33831909
Mg       3.82201147      10.50564211       6.74012922
Mg      10.75861946       3.88251422      -0.46290670
Mg      10.82987572       3.78162341       6.70134035
Mg      10.81005891      10.82615505      -0.55400396
Mg      10.85848536      10.69583679       6.46353753
Mg       5.46561350       5.44015980       1.54729812
Mg       5.61481948       5.24081927       8.49865552
Mg       5.49778541      12.43461376       1.33463249
Cu       5.61337163      12.21118576       8.43038593
Mg      12.55259641       5.63693045       1.16887319
Mg      12.65299340       5.47476587       8.26169390
Mg      12.65303031      12.62457532       1.12614017
Mg      12.80603431      12.46419582       8.19409367
Mg       6.35228470       4.51918894       5.86560781
Cu       6.37364141       4.34396052      12.95175379
Cu       6.42574138      11.54822794       5.74000938
Cu       6.59975305      11.30084611      12.67544351
Cu      13.46898845       4.78030377       5.59864977
Cu      13.50827904       4.58025590      12.78260248
Mg      13.50315646      11.67836625       5.48272858
Cu      13.72980474      11.49453496      12.56111015
Cu       4.63740317       6.16941410       5.89481270
Cu       4.65138097       6.01518247      12.95708598
Cu       4.74712216      13.23030996       5.71826561
Cu       4.80407797      13.05826907      12.87740810
Cu      11.72008609       6.37331478       5.69050670
Cu      11.76631327       6.18692909      12.76487997
Cu      11.81243810      13.46836258       5.56016300
Cu      11.82842499      13.12920637      12.64135716
Cu       2.75763723       2.62922851       4.35971731
Cu       2.80462072       2.50067529      11.30944441
Cu       2.91775228       9.69987682       4.06605881
Cu       2.98194320       9.42408621      11.25508959
Cu       9.91265743       2.88281175       4.00744775
Cu       9.93134121       2.71546271      11.11963125
Cu      10.03310952       9.99970808       3.95173905
Cu      10.07066903       9.71577593      11.00480586
Cu       6.26760395       1.02855602       2.38749882
Cu       6.32639428       0.80583193       9.52765647
Cu       6.40117044       8.04671407       2.33935583
Cu       6.46060703       7.91753292       9.33065983
Cu      13.40348339       1.23680968       2.18355379
Cu      13.57334857       1.14270226       9.28913378
Cu      13.53464210       8.34139149       1.99233012
Cu      13.54412934       8.13816658       9.11223601
Cu       1.00062686       4.41639120       0.74017583
Cu       1.09220689       4.15329558       7.78659659
Cu       1.13374479      11.34823053       0.54623274
Cu       1.17263630      11.30914978       7.67062243
Cu       8.10648271       4.79190502       0.59635513
Cu       8.13336092       4.45859844       7.58710517
Cu       8.24672385      11.75416596       0.31441764
Cu       8.28123558      11.54276066       7.48411549
Cu       4.54471767       4.39929428       4.24596865
Cu       4.58785542       4.25822044      11.27204153
Cu       4.62763643      11.43002374       4.06768893
Cu       4.80734857      11.28862983      11.07106217
Cu      11.64199675       4.60991880       3.87980539
Cu      11.70418156       4.50367069      10.99014288
Mg      11.84872068      11.77240019       3.77051694
Cu      11.90819804      11.54392530      10.86634178
Cu       1.05862762       6.08894366       2.52865124
Cu       1.00557444       6.03917455       9.57188675
Cu       1.06873597      13.14318539       2.41654044
Cu       1.13313725      12.97165079       9.42535681
Cu       8.08518022       6.32253211       2.30373377
Cu       8.23322173       6.08860805       9.35914281
Cu       8.27405324      13.44291877       2.07023084
Cu       8.31434393      13.24591344       9.17873315
Cu       2.73352190       6.20915497       0.75170675
Cu       2.87932188       6.12446115       7.71298456
Cu       2.87420379      13.21208301       0.55227157
Cu       2.87486397      13.03205836       7.63782023
Cu       9.85919645       6.47899419       0.44701063
Cu       9.90997533       6.33433219       7.51106619
Cu      10.01884743      13.48491570       0.34077238
Cu      10.06312935      13.30006803       7.37313935
Cu       2.76463832       4.41831421       2.47895035
Cu       2.80336634       4.24171690       9.54953293
Cu       2.79579568      11.37514669       2.35494218
Cu       2.91911631      11.23943010       9.44972424
Mg       9.92940865       4.63135296       2.19073919
Cu       9.91892085       4.49760164       9.30176004
Cu       9.90857279      11.62160323       2.10333508
Cu       4.48902616       2.71662072       2.53025931
Cu       4.61076259       2.57476552       9.58281685
Cu       4.62736320       9.78524348       2.36484313
Cu       4.62542426       9.62652447       9.36908302
Cu      11.64451685       2.92933073       2.20626938
Cu      11.71192582       2.73942548       9.21083279
Cu      11.67554313       9.98536139       2.11312289
Cu      11.88715637       9.89994954       9.16004430
Cu       6.36851970       6.19981941       4.10693976
Cu       6.42782455       6.09301049      11.23305604
Cu       6.43490525      13.35710102       3.91335269
Cu       6.50008863      13.10195895      11.08404265
Cu      13.58458182       6.56089641       3.77131686
Cu      13.55915033       6.28213869      11.04429290
Cu      13.57723132      13.50052135       3.77740532
Cu      13.70094599      13.32891989      10.82025558
Cu       2.72635505       0.74080765       6.18297321
Cu       2.80013021       0.71221531      13.09990933
Cu       2.85677993       7.79973837       5.95230508
Cu       9.87876788       1.07496098       5.79760634
Cu       9.86387696       0.88089614      12.88882815
Cu       9.98963122       8.12656696       5.67178216
Cu      10.04198258       7.97554602      12.76711023
Cu       1.02771513       0.84499251       4.44549245
Cu       1.02565874       0.66775862      11.46727851
Mg       0.98069326       7.79028740       4.20535167
Cu       1.20764140       7.70430970      11.21403425
Cu       7.99544475       0.98552283       4.07727668
Mg       8.11940575       0.96031335      11.25925411
Cu       8.17016493       8.20611464       4.00680571
Cu       8.22399599       7.86456856      11.12457853
Cu       6.28327286       2.84080738       0.56862292
Cu       6.34729976       2.79737062       7.65240226
Cu       6.40951461       9.85844870       0.46624897
Cu       6.51109288       9.57554928       7.59566365
Cu      13.37733788       3.11715678       0.34750355
Cu      13.47083229       2.93844983       7.39467637
Cu      13.52946756      10.03157022       0.12815281
Cu      13.58366551       9.89478053       7.29846962
Mg       1.04428126       2.52285061       6.08028650
Cu       0.99795854       2.37390747      13.16649804
Cu       1.14930664       9.55150998       6.00618796
Mg       1.13442204       9.45154473      13.05277694
Cu       8.09670153       2.75536590       5.80046962
Cu       8.24455305       2.59453938      12.98201178
Cu       8.25753584       9.77392982       5.75495886
Cu       8.25611083       9.66227031      12.75539244
Cu       4.46247021       1.10905217       0.75512862
Cu       4.49532932       0.86855435       7.72822549
Cu       4.66505310       7.98232944       0.64351607
Cu       4.67405475       7.89443789       7.55916357
Cu      11.58022541       1.20722766       0.46069638
Cu      11.71600025       1.16758514       7.55958405
Cu      11.66414816       8.27261171       0.29067492
Cu      11.72781123       8.07915342       7.36516303
