191
Lattice="14.507510764385183 0.22976237070103864 -0.767612348022926 0.026391513963173047 14.211894995806203 -0.016355118733709442 0.05537906593889675 0.2362931640438937 14.303451799255873" Properties=species:S:1:pos:R:3 pbc="T T T"
Mg       3.67133144       0.18533296       3.34930110
Mg       3.62854774       0.25856588      10.44541284
Cu       3.64926745       7.29304101       3.31749934
Mg       3.68565647       7.43924421      10.53351867
Mg      10.87513830       0.24411251       2.90638243
Mg      10.93747477       0.34833245      10.18480012
Mg      10.94963530       7.27118591       2.95825882
Mg      11.04902258       7.43503581      10.11063291
Mg       1.72900901       1.79135679       1.65779268
Mg       1.84036397       1.98079991       8.73894320
Mg       1.85421198       8.88990467       1.67305083
Mg       1.86367702       8.99520171       8.82399721
Cu       9.07794331       2.01683150       1.34801606
Mg       9.12348170       2.08236127       8.35231773
Mg       9.15239647       9.00567793       1.24703396
Mg       9.17888318       9.21749748       8.38491599
Mg      -0.03099809       0.09062311       0.02883564
Mg       0.01019900       0.08365607       7.08213687
Cu       0.06340961       7.16909380      -0.06231150
Mg       0.05914368       7.23112684       7.11895652
Mg       7.21307181       0.12411226      -0.42054747
Mg       7.23087859       0.26738311       6.79356179
Mg       7.24883002       7.16065228      -0.37426454
Mg       7.34035114       7.41382900       6.68463143
Mg       1.81908238       5.43853451       5.28462435
Mg       1.92995894       5.50241344      12.37813884
Mg       1.80562066      12.52097082       5.28647113
Mg       1.86527291      12.64953610      12.39648959
Mg       9.15887710       5.48084814       4.85369169
Mg       9.17946445       5.57656788      12.09802264
Mg       9.04003043      12.65249228       4.86294604
Mg       9.25050590      12.75197534      11.99514907
Mg       5.45740794       1.96516393       5.08784782
Mg       5.50050374       2.05132359      12.19469754
Mg       5.52310586       9.12557573       5.08003043
Mg       5.55955505       9.16525828      12.21451423
Mg      12.67602941       2.10482914       4.68228935
Mg      12.67528639       2.17368695      11.88996649
Mg      12.76737564       9.21757283       4.68210283
Mg      12.72946135       9.31101966      11.88961665
Mg      -0.01932482       3.57437131       3.52363377
Cu       0.06554823       3.77184009      10.68713924
Mg      -0.00712888      10.71670908       3.57616515
Mg       0.10576524      10.87960041      10.71667793
Mg       7.32935657       3.66788102       3.18145294
Mg       7.30956112       3.83531312      10.26638995
Mg       7.26195009      10.79219932       3.19857633
Mg       7.29647056      10.85078275      10.26757531
Cu       3.60368290       3.57225257      -0.21585723
Mg       3.66021851       3.81880571       6.95871088
Mg       3.56054153      10.73960032      -0.22758714
Mg       3.63617228      10.92268081       7.02172210
Mg      10.93870638       3.63628159      -0.52716415
Mg      10.95426699       3.80527018       6.57155928
Mg      10.84905830      10.86330759      -0.63650104
Mg      10.92074741      10.82611289       6.57467881
Mg       5.51613347       5.49842450       1.46327075
Mg       5.53689017       5.63068589       8.63801504
Mg       5.50755219      12.58852023       1.59042744
Mg       5.64482920      12.67231283       8.70306074
Mg      12.78186920       5.51864914       1.10655045
Mg      12.67365042       5.65932156       8.21010324
Mg      12.69676327      12.68556226       1.09029228
Mg      12.67919043      12.64380714       8.28339019
Cu       6.38217058       4.69675847       5.98110989
Cu       6.32691459       4.77393767      13.15905112
Cu       6.45641071      11.79554609       5.93719972
Cu       6.38831186      11.89443837      12.97607291
Cu      13.54514963       4.81731548       5.57743946
Cu      13.71715781       4.87913358      12.66003852
Cu      13.69619934      11.89930948       5.58756796
Cu      13.66900007      12.01430994      12.69849925
Cu       4.51110988       6.39738281       6.10925174
Cu       4.64706771       6.47036281      13.17338250
Mg       4.62690018      13.46865911       6.07598919
Cu       4.67649153      13.54254580      13.16498199
Cu      11.79180096       6.57434613       5.53834246
Cu      11.84545920       6.67264116      12.82935817
Cu      11.76443180      13.66233196       5.59935941
Cu      11.83959659      13.80137899      12.76488827
Cu       2.75223354       2.76533817       4.35822132
Cu       2.83678608       2.88128319      11.51556789
Cu       2.75424966       9.92130243       4.31027912
Cu       2.72500848       9.99341163      11.47461228
Mg      10.05489347       2.93698225       3.91698760
Cu      10.05063272       2.97003959      11.11500031
Cu       9.97383518      10.05306972       3.90707830
Cu      10.06246843      10.22201564      11.06836957
Cu       6.33861498       1.04693784       2.44740284
Cu       6.42482065       1.17742154       9.38803946
Cu       6.43903217       8.14088130       2.37079313
Cu       6.38797117       8.27771435       9.45946660
Cu      13.59849875       1.20868112       2.03330789
Cu      13.56061952       1.25426427       9.00438890
Cu      13.56691371       8.24731239       2.01019003
Cu      13.56586846       8.37297914       9.12147955
Cu       0.88465980       4.47939851       0.76649584
Cu       0.91273336       4.61528896       7.90719847
Cu       0.89096531      11.53292056       0.78428143
Cu       0.89009817      11.76055567       7.95046201
Cu       8.17430341       4.59442822       0.48816274
Cu       8.18964268       4.74143872       7.63461660
Cu       8.23708433      11.68657934       0.42341049
Cu       8.25256959      11.90167440       7.57977200
Cu       4.63701776       4.58348379       4.25663834
Cu       4.63692124       4.61745469      11.37491611
Cu       4.58886486      11.59524682       4.21945544
Cu       4.52790613      11.77860360      11.25078038
Cu      11.76653775       4.75410764       3.77010135
Cu      11.75956373       4.77039692      11.01520761
Cu      11.88279744      11.87441930       3.89833798
Cu      11.84387529      11.89074769      11.02439413
Cu       0.89979341       6.33880266       2.71913489
Cu       0.97165536       6.40807505       9.70942557
Mg       0.91458785      13.38074378       2.63840747
Cu       0.99176651      13.54387329       9.87318229
Cu       8.13716054       6.36565146       2.28018573
Cu       8.28270707       6.49540641       9.40339786
Cu       8.19268621      13.45554571       2.16753080
Cu       8.24367981      13.64870601       9.40014474
Cu       2.72923395       6.20500953       0.84351185
Cu       2.84096219       6.39506562       7.94642080
Cu       2.77064662      13.39003180       0.73957113
Cu       2.83697177      13.49388460       7.87938908
Cu       9.92231793       6.45353789       0.36692824
Cu      10.13151938       6.51135076       7.55378416
Cu       9.97374549      13.56376288       0.38545277
Cu       9.94658449      13.63729306       7.50322414
Cu       2.73392149       4.55081721       2.52602955
Cu       2.75732808       4.64418744       9.64887990
Cu       2.70154992      11.59875838       2.58784222
Mg       2.70506993      11.70418363       9.71952508
Cu      10.00307048       4.64759180       2.22834282
Cu      10.09163914       4.77629375       9.32945183
Cu      10.02743933      11.76147738       2.14821069
Cu      10.06202368      11.88978486       9.34909114
Cu       4.60748935       2.75628914       2.40500949
Cu       4.58035172       2.87388952       9.60043576
Cu       4.58674026       9.90124338       2.41083787
Cu       4.58279605       9.99991136       9.55675187
Cu      11.88190990       2.91524813       1.97982783
Cu      11.88468544       2.93143149       9.28245446
Cu      11.77715763      10.06725786       1.96950036
Cu      11.93958550      10.13421793       9.20790244
Cu       6.40996166       6.32822736       4.17968800
Cu       6.35451168       6.52340778      11.28264607
Cu       6.37057334      13.55928587       4.11582147
Cu       6.42851250      13.68645008      11.30141549
Cu      13.64430974       6.61654142      10.88459317
Cu      13.66697063      13.63883779       3.67652974
Cu      13.73399705      13.72113179      10.86389631
Cu       2.77243860       1.05422147       6.16699008
Cu       2.79846141       1.13922250      13.29014459
Cu       2.67835819       8.14444462       6.11920062
Cu       2.85484216       8.27496971      13.32491049
Cu      10.01085746       1.20771496       5.73055070
Cu      10.14348436       1.18630018      12.90266437
Cu      10.14507122       8.18130828       5.78283669
Cu      10.17314187       8.39279821      12.91441109
Cu       0.89702258       0.91807919       4.41087547
Mg       0.97744043       1.04820774      11.65168936
Cu       0.99512436       8.07375038       4.45455761
Cu       1.00946170       8.21580355      11.62562764
Cu       8.17265387       1.06263498       4.03602424
Cu       8.16304788       1.29558353      11.17743806
Cu       8.16394092       8.22248610       3.99895702
Cu       8.17197305       8.26483831      11.02582837
Cu       6.44178290       2.81163829       0.53351733
Cu       6.40554490       2.83751260       7.67306427
Cu       6.30173893       9.89845373       0.64660274
Cu       6.44428824      10.00191948       7.70376390
Cu      13.63485868       2.82987819       0.21010841
Cu      13.64315840       3.05092848       7.25615035
Cu      13.64004416      10.07922044       0.19631901
Cu      13.57749194      10.07677631       7.36028873
Cu       0.93691421       2.67675412       6.12955993
Cu       0.89893013       2.78319689      13.42557625
Cu       0.93367399       9.93966013       6.21914068
Cu       0.97708950       9.98908775      13.42879562
Cu       8.30397082       2.82913127       5.69412194
Cu       8.18921529       3.05103570      13.00288626
Cu       8.18769150      10.02843955       5.72332905
Cu       8.18656670      10.17262524      12.99270256
Cu       4.59586732       0.99409375       0.63529881
Cu       4.60626580       1.10875307       7.78669616
Cu       4.55182612       8.15099770       0.59877070
Cu       4.57948570       8.11643846       7.91267530
Cu      11.81554485       1.01659686       0.32144928
Cu      11.83537746       1.18206600       7.42906894
Cu      11.90357976       8.15551502       0.28016048
Cu      11.77383770       8.34540208       7.43647455
