189
Lattice="14.289636716072742 -0.40639946383781267 -0.29595052195621874 0.010443695303755576 13.971108783743896 0.36580505213403564 0.3948418523415169 -0.28222189077574494 14.322849077305179" Properties=species:S:1:pos:R:3 pbc="T T T"
Mg       3.70440113      -0.26245799       3.54626872
Mg       3.91515867      -0.31793836      10.69635639
Mg       3.69452556       6.73041897       3.74945895
Mg       3.91976954       6.78460805      10.79127881
Mg      10.78560657      -0.43053772       3.37902864
Mg      11.04823337      -0.55953202      10.52805681
Cu      10.88297697       6.60372263       3.39787772
Mg      11.02411118       6.50615705      10.68974724
Mg       1.85749895       1.66993654       1.80492656
Mg       2.02669650       1.53185292       8.87924199
Mg       1.87730104       8.57761824       1.99507135
Cu       2.04114244       8.47728314       9.13659792
Mg       9.02536075       1.42491707       1.66020395
Mg       9.18829973       1.30560533       8.83569093
Mg       9.03440806       8.48354043       1.83738112
Mg       9.08903412       8.31431388       9.03282623
Mg       0.05857549       0.01089853      -0.02352260
Mg       0.23858860      -0.07163944       7.17697109
Mg       0.01064831       6.95301325       0.23054104
Mg       0.23017852       6.75911753       7.36663688
Mg       7.21456284      -0.16957863      -0.13836995
Mg       7.24763597      -0.34623533       6.99571831
Mg       7.15722852       6.84344067       0.13596759
Mg       7.37235777       6.70899400       7.22320865
Mg       1.93358099       5.02310269       5.46170617
Mg       2.08946106       4.93806571      12.60861832
Mg       1.87980247      12.07460087       5.65953696
Mg       2.09063338      11.96176603      12.77656916
Mg       9.13776708       4.89391980       5.30755885
Mg       9.38098355       4.72212414      12.41739456
Mg       9.02473286      11.85579490       5.61437180
Mg       9.40338979      11.73673396      12.67987906
Mg       5.52893573       1.44528751       5.27724470
Mg       5.80521938       1.41284485      12.46750826
Mg       5.56406190       8.45036836       5.45913345
Mg      12.57406266       1.27081314       5.08566590
Mg      12.84417577       1.13786592      12.20565766
Mg      12.73307794       8.34214797       5.15884387
Cu      12.79746615       8.09709465      12.52999525
Mg       0.02718465       3.44953093       3.64853286
Mg       0.26876595       3.31340658      10.80327219
Mg       0.13699889      10.36476640       3.93693702
Mg       0.24695716      10.30192633      10.97711473
Mg       7.20471846       3.21324229       3.48452987
Mg       7.52570663       3.01092291      10.73749880
Cu       7.27203769      10.22699959       3.77635333
Mg       7.41371646      10.02682672      10.83918778
Mg       3.56693256       3.42293306       0.07882988
Mg       3.67910002       3.17808915       7.10928424
Mg       3.67921969      10.41939202       0.18360286
Cu       3.84693170      10.29886387       7.35194444
Mg      10.71310778       3.12139327      -0.05997164
Mg      10.95889267       3.04662126       7.04317425
Mg      10.73834752      10.23399737       0.17472364
Mg      10.94297028      10.08802615       7.25300355
Mg       5.40705972       5.01462020       1.80610253
Cu       5.53373415       4.94519203       8.92059955
Mg       5.36995255      11.99007269       2.00920723
Mg       5.60390058      11.86829530       9.25146265
Mg      12.60374663       4.81723386       1.65183775
Mg      12.73895333       4.77685114       8.87134046
Mg      12.53578046      11.81388550       1.84071806
Mg      12.73648240      11.67230951       9.05398536
Cu       6.44428915       4.01867776       6.26740241
Cu       6.34024277      10.95208075       6.42048966
Mg       6.67983399      10.97886595      13.67236974
Cu      13.63354009       3.89236379       6.17720888
Cu      13.73287481       3.67119431      13.23728122
Cu      13.62861835      10.82869727       6.30887658
Cu      13.80541278      10.67509517      13.44358863
Cu       4.72627809       5.86609399       6.26477170
Cu       4.84781607       5.75647891      13.52889296
Cu       4.71894102      12.89910350       6.44105095
Cu       4.85311944      12.76130362      13.65435524
Cu      11.83485140       5.63471446       6.12651514
Cu      11.97370645       5.54838276      13.43805630
Cu      11.76183582      12.63896465       6.40364252
Cu      12.04765017      12.58058855      13.50918021
Cu       2.87742233       2.41627113       4.52903342
Cu       3.04872955       2.22494480      11.69499416
Cu       2.82699591       9.47696522       4.66879045
Cu       2.97511997       9.33576671      11.86994828
Cu       9.97640605       2.24488483       4.37188547
Cu      10.16731364       2.09214179      11.59406240
Cu       9.97967426       9.26433776       4.50909089
Cu      10.22080585       9.12699274      11.72977166
Cu       6.30685458       0.65248472       2.53516279
Cu       6.45279738       0.42627910       9.84436621
Cu       6.47254046       7.65843408       2.80386488
Cu       6.57253369       7.47822929       9.85085008
Cu      13.46028665       0.55427442       2.33359570
Cu      13.70149027       0.35290427       9.59970405
Cu      13.53727746       7.39926189       2.56253378
Cu      13.62622868       7.28019292       9.75428288
Cu       0.89007118       4.37299870       1.01741685
Cu       1.11772614       4.09480013       8.18353108
Cu       0.91417382      11.25905878       1.18769483
Cu       1.11940394      11.24461301       8.37178009
Cu       8.07565957       4.15762690       0.81612672
Cu       8.25254897       3.93529870       7.97882421
Cu       8.10051110      11.17197976       0.95800506
Mg       8.25779339      10.98663072       8.16823430
Cu       4.66203321       4.10320252       4.53485651
Cu       4.86632607       4.02082332      11.70871831
Cu       4.64506684      11.20334433       4.68504261
Mg       4.79730715      11.02048382      11.89992243
Cu      11.72640820       3.92817351       4.29477518
Cu      12.05688336       3.82079864      11.50233820
Cu      11.71162838      11.06175406       4.53361275
Cu       1.06444809       6.03100892       2.71665053
Cu       1.11255525       5.94212572      10.02092781
Cu       1.08300885      13.00113071       3.08089267
Cu       1.13801960      12.87579050      10.11680824
Cu       7.96200086       5.85736790       2.74962443
Cu       8.30810199       5.59502484       9.91565450
Cu       8.10726688      12.83165787       2.89660985
Cu       8.22259084      12.65646216      10.03819240
Cu       2.74263105       6.05215277       1.05090277
Cu       2.87670902       5.86262860       8.12893345
Cu       2.75257291      13.00784874       1.15892020
Mg       2.78082814      12.94213197       8.39651585
Cu       9.81962802       5.82019165       0.91381746
Cu       9.94268906       5.71044861       7.98235871
Cu       9.93672067      12.82603195       1.03654159
Cu      10.12368764      12.66991295       8.17727874
Cu       2.73275722       4.25475304       2.75303975
Cu       3.04485229       4.07901457       9.85227669
Cu       2.69534531      11.28046189       2.89810098
Cu       2.85315113      11.11766627      10.13426661
Cu       9.88161010       4.12081752       2.67019861
Cu      10.04321047       3.92687420       9.76170160
Cu       9.88848138      11.06022083       2.74276056
Cu      10.09193371      10.92756061       9.92085376
Cu       4.56665611       2.38028039       2.79403526
Cu       4.71188414       2.23275657       9.84114180
Cu       4.56294993       9.46545643       2.87546879
Cu       4.71433781       9.33687661      10.02959948
Cu      11.67577409       2.22205859       2.47418867
Cu      11.93432399       2.07298169       9.62207995
Cu      11.66149153       9.23266445       2.71021890
Cu      11.88173255       9.05993151       9.84474461
Cu       6.40997809       5.80456745       4.54111672
Cu       6.62492785       5.66211776      11.69568331
Cu       6.44558235      12.80471348       4.71186712
Cu       6.58826687      12.79400933      11.81630513
Cu      13.48147791       5.59390964       4.31486495
Cu      13.73018886       5.48353680      11.55780813
Cu      13.54638672      12.69931210       4.47824988
Cu      13.74935373      12.50197289      11.69789643
Cu       2.87068405       0.75621080       6.25011926
Cu       3.09064121       0.49982684      13.36235359
Cu       2.83376474       7.68730638       6.48196339
Cu       3.10151002       7.48130126      13.61611525
Cu       9.97961914       0.45892546       6.14382860
Cu      10.09696643       0.38176736      13.22322805
Cu       9.98979920       7.47630661       6.25628647
Cu      10.15328496       7.30973583      13.43316021
Cu       1.11042587       0.77887592       4.41442889
Cu       1.22508497       0.60879583      11.54354225
Cu       1.04022586       7.81779252       4.65177835
Cu       1.28418917       7.68535714      11.80580129
Cu       8.21656949       0.58099412       4.26378915
Cu       8.39082795       0.45356901      11.43905074
Cu       8.24450232       7.51851627       4.50689964
Cu       8.35673273       7.39297101      11.66659294
Cu       6.25983604       2.30851166       0.82907516
Cu       6.53328804       2.41319273       8.10287052
Cu       6.21824191       9.47485712       0.93409640
Cu       6.57029849       9.27113941       8.22853394
Cu      13.46986639       2.18480138       0.65392984
Cu      13.65090187       2.05912161       7.77060803
Cu      13.43145172       9.22110593       0.90531495
Cu      13.63523629       9.00606878       8.01074494
Cu       1.03466242       2.58260923       6.24867387
Cu       1.18021683       2.37205927      13.45740354
Cu       1.08717458       9.49655469       6.47884744
Cu       1.21409064       9.32688860      13.63565461
Cu       8.18827567       2.30322957       6.18845324
Cu       8.43696462       2.14781327      13.30370217
Cu       8.23615069       9.18476353       6.36373757
Cu       8.36012121       9.13221480      13.48777826
Cu       4.53715337       0.66659361       0.78241484
Cu       4.62606232       0.56537556       8.02998100
Mg       4.60440744       7.73077160       1.02315998
Cu       4.62517629       7.67214005       8.15020541
Cu      11.57802415       0.56107016       0.65762162
Cu      11.86967681       0.36703098       7.78685394
Cu      11.66845373       7.40953133       0.93152772
Mg      11.86864218       7.41847849       8.01083703
