189
Lattice="14.438052677697973 0.12430049826568813 0.352130837084297 0.02052395680537789 14.05867681199064 0.025245101186154868 -0.06731162394726045 0.4303009140889635 14.394690578264015" Properties=species:S:1:pos:R:3 pbc="T T T"
Mg       3.60918653       0.16952506       3.70804804
Mg       3.51195534       0.42227877      10.99406583
Mg       3.53677387       7.15258866       3.61425879
Mg       3.64028264       7.45273308      10.90763124
Mg      10.83360023       0.18224227       3.83938884
Mg      10.78488456       7.17607453       3.86785081
Mg      10.82336961       7.41009005      11.05631009
Mg       1.83261851       1.79355507       1.97121595
Mg       1.74551659       2.08489765       9.11640945
Mg       1.81098302       8.84760161       1.87072884
Mg       1.78561437       9.05154660       9.01262130
Mg       8.96988836       1.99505012       2.06834051
Mg       8.96288261       2.20330073       9.29680647
Cu       9.00692600       8.94074905       2.05818939
Mg       9.00975663       9.07243853       9.22106078
Mg       0.01435068      -0.06555961      -0.09916655
Mg      -0.05315090       0.19731695       7.17540310
Mg       0.12447419       7.05461301       0.09095668
Cu      -0.08502990       7.24197460       7.21889121
Mg       7.30855634       0.02028765       0.21594533
Mg       7.12815325       0.34321156       7.24917882
Mg       7.18284595       7.09561831       0.22437840
Mg       7.23363570       7.31701833       7.32708336
Mg       1.74538003       5.51445510       5.47878991
Mg       1.78271037       5.59142455      12.63216912
Mg       1.86425292      12.46026618       5.49793209
Mg       1.83613418      12.71975004      12.67348469
Cu       8.96067442       5.46801479       5.61093363
Mg       8.90437334       5.72208072      12.80225749
Mg       8.99987977      12.54987850       5.57658169
Mg       9.02878155      12.75236015      12.86689952
Mg       5.41184249       1.93812366       5.48386061
Mg       5.31314679       2.23450905      12.68516079
Mg       5.39935888       9.08550339       5.45445702
Mg       5.39623524       9.21416106      12.75783497
Mg      12.66521491       2.02500809       5.68036970
Mg      12.64662159       2.32485598      12.91609229
Mg      12.64186637       9.15515442       5.64244335
Mg      12.55530130       9.27517659      12.93386895
Mg      -0.08432826       3.53215653       3.71542768
Mg       0.02522934       3.90129649      10.85767971
Mg       0.01828829      10.65858908       3.65809564
Mg      -0.01012613      10.89782543      10.85200875
Mg       7.12488697       3.72252037       3.82266364
Mg       7.07372107       3.94994292      10.99864279
Mg       7.24716324      10.66136268       3.77656325
Mg       7.18048515      10.90899810      10.95309582
Mg       3.50886187       3.53080735       0.11075012
Mg       3.54896169       3.71385201       7.33324854
Mg       3.59888069      10.61832521       0.07824329
Mg       3.58598810      10.82329715       7.23948677
Cu      10.75465168       3.50196407       0.22625346
Mg      10.91670144       3.89347879       7.52048227
Cu      10.83215159      10.59328461       0.22343622
Mg      10.80350722      10.74999355       7.51798627
Mg       5.40029129       5.33884406       1.89992773
Mg       5.33953608       5.64736909       9.17596660
Mg       5.36840125      12.48931330       2.05072137
Mg       5.38686517      12.65699855       9.12370546
Mg      12.63824063       5.33352256       2.13416001
Cu      12.54594904       5.66342468       9.32942191
Mg      12.63999235      12.43881631       2.15355378
Mg      12.74129687      12.66852784       9.32484840
Cu       6.29954347       4.66910201       6.42839740
Cu       6.20029128       4.89746761      13.64449206
Cu       6.34627817      11.75412925       6.51673587
Cu       6.31953430      11.81769038      13.69500065
Cu      13.48511344       4.66160379       6.65452767
Cu      13.53745218       4.90231051      13.82324884
Cu      13.57672134      11.69256793       6.68565614
Cu      13.53130960      11.90887113      13.89957762
Cu       4.59088600       6.34282305       6.36359180
Cu       4.44803875       6.56242856      13.60635990
Mg       4.57154185      13.33224428       6.52429638
Cu       4.55794055      13.64258822      13.59525521
Mg      11.69656816       6.44476934       6.59322393
Cu      11.73665820       6.74622499      13.65234049
Cu      11.79950903      13.43292204       6.57326689
Cu      11.61077038      13.60980196      13.79442670
Cu       2.69434384       2.91825288       4.54759512
Cu       2.65993310       2.98964309      11.83927523
Cu       2.69992901       9.81287519       4.57513624
Cu       2.67203638      10.06726719      11.78188546
Cu       9.84903599       2.80162218       4.73895970
Cu       9.92310899       9.91683449       4.78991754
Cu       9.87227339      10.14603178      11.95477976
Cu       6.25592499       0.98232549       2.91529439
Cu       6.30537526       1.17115753      10.06442209
Cu       6.37805508       8.11853995       2.85050566
Cu       6.30620276       8.23272508      10.11093690
Cu      13.56415116       1.05385780       3.04945695
Cu      13.47137664       1.27258043      10.19786312
Cu      13.57009293       8.13489162       3.09673970
Cu      13.52337014       8.36552263      10.28195200
Cu       0.92214453       4.32690385       0.96955790
Cu       0.98393778       4.68834856       8.04675805
Cu       0.97038915      11.48880837       0.97052025
Cu       0.94021160      11.70326413       8.07307588
Cu       8.16705881       4.52099375       1.14776027
Cu       8.13925933       4.65596693       8.26070126
Cu       8.13887184      11.50097102       1.11131500
Cu       8.24180965      11.65465328       8.31098650
Cu       4.59477635       4.53661081       4.59431617
Cu       4.45105870       4.74858839      11.85314179
Cu       4.47939201      11.67851045       4.60549439
Cu       4.47712980      11.76697022      11.80397073
Cu      11.80744735       4.64615750       4.80532876
Mg      11.54998303       4.87807875      12.04399028
Cu      11.89976703      11.61235966       4.83703675
Cu      11.71119397      11.92034013      11.95199621
Cu       0.86362166       6.05696158       2.68953238
Cu       0.81035898       6.48419051       9.88161533
Cu       0.79690259      13.34977328       2.74408147
Cu       0.84628802      13.47924424       9.91440932
Cu       8.17361982       6.22957510       2.90632678
Cu       8.11065306       6.43130669      10.08119082
Cu       8.07595261      13.32823084       2.83352125
Cu       8.11665652      13.61050917      10.12599231
Mg       2.79147924       6.23440401       0.95885058
Cu       2.76526027       6.37129847       8.21809529
Cu       2.76055339      13.22938457       1.00938868
Cu       2.63868871      13.45486202       8.17697969
Cu       9.80782015       6.33209076       1.10662168
Cu       9.91879607       6.45941217       8.30141846
Cu       9.96504010      13.28856686       1.09745804
Cu       9.84563616      13.45759944       8.34994514
Cu       2.75128559       4.47905125       2.70843802
Cu       2.74981638       4.74590101       9.99002829
Cu       2.78066598      11.49219937       2.76955319
Cu       2.70267324      11.78565485       9.84264509
Cu       9.92635343       4.51004917       3.04661557
Cu      10.04387531       4.73231952      10.10738029
Cu       9.87245633      11.55391781       3.01057779
Cu       9.88033332      11.70664338      10.21287693
Cu       4.45660182       2.68601965       2.85705132
Cu       4.39275706       3.00304803       9.92430292
Cu       4.44976220       9.79811375       2.85252471
Cu       4.57035319       9.96997182       9.98451315
Cu      11.68904927       2.74349259       2.99130683
Cu      11.71991509       3.04965140      10.15970972
Cu      11.81787419       9.90420023       3.08523811
Cu      11.64245401      10.03260255      10.17425335
Cu       6.25183349       6.38710511       4.73056000
Cu       6.29731504       6.52434151      11.79322086
Cu       6.31841562      13.40502068       4.65483478
Mg       6.26354047      13.57982648      11.86223690
Cu      13.55141133       6.37081956       4.88554332
Cu      13.45439110       6.53387267      12.01861619
Cu      13.54882409      13.42275777       4.97292227
Cu      13.54407346      13.64020920      12.01797747
Cu       2.71043546       1.07785962       6.38865768
Cu       2.60689655       1.40085017      13.61173478
Cu       2.62236202       8.17964582       6.42715287
Cu       2.64893153       8.43085984      13.58175029
Mg       9.87837515       1.16739039       6.50258468
Cu       9.96526155       1.28903408      13.78523289
Cu       9.83727312       8.19645589       6.52038539
Cu       9.89359004       8.37276603      13.79305753
Cu       0.95625361       1.00995994       4.49646490
Cu       0.89983839       1.34137099      11.72016722
Cu       0.90507828       8.07723809       4.51639166
Cu       0.80914502       8.26752948      11.71911037
Cu       8.06703711       0.99934871       4.73387464
Cu       8.09832967       1.31066650      11.91184417
Cu       8.19125092       8.13584368       4.63393169
Cu       8.09351508       8.20381327      11.99545492
Cu       6.31509278       2.67927403       1.02020218
Cu       6.35188970       9.71462221       1.05995611
Cu       6.32063999      10.01004819       8.27169504
Cu      13.54328018       2.72214532       1.15166184
Cu      13.55490326       3.02496108       8.45617278
Cu      13.61590739       9.75629956       1.24748515
Cu      13.50841606      10.01520756       8.37349945
Cu       0.95732606       2.79757987       6.39749230
Cu       0.91911756       3.02471048      13.52311717
Cu       0.89580506       9.95757230       6.31873070
Cu       0.84466744      10.09036174      13.54992462
Cu       8.04985855       2.96831683       6.50034141
Cu       8.09808586       3.11829300      13.67901419
Cu       8.15779562       9.95572549       6.55036950
Cu       7.98887041      10.13867678      13.70307597
Cu       4.58183945       0.97862571       1.04940222
Cu       4.49048874       1.15005468       8.23174011
Cu       4.48940194       7.98196143       0.94567956
Cu       4.45541863       8.20069385       8.18763331
Cu      11.87944550       1.04080104       1.17810476
Cu      11.67817075       1.21196677       8.38832590
Cu      11.67390240       7.98316707       1.10072402
Cu      11.74875975       8.26440456       8.43309391
