192
Lattice="14.120677069341248 0.3527763584017081 0.47882513137638794 -0.06558966335985018 14.071566896515174 0.07979509427288957 0.14890019711644245 0.07370994406000983 14.027082961110256" Properties=species:S:1:pos:R:3 pbc="T T T"
Mg       3.54611434       0.08208738       3.61597476
Mg       3.60707229       0.20889350      10.52138291
Mg       3.57538941       7.13415295       3.69336839
Mg       3.59645407       7.22789740      10.58919174
Cu      10.67957393       0.29398657       3.89948805
Mg      10.72000306       0.27861696      10.76839041
Mg      10.54101452       7.34030228       3.88063589
Mg      10.67656648       7.38869007      10.90816489
Mg       1.79180871       1.79445008       1.88508463
Mg       1.86066042       1.87766137       8.80041944
Mg       1.80225781       8.82746208       1.85132477
Mg       1.89281453       8.90045923       8.91247778
Mg       8.79980465       2.01143570       2.11643401
Mg       8.94192826       1.88719031       9.12306691
Mg       8.78364512       8.97398621       2.12436752
Cu       8.92156248       9.02118477       9.07720734
Mg       0.00951246       0.03819053       0.06465851
Cu       0.06841566       0.07048132       7.04357591
Mg      -0.03491214       6.95101403      -0.05245388
Mg      -0.01647065       7.11594641       7.11065355
Mg       6.95257100       0.11267395       0.21369455
Mg       7.19230024       0.22076043       7.30910868
Mg       6.98107180       7.20670982       0.26988476
Mg       7.04146548       7.27770235       7.30433791
Mg       1.71405184       5.36416847       5.27323376
Mg       1.89207187       5.39862583      12.39052546
Cu       1.82512087      12.41405766       5.41564646
Mg       1.86390275      12.43414794      12.40845233
Mg       8.81418655       5.55346871       5.55563323
Mg       8.85091379       5.48432695      12.71724715
Mg       8.86955768      12.61886656       5.62401594
Mg       8.95088886      12.60312495      12.64157100
Mg       5.34498807       1.93754780       5.49686249
Mg       5.49951300       1.98682492      12.40347599
Mg       5.31354915       8.99816967       5.50058547
Mg       5.30585807       8.99782090      12.43988268
Mg      12.38439074       2.12407477       5.57954885
Mg      12.33889993       2.08867802      12.68111341
Mg      12.34655821       9.16003835       5.74758162
Mg      12.45944920       9.10906024      12.70060750
Mg       0.08011646       3.53145434       3.50630147
Mg       0.07113226       3.52817152      10.55928765
Mg      -0.02832019      10.51879338       3.61457682
Mg       0.05155017      10.54216213      10.60144531
Cu       7.07360354       3.70452167       3.73117076
Mg       7.21376735       3.73625707      10.75177348
Mg       7.12184978      10.74508765       3.84009730
Cu       7.14801262      10.79703887      10.76187257
Cu       3.50862091       3.71362566       0.10537284
Mg       3.59754184       3.66904935       7.11636807
Cu       3.42252093      10.59272179       0.22728125
Mg       3.46987536      10.74595591       7.21794286
Mg      10.56932278       3.79211238       0.36546525
Mg      10.64344931       3.78768214       7.44897227
Mg      10.56154453      10.83456504       0.42614131
Mg      10.63709900      10.76888751       7.45058342
Mg       5.22347865       5.49718892       1.95421891
Mg       5.37656283       5.57140385       8.94167609
Mg       5.26704643      12.42734192       1.95875140
Mg       5.36684838      12.52707881       8.99192685
Mg      12.37374424       5.59623966       2.18404170
Mg      12.40978748       5.57108809       9.19271425
Mg      12.27997287      12.61905062       2.19919222
Mg      12.33800846      12.67056138       9.20932750
Mg       6.21782194       4.66281349       6.46173651
Cu       6.30754834       4.58807582      13.32326383
Cu       6.13865553      11.55606059       6.43100040
Cu       6.21637710      11.67274346      13.39828888
Cu      13.23176688       4.82088687       6.57813436
Cu      13.30427722       4.82726646      13.61397245
Cu      13.23012160      11.82365813       6.57327085
Cu      13.36563767      11.94413589      13.74148502
Cu       4.47420317       6.41583483       6.32849881
Cu       4.57732115       6.41103935      13.34621612
Cu       4.39428597      13.33413151       6.38666487
Cu       4.46170787      13.43662251      13.35620314
Cu      11.50330688       6.49455024       6.55923678
Cu      11.52688409       6.52274055      13.58861789
Cu      11.50228952      13.51373026       6.59949487
Cu      11.57003492      13.56340686      13.57747814
Cu       2.63866444       2.67819627       4.48400146
Cu       2.80234894       2.74876560      11.49603364
Cu       2.73404492       9.83230364       4.55038903
Cu       2.67663163       9.83821478      11.58446695
Cu       9.73956454       3.05827701       4.69040498
Cu       9.77424968       2.94175239      11.77206926
Cu       9.65172176       9.93497370       4.82959366
Cu       9.77441097       9.91471370      11.85009929
Mg       6.15530505       1.02870331       2.90467407
Cu       6.25635424       1.09376938       9.86274941
Cu       6.23185167       8.08023343       2.92899356
Cu       6.24832270       8.11923183      10.01292317
Cu      13.27872360       1.19150226       3.03242931
Cu      13.31113381       1.23558752      10.06337478
Cu      13.20815208       8.28819640       3.03313644
Cu      13.24275560       8.28097634      10.21073119
Cu       0.91263664       4.38536352       0.86603325
Cu       0.92820172       4.41985306       7.85585395
Cu       0.78919466      11.41260825       0.99650876
Cu       0.91071688      11.45568765       8.03600102
Cu       7.87447459       4.56657211       1.16117660
Cu       8.06713412       4.53171272       8.22523814
Cu       7.98527342      11.65628233       1.14971759
Cu       7.90272818      11.60056241       8.19103682
Cu       4.31905514       4.52932810       4.56382955
Mg       4.53697450       4.51926984      11.57066948
Cu       4.41430571      11.46147140       4.65379760
Cu       4.45770166      11.53832583      11.57970087
Cu      11.48635069       4.81766030       4.79932417
Cu      11.45819930       4.69158752      11.78476284
Cu      11.35894716      11.76650200       4.86268191
Cu      11.55264913      11.72007269      11.87821995
Cu       0.92888991       6.19166073       2.71331278
Cu       0.98426196       6.24988711       9.68627005
Cu       0.77460853      13.23169030       2.68273812
Cu       0.91266829      13.16137397       9.77173669
Cu       7.85107059       6.35371910       2.95074647
Mg       8.11952464       6.40359438      10.03409171
Cu       7.92083591      13.41545745       2.97470239
Cu       7.99235853      13.42415823      10.02891238
Cu       2.57188472       6.32166752       1.00448484
Mg       2.73514974       6.23376398       7.98816681
Cu       2.61008129      13.26058834       1.01881512
Cu       2.69392314      13.25900522       8.05910809
Mg       9.65613125       6.40207187       1.24966186
Cu       9.78148659       6.42307045       8.35953787
Mg       9.61911830      13.41831460       1.21768931
Cu       9.75824591      13.46743146       8.33183591
Cu       2.66615299       4.44241110       2.74189284
Cu       2.66769551       4.51445133       9.70876452
Cu       2.58627223      11.56262519       2.81471092
Cu       2.78723811      11.58029009       9.77566476
Cu       9.67467249       4.77561255       2.98458614
Cu       9.83904342       4.59995871       9.94979746
Cu       9.59815285      11.69525578       3.10347665
Cu       9.91218116      11.79805000       9.99745145
Cu       4.43028366       2.80203860       2.73887723
Cu       4.50228280       2.79113479       9.85367167
Cu       4.38980747       9.79838301       2.79522058
Cu       4.51311067       9.77622421       9.79809838
Cu      11.44015689       2.99734185       3.09519839
Cu      11.57013142       2.90020282       9.94089926
Cu      11.51317669      10.02534726       3.11761734
Cu      11.58499457      10.03739512      10.15505065
Cu       6.22174049       6.42143663       4.66301104
Cu       6.19143851       6.37107528      11.64100363
Cu       6.14644215      13.33759168       4.61248113
Cu       6.12251947      13.41069266      11.73408832
Cu      13.33077947       6.45766262       4.91455654
Cu      13.31971177       6.64724431      11.86278385
Cu      13.24136164      13.48210092       4.87812916
Cu      13.30993076      13.51867802      11.84772621
Cu       2.67249274       0.92753723       6.27959828
Cu       2.71517765       1.03150068      13.28963724
Cu       2.60808799       7.97854949       6.26853731
Cu       2.76477046       8.05827867      13.26093419
Cu       9.79419626       1.15803149       6.46980118
Cu       9.89002965       1.18559309      13.46291991
Cu       9.83695650       8.21603814       6.53072138
Cu       9.75262035       8.21771843      13.56926075
Cu       0.94229390       0.94042811       4.40285924
Cu       0.93091207       0.97566578      11.41139379
Cu       0.93690658       7.98081846       4.56306543
Cu       0.94908642       7.94245032      11.48673595
Cu       8.03262108       1.17295640       4.59572920
Cu       8.02978566       1.16597182      11.70194569
Cu       7.92548839       8.12389514       4.68275322
Cu       7.96978991       8.26348783      11.64289193
Cu       6.11501194       2.75497494       1.11670095
Cu       6.25804971       2.87482771       8.10848623
Cu       6.16273579       9.79774532       1.17048481
Mg       6.26808707       9.88973561       8.12300426
Cu      13.25838385       2.98276100       1.35023248
Cu      13.36022516       3.03024098       8.34466741
Cu      13.12324065      10.09588177       1.41679015
Cu      13.35538931      10.01163307       8.37083360
Cu       0.92262033       2.69820197       6.17841981
Cu       1.00292133       2.69598090      13.31927439
Cu       0.88833323       9.72034735       6.21350153
Cu       0.96408270       9.78561187      13.26739636
Cu       7.93367105       2.89394575       6.39516834
Cu       8.04234798       2.91979857      13.47224007
Cu       7.96295019       9.94039775       6.51979064
Cu       8.04724737       9.91098358      13.48472931
Cu       4.49792763       0.95053138       1.02822981
Cu       4.43483299       1.08467591       8.05608856
Cu       4.37469439       7.97837910       1.00141738
Cu       4.44872007       7.99100800       8.04241014
Cu      11.50067159       1.18235900       1.21432278
Cu      11.60831038       1.20618223       8.27032784
Cu      11.37361507       8.14343990       1.24811454
Cu      11.60326215       8.23041799       8.28934337
