189
Lattice="14.631118873886065 -0.17770288341347373 0.14950025953534365 0.873144831776987 14.829441819315676 0.19860859187649596 -0.28121809693396255 0.1290568062225431 14.530567676586555" Properties=species:S:1:pos:R:3 pbc="T T T"
Mg       3.70743064       0.04537753       3.65510201
Mg       3.45986520       0.06997672      10.91501058
Mg       4.06780159       7.28301338       3.84530343
Mg       3.93713093       7.41872336      11.07182565
Mg      10.84135465      -0.10591635       3.70690066
Mg      10.83914862      -0.12559632      10.95849734
Mg      11.38970628       7.34968469       3.91123494
Mg      11.11938507       7.32947016      11.08329765
Mg       1.98423492       1.85920427       1.78687280
Mg       1.73028782       1.90219876       9.17047948
Mg       2.33166859       9.31882896       1.89297345
Mg       2.16164557       9.32124048       9.16175256
Mg       9.27317733       1.68014671       1.95779901
Mg       9.11679161       1.78948475       9.15433759
Mg       9.49184478       9.18034081       9.23206325
Mg      -0.12152969      -0.00816680      -0.02975372
Mg      -0.10597676       0.03478520       7.27647695
Mg       0.39023385       7.43347084       0.11063498
Mg       0.25849551       7.53028059       7.47232564
Mg       7.27602636      -0.05926521      -0.00868293
Mg       7.28112675      -0.04506010       7.36087826
Mg       7.71275193       7.22398182       0.25017894
Mg       7.68359246       7.44742820       7.42152412
Mg       1.93694542       5.67092097       5.61303945
Mg       1.93846956       5.64572396      12.76628296
Mg       2.44748732      12.97242913       5.65878559
Mg       2.39329620      13.02687044      12.89844599
Mg       9.38723699       5.43402484       5.59075894
Mg       9.14443986       5.47001810      12.90973103
Mg       9.74602170      12.89645574       5.65096671
Mg       9.65563418      12.94028580      13.00973858
Mg       5.44596557       1.95244265       5.46648039
Mg       5.43344654       1.90960579      12.74905108
Mg       5.95956335       9.29638052       5.62544927
Mg       5.85018999       9.26823397      12.90800515
Mg      12.71677027       1.89650092      12.86251172
Mg      13.22461403       9.16313758       5.68197089
Mg      13.18094980       9.29130053      13.00565356
Cu       0.15922986       3.76079532       3.59285150
Mg       0.03463080       3.80498105      10.97177704
Mg       0.45158206      11.10715266       3.81627407
Mg       0.50938574      11.23483342      11.05757668
Cu       7.39429255       3.67581095       3.83806060
Mg       7.39025690       3.71961758      11.13722865
Cu       7.87091345      11.18448914       3.85127099
Mg       7.68127446      11.18688752      11.08312241
Mg       3.78850356       3.58367082       0.11085111
Mg       3.68914598       3.78343708       7.43222469
Mg       4.29955182      11.14087423       0.12081329
Mg       4.14248230      11.13824562       7.41098500
Mg      11.12404898       3.56748800       0.21432639
Mg      11.10973979       3.59776403       7.46134609
Mg      11.56813242      10.99632894       0.25389262
Mg      11.48199661      11.02028317       7.49415904
Mg       5.80689922       5.46326840       1.95423897
Mg       5.55795189       5.59620964       9.21780494
Mg       6.22670316      12.98543086       2.04452954
Mg       6.02889713      12.88119807       9.42404434
Mg      13.11859058       5.32583026       1.99058347
Mg      12.99253440       5.48003059       9.28477223
Mg      13.56480461      12.83236675       2.13372027
Mg      13.44691323      12.89876140       9.31982040
Cu       6.52946002       4.64194075       6.48564226
Cu       6.42845309       4.68128099      13.76780008
Cu       7.09766432      11.93377921       6.59505303
Cu       6.86684089      12.12730438      13.80444862
Cu      13.86306303       4.53564979       6.57280347
Cu      13.67488056       4.62220691      13.75192713
Cu      14.26816932      11.87882560       6.57411625
Cu      14.17445695      11.98202837      13.92783043
Cu       4.79462041       6.47190783       6.57202205
Cu       4.77552260       6.61416767      13.77693143
Cu       5.21609817      13.92799699       6.51673536
Cu       5.20376985      13.96100753      13.86306329
Cu      12.11161950       6.41570763       6.64454147
Cu      12.01401997       6.36855653      13.85998394
Cu      12.58014983      13.80823324       6.69224647
Cu      12.48078096      13.72531469      13.93895480
Cu       2.86441564       2.74224595       4.62258917
Cu       2.67688851       2.78212215      11.94263737
Cu       3.28112813      10.22222450       4.65758964
Cu      10.18848350       2.77221900       4.73367895
Cu       9.96565887       2.76204761      11.88961977
Cu      10.51138508       9.98693656       4.78003318
Cu      10.40037485      10.08846798      12.14420546
Cu       6.39490297       0.95098368       2.79578449
Cu       6.34630410       0.86717221      10.06071408
Cu       6.82216351       8.33172687       2.94526394
Cu       6.70067740       8.35193600      10.15332854
Cu      13.67633613       0.76293060       2.85243355
Cu      13.65661360       0.92512104      10.17394867
Cu      14.23886342       8.21545962       2.99888968
Mg      14.01812525       8.30404950      10.22858851
Cu       1.22391132       4.63064235       0.96404225
Cu       1.09153465       4.72523097       8.27848885
Cu       1.62713597      12.00363859       1.13855650
Cu       1.38355879      12.17656773       8.39308634
Cu       8.39255306       4.50867294       1.02325633
Cu       8.30599324       4.63018890       8.34804273
Cu       8.87393855      12.04194452       1.21834653
Cu       8.81320213      12.03766121       8.49694055
Cu       4.71510208       4.56308581       4.68860969
Cu       4.52350418       4.73228181      12.00886330
Cu       5.22609475      12.04232714       4.72016615
Cu       5.07148002      12.04001359      11.95152559
Cu      12.01359253       4.53469102       4.75989553
Cu      11.90488383       4.57555710      11.98805038
Cu      12.45821656      11.90457805       4.66444613
Cu      12.42638893      12.00088067      12.09144895
Cu       1.28329812       6.49561313       2.85882188
Cu       1.05523006       6.59749938      10.12720069
Cu       1.60007587      13.87514297       2.80246871
Cu       1.49454415      13.91464662      10.16311679
Cu       8.57831881       6.40564559       2.90231554
Cu       8.40438573       6.43857960      10.33128851
Cu       9.03863290      13.89072853       3.02325372
Cu       8.75365801      13.92874885      10.30164792
Cu       3.09202007       6.55871792       0.99524679
Cu       2.97749925       6.55146597       8.31813411
Mg       3.56571222      13.91903291       1.12272687
Cu       3.38769712      13.92554113       8.32813993
Cu      10.45212010       6.42771914       1.06316951
Cu      10.29315707       6.42933535       8.32906955
Cu      10.82791709      13.72183207       1.24788304
Cu      10.66118424      13.87438331       8.47986623
Cu       2.95720403       4.60487366       2.84559416
Cu       2.89756487       4.63468778      10.20718999
Cu       3.38347486      12.02530590       2.92866971
Cu       3.27427348      12.08549071      10.18940708
Cu      10.30890045       4.50952387       2.94433109
Cu      10.05621097       4.48209373      10.19501382
Cu      10.78349595      11.90744080       3.02986758
Cu      10.64439057      11.97534454      10.29017879
Cu       4.64668042       2.72750485       2.80781361
Cu       4.54234571       2.82473818      10.10583765
Cu       5.11524153      10.14325424       2.95338734
Mg       4.99809283      10.19007687      10.14919024
Cu      11.90918399       2.68437849       2.88840873
Cu      11.77289161       2.64826074      10.04220124
Cu      12.45730059      10.05039579       2.94492518
Cu      12.32110954      10.17360087      10.24021307
Cu       6.65563508       6.44234128       4.67257747
Cu       6.53408630       6.48413746      11.88276571
Cu       7.08584579      13.83832168       4.81321695
Cu       6.99057448      13.88744032      12.04214147
Cu      14.03440831       6.45899395       4.78879649
Cu      13.80802437       6.46286744      12.10382803
Cu      14.41463286      13.79442416       4.84140487
Cu      14.36966293      13.83641955      12.04325480
Cu       2.64162903       1.01078031       6.33787913
Cu       2.56207941       1.07628458      13.64559773
Cu       3.20866548       8.31151086       6.45707548
Cu       3.00033372       8.49153821      13.78437407
Cu       9.97759337       0.81123700       6.46887222
Cu       9.87799902       0.92133664      13.81184344
Cu      10.40012264       8.26749653       6.48583820
Cu      10.20538004       8.38549829      13.85058889
Cu       0.99832296       0.93481331       4.57639643
Cu       0.82076263       1.13561815      11.78982286
Cu       1.32918723       8.43187456       4.58266406
Cu       1.17821712       8.42809279      11.91466622
Cu       8.21547379       0.90847486       4.62207280
Cu       8.04419320       0.96730805      11.86855584
Cu       8.57154637       8.32087005       4.74333469
Cu       8.45655204       8.26985685      11.94854349
Cu       6.49621440       2.76592281       0.96956265
Cu       6.45803316       2.85157633       8.34419863
Cu       6.91170117      10.11573411       1.09859225
Cu       6.88992212      10.23249844       8.33931029
Cu      13.91805076       2.62677009       1.05663010
Cu      13.75311061       2.77804474       8.37889923
Cu      14.30590974       9.95701376       1.15642563
Cu      14.19799291      10.08788080       8.41026656
Cu       0.87339530       2.75163116       6.42643779
Cu       0.80635686       2.91841197      13.66617356
Cu       1.43404405      10.32753381       6.43636260
Cu       1.28215555      10.33442805      13.73160463
Cu       8.23843966       2.80348047       6.52126283
Cu       8.17117745       2.83163493      13.79112616
Cu       8.68352693      10.17237268       6.56746622
Cu       8.50572806      10.07565230      13.80969470
Cu       4.60851955       0.87096227       0.98012942
Cu       4.46549714       0.96859611       8.18429478
Cu       4.96123753       8.27398348       1.18028011
Cu       4.90803038       8.46902892       8.40763921
Cu      11.91762959       0.75181199       1.04668188
Cu      11.82103953       0.93984185       8.28139038
Cu      12.29587467       8.26948068       1.07987987
Cu      12.25409377       8.30864752       8.42551011
