192
Lattice="14.189212599140195 -0.1825228633349644 -0.06282631991848278 0.1827583069267154 14.03328324202241 0.015944766654913088 -0.034683107638548635 0.179877899995008 14.28403823355385" Properties=species:S:1:pos:R:3 pbc="T T T"
Mg       3.61487374      -0.04744259       3.50337105
Mg       3.47593991       0.04280892      10.68649898
Mg       3.65523693       7.08962597       3.64816657
Mg       3.54894904       7.09305302      10.70449852
Mg      10.71131707      -0.18212003       3.49126256
Mg      10.66140459       0.05327465      10.70148834
Mg      10.75821404       7.00294737       3.61201896
Mg      10.66827928       6.97843116      10.67879780
Mg       1.82310012       1.65106014       1.78750357
Mg       1.74521020       1.88227041       8.93307385
Mg       1.79597452       8.70643020       1.81001114
Mg       1.89422327       8.77194141       8.91864101
Mg       8.86247388       1.65402760       1.73789668
Mg       8.77322355       1.74018224       8.86136916
Mg       8.96019837       8.71211442       1.76246180
Mg       8.84698270       8.78287288       8.83907776
Mg      -0.00154535       0.07256159       0.09460577
Mg      -0.02611787       0.14471742       7.10393057
Mg       0.13995741       7.09022374      -0.05138551
Mg       0.13727061       7.09987106       7.14999753
Mg       7.07009877      -0.11691974      -0.14135520
Mg       7.06306254       0.04800194       7.13328801
Mg       7.07938028       6.97786477      -0.01798935
Mg       7.18934052       7.07201215       7.16348556
Mg       1.86254645       5.27635441       5.32618018
Mg       1.80705198       5.49834686      12.52020354
Mg       1.81098417      12.33106873       5.29986426
Mg       1.85935094      12.42705622      12.52488717
Mg       8.85075478       5.25892465       5.27934274
Mg       8.90236677       5.30687440      12.52315269
Mg       8.93506160      12.24481226       5.38119600
Mg       9.00526054      12.33486803      12.38878221
Mg       5.28834147       1.71635931       5.39414881
Mg       5.19627007       1.85658294      12.49354661
Mg       5.35238967       8.78820496       5.33363306
Mg       5.49248816       8.76948558      12.47664624
Mg      12.40418578       1.69392930       5.26773607
Mg      12.53568543       1.78530677      12.44273454
Mg      12.55445577       8.68996900       5.28648303
Mg      12.46629497       8.73262147      12.42745995
Cu       0.07495655       3.62884496       3.62628004
Mg       0.08503909       3.58886239      10.73198348
Mg       0.04421478      10.62141419       3.59825578
Mg       0.05368961      10.67216781      10.72792755
Mg       7.04678258       3.42199536       3.54683267
Mg       7.04304892       3.51508491      10.63781173
Cu       7.20954919      10.43590457       3.60652529
Mg       7.23920727      10.51852832      10.60028164
Mg       3.61938657       3.42177629      -0.07017982
Mg       3.58718955       3.55954042       7.11627351
Mg       3.65508400      10.48468710       0.00668191
Mg       3.71078060      10.56283748       7.14032713
Mg      10.72310988       3.41638906      -0.05529984
Mg      10.68775333       3.42546443       7.14071313
Mg      10.75349220      10.44417690       0.04215733
Cu      10.80195813      10.56963012       7.08135681
Mg       5.35721389       5.17695967       1.80769580
Mg       5.39119376       5.25392580       8.93174935
Mg       5.49755971      12.19016944       1.84545218
Cu       5.44199778      12.38848866       8.90981081
Mg      12.41972018       5.07831963       1.74581726
Mg      12.47140693       5.21427533       8.79189211
Mg      12.62803624      12.16011697       1.71467287
Mg      12.48138731      12.23071530       8.87772150
Cu       6.30169246       4.45587314       6.29483103
Cu       6.25716183       4.42340243      13.32724051
Cu       6.33481489      11.39531384       6.24603807
Cu       6.28710008      11.49467614      13.40438146
Cu      13.33148948       4.35734419       6.20888656
Cu      13.29003282       4.43757262      13.37216561
Cu      13.43203431      11.30148970       6.26519576
Cu      13.49089134      11.38142206      13.27676378
Cu       4.52663113       6.11437754       6.21153749
Cu       4.41701221       6.33152100      13.31395206
Cu       4.57769514      13.08912915       6.29793825
Cu       4.56641306      13.29846609      13.37855078
Cu      11.57786515       6.01084749       6.16595709
Cu      11.58972918       6.20176832      13.35533716
Cu      11.63511826      13.09606543       6.22404132
Cu      11.73902028      13.17112620      13.32658572
Cu       2.73816926       2.61636366       4.41065175
Cu       2.64311768       2.81757412      11.57947326
Cu       2.78109489       9.77907016       4.41299881
Cu       2.65893694       9.75568664      11.59734781
Cu       9.72416612       2.58135193       4.47324886
Cu       9.73890150       2.57283949      11.60483750
Cu       9.89310729       9.60973079       4.54276007
Cu       9.87009215       9.64345548      11.57872161
Cu       6.19978483       0.81106509       2.71960421
Cu       6.21793176       0.90603445       9.90791093
Cu       6.40928483       7.75794833       2.71018289
Cu       6.21638458       7.89642547       9.70652891
Cu      13.24653401       0.70460896       2.62664826
Cu      13.28294579       0.79298286       9.80489987
Cu      13.42284294       7.72458095       2.58115053
Cu      13.35910107       7.85413540       9.74750073
Cu       0.98836718       4.34415394       0.88608883
Cu       0.91120626       4.49586040       8.03552049
Cu       0.97650263      11.31418638       0.86269459
Cu       0.96086751      11.41753775       8.05090551
Cu       8.05070716       4.29739883       0.85521193
Cu       7.98494611       4.38772784       8.01942994
Cu       8.12772682      11.32911524       0.84803549
Cu       8.13793241      11.31394512       7.99553025
Cu       4.49019390       4.44106731       4.51350844
Cu       4.43996272       4.43242392      11.63933937
Cu       4.58808935      11.42441837       4.35725306
Cu       4.62233378      11.55810987      11.55438449
Cu      11.69097285       4.25474760       4.45713508
Cu      11.51351985       4.40301264      11.59333803
Cu      11.71377377      11.27979969       4.46367400
Cu      11.64265275      11.35327917      11.52319473
Cu       1.04120667       6.14635272       2.59561425
Cu       0.99871000       6.05274651       9.87953948
Cu       1.03375372      13.17543800       2.68790782
Cu       0.99687730      13.32009046       9.82807300
Mg       8.05591258       6.07959457       2.67490661
Cu       7.98637170       6.13982332       9.80981245
Cu       8.10319407      12.97716765       2.66551073
Cu       8.15462282      13.09114359       9.74220352
Cu       2.77770507       6.16992937       0.90251488
Cu       2.76981927       6.19850247       8.04899919
Cu       2.81661511      13.06997133       0.99476271
Cu       2.68776302      13.22636637       8.04845377
Cu       9.87304185       6.03281619       0.90073704
Cu       9.78151578       6.16342225       7.98151335
Cu       9.95953182      12.95699552       0.82006820
Cu       9.95324538      13.13103121       8.00315550
Cu       2.82210947       4.43485762       2.77754855
Cu       2.69550777       4.47169076       9.88325571
Cu       2.85712174      11.44370897       2.54589979
Cu       2.74530847      11.45998530       9.81919975
Cu       9.83936724       4.25311480       2.58178019
Cu       9.74348643       4.33740765       9.76813668
Cu       9.90519228      11.27670637       2.63644348
Cu       9.86319827      11.40740755       9.77096821
Cu       4.48356400       2.61406011       2.68613188
Cu       4.51637508       2.70221957       9.86514894
Cu       4.58190973       9.66601920       2.77477988
Cu       4.50160500       9.69729961       9.77357686
Cu      11.48183826       2.50880958       2.59016700
Cu      11.61109492       2.48116904       9.75142474
Cu      11.62744380       9.52293516       2.63163247
Cu      11.53463873       9.64683891       9.85012096
Cu       6.29508098       6.02798983       4.47842660
Cu       6.22803452       6.12231209      11.63144467
Cu       6.39369036      13.16215732       4.50299280
Mg       6.32785540      13.16692011      11.66946174
Cu      13.36533965       6.08448014       4.41104953
Cu      13.35063667       6.21887987      11.63791048
Cu      13.45011084      13.06700951       4.27975878
Cu      13.37432464      13.14133795      11.48561516
Cu       2.58966390       0.86413495       6.25553559
Cu       2.59212428       0.89172344      13.39073101
Cu       2.81552826       7.96834136       6.29842314
Cu       2.78223108       8.10863220      13.38008072
Cu       9.73356177       0.86787314       6.23319344
Cu       9.70307816       0.91792865      13.40005236
Cu       9.83746704       7.78257798       6.21481818
Cu       9.88378906       7.99888131      13.28241003
Mg       0.93866430       0.93199815       4.48967839
Cu       0.90063780       1.05059308      11.61458431
Cu       0.89348685       7.99652485       4.45814229
Cu       0.99794456       8.05768451      11.57164911
Cu       8.00238013       0.82975467       4.42661129
Cu       7.94403098       0.86437184      11.63256482
Cu       8.01258163       7.90214306       4.44630443
Cu       8.05213558       7.93529497      11.51598233
Cu       6.25129648       2.50980815       0.88331072
Cu       6.23603928       2.66820787       7.99088789
Cu       6.27928587       9.51962809       0.96244574
Cu       6.29259361       9.66424728       8.11663727
Cu      13.37637710       2.47651464       0.82769371
Cu      13.32601441       2.50344312       7.94796647
Cu      13.40364332       9.48792282       0.78485747
Mg      13.43261579       9.52755803       7.98689178
Cu       0.88424238       2.58581634       6.28946237
Cu       0.84367198       2.84211428      13.43096053
Cu       0.91834556       9.70039960       6.22637741
Cu       0.96327874       9.81468400      13.33315184
Cu       7.99056184       2.59673386       6.33460684
Cu       7.97182169       2.71560852      13.43486101
Cu       8.07613406       9.57430927       6.21638168
Cu       8.03543155       9.62373706      13.33571094
Cu       4.37272210       0.79661756       0.86479713
Cu       4.36329525       0.97035522       8.02706208
Cu       4.46219303       7.83665894       0.84438070
Cu       4.57242757       7.91256166       8.02928042
Cu      11.58227410       0.72624991       0.86501589
Cu      11.43193555       0.82930755       8.01835340
Cu      11.57688123       7.74428188       0.94696144
Cu      11.61896401       7.77630456       8.00845169
