190
Lattice="14.06329975798319 -0.6538067880754611 0.05287261407991557 0.3315994940608573 14.458157999640136 6.062650804310324e-05 0.040677337539662684 -0.37459474992566233 14.15425697032068" Properties=species:S:1:pos:R:3 pbc="T T T"
Mg       3.50706901      -0.27002734       3.52208359
Cu       3.60711600      -0.37778972      10.71375078
Mg       3.73269736       6.85687768       3.57070411
Mg       3.67532079       6.83216604      10.62035103
Mg      10.55566142      -0.62545324       3.64944540
Mg      10.59030972      -0.77465899      10.68661447
Mg      10.83657192       6.69433698       3.59900419
Mg      10.66094720       6.42942049      10.64824810
Mg       1.76463398       1.71009751       1.72840560
Mg       1.90654360       1.43229621       8.86365045
Mg       1.96921560       8.89381399       1.75624913
Mg       1.97032890       8.75994937       8.83631660
Mg       8.87191982       1.29946915       1.79659535
Mg       8.84744661       1.20682826       8.88229619
Mg       9.02000063       8.61277634       1.90746984
Mg       9.03399229       8.42383919       8.87680557
Mg       0.03179367       0.03203713      -0.03535831
Mg      -0.01102710      -0.24544559       7.07067690
Mg       0.16190216       7.25531768       0.07312671
Mg       0.23377318       6.92182877       7.08351792
Mg       7.12231592      -0.29798272      -0.01874704
Mg       7.05735702      -0.49671333       7.04729630
Mg       7.24731208       6.94111185      -0.04457594
Mg       7.31392837       6.68290954       7.06809387
Mg       1.85816172       5.20034091       5.24821977
Mg       1.94585710       5.06771259      12.40410059
Cu       2.02873620      12.39474852       5.39029897
Mg       2.11374571      12.34446297      12.39949768
Mg       8.99936303       4.83007188       5.38343577
Mg       8.98573209       4.71687397      12.47094004
Mg       9.06674985      12.15801110       5.41099590
Mg       9.16573344      11.88053929      12.46796109
Mg       5.29527795       1.43595387       5.36417247
Mg       5.35477818       1.17532398      12.38582792
Mg       5.50903644       8.76236290       5.45668679
Mg       5.50780019       8.54719355      12.40412287
Mg      12.40203374       1.14090602       5.37116582
Mg      12.32150547       0.94879356      12.54398378
Mg      12.51955890       8.30772120       5.36382715
Mg      12.55008548       8.19565641      12.40444144
Mg       0.09208664       3.49601319       3.51830048
Mg       0.15940958       3.43811571      10.67255627
Mg       0.21348027      10.65373571       3.49714854
Mg       0.23564708      10.60669767      10.67806766
Mg       7.13586464       3.24780692       3.52399564
Mg       7.07374874       3.08570701      10.71219180
Mg       7.25432487      10.38014208       3.59000165
Mg       7.34135345      10.17810606      10.61554129
Mg       3.61375095       3.44743563      -0.06099878
Mg       3.64195325       3.25448917       7.03247530
Mg       3.78072214      10.68395260      -0.02923508
Mg       3.75380923      10.54181088       7.14248055
Mg      10.60115766       3.03274459       0.07397813
Mg      10.74898774      10.37608934       0.09383299
Mg      10.85828366      10.09268348       7.04611624
Mg       5.41309412       5.14706240       1.70786697
Mg       5.54449684       4.86979027       8.91251820
Mg       5.63990443      12.35440786       1.81460871
Mg       5.63954377      12.24131023       8.79107341
Mg      12.46111788       4.87056151       1.84323923
Mg      12.45643779       4.71092551       8.94002074
Mg      12.53167348      12.00319930       1.81080817
Mg      12.62551530      11.82656346       8.88873324
Cu       6.24253391       4.05601758       6.19127732
Cu       6.37928913       3.83314846      13.30954637
Cu       6.43543037      11.34278015       6.26728140
Cu       6.39194784      11.15650864      13.28146080
Cu      13.29526112       3.72337402       6.21823963
Cu      13.37676399       3.61877814      13.28201678
Cu      13.41538403      10.92160834       6.19956841
Cu      13.45489328      10.70583570      13.36063280
Cu       4.60485154       5.95442879       6.15755722
Cu       4.50957063       5.72786653      13.29782328
Cu       4.61739641      13.17240150       6.24573761
Cu       4.78817262      13.00552227      13.26523005
Cu      11.52201054       5.64197926       6.16346721
Cu      11.55962391       5.39922645      13.31311615
Cu      11.69000123      12.80522433       6.19703556
Cu      11.82804719      12.64159417      13.35532495
Cu       2.76230388       2.52269550       4.41038321
Cu       2.79105324       2.21899464      11.52605612
Cu       2.84038930       9.65819566       4.56610520
Cu       2.82149184       9.47380396      11.53413389
Cu       9.71101220       2.07489533       4.43576644
Cu       9.74196073       1.96745597      11.59384447
Cu       9.84761463       9.31639224       4.37344414
Cu       9.88091801       9.16801118      11.56317872
Cu       6.16481234       0.56112305       2.63962622
Cu       6.15587992       0.41563189       9.81101255
Cu       6.30845631       7.80379195       2.64352747
Cu       6.35968282       7.61643571       9.71275445
Cu      13.29777988       0.18545695       2.64709142
Cu      13.16582447      -0.00329573       9.82530940
Cu      13.44692795       7.45957484       2.75096823
Cu      13.42773183       7.30067669       9.87491927
Cu       0.99744056       4.41090992       0.93284850
Cu       1.01975707       4.34119173       8.00481778
Cu       1.17922871      11.66556339       0.88459172
Cu       1.21587253      11.43221461       8.04754532
Cu       8.06704997       4.14940817       0.98808190
Cu       7.98751827       3.99492303       7.91666374
Cu       8.12687868      11.37362333       0.88954041
Cu       8.08618392      11.16499097       8.00584376
Cu       4.56213367       4.23942318       4.46916654
Cu       4.49875112       3.93626733      11.47173474
Cu       4.74295895      11.36198986       4.36248235
Cu       4.72944735      11.20670083      11.58885587
Cu      11.63189298       3.81188702       4.46714609
Cu      11.49197938       3.64947124      11.57754049
Cu      11.65818390      11.14421809       4.39487313
Cu      11.70129813      10.94696105      11.50545916
Cu       1.16073936       6.21609139       2.66531968
Cu       1.04375297       6.01927307       9.78517122
Cu       1.18052863      13.50074381       2.64674942
Cu       1.21055198      13.24269575       9.70830836
Cu       8.06872756       5.92890019       2.65881068
Cu       8.12457743       5.68503771       9.81325234
Cu       8.25457482      13.13934666       2.67977189
Cu       8.25349207      12.93817785       9.76577310
Mg       2.74461442       6.23912786       0.86861324
Cu       2.86823496       6.01882926       8.02753282
Cu       2.92114278      13.40273263       0.91813768
Cu       3.00559325      13.20269567       7.97776281
Cu       9.83274026       5.93338214       1.00791840
Cu       9.92023144       5.62580070       8.06766547
Cu       9.89186009      13.06277607       1.01250283
Cu       9.91228940      12.89951933       8.02527821
Cu       2.75115274       4.34346634       2.67734193
Cu       2.84833190       4.14179072       9.73416868
Cu       3.01938149      11.60274340       2.73569304
Cu       2.98726302      11.39571739       9.74870856
Cu       9.72610022       3.95451522       2.70441047
Cu       9.78411627       3.85743960       9.67085497
Cu       9.95407103      11.27511505       2.67613934
Cu       9.89239661      10.96337690       9.71554534
Cu       4.39114506       2.35753884       2.62521123
Cu       4.53729395       2.25235444       9.71082234
Cu       4.55661628       9.65294413       2.65692854
Cu       4.58659490       9.53949240       9.68955730
Cu      11.52207416       2.14615863       2.72588026
Cu      11.50699358       1.87581625       9.74869863
Cu      11.71261438       9.37234825       2.69721662
Cu      11.66826717       9.18942600       9.81373743
Cu       6.32955772       5.86923850       4.44266859
Cu       6.26095199       5.72089297      11.51017659
Cu       6.52072731      13.17511559       4.49100635
Cu       6.57665926      12.96806038      11.58067780
Cu      13.32215131       5.55292605       4.49340633
Cu      13.55272935      12.85369903       4.48381922
Cu      13.51611516      12.62068475      11.62600239
Cu       2.62378014       0.59278425       6.23338354
Cu       2.68530670       0.47302081      13.27256447
Cu       2.84211273       7.82678485       6.14718148
Cu       2.83481731       7.68318803      13.17574813
Cu       9.67919022       0.35817272       6.21894455
Cu       9.70691674       0.06026472      13.27214128
Cu       9.89719580       7.50445201       6.18560892
Cu       9.97278768       7.31649467      13.28602635
Cu       1.03741467       0.65433395       4.44690082
Cu       0.95752416       0.61050829      11.46935414
Cu       1.11947031       7.92569505       4.45770125
Cu       1.13309568       7.85867976      11.61513739
Cu       8.01975855       0.37770949       4.44407778
Cu       7.96010981       0.23282613      11.58947781
Cu       8.12440516       7.60016966       4.49798365
Cu       8.21371004       7.48574586      11.45634599
Cu       6.12531997       2.37047227       0.91704759
Mg       6.23914093       2.17843802       8.04607621
Cu       6.41164798       9.62097586       0.88426746
Cu       6.45185544       9.41090063       7.95868998
Cu      13.26954644       2.10598004       0.94595339
Cu      13.18697147       1.89795158       7.97432166
Cu      13.45812328       9.26671703       0.98458397
Cu      13.39704246       9.18761965       8.03809819
Cu       0.98990099       2.52657306       6.12449676
Cu       1.06944139       2.34904547      13.31171715
Cu       1.15396237       9.77678243       6.18162615
Cu       1.19243447       9.56937329      13.24294067
Cu       7.91587560       2.23252337       6.28268439
Cu       8.03790376       1.98475334      13.29434365
Cu       8.15820066       9.31917168       6.19428955
Cu       8.13449713       9.31478325      13.35598050
Cu       4.46858255       0.73064967       0.84436434
Cu       4.47009303       0.57687652       8.03784052
Cu       4.63631121       7.87211232       0.80469399
Cu       4.51168092       7.73544932       7.96482056
Cu      11.44837486       0.31851901       1.05959152
Cu      11.41733198       0.07638116       8.06371225
Cu      11.64852464       7.64398937       0.90893255
Cu      11.71642862       7.39304581       8.01090951
