189
Lattice="14.13163870823858 -0.061511422872769485 0.7640059070886142 -0.3049411519745011 14.432449808430661 -0.3787855991599192 -0.19702522163587044 0.38388957836442855 14.059180699393211" Properties=species:S:1:pos:R:3 pbc="T T T"
Mg       3.52264245       0.09044272       3.72930477
Mg       3.35880651       0.26641784      10.80554640
Mg       3.28176155       7.29096346       3.55834856
Mg       3.20999143       7.51618062      10.56637027
Mg      10.46829268      -0.04453909       4.14656610
Mg      10.52325011       0.22894757      11.18801440
Mg      10.36360423       7.32452304       3.91894413
Mg      10.26086379       7.43880671      10.97527355
Mg       1.71786009       1.72261164       1.84852307
Mg       1.61123526       1.99499199       8.86539365
Mg       1.49109667       9.10708190       1.56561744
Mg       1.40515074       9.24679357       8.67725189
Cu       8.76692300       1.80344326       2.23736868
Mg       8.62574617       1.97825645       9.19729522
Mg       8.59665960       8.98067505       1.94489935
Mg       8.51508984       9.20720503       9.04950188
Mg      -0.00857355      -0.10455782       0.00604737
Mg      -0.16068753       0.22104111       6.96240993
Mg      -0.08129518       7.24512282      -0.14230500
Mg      -0.23207946       7.37810912       6.85127706
Mg       7.10821787      -0.01798079       0.37487288
Mg       6.95809231       0.20397185       7.47445918
Mg       6.92575729       7.18823852       0.19756692
Mg       6.82666559       7.44160436       7.34385698
Mg       1.61734816       5.53612874       5.21988597
Cu       1.40705739       5.74496040      12.23972302
Mg       1.44582436      12.80612153       4.93279986
Mg       1.30349085      13.04361483      12.04002729
Mg       8.58882845       5.47216258       5.55458135
Mg       8.55345836       5.69428748      12.68734227
Mg       8.46467640      12.76191030       5.36070786
Mg       8.39543634      12.93178181      12.37394235
Mg       5.17843306       1.90442797       5.53362998
Mg       5.07984831       2.11964535      12.48192331
Mg       5.07000664       9.09465154       5.37194820
Mg       4.83145233       9.31837830      12.27909251
Mg      12.28640090       1.88547759       5.87617223
Mg      12.07022090       2.08182284      12.90328267
Mg      12.14235270       9.11639508       5.69273131
Mg      12.03996191       9.23360947      12.79768995
Mg      -0.11846587       3.59858113       3.38427067
Cu      -0.18321060       3.80911860      10.49366272
Mg      -0.23564288      10.85424989       3.20633669
Mg      -0.48577820      10.99992617      10.25674714
Mg       6.99928500       3.61510383       3.67904302
Mg       6.89960358       3.86651791      10.88838295
Mg       6.86561292      10.94823605       3.53319354
Cu       6.67787344      11.14113745      10.61655737
Mg       3.39686134       3.54991906       0.07725202
Mg       3.37089014       3.74557465       7.07607554
Mg       3.32664492      10.76378454      -0.09616358
Mg       3.16074384      10.96922424       6.97641895
Mg      10.53250910       3.54390976       0.35590283
Mg      10.38657151       3.79056492       7.41822856
Mg      10.40604662      10.81809346       0.29200361
Mg      10.21281423      10.91393864       7.32519924
Mg       5.18371793       5.45126007       1.94666585
Mg       5.06772281       5.70563910       9.00995784
Mg       5.08009032      12.61600221       1.75891466
Mg       4.91086603      12.78461304       8.77739277
Cu      12.26705951       5.52229731       2.31511480
Mg      12.08122465       5.57959265       9.38229786
Mg      12.02957481      12.63680337       2.00584899
Mg      11.93145934      12.83927032       9.14196657
Cu       5.97115473       4.68133406       6.35527137
Cu       5.97433589       4.72212566      13.44533173
Cu       5.82484201      11.88972367       6.25551409
Cu       5.74149344      12.06806511      13.19803494
Cu      13.06297255       4.56078501       6.86550161
Cu      12.96886214       4.80040776      13.80598944
Cu      12.92123643      11.76192614       6.56248940
Cu      12.90260939      11.99341788      13.53856237
Cu       4.18666841       6.53330203       6.26233900
Cu       4.10564420       6.64201988      13.25742419
Cu       4.03680318      13.77381428       6.00132322
Cu       3.95056244      13.86999271      13.09970827
Mg      11.19418231       6.46183779       6.57435835
Cu      11.14197222       6.56123932      13.67487335
Mg      11.12133071      13.59170347       6.39082682
Cu      10.98340480      13.76233301      13.55120813
Cu       2.55858533       2.83585908       4.50014312
Cu       2.45518399       3.03308194      11.46374355
Cu       2.35040734      10.07767364       4.15491501
Cu       2.33938182      10.25499623      11.32132799
Cu       9.56610305       2.74292676       4.84847165
Cu       9.48025046       3.03917975      11.95325746
Cu       9.46002022       9.99679968       4.61463600
Cu       9.37529404      10.11518860      11.69271880
Cu       6.07093515       0.98797393       2.82273732
Cu       6.18558423       1.05840202       9.95880492
Cu       5.91425862       8.23048898       2.77171915
Cu       5.84283180       8.35654340       9.80735497
Cu      13.28225234       0.91826987       3.36855734
Cu      13.02440641       1.05870576      10.31314221
Cu      13.06953203       8.08045941       3.12691816
Cu      12.86982095       8.22383481      10.15123193
Cu       0.71776738       4.50111114       0.85007555
Cu       0.68727212       4.80394957       7.78551646
Cu       0.57504992      11.77218249       0.58240537
Cu       0.50431493      11.95203091       7.66704887
Cu       7.85767476       4.50622825       1.16277225
Cu       7.76475860       4.63315332       8.23869182
Cu       7.78572496      11.70331709       0.97490304
Cu       7.69624270      11.80142063       7.99331608
Cu       4.31959967       4.53385740       4.42912278
Cu       4.14910048       4.78034354      11.49615786
Cu       4.09794366      11.87168098       4.30849978
Cu       4.00420307      11.97336405      11.36886477
Cu      11.37354168       4.59558333       4.92106859
Cu      11.21223064       4.76564018      12.01504360
Cu      11.21160090      11.80940560       4.67977191
Cu      11.11869896      11.96506226      11.71617850
Cu       0.69030093       6.38380431       2.60928584
Cu       0.49745197      13.62110100       2.38277282
Cu       0.46955017      13.79459623       9.34610745
Cu       7.82819345       6.34082820       2.91353462
Cu       7.62075883       6.65888753       9.91714130
Cu       7.63588441      13.58698042       2.65870565
Cu       7.57420421      13.72511659       9.75076458
Cu       2.49796823       6.32233176       0.81721799
Cu       2.45304056       6.49998686       7.90397122
Cu       2.27993133      13.51724729       0.67361528
Cu       2.20536063      13.76898973       7.68666608
Cu       9.53570091       6.32419290       1.19553119
Cu       9.46330744       6.42880266       8.22977598
Cu       9.40476992      13.54262287       1.00219083
Cu       9.31677474      13.76707521       8.07352240
Cu       2.53050386       4.54739099       2.66183637
Cu       2.44922659       4.90479108       9.66800707
Cu       2.36221209      11.65447988       2.53515166
Cu       2.36396000      11.95919853       9.50985344
Cu       9.56262657       4.61713540       2.99022089
Cu       9.49955636       4.77051273      10.07669981
Mg       9.42424843      11.70048533       2.82717583
Cu       9.25943609      12.09371009       9.86076301
Cu       4.41747088       2.75892825       2.83046874
Cu       4.25625120       2.95276912       9.81338176
Cu       4.05524012      10.05193522       2.61842638
Cu       4.00841930      10.14961052       9.66173593
Cu      11.36931962       2.66497377       3.20087407
Cu      11.25116123       9.88972088       2.91037050
Cu      11.13136961      10.12501246       9.98727303
Cu       6.00256012       6.42649933       4.48746822
Cu       5.82432766       6.70501744      11.57973669
Cu       5.84282423      13.58825637       4.36450041
Cu       5.70555610      13.87385506      11.30190747
Cu      13.06562598       6.35558647       4.93723892
Cu      12.99127824       6.61848653      11.97868831
Cu      12.97412752      13.65869677       4.64808102
Cu      12.80282751      13.90748833      11.69413788
Cu       2.61527608       1.12511727       6.21710185
Cu       2.44628705       1.19350547      13.27758027
Cu       2.39671166       8.19221711       6.16739140
Cu       2.37033189       8.45633987      13.05625313
Cu       9.68559405       0.88422574       6.76876286
Cu       9.52418978       1.26040870      13.68537833
Cu       9.49632675       8.22726189       6.46405231
Cu       9.33601863       8.51198251      13.45186003
Cu       0.79039878       1.03273464       4.35095356
Cu       0.77051878       1.23547798      11.36031857
Cu       0.77744272       8.19607009       4.24554094
Cu       0.55538141       8.45961158      11.21842847
Cu       7.89275254       0.99096646       4.83720163
Cu       7.67450579       1.15992377      11.77763879
Cu       7.78615355       8.17188261       4.59053881
Cu       7.59026296       8.42581207      11.66210757
Mg       6.06746283       2.71249465       1.07427133
Cu       5.96077107       2.93042913       8.16191693
Cu       5.94442968       9.92202505       0.86575619
Cu       5.85330567      10.02176458       7.86699612
Cu      13.18063465       2.60643304       1.60342278
Cu      12.97952815       2.90190592       8.63385318
Cu      12.97057782       9.87015020       1.40926592
Cu      12.89756079      10.15215340       8.39205058
Cu       0.63268241       3.09575902      13.09293345
Cu       0.62002246      10.15000851       5.89571617
Cu       0.54475781      10.31978374      12.97760726
Cu       7.84402211       2.80356360       6.48691171
Cu       7.66502196       3.09588785      13.46572098
Cu       7.66286247      10.00366329       6.29710412
Cu       7.59646939      10.22688649      13.29471413
Cu       4.44654417       0.79981437       1.11274487
Cu       4.30506353       1.17720973       8.09185764
Cu       4.22544395       8.10098925       0.91270228
Cu       4.08448102       8.30870128       7.89085223
Cu      11.39321130       0.91558330       1.44748999
Cu      11.48783080       1.00807754       8.42426742
Mg      11.33631142       8.12006774       1.30238479
Cu      11.22166410       8.26060253       8.29735971
