190
Lattice="13.89653046505622 -0.2834178067129477 0.12989805667908738 -0.03710343724579831 14.001032015622364 0.35304563767344177 0.21409714422378048 -0.24553823857484175 14.071732433968139" Properties=species:S:1:pos:R:3 pbc="T T T"
Mg       3.48949685      -0.12504689       3.53534121
Mg       3.67159232      -0.17099612      10.60965692
Mg       3.58943344       6.86064401       3.72688233
Cu       3.59205623       6.81907624      10.71353055
Mg      10.44320067      -0.21819267       3.59010130
Mg      10.52610306      -0.41399442      10.59365429
Mg      10.46644934       6.69062293       3.76156115
Cu      10.43325141       6.62168216      10.83684670
Mg       1.70857922       1.62763103       1.74466761
Mg       1.80387934       1.63396249       8.82272977
Mg       1.72616415       8.64107445       2.07145866
Mg       1.75901525       8.49374096       8.97908677
Mg       8.67832476       1.48047090       1.83245156
Mg       8.75096635       1.35369655       8.97667885
Mg       8.82765800       8.57694998       2.02014046
Mg       8.77065510       8.42025959       9.10353109
Mg       0.05600897       0.05777747      -0.06190544
Mg       0.11892564      -0.04295502       7.01301246
Mg      -0.06976723       7.09114395       0.21686916
Mg       0.09429402       6.83511725       7.22220556
Mg       6.90837882      -0.22985471      -0.00139948
Mg       7.03125224      -0.25350425       7.03458977
Mg       6.92793933       6.90857122       0.22247115
Mg       7.00422371       6.80862388       7.26909570
Mg       1.77931732       5.13062684       5.46629281
Mg       1.88249279       4.94692980      12.51110731
Mg       1.83281664      12.11438497       5.60063794
Mg       1.95900082      12.03708016      12.58650459
Mg       8.72807348       4.99058247       5.43138837
Mg       8.85807834       4.83162988      12.46672045
Mg       8.63243743      12.03424868       5.64429305
Mg       8.87467628      11.86695504      12.72761719
Mg       5.48727411       1.44688832      12.46629431
Mg       5.28599639       8.54761142       5.59307818
Mg       5.32235785       8.39603614      12.63986520
Mg      12.20138294       1.39439703       5.39939471
Mg      12.31112340       1.33607051      12.39759534
Mg      12.21110104       8.45443177       5.68261037
Mg      12.23352884       8.26614610      12.63819933
Cu       0.03602175       3.44727545       3.61311221
Mg       0.20389610       3.35124519      10.68567540
Mg      -0.02247233      10.42296589       3.77565054
Mg       0.16156480      10.28288690      10.72017611
Cu       7.06692495       3.32166866       3.68005373
Mg       7.14759205       3.09606656      10.69767450
Mg       6.98515258      10.25841635       3.91822529
Mg       7.03884828      10.15192122      10.83381229
Mg       3.44743207       3.45874962       0.09185809
Mg       3.55573685       3.26770382       7.15639602
Mg       3.35983083      10.36448172       0.29496619
Mg       3.58980100      10.39547976       7.45120243
Mg      10.42873726       3.32920082       0.20199849
Mg      10.52192488       3.16338476       7.22098212
Mg      10.44696703      10.37578241       0.41319696
Mg      10.53189519      10.19136516       7.37902300
Mg       5.17934155       5.17133073       1.94069458
Mg       5.36160143       5.09252745       8.91921237
Mg       5.15333298      12.12809236       2.12497664
Mg       5.35384287      12.02153567       9.25376921
Mg      12.24344026       4.85246146       9.02158058
Mg      12.19466569      11.93182241       2.15242542
Mg      12.35639713      11.88069649       9.22155452
Cu       6.16809231       4.11036480       6.40287544
Cu       6.25162649       3.98063443      13.28400073
Cu       6.10834062      11.11370050       6.48808012
Cu       6.23431500      10.97960603      13.56881162
Cu      13.13113642       3.94659992       6.33514185
Cu      13.25456622       3.88526677      13.47772445
Cu      13.16143043      11.02054255       6.48931043
Cu      13.22041279      10.87161085      13.62865073
Cu       4.47449647       5.84235356       6.34830785
Cu       4.44661598       5.72973740      13.41138590
Cu       4.30607222      12.80784051       6.52436658
Cu       4.47863008      12.80824021      13.55676188
Cu      11.38290976       5.82554264       6.33652556
Cu      11.48958075       5.63189289      13.47028086
Cu      11.30229349      12.83060992       6.60263907
Cu      11.44345970      12.71446111      13.65216348
Cu       2.63485171       2.45690623       4.48968570
Cu       2.83894965       2.37467085      11.47022065
Cu       2.69895574       9.46861556       4.69800775
Cu       2.88341322       9.41718335      11.79856507
Cu       9.59652489       2.37097331       4.59141851
Cu       9.74654635       2.27216976      11.62330298
Cu       9.60514853       9.34325858       4.69535759
Cu       9.73665750       9.19514667      11.76686781
Cu       6.12211190       0.67275388       2.72321867
Cu       6.13527979       0.61873695       9.59972009
Cu       6.09341074       7.73001282       2.80386105
Cu       6.26316282       7.68671451       9.92349699
Cu      13.04592703       0.65193105       2.79183248
Cu      13.18022474       0.51635490       9.78503798
Cu      13.03497499       7.43429296       3.03051066
Cu      13.21739991       7.40589190       9.95162376
Cu       0.83098702       4.34665345       0.97122988
Cu       0.99667302       4.18230524       8.07298521
Mg       0.91961882      11.30503156       1.21893172
Cu       0.98200489      11.26026595       8.21229215
Cu       7.82787747       4.20235673       1.05915235
Cu       7.94469898       4.13236005       8.18150209
Cu       7.75890820      11.25375756       1.24165032
Mg       7.95424750      11.00747111       8.31742953
Cu       4.40862899       4.23972493       4.42710457
Cu       4.55405027       4.01232218      11.63652048
Cu       4.37247431      11.19944710       4.71382284
Cu       4.48259316      11.15868941      11.82135709
Cu      11.33562508       4.09619111       4.57041162
Cu      11.42798984       3.91810098      11.63516420
Cu      11.30376895      11.10129074       4.83120677
Cu      11.41079022      11.08150272      11.75300658
Cu       0.87902974       5.99218500       2.85815905
Cu       1.06028823       5.94534242       9.86411340
Cu       0.88162023      13.08032540       3.00185879
Cu       0.98562576      12.95108109       9.96535163
Cu       7.88893232       5.92090253       2.86026978
Cu       7.95169913       5.80550400       9.86425266
Cu       7.84912395      12.82985786       3.06118897
Cu       7.92694028      12.82984355      10.12493686
Cu       2.61305035       6.04552963       1.06457215
Cu       2.68708511       5.83985489       8.05870360
Cu       2.58000493      13.08447404       1.21068661
Cu       2.66166429      12.98721824       8.21937145
Cu       9.45363118       5.96714586       1.18780099
Cu       9.66949023       5.85045042       8.25661798
Cu       9.49021137      12.96979936       1.31273513
Cu       9.67613256      12.87484544       8.27504175
Cu       2.68382484       4.23624488       2.75656091
Cu       2.73484531       4.09310586       9.71984720
Cu       2.61522146      11.22066923       2.96560473
Cu       2.62262595      11.13033978       9.91098336
Cu       9.54764473       4.04340302       2.72955506
Cu       9.63284123       4.00827083       9.84042132
Cu       9.59441406      11.16417661       2.99678631
Mg       9.62391903      10.99402545      10.11687583
Cu       4.33909151       2.59200875       2.75468416
Cu       4.46859311       2.46069803       9.69576165
Cu       4.32933361       9.40475658       2.89127825
Cu       4.45073147       9.35705467       9.91877738
Cu      11.29331228       2.41995695       2.74543794
Cu      11.43590956       2.17571724       9.92175128
Cu      11.31664198       9.39189157       2.95919643
Cu      11.38871310       9.33797258      10.09692104
Cu       6.11762235       5.87688788       4.55198124
Cu       6.31499779       5.80640450      11.58341808
Cu       6.02622845      12.90642996       4.75011444
Cu       6.20246007      12.71485484      11.80228829
Cu      13.10689246       5.77385337       4.62685364
Cu      13.23154560       5.62517149      11.63234225
Cu      13.07129850      12.78890492       4.83874102
Cu      13.19038743      12.65800495      11.88190507
Cu       2.70530788       0.71439472       6.16034272
Cu       2.80679505       0.62160534      13.24813627
Cu       2.57628322       7.71110422       6.37037829
Cu       2.73466927       7.64640414      13.40382727
Cu       9.65559173       0.60616083       6.25076551
Cu       9.78614642       0.43370853      13.35311823
Cu       9.61151989       7.51993902       6.44949407
Cu       9.80784111       7.45220735      13.49240513
Cu       0.92289186       0.79540651       4.39561828
Cu       1.07405165       0.62271989      11.39773067
Cu       0.96899778       7.72522890       4.58435766
Cu       0.99246779       7.63471581      11.58068077
Cu       7.84428111       0.59542773       4.51820055
Cu       7.98286930       0.59512895      11.61480752
Cu       7.83826338       7.64512063       4.73408410
Cu       7.98079533       7.39400689      11.66774598
Mg       6.04683253       2.38860169       0.92389393
Cu       6.14659163       2.34790181       8.05064389
Cu       6.04272923       9.48008638       1.14310434
Cu       6.20113404       9.37071655       8.23889294
Cu      12.99931739       2.40527928       1.08195606
Cu      13.12478119       2.19280769       8.17426923
Cu      12.97864753       9.34966301       1.25232473
Cu      13.14549562       9.23850457       8.17093804
Cu       0.94846637       2.53088361       6.21514080
Cu       1.20193363       2.41382658      13.22140606
Cu       1.07692557       9.44911482       6.39881689
Cu       0.99964722       9.36132138      13.51650697
Cu       7.83476785       2.37383829       6.28303051
Cu       8.04498254       2.19764913      13.26491383
Cu       7.89904641       9.39803915       6.46595198
Cu       7.90624134       9.15520117      13.52800450
Cu       4.28908699       0.81305282       0.93750563
Cu       4.41926655       0.67090978       8.00183627
Cu       4.27876614       7.82767296       1.22443095
Cu       4.50754296       7.63817338       8.20601869
Cu      11.35376280       0.59324333       1.02394949
Cu      11.38723722       0.57900711       8.11408370
Cu      11.20921741       7.67346970       1.07522485
Cu      11.38398722       7.43375465       8.22450325
