191
Lattice="14.485620921973753 -0.10191883694546497 -0.1297615998010996 0.28869453921126714 14.400150555497113 0.1514759727837118 0.11203670199330025 0.2877391663142768 14.360488701786576" Properties=species:S:1:pos:R:3 pbc="T T T"
Mg       3.69378954       0.04213987       3.56644836
Cu       3.62214413       0.14359023      10.67334936
Mg       3.73876454       7.21385818       3.66218984
Mg       3.83253493       7.39439574      10.83961963
Mg      10.87222451      -0.05758875       3.53202522
Mg      10.89869648       0.12446807      10.70290610
Mg      11.04560019       7.08805551       3.53957327
Cu      11.11775028       7.29854751      10.77011560
Mg       1.82316609       1.88666853       1.80817135
Mg       1.94856169       1.97739448       9.02748486
Mg       2.04003124       9.00399093       1.79786325
Mg       2.07432924       9.06388422       9.05660988
Mg       9.05147611       1.79403213       1.72283290
Mg       9.13794805       1.93711740       8.95124201
Mg       9.28663094       9.03492000       1.80096036
Mg       9.24229839       9.12794332       8.99964831
Cu      -0.02299154      -0.01708780       0.00901900
Mg       0.01421949       0.08330402       7.26850013
Mg       0.14041455       7.22117178       0.11034154
Mg       0.19271401       7.29380745       7.28311950
Mg       7.22129898       0.01542196       0.02160515
Mg       7.23852957       0.04471313       7.12755398
Mg       7.38536299       7.24055450      -0.01960890
Mg       7.45906864       7.38209770       7.07723001
Mg       1.99201552       5.48232590       5.42727196
Mg       2.05636241       5.70078294      12.65142555
Cu       1.99669254      12.69079249       5.54080563
Mg       2.25368694      12.83137638      12.80972885
Mg       9.11074115       5.51251762       5.26285509
Mg       9.24531938       5.63369334      12.53315272
Cu       9.31546368      12.66428679       5.47177772
Mg       9.42791283      12.78524558      12.67180118
Mg       5.56471214       1.88998688       5.37482038
Mg       5.47934469       1.99268886      12.53443454
Mg       5.68973946       9.02666599       5.42317567
Mg       5.64944512       9.13271876      12.55170625
Mg      12.72069382       1.87080441       5.26802803
Mg      12.78179825       1.90754388      12.51642133
Mg      12.86525535       9.00662477       5.49976447
Mg      12.95394458       9.24442407      12.58960371
Mg      -0.00463397       3.75226970       3.69704969
Mg       0.20377759       3.85488517      10.81830893
Mg       0.31048254      10.96680982       3.76132513
Mg       0.24331201      11.01300788      10.83753822
Mg       7.37254430       3.57541565       3.61546597
Mg       7.40650314       3.80451419      10.73730834
Mg       7.57063159      10.95115156       3.62618121
Mg       7.58392871      10.92561686      10.74310725
Mg       3.66743777       3.53813440      -0.00977352
Mg       3.76760213       3.63071278       7.17868818
Mg       3.78308002      10.73145736       0.05179103
Mg       3.90499613      10.92350469       7.32218170
Cu      10.82174819       3.50310275      -0.14801102
Mg      10.99277880       3.69220986       7.04756958
Cu      11.06326693      10.70183943       0.11887161
Mg      11.14503684      10.86726408       7.12326584
Mg       5.50757438       5.42024691       1.68285120
Mg       5.60073464       5.54053026       9.04829305
Mg       5.66639432      12.60855007       1.86320034
Mg       5.76888930      12.75365333       9.04329685
Mg      12.80569382       5.38625360       1.70161148
Mg      12.86851716       5.51960458       8.91782410
Mg      12.95287765      12.51098287       1.86086287
Mg      12.95142973      12.73139494       8.97437083
Cu       6.33690805       4.45854740       6.21694179
Cu       6.44828916       4.73806645      13.42539275
Cu       6.69949832      11.79785193       6.38448755
Cu       6.73335162      11.94342332      13.52135932
Cu      13.77934873       4.59257009       6.14636477
Cu      13.86393181       4.68091777      13.37867158
Cu      13.83490342      11.73771072       6.39054259
Mg      13.91456211      11.82643165      13.49244148
Cu       4.70090772       6.36405927       6.30628525
Cu       4.73296712       6.55339317      13.50498204
Cu       4.92022033      13.63246083       6.44280481
Cu       4.96498153      13.76679578      13.45673415
Cu      12.00337959       6.20235012       6.32013496
Cu      11.95225501       6.43263470      13.34725518
Mg      12.06164218      13.61453795       6.36393462
Cu      12.11952000      13.66259010      13.42745448
Cu       2.81066826       2.68633260       4.49110134
Mg       2.76554770       2.89451351      11.75651324
Cu       2.94564085       9.90351577       4.57178599
Cu       2.94050446      10.10059993      11.69255423
Cu      10.03283324       2.87420280      11.67628298
Cu      10.17021780       9.89838843       4.49480908
Cu      10.28580104      10.07658336      11.66058525
Cu       6.34015621       0.95190718       2.60196129
Cu       6.50972605       0.99349326       9.81931199
Cu       6.55105923       8.08628632       2.62740656
Cu       6.56539687       8.29626112       9.90475058
Mg      13.69008869       0.84779351       2.56352439
Cu      13.73421081       0.98105764       9.73415039
Cu      13.76065150       8.00773255       2.69761626
Mg      13.83626274       8.04941655       9.84176078
Cu       1.03256846       4.57909209       0.94133267
Cu       1.11607293       4.70546611       8.17402022
Cu       1.18206678      11.64665605       1.05742863
Cu       1.22954875      11.85554344       8.11940169
Cu       8.19675274       4.40551491       0.89474711
Cu       8.29150370       4.69903482       8.05751341
Cu       8.40892606      11.56616905       1.00757925
Cu       8.40945044      11.89937742       8.12854838
Cu       4.69682216       4.54574546       4.53915636
Cu       4.67806837       4.68928863      11.64625509
Cu       4.73283552      11.68839778       4.64197114
Cu       4.82619148      11.98758412      11.80516580
Cu      11.88694739       4.51460640       4.42429807
Cu      12.00551222       4.70163618      11.54774063
Cu      12.05616755      11.67219206       4.55440119
Cu      12.05635609      11.92343692      11.70906909
Cu       1.15095869       6.34766831       2.75565488
Cu       1.10808228       6.42055316       9.95374751
Cu       1.24344503      13.51540164       2.80961836
Cu       1.26239116      13.70452093      10.01915253
Cu       8.40648298       6.33486699       2.71210373
Cu       8.33457648       6.44048487       9.88265565
Cu       8.47040866      13.50075235       2.80439473
Cu       8.43542408      13.74472636       9.94171765
Cu       2.88249719       6.20862315       0.88388684
Cu       2.89996663       6.44447750       8.14224015
Cu       3.02825539      13.45836458       0.99428933
Cu       3.11178839      13.66671894       8.18227835
Cu      10.08304289       6.22561224       0.91772489
Cu      10.07792922       6.34850335       8.14560250
Cu      10.25989192      13.44006773       0.96444615
Cu      10.34691300      13.57326781       8.15030327
Cu       2.76574449       4.57484185       2.75475656
Cu       2.92988359       4.65914211       9.94314516
Cu       2.92461586      11.74602811       2.77689443
Cu       3.04061345      11.95440705       9.92358367
Cu      10.09504848       4.49991131       2.66887095
Cu      10.16449612       4.64654347       9.77315309
Cu      10.18902851      11.58685517       2.67480145
Cu      10.25004339      11.84887448      10.01322613
Cu       4.60960700       2.76916298       2.60361736
Cu       4.63480674       2.80708821       9.88590986
Cu       4.75353684       9.98667729       2.76158386
Cu       4.74087265      10.04869539       9.85124741
Cu      11.85545579       2.60744127       2.60367040
Cu      11.84703899       2.76397809       9.81063677
Cu      11.96872825       9.85271380       2.74901562
Cu      11.99451882       9.91651872       9.89238192
Cu       6.58119105       6.33918603       4.45499224
Cu       6.54538872       6.55892276      11.70011024
Cu       6.58646685      13.59926509       4.58003178
Cu       6.65911919      13.71717695      11.79323581
Cu      13.69489082       6.27432151       4.44318269
Mg      13.79451636       6.41621112      11.62400972
Cu      13.80153098      13.43666369       4.52878054
Cu      13.95300210      13.65802279      11.75402875
Cu       2.72688747       0.93429773       6.25947873
Cu       2.82906819       1.20537493      13.47006223
Cu       2.96273014       8.13708941       6.44079891
Cu       2.97016947       8.35802167      13.51470466
Cu       9.93945030       0.99157705       6.25732708
Cu      10.14161306       1.20002571      13.31111088
Cu      10.26010009       8.27854248       6.33519619
Cu      10.11195192       8.40192698      13.46901694
Cu       0.90387863       1.01926590       4.48968124
Cu       1.01007728       1.08569787      11.65788600
Cu       1.05940068       8.11998812       4.57794050
Cu       1.15397525       8.33126760      11.68646177
Cu       8.24161052       0.95259181       4.48838407
Cu       8.20908562       1.03840259      11.58747377
Cu       8.26765921       8.10885346       4.44767629
Cu       8.44046638       8.33258713      11.64885332
Cu       6.37815436       2.68615854       0.88743935
Cu       6.36816256       2.86528808       7.98610612
Cu       6.52352697       9.83383252       0.93616262
Cu       6.66246155       9.98997450       8.09668435
Cu      13.65380422       2.67300426       0.72172123
Cu      13.71915873       2.73103128       8.01719444
Cu      13.82063710       9.81796673       0.87634650
Cu      13.84492045       9.91873149       8.07173037
Cu       0.99996757       2.76597058       6.41321453
Cu       1.02762844       2.94569677      13.45491408
Cu       1.12823916      10.06986548       6.26471315
Cu       1.27735745      10.17681161      13.56914548
Cu       8.31130324       2.79935103       6.16099887
Cu       8.28471931       2.91199501      13.42752575
Cu       8.38373895      10.04493969       6.37219082
Cu       8.38239056      10.10611217      13.47318636
Mg       4.47881546       0.81646162       0.81282092
Cu       4.59779596       1.15384477       8.03120905
Cu       4.69931764       8.04959918       0.94566074
Cu       4.64275919       8.13161954       8.13700307
Cu      11.85822332       0.88039173       0.78249373
Cu      11.88333036       0.93786256       7.97257474
Cu      11.91840825       7.96106412       0.79617462
Cu      12.05389475       8.25884064       8.14782247
