188
Lattice="14.374666373661777 0.22756110661185563 -0.0740254626138535 0.1318783165562325 14.197550229934798 -0.32848847868111014 0.19675292560659388 -0.32806569187611584 14.10289440581559" Properties=species:S:1:pos:R:3 pbc="T T T"
Mg       3.63438778       0.01568977       3.50773467
Mg       3.69488457      -0.14679119      10.53392716
Mg       3.71149140       7.09055705       3.36613215
Mg       3.69983625       6.83092853      10.35023049
Mg      10.89120603       0.12891011       3.40222477
Mg      10.88502308      -0.15239820      10.58039959
Mg      10.82996496       7.17654939       3.31541232
Mg      10.93954267       7.01908805      10.44274962
Mg       1.95173893       1.76724668       1.68413094
Mg       1.91283962       1.54819641       8.69355934
Mg       1.90220498       8.89632877       1.53366860
Mg       2.02537960       8.63738647       8.59384779
Mg       9.02284236       1.93740912       1.61866450
Mg       9.14968153       1.71875088       8.71723313
Mg       9.08014327       9.03773441       1.56420679
Cu       9.23062043       8.73636227       8.59439433
Mg       0.04638095       0.05881739      -0.03086461
Mg       0.07624383      -0.11887643       6.99097692
Mg       0.09524997       7.11895475      -0.18424895
Mg       0.03483166       6.93139888       6.93335203
Mg       7.25660127       0.03663983      -0.09241695
Mg       7.21614359      -0.10796451       7.02120109
Mg       7.22282325       7.23467578      -0.19017286
Mg       7.41861808       7.11034451       6.86358935
Mg       1.96136469       5.18618045       5.17699118
Cu       2.03959257       5.00891046      12.31761802
Mg       1.94693402      12.43439049       5.02154597
Mg       2.02492987      12.17945702      12.05837747
Mg       9.13285940       5.37737958       5.11512999
Mg       9.20423057       5.11707091      12.23273632
Mg       9.13190170      12.47666948       4.90570828
Mg       9.26653916      12.27024277      11.99125687
Mg       5.51679277       1.90455220       5.19204489
Mg       5.57008664       1.60933435      12.27572855
Mg       5.60618548       8.75323634       5.06728401
Mg       5.66674762       8.69959725      12.07666785
Mg      12.62273436       1.80384957       5.14677220
Mg      12.68459410       1.71709707      12.25116226
Mg      12.77318526       9.01842827       5.01854456
Mg      12.82827446       8.79572010      12.10057039
Mg       0.03878453       3.47493031       3.43937726
Mg       0.17514887       3.27282608      10.49649010
Mg       0.03671051      10.54482618       3.23501396
Mg       0.23324632      10.42486136      10.25395923
Mg       7.22350550       3.53110934       3.48983645
Mg       7.37108280       3.44520279      10.46610469
Mg       7.33943915      10.61721083       3.26303959
Cu       7.52260126      10.51558701      10.36122432
Mg       3.63706205       3.59551188      -0.09826535
Mg       3.69466746       3.41899963       6.88371276
Mg       3.73464269      10.77764146      -0.29544121
Mg       3.77502676      10.58760497       6.82336207
Mg      10.80150846       3.67369970      -0.10566146
Mg      10.99307094       3.55785439       6.91641681
Mg      10.84404623      10.74085648      -0.29612113
Mg      10.94050547      10.59359356       6.73216722
Mg       5.40753331       5.43158582       1.62057301
Mg       5.58508889       5.25214000       8.65670021
Mg       5.56890272      12.52448879       1.44711802
Mg       5.56771896      12.39583614       8.47948949
Mg      12.68293953       5.49044721       1.48141510
Mg      12.69513609       5.29825205       8.51482597
Mg      12.77854243      12.55930377       1.48524958
Mg      12.88511845      12.37975868       8.41739157
Cu       6.42655904       4.44708186       5.99083335
Cu       6.48390745       4.20960585      13.11535532
Mg       6.54857591      11.45282063       5.93282478
Cu       6.61665408      11.25999446      12.89954057
Cu      13.59827368       4.54031518       5.95150213
Cu      13.79822742       4.39502797      12.96873712
Cu      13.67457040      11.56518830       5.77654249
Cu      13.70922252      11.45836767      12.88344317
Cu       4.69085378       6.16072041       6.04462517
Cu       4.72510712       5.91782587      13.07399330
Cu       4.72900254      13.16631960       5.88551072
Cu       4.89664571      12.98190368      12.89207004
Cu      11.90336434       6.26031055       5.99287586
Cu      12.01286224       6.10734376      13.10823652
Cu      11.91324323      13.43531938       5.87405506
Mg      12.09906333      13.22692495      12.93754757
Cu       2.77988357       2.56322814       4.30277603
Cu       2.88851329       2.44448518      11.36197020
Cu       2.83439080       9.76310864       4.22907945
Cu       2.88425780       9.51739023      11.22595326
Cu       9.99638752       2.68134371       4.25317622
Cu      10.07805276       2.58671174      11.28650574
Cu      10.08850366       9.82117889       4.16187139
Cu      10.08820294       9.64998566      11.14574493
Cu       6.37565270       0.96284572       2.60652734
Cu       6.53468631       0.74065441       9.67187209
Cu       6.37260345       7.93597521       2.35782226
Cu       6.48401175       7.83226295       9.40838755
Cu      13.51459486       0.95097726       2.56680792
Cu      13.64504491       0.93615473       9.55365418
Cu      13.53233509       8.09166745       2.35259462
Cu      13.64486641       7.97060857       9.37837258
Cu       0.92418494       4.39457438       0.74715170
Cu       0.98677492       4.26835195       7.78338163
Cu       1.02619105      11.47316996       0.65107340
Cu       1.15946210      11.41639888       7.67285085
Cu       8.12666131       4.55289215       0.69147802
Cu       8.24618485       4.38501649       7.79286924
Cu       8.19237403      11.66338046       0.60267984
Cu       8.42582042      11.54389650       7.58248444
Cu       4.53180760       4.30879792       4.31870488
Cu       4.71523655       4.28075675      11.33022409
Mg       4.63752773      11.53966209       4.12627751
Cu       4.75315131      11.34454651      11.11737902
Cu      11.79784771       4.57082431       4.32839536
Cu      11.87529463       4.33215047      11.34711601
Cu      11.91758001      11.71105096       4.10950420
Cu      11.87221724      11.42663530      11.14162999
Cu       1.08980990       5.96054576       9.49473577
Cu       0.99883193      13.33297888       2.37389270
Cu       1.09195114      13.12815035       9.35251631
Cu       8.15524201       6.21407141       2.51614398
Cu       8.25196572       5.99155618       9.52603926
Cu       8.22990361      13.35500481       2.36816902
Cu       8.29193372      13.27629572       9.35725575
Cu       2.77997128       6.24820815       0.66864460
Cu       2.88295365       6.10824476       7.72350103
Cu       2.85232877      13.33841046       0.57079990
Cu       2.98137769      13.17549754       7.59374708
Cu       9.97471880       6.39788119       0.63405135
Cu      10.06765572       6.18155690       7.72655528
Cu       9.90985156      13.35122540       0.57149173
Cu      10.08415922      13.24642247       7.61826871
Cu       2.75740083       4.39751165       2.52050177
Cu       2.84881194       4.24477153       9.52985022
Cu       2.81850874      11.51872109       2.42809313
Cu       2.92714185      11.38090733       9.36879221
Cu       9.90372519       4.55412971       2.53649212
Cu      10.11765945       4.39305435       9.64627784
Cu       9.98241213      11.64051039       2.32822579
Cu       4.60811730       2.58743725       2.64519929
Cu       4.60140444       2.58361524       9.58668056
Cu       4.60538394       9.77274364       2.45957802
Cu       4.71708837       9.53994061       9.49157274
Cu      11.78098630       2.83189055       2.51873191
Cu      11.85804104       2.66155975       9.55596996
Cu      11.79397751       9.88597779       2.28145837
Cu      11.87482922       9.68480677       9.35536714
Cu       6.41423248       6.11994551       4.29965341
Cu       6.57983770       6.02643320      11.23247624
Cu       6.53779613      13.39353287       4.07858134
Cu       6.47698197      13.19222335      11.15697607
Cu      13.54387364       6.32989339       4.23865561
Cu      13.67629939       6.17014691      11.26951645
Cu      13.55745008      13.46701207       4.04142977
Cu      13.79419478      13.19964192      11.14406509
Cu       2.78877054       0.81285152       6.17490681
Cu       2.80570041       0.68284697      13.17285928
Cu       2.77708298       7.90358409       5.90286551
Cu       9.87909417       0.98764282       6.08277454
Cu      10.00692610       0.86877005      13.18103673
Cu       9.98662004       8.08159628       5.91087855
Cu      10.16866631       7.77045245      12.97506806
Cu       0.90736578       0.48133334      11.45849680
Cu       0.96122160       7.82213801       4.23293900
Cu       1.12875105       7.78237376      11.24420654
Cu       8.20848399       0.89024782       4.25223407
Cu       8.22166977       0.73650747      11.38822563
Cu       8.17194142       8.03855218       4.17401986
Cu       8.36285478       7.81073916      11.17423645
Cu       6.28937512       2.72945309       0.82012093
Cu       6.38769248       2.64164838       7.76501982
Cu       6.31975178       9.88634243       0.74046502
Cu       6.54702424       9.70424111       7.68932865
Cu      13.45910171       2.78726981       0.87340874
Cu      13.69981379       2.63970958       7.78912262
Cu      13.55191813       9.89115312       0.58412319
Cu      13.66981933       9.77515588       7.61928082
Cu       1.02616606       2.51259007       6.14475468
Cu       1.08471242       2.26317721      13.10334964
Cu       1.16322487       9.65357394       5.96587862
Cu       1.14280857       9.39694901      12.96292210
Cu       8.23047180       2.60295292       6.06254207
Cu       8.31314319       2.39333416      13.14170528
Cu       8.28384997       9.68412510       5.91713921
Cu       8.38860058       9.55626397      12.97028628
Cu       4.50173252       1.01810189       0.88809235
Cu       4.62600839       0.79115774       7.92418936
Cu       4.61879074       7.94499844       0.67210286
Cu       4.68726646       7.81143178       7.68588474
Cu      11.74256219       1.13916638       0.89392273
Cu      11.92034807       0.88568352       7.78392607
Cu      11.83991270       8.12420810       0.64881564
Cu      11.89132015       8.04796033       7.72878018
