188
Lattice="14.332153081530844 0.053646904947644986 -0.0510892390535127 0.06190592334872506 14.15320360876498 0.1657298039363226 0.12669231828120617 0.22261580009142046 13.909276032361383" Properties=species:S:1:pos:R:3 pbc="T T T"
Mg       3.63913174       0.04756085       3.46878481
Mg       3.69816193       0.26138056      10.45730236
Mg       3.71554518       7.16577152       3.51978732
Mg       3.64486798       7.29879083      10.55748163
Mg      10.76355081       0.14213025       3.42630403
Mg      10.79747694       0.28301228      10.41909097
Cu      10.76494328       7.11622995       3.47341525
Mg      10.94510879       7.29842039      10.46108121
Mg       1.82722376       1.73931426       1.72454957
Mg       1.84974595       1.83407004       8.60939648
Mg       1.88428734       8.80415074       1.84097393
Mg       1.84578124       9.01928450       8.82219374
Mg       8.96907344       1.88530595       1.85532742
Mg       8.99762703       1.99053803       8.62759285
Mg       8.98910317       9.04061602       1.80907983
Mg       9.14501230       8.95402487       8.73412665
Mg       0.03203846       0.00517161       0.05884421
Mg       0.07227288       0.14914217       6.89879950
Mg       0.00360331       7.09470502       0.10358625
Cu       0.10469378       7.15601799       7.10147922
Mg       7.24962274       0.05692801      -0.02024695
Mg       7.24978604       0.08147380       7.00152046
Mg       7.12474192       7.12013739       0.17712723
Cu       7.21479715       7.25058609       6.97878117
Mg       1.88936412       5.42517225       5.24674125
Mg       1.91323982       5.57421045      12.19639606
Mg       1.90654485      12.44442579       5.30798262
Mg       1.94722000      12.59955959      12.32055633
Mg       8.99939590       5.45206991       5.31902550
Mg       8.99293341       5.68451100      12.13502069
Cu       9.08696296      12.54022678       5.37485343
Mg       9.18501797      12.64041994      12.32187492
Mg       5.48364496       1.95060508       5.15413971
Mg       5.51656264       1.98603261      12.11975572
Mg       5.57180247       8.90797249       5.36302313
Mg      12.62255444       1.89795149       5.24925044
Mg      12.67852632       2.08665763      12.19662106
Mg      12.63010451       9.03953102       5.26814121
Mg      12.68100305       9.05420691      12.24929243
Mg       0.10865650       3.61292181       3.60109735
Mg       0.07429707       3.71504717      10.47274584
Mg       0.12557772      10.64120005       3.61668308
Mg       0.14949542      10.71721143      10.54865448
Mg       7.22716901       3.68486841       3.46667747
Mg       7.31926742       3.74727434      10.45546604
Mg       7.25838166      10.75810238       3.56197626
Mg       7.24920727      10.85015751      10.51577517
Mg       3.64742477       3.58289692      -0.11075983
Mg       3.61006544       3.64567005       7.01836573
Mg       3.55455323      10.56030449       0.11877751
Mg       3.64239926      10.69283506       7.05833990
Mg      10.78577263       3.50688007      -0.00313101
Mg      10.86399405       3.70329401       6.97534729
Mg      10.78303327      10.63896190       0.09807118
Mg      10.81625821      10.75531492       7.05865871
Mg       5.54267279       5.29749902       1.75652989
Mg       5.38173953       5.45087282       8.69816120
Mg       5.44479377      12.45220365       1.78604340
Mg       5.56029857      12.57384471       8.88280482
Mg      12.68772777       5.36306446       1.72281265
Mg      12.62256981       5.45919037       8.65947165
Mg      12.61018647      12.53652951       1.84742604
Mg      12.79370188      12.64890091       8.79753312
Cu       6.36102087       4.49493742       6.12542944
Cu       6.49813061       4.66575674      13.08982538
Cu       6.39929361      11.64706053       6.22026602
Cu       6.33719663      11.79803970      13.20314404
Cu      13.51816049       4.62952009       6.01835868
Cu      13.55416481       4.71122019      13.04756837
Cu      13.48126584      11.60465141       6.17507993
Cu      13.63298047      11.76927751      13.10616713
Cu       4.61432635       6.29943137       6.08196742
Cu       4.67645057       6.36354931      13.07233842
Cu       4.67493775      13.51549307      13.19971805
Cu      11.67961492       6.44840812       6.13045920
Cu      11.80554329       6.43709458      13.07580552
Cu      11.72792167      13.36775624       6.21807929
Cu      11.81364788      13.59653935      13.14324439
Cu       2.72197848       2.65832121       4.40475542
Cu       2.79653372       2.83953207      11.24519245
Cu       2.82681019       9.80688197       4.45277291
Cu       2.84984249       9.90318048      11.38416288
Cu       9.79321476       2.78838110       4.39434012
Cu      10.01015487       2.96002342      11.33717621
Cu       9.91370585       9.81459036       4.33983990
Cu       9.96535625       9.92870071      11.34320678
Cu       6.26316284       0.89090996       2.54989942
Cu       6.34230115       1.05820672       9.57333176
Mg       6.32930987       8.07605295       2.62042738
Cu       6.38995235       8.12471919       9.67310891
Cu      13.47980613       1.02916747       2.57948526
Cu      13.58546837       1.12566372       9.54693372
Cu      13.56945883       8.11192828       2.67370435
Cu      13.53469821       8.07694015       9.57056180
Cu       0.91591537       4.42350687       1.04194638
Cu       0.98157783       4.55804530       7.89712694
Cu       0.91074515      11.48749857       0.99027364
Cu       1.04344311      11.66864443       7.88786866
Cu       8.02545004       4.43482539       0.90184028
Cu       8.12730100       4.59770143       7.89188032
Cu       8.07876096      11.56127955       0.99586935
Cu       8.14565730      11.62414637       7.99750032
Cu       4.55414786       4.54176337       4.43280240
Cu       4.58051562       4.64841141      11.31424168
Cu       4.63785233      11.70980437      11.44487793
Cu      11.62959572       4.58859841       4.33908490
Cu      11.75314717      11.56714314       4.42874162
Cu      11.80543463      11.66395767      11.39159037
Cu       0.89767405       6.20441179       2.65319833
Cu       1.01669200       6.41000161       9.68040845
Cu       0.99071676      13.41642914       2.75606130
Cu       0.99390758      13.44718703       9.66016051
Cu       8.13443033       6.32999796       2.58309061
Cu       8.10432774       6.45880692       9.60569607
Cu       8.12264500      13.21773779       2.79176970
Cu       8.21310576      13.44158408       9.71932936
Cu       2.68802606       6.28120961       1.01465218
Cu       2.77675901       6.31589534       7.94635295
Cu       2.70504433      13.32620905       0.99113060
Cu       2.78161178      13.35825937       7.97974186
Cu       9.84284676       6.23198010       0.92160524
Cu       9.97374388       6.40639191       7.75888920
Cu       9.90233235      13.24352322       1.02887419
Cu      10.07966012      13.38630070       7.93909648
Cu       2.80794882       4.46221380       2.66129893
Cu       2.85373432       4.57164385       9.56482971
Cu       2.78199278      11.56418874       2.69388384
Cu       2.79468190      11.71064277       9.65791389
Mg       9.90686637       4.41993556       2.60440346
Cu       9.97953767       4.56778093       9.58002139
Cu       9.97631104      11.63361927       2.69572015
Cu      10.00457159      11.72031024       9.73240747
Cu       4.54592082       2.70844279       2.63147750
Cu       4.54983944       2.84496663       9.56933878
Cu       4.53222315       9.72301409       2.70105940
Cu       4.54390819       9.87451385       9.63196753
Cu      11.71932797       2.85050422       2.56317854
Cu      11.73756594       2.86011200       9.52090387
Cu      11.61566581       9.84985946       2.70360225
Cu      11.81351811       9.93704931       9.58413249
Cu       6.36637956       6.26289458       4.38630908
Cu       6.44365142       6.42464258      11.31505993
Cu       6.28333250      13.36166681       4.48843449
Cu       6.47340618      13.36473048      11.39702146
Cu      13.55420672       6.34384660       4.37106494
Cu      13.51767202       6.41272701      11.39808227
Cu      13.58395367      13.40070439       4.55380799
Cu      13.60810013      13.46580504      11.39658500
Cu       2.81502117       0.92293922       6.07200957
Cu       2.83694602       1.15969088      12.98963096
Cu       2.74971073       8.08423281       6.19516754
Cu       2.77626462       8.15376788      13.12244853
Cu       9.93263605       0.98371800       6.05871351
Cu       9.93046702       1.10342894      13.17430734
Cu       9.93213021       8.06217182       6.17545191
Mg      10.05191336       8.22187703      13.04791301
Cu       0.91451544       0.97112768       4.37000120
Cu       0.97999088       1.04985714      11.35747796
Cu       0.99086996       8.09312901       4.48039304
Cu       1.05424989       8.17147357      11.44994020
Cu       8.09078498       0.99288630       4.25073376
Cu       8.07138867       1.06468683      11.24586029
Cu       8.16680813       7.90466883       4.40731501
Cu       8.19898405       8.17894719      11.33286508
Cu       6.17785734       2.69970908       0.79161265
Cu       6.29346715       2.84908572       7.80589780
Cu       6.29102805       9.69062402       1.03167772
Cu       6.30232884       9.89983082       7.82606352
Cu      13.47844115       2.66048096       0.83002617
Mg      13.50498496       2.82980227       7.83430398
Cu      13.57181188       9.88139491       0.94193208
Cu      13.49955211      10.00257936       7.93261503
Cu       0.95546746       2.70614896       6.14578027
Cu       1.00947055       2.85490658      13.07921391
Cu       1.06380085       9.81353433       6.19639931
Cu       1.04229517       9.90350350      13.11787825
Cu       8.22313946       2.69091924       6.09753774
Cu       8.09458965       2.87588063      13.00871371
Cu       8.25062749       9.90564798       6.07773121
Cu       8.20670908       9.99690086      13.18381709
Cu       4.43708201       0.84738411       0.89720576
Cu       4.51657394       1.04368418       7.74832273
Cu       4.55172724       8.00417513       1.00268341
Cu       4.55452180       7.99136101       7.95064723
Cu      11.65166279       0.87182037       0.81213730
Cu      11.64931872       1.10860007       7.84263312
Cu      11.62179546       8.03466139       0.98704328
Cu      11.61759395       8.15157811       7.85725936
