192
Lattice="14.678514092522942 0.28703705927334566 -0.06561085514430934 0.4872986342510631 14.286303813005505 -0.46419123992076466 -0.5957958937628092 0.10315572256042178 14.324018640352307" Properties=species:S:1:pos:R:3 pbc="T T T"
Mg       3.44942969       0.09958346       3.52925805
Mg       3.14042700       0.11637932      10.76602921
Mg       3.89153017       7.18009136       3.23943319
Mg       3.43118491       7.25426494      10.47624185
Mg      10.84225658       0.17938377       3.57746681
Mg      10.41442976       0.20946248      10.75519617
Mg      11.12044867       7.42156878       3.30644976
Mg      10.77966203       7.48315765      10.46961678
Mg       1.87242342       1.77488027       1.74842147
Mg       1.51817240       1.90237188       8.87893799
Mg       2.04644652       8.92749373       1.49414524
Mg       1.91063415       8.99526860       8.57774524
Mg       9.14784928       2.01777049       1.60818807
Mg       8.83242765       2.07060281       8.83355135
Mg       9.44224234       9.09522852       1.41341053
Mg       9.07357100       9.18985304       8.60939794
Mg       0.06022895      -0.01512415      -0.03093593
Mg      -0.24853672       0.04374509       7.21671792
Mg       0.13428395       7.22058819      -0.26763570
Mg      -0.09691767       7.30610760       6.98219665
Mg       7.45861974       0.13698662      -0.14211503
Mg       6.99375235       0.18577370       7.27834671
Mg       7.45024604       7.27009950      -0.20706225
Mg       7.36003669       7.37191097       6.81671731
Mg       1.87237071       5.42026454       5.23892777
Mg       1.61115981       5.48806955      12.32750236
Mg       2.07387737      12.62770150       4.94089342
Mg       1.72087780      12.66649231      12.11012669
Mg       9.09900801       5.49962831       5.09979144
Mg       8.82808728       5.58855586      12.39387351
Mg       9.33473483      12.61390877       4.80249910
Mg       9.12696770      12.79353682      12.03994744
Mg       5.41129598       1.92606348       5.30292257
Mg       5.07482614       1.95499607      12.39682872
Mg       5.52791237       9.08316786       5.06549410
Mg       5.32853978       9.10345532      12.11243748
Mg      12.66743800       2.03600323       5.17716990
Mg      12.32742000       2.09295087      12.40915510
Mg      12.93777823       9.26277445       5.00662888
Mg      12.51839121       9.24607417      12.18469590
Mg       0.01557417       3.57629999       3.50904883
Mg      -0.37723124       3.61359642      10.61708967
Mg       0.18696933      10.72578802       3.27180276
Cu      -0.10869346      10.81189126      10.38433553
Mg       7.34422923       3.73725870       3.48132124
Mg       7.06455139       3.78963295      10.71313231
Mg       7.58364686      10.90005949       3.15140096
Mg       7.29900085      10.98313352      10.41296564
Mg       3.85682661       3.66898749      -0.10316180
Mg       3.51297200       3.71608007       7.05640630
Mg       4.05837637      10.77867636      -0.31599129
Mg       3.77025975      10.89112063       6.83864234
Mg      11.15379047       3.84527011      -0.19327114
Mg      10.82724216       3.80746080       7.05406796
Mg      11.40673227      10.94518726      -0.37628059
Mg      11.03926229      10.94562054       6.88234022
Mg       5.68373125       5.43669405       1.62567920
Mg       5.28126131       5.52498026       8.78448104
Mg       5.77725036      12.53149171       1.42606495
Mg       5.53062629      12.71698118       8.51489763
Mg      12.91080589       5.66181275       1.55160186
Mg      12.73111082       5.57409006       8.71638519
Mg      13.12689896      12.69644726       1.35456345
Mg      12.91430444      12.79845742       8.57932297
Cu       6.32387025       4.57752611       6.05848249
Cu       6.10482720       4.78448630      13.30465864
Cu       6.48414416      11.77929758       5.86173984
Cu       6.28629881      11.88324162      13.05146421
Cu      13.69231096       4.74161428       6.03636506
Cu      13.29567664       4.80053247      13.20905253
Cu      13.93242265      11.88297728       5.83445372
Cu      13.65524372      11.92476131      12.92218722
Cu       4.55604554       6.37892139       6.03278693
Cu       4.20660355       6.48055613      13.18196535
Cu       4.75742415      13.54185946       5.81522073
Cu       4.52903501      13.49928879      12.93167235
Cu      11.89786311       6.56732875       6.01556875
Cu      11.54656212       6.56846305      13.16465673
Cu      12.10210546      13.64435663       5.76664939
Cu      11.77376272      13.70240676      12.95774768
Cu       2.69536835       2.72411850       4.33486693
Cu       2.29042996       2.81809033      11.58611236
Cu       2.93152962       9.81231657       4.10506276
Cu       2.55557507       9.96974637      11.26193087
Cu      10.07380370       2.87669006       4.30966782
Cu       9.67976677       2.85914173      11.51728040
Cu      10.23891476      10.07056727       4.00426955
Cu       9.96780544      10.17527040      11.31436784
Cu       6.44720038       1.02196544       2.66015439
Cu       6.09258138       1.07537739       9.74288082
Cu       6.64049891       8.18683730       2.41419231
Cu       6.23075334       8.24097606       9.56583599
Cu      13.63795977       1.11119111       2.65782853
Cu      13.36946061       1.28696318       9.76010292
Cu      13.93910763       8.32831766       2.42490082
Cu      13.65203303       8.38738335       9.63310276
Cu       1.04621900       4.44599026       0.62817230
Cu       0.73652569       4.53086105       7.94636220
Cu       1.34610084      11.60326735       0.51817033
Cu       0.95065863      11.67623422       7.69768283
Cu       8.40532855       4.64936397       0.66341802
Cu       8.06783019       4.70784059       7.90992148
Cu       8.63893852      11.76471460       0.50562113
Cu       8.34754484      11.81866355       7.63226870
Cu       4.55057794       4.64452012       4.32228602
Cu       4.23490050       4.59248205      11.42776614
Cu       4.83757209      11.80264842       4.07416806
Cu       4.54192279      11.71489060      11.18938365
Cu      11.89193735       4.77162309       4.18989281
Cu      11.55955082       4.74944505      11.44084535
Cu      12.11380204      11.95821762       4.05033257
Cu      11.77283308      11.88592034      11.17065405
Cu       0.99505325       6.30147142       2.52273137
Cu       0.65962102       6.35211133       9.70987654
Cu       1.25552506      13.47759169       2.20215887
Cu       0.97947722      13.46187284       9.48526071
Cu       8.33524500       6.51811071       2.39436701
Cu       8.03121321       6.55226113       9.51404443
Cu       8.55559149      13.50289373       2.19472053
Cu       8.31683097      13.65085526       9.37451814
Cu       2.90221684       6.39160877       0.66439936
Cu       2.61775486       6.34402888       7.73539915
Cu       3.12620484      13.46337463       0.46189609
Cu       2.91647508      13.49654695       7.63018786
Cu      10.25776955       6.50183879       0.60027663
Cu       9.95526500       6.51663706       7.92473770
Cu      10.44184549      13.62143104       0.44653076
Cu      10.16555981      13.68352955       7.61932808
Cu       2.75922475       4.53420744       2.52786278
Cu       2.52338728       4.57923948       9.66540869
Cu       3.07575436      11.74905449       2.28337940
Cu       2.68967066      11.79491936       9.52338275
Cu      10.20692945       4.64361520       2.58646049
Cu       9.86578501       4.64396150       9.62720836
Cu      10.35142090      11.84124212       2.30231045
Cu      10.11722009      11.94282485       9.41637767
Cu       4.56241907       2.80337753       2.60481951
Cu       4.23971317       2.84974813       9.72412885
Cu       4.74137161       9.88271853       2.41008662
Cu       4.56918177       9.97479503       9.57697943
Cu      11.94050213       2.91053810       2.59419744
Cu      11.69080400       2.96596121       9.74226504
Cu      12.14660227      10.07960581       2.26625410
Cu      11.86495581      10.12761260       9.39842554
Cu       6.40644272       6.38330271       4.28696319
Cu       6.04692756       6.50625381      11.39583026
Cu       6.64886266      13.54353089       4.04723394
Cu       6.33281956      13.66780318      11.28468050
Cu      13.70707599       6.52366525       4.23750332
Cu      13.49316718       6.62084637      11.40628116
Cu      14.01144658      13.67004597       3.93286724
Cu      13.71530903      13.70090129      11.20136756
Cu       2.50786884       1.02802207       6.20680321
Cu       2.27677579       1.16181055      13.35812293
Cu       2.77180631       8.13243461       6.07521088
Cu       2.40873299       8.19288870      13.08101141
Cu       9.85259643       1.10005641       6.14770183
Cu       9.55953553       1.15106817      13.36064961
Cu      10.16073469       8.26366667       5.98350794
Cu       9.83230239       8.31389465      13.15104124
Cu       0.75667793       0.89683932       4.40479245
Cu       0.50868300       1.07504544      11.58092061
Cu       1.06567554       7.98110448       4.17533904
Cu       0.77249994       8.08500581      11.41038911
Cu       8.06983242       1.07387759       4.39428873
Cu       7.81817492       1.16512515      11.48133468
Cu       8.32036145       8.17054802       4.25309727
Cu       8.03174689       8.26024651      11.28493030
Cu       6.39263611       2.76658485       0.79673749
Cu       6.17976123       2.88931820       7.95456543
Cu       6.70390636       9.87672027       0.59646366
Mg       6.41481599      10.08529593       7.70015354
Cu      13.79009409       2.92309196       0.82498453
Cu      13.55756106       3.01232803       7.95969614
Cu      13.98633872      10.10560832       0.48064244
Cu      13.78246957      10.15881686       7.65878041
Cu       0.78474771       2.69542420       6.11009846
Cu       0.39123436       2.80970628      13.38948076
Cu       0.95140091       9.89986026       5.92865441
Cu       0.74917095       9.93599966      13.04142260
Cu       8.12169214       2.89213892       6.16227357
Cu       7.68156163       3.00017285      13.35505071
Cu       8.34491214      10.06676953       5.89976890
Cu       8.06227284      10.11724196      13.10048581
Cu       4.56138660       0.92660468       0.85271869
Cu       4.30630893       1.11190761       7.97922517
Cu       4.80947657       8.15114125       0.62599381
Cu       4.42719530       8.15452027       7.72834794
Cu      11.85797799       1.18235576       0.76840304
Cu      11.68699717       1.13255041       7.92503900
Cu      12.20255552       8.19969631       0.57281863
Cu      11.87062497       8.32130177       7.78614484
