189
Lattice="14.512639710686924 0.28937655632274206 -0.44961090900148193 0.23438546544969746 14.251305694658978 -0.03489523518109803 -0.32807033256513546 -0.7364600367981468 14.152452822548383" Properties=species:S:1:pos:R:3 pbc="T T T"
Mg       3.54814506      -0.16500968       3.34940143
Mg       3.31977623      -0.48509748      10.57120303
Mg       3.65930153       7.03284887       3.35208534
Mg       3.48032205       6.63451294      10.49999317
Mg      10.86550533      -0.01553542       3.23532383
Mg      10.63189216      -0.35488118      10.23309290
Cu      10.90399017       7.13807313       3.18052324
Mg      10.69990922       6.73243242      10.22983600
Mg       1.83745165       1.73210295       1.80935902
Mg       1.61712514       1.37941168       8.75264038
Mg       2.01282458       8.76161301       1.65265805
Mg       1.71579669       8.57791334       8.90518402
Mg       9.12945624       1.77548423       1.55611996
Mg       8.90368311       1.49388209       8.53417148
Mg       9.22816426       9.04873986       1.52204390
Mg       8.96989587       8.62485264       8.47061333
Mg       0.02495802       0.12468236      -0.04881024
Mg      -0.19073945      -0.35182968       7.13914491
Mg       0.12715688       7.13053715       0.01895903
Mg       0.00423410       6.72274436       7.11430377
Mg       7.28246422       0.22851783      -0.28948496
Mg       7.10660448      -0.22851420       6.87670310
Mg       7.38109417       7.27056960      -0.23031524
Mg       7.25777922       6.84676631       6.80349380
Mg       1.71572952       5.14780493       5.24431920
Mg       1.54467748       4.71586058      12.34965181
Cu       1.80006147      12.26681031       5.26222235
Mg       1.66476904      11.94558677      12.36961648
Mg       9.00036015       5.15225897       5.07073272
Mg       8.85017529       4.90394751      12.06112755
Mg       9.01168216      12.33498468       4.94755942
Mg       9.00279969      12.04363324      12.06203863
Mg       5.30411682       1.64816728       5.19339210
Mg       5.28264026       1.30872916      12.24381245
Mg       5.51533481       8.72747499       5.11580869
Mg       5.29410732       8.41581168      12.09935431
Mg      12.61331675       1.71681000       4.98404335
Mg      12.47754501       1.45229500      12.05203176
Mg      12.79147601       8.90716958       4.92221491
Mg      12.56365942       8.49435635      11.98953287
Mg      -0.06002327       3.41054887       3.56712392
Mg      -0.28462784       3.13763180      10.57682411
Mg       0.01474564      10.46123553       3.42169468
Mg      -0.07729479      10.08253557      10.53257542
Mg       7.24337269       3.50910700       3.27568802
Cu       7.14674315       3.09789970      10.43778785
Mg       7.42629774      10.61761965       3.27793708
Mg       7.21238868      10.37501897      10.29849154
Mg       3.74221402       3.67876447      -0.13059858
Cu       3.57113913       3.21676898       6.97055270
Mg       3.76829568      10.87157105      -0.11126110
Cu       3.64992650      10.32514083       6.93432477
Mg      10.90613061       3.76442503      -0.27834414
Mg      10.89370292       3.39556430       6.70742180
Mg      11.14046686      10.92308656      -0.43765250
Mg      10.93742840      10.50545780       6.69223118
Mg       5.37719676       5.33872678       1.59647884
Mg       5.35222247       4.91683886       8.71187483
Mg       5.53116555      12.40417667       1.50885428
Mg       5.41619421      12.19170524       8.63860307
Mg      12.71811717       5.47878535       1.37302329
Mg      12.64189982       5.16034851       8.45264940
Mg      12.79647307      12.58710015       1.33905505
Mg      12.60520472      12.24470855       8.41042084
Cu       6.35844452       4.26322418       6.01409768
Cu       6.12626596       3.89906094      13.05812567
Cu       6.37849360      11.38721419       5.99051837
Cu       6.23570825      10.97337186      13.05355624
Cu      13.56514648       4.46016884       5.78304122
Cu      13.42548538       4.05783658      12.83990375
Cu      13.68588893      11.55158484       5.79232004
Cu      13.47888545      11.09244805      12.91079933
Cu       4.49054237       5.96268675       6.06164826
Cu       4.33605195       5.62047348      13.08823068
Cu       4.58527732      13.06723388       6.11260723
Cu       4.47503337      12.79872885      13.10726836
Cu      11.69494179       6.21057123       5.81136909
Cu      11.64240530       5.72959186      12.87303736
Mg      11.81260168      13.32301847       5.82625026
Cu      11.71484174      12.91584215      12.90115227
Cu       2.62437863       2.59056896       4.36257757
Cu       2.48345304       2.15874391      11.37511611
Cu       2.81832061       9.65986422       4.37832466
Cu       2.57074814       9.22607421      11.34477382
Cu       9.89927595       2.58850835       4.10444198
Cu       9.77710574       2.28281829      11.19145227
Cu      10.05401592       9.81713445       4.05694984
Cu       9.77779671       9.33850660      11.06664904
Cu       6.34905790       0.98184729       2.42789386
Cu       6.12026970       0.59354300       9.59173981
Cu       6.34548949       8.01358722       2.44474620
Cu       6.28258771       7.69187353       9.49909810
Cu      13.43941626       1.04089215       2.20056614
Cu      13.31954712       0.63535859       9.31355402
Cu      13.67255604       8.22874762       2.17489907
Cu      13.48376311       7.79012531       9.29598019
Cu       0.87344089       4.34772963       0.82865359
Cu       0.75707966       4.07428250       7.93759334
Cu       1.16634379      11.64928027       0.77428379
Cu       0.90727054      11.18703162       7.84910800
Cu       8.25944427       4.54426197       0.69684037
Cu       8.05858916       4.22763786       7.66957779
Cu       8.36566341      11.66747670       0.56720160
Cu       8.07249971      11.39532418       7.70786777
Mg       4.48557147       4.31893877       4.23293234
Cu       4.28224645       3.98510183      11.37348749
Cu       4.61193714      11.39616230       4.32421746
Cu       4.51284819      11.16081506      11.24816059
Cu      11.81087340       4.43488385       4.00334242
Cu      11.59984399       4.04265997      11.25585891
Mg      11.96931109      11.64876174       3.97024520
Cu      11.73648149      11.17442859      11.11746819
Cu       1.01772468       6.06899707       2.55595258
Cu       0.84545522       5.70856249       9.58947037
Cu       1.02997267      13.24463189       2.57073158
Cu       0.88935799      12.85342988       9.66279599
Cu       8.14640281       6.30997417       2.40698963
Cu       8.09545192       5.80766010       9.45140539
Cu       8.39833038      13.40459486       2.36027958
Cu       8.22248892      12.94208196       9.49988266
Cu       2.77260873       6.25072712       0.73681759
Cu       2.61635933       5.87618262       7.85821838
Cu       2.88550495      13.35577674       0.79161907
Cu       2.74005128      13.04499846       7.79564626
Cu      10.05140119       6.39232713       0.57967851
Cu       9.91364513       5.98383362       7.62512788
Cu      10.16756223      13.52037209       0.55859614
Cu      10.02415993      13.05847835       7.61009203
Cu       2.73062973       4.34127937       2.66248619
Cu       2.54417647       3.97301183       9.63639483
Cu       2.83802687      11.43725643       2.52851375
Cu       2.66195026      11.13248362       9.74444961
Cu       9.99506501       4.57917587       2.30688446
Cu       9.83938484       4.13810537       9.40566027
Cu      10.11762181      11.56451095       2.27561474
Cu      10.06575699      11.29445945       9.33094411
Cu       4.50286368       2.63379434       2.49007026
Cu       4.33056841       2.27208405       9.61646166
Cu       4.66542045       9.78558554       2.47323389
Cu       4.44556708       9.42313965       9.61068477
Cu      11.70068877       2.81083377       2.34365615
Cu      11.61908741       2.33793615       9.39069867
Cu      11.81166221       9.89109028       2.29361862
Cu      11.77876939       9.47750730       9.36986326
Cu       6.34068541       6.23463778       4.18352505
Cu       6.20390708       5.73048638      11.33180189
Cu       6.53149499      13.20648654       4.11447085
Cu       6.36398396      12.81168634      11.29537842
Cu      13.54831185       6.24566710       3.90567819
Cu      13.41499133       5.95770677      10.96911554
Cu      13.74000183      13.30419576       4.00443091
Cu      13.62055439      13.13495019      10.99679173
Cu       2.56223836       0.66924494       6.17172246
Cu       2.41603849       0.24687058      13.19014306
Cu       2.72570385       7.79351590       6.10705689
Cu       2.55550090       7.29162502      13.18979993
Cu       9.84932828       0.76487671       5.83844465
Cu       9.64212502       0.31205735      12.97836876
Cu       9.84307036       7.89197505       5.93403984
Cu       9.85482627       7.55968436      12.93758067
Cu       0.75090803       0.68497617       4.35206018
Cu       0.70067441       0.27182051      11.47222554
Cu       0.86455335       7.74772946       4.33315055
Cu       0.73904466       7.43948180      11.49168861
Cu       8.14961147       0.88924324       4.20276213
Cu       7.94707674       0.45828807      11.23898485
Cu       8.21960932       7.96647963       4.17921769
Cu       6.30350379       2.66642738       0.64567042
Mg       6.24489963       2.28836225       7.77871105
Cu       6.48022120       9.87244579       0.67114950
Cu       6.27379874       9.49467914       7.78890773
Cu      13.64263296       2.89996530       0.47158423
Cu      13.70652022      10.01322157       0.34972955
Cu      13.61858018       9.65360300       7.51231324
Cu       0.73193804       2.35971604       6.09440636
Mg       0.62912328       1.98173240      13.26520287
Cu       0.93851034       9.53569692       6.15864396
Cu       0.69060133       9.10032273      13.24585366
Cu       8.03472133       2.44081412       5.96161190
Cu       7.84871238       2.17806540      12.95470040
Cu       8.19848977       9.58163608       5.98033579
Cu       8.12148734       9.26372981      12.96278821
Cu       4.58545069       0.96125174       0.68348911
Cu       4.39750927       0.58935536       7.74689120
Cu       4.56963430       8.00813520       0.74358907
Cu       4.42597342       7.70415600       7.77581334
Cu      11.82610716       0.99120640       0.60250861
Cu      11.82859919       8.19259330       0.45521021
Cu      11.70890350       7.89567934       7.57575342
