188
Lattice="13.721871669219272 -0.10813967710589423 0.09602655820113377 -0.41086813385172594 14.254689239892375 0.1845884159902551 0.24470089230460992 -0.17425886229334786 14.079088517001457" Properties=species:S:1:pos:R:3 pbc="T T T"
Mg       3.43519992      -0.06183122       3.57176668
Mg       3.56280537      -0.17183928      10.60475684
Mg       3.30674116       7.07731461       3.55714753
Mg       3.49714677       7.09956302      10.61138752
Mg      10.39315679      -0.21767478      10.60376445
Mg      10.10844828       7.03028145       3.67145239
Mg      10.31375341       6.95406511      10.69258993
Mg       1.69323192       1.80443849       1.76838557
Mg       1.82072337       1.58311132       8.80349987
Cu       1.48508148       8.90287193       1.87937811
Mg       1.58882638       8.75187982       8.89350450
Cu       8.45145796       1.66130799       1.89498052
Mg       8.72139533       1.62905466       8.98076324
Mg       8.41956415       8.86564336       1.94072491
Mg       8.48134110       8.71573749       8.96586701
Mg       0.00202470       0.01221013       0.02837064
Mg       0.19422576       0.01787892       7.03532940
Mg      -0.20372806       7.17052709       0.10668020
Cu      -0.09617520       7.09557211       7.22506250
Mg       6.84177600       0.01065837      -0.01576160
Mg       7.08224366      -0.21210258       7.15396287
Mg       6.70470480       7.09850998       0.12759145
Mg       6.78661289       6.93803121       7.17785922
Mg       1.68318703       5.29655146       5.43173545
Mg       1.76259481       5.15916218      12.34523425
Mg       1.50845594      12.43367797       5.40662007
Mg       1.55284254      12.33943401      12.45835863
Cu       8.53041631       5.18030212       5.40340502
Mg       8.71477179       5.07082884      12.43650948
Mg       8.30350026      12.36793787       5.49204775
Mg       8.46383049      12.23087117      12.56982653
Cu       5.10146395       1.68463434       5.28747233
Mg       5.28319168       1.47625172      12.40204544
Mg       4.95760195       8.79491451       5.38689743
Mg       5.10288037       8.69624320      12.50832777
Mg      12.08386149       1.60653539       5.36183570
Cu      12.19258674       1.51957857      12.39933724
Mg      11.82568800       8.86164143       5.41733959
Mg      11.88952206       8.62566467      12.55084219
Mg      -0.04024758       3.49749493       3.53098815
Mg       0.11136512       3.52968683      10.56414670
Mg      -0.22748406      10.70222302       3.66291267
Mg      -0.21468064      10.56195493      10.64840866
Mg       6.83063426       3.48248175       3.65599833
Mg       6.90896763       3.40183223      10.63719323
Mg       6.64887353      10.70245901       3.75851137
Mg       6.81377298      10.48803487      10.82922280
Mg       3.27008122       3.56758768       0.08887810
Mg       3.36644063       3.54396707       7.07399472
Mg       3.10050375      10.74387307       0.15886673
Mg       3.26515352      10.53895289       7.21483007
Mg      10.18730401       3.53859973       0.06688251
Mg      10.31928576       3.44364758       7.11014974
Mg       9.88632198      10.51443517       0.26515635
Mg      10.16941384      10.57939668       7.28959573
Mg       5.07995561       5.30191015       1.94745572
Mg       5.11684930       5.24413025       8.87455857
Mg       4.85132679      12.44886570       1.96001725
Mg       5.01626493      12.34958540       9.00421287
Mg      11.81670044       5.19688290       1.85422246
Mg      12.06631481       5.11008277       9.00009151
Mg      11.62022058      12.40103323       1.97347311
Mg      11.82970798      12.37066200       9.00627631
Cu       5.99341763       4.29954226       6.34522538
Cu       6.10231925       4.22392691      13.18096253
Cu       5.77452032      11.47755365       6.30779782
Cu       5.80485852      11.46478890      13.35882181
Cu      12.77032713       4.39303620       6.31342346
Cu      12.94631437       4.20475941      13.32450672
Cu      12.64147819      11.32061597       6.35379473
Cu      12.69283708      11.31419144      13.38267184
Cu       4.18158184       6.12936240       6.17295879
Cu       4.37913204       6.07437703      13.24478769
Cu       3.99138067      13.21591841       6.31635095
Cu       4.08226446      13.14845643      13.34771265
Cu      11.06712358       6.09427866       6.27582128
Cu      11.22775210       5.99904488      13.32690134
Cu      10.88727342      13.30247693       6.39974201
Cu      10.94943084      13.08004810      13.46385610
Cu       2.58165065       2.57928829       4.46873093
Cu       2.63029532       2.47160220      11.51210663
Cu       2.37564745       9.69475850       4.52305211
Cu       2.53447894       9.58241696      11.48478980
Cu       9.39741194       2.53328735       4.45107292
Cu       9.56683640       2.43719741      11.51927956
Cu       9.22649016       9.66898932       4.59492524
Cu       9.36636663       9.57831757      11.62103027
Mg       6.02908139       0.79156221       2.67459126
Cu       6.14482210       0.64664028       9.67260157
Cu       5.77779760       7.92326596       2.74720728
Cu       6.02505968       7.83670210       9.81555678
Mg      12.90600208       0.72953352       2.75728966
Cu      13.08211864       0.62200049       9.86904407
Cu      12.61875871       7.85627391       2.79618465
Cu      12.81731964       7.78043554       9.83964367
Cu       0.75288385       4.51082245       0.98999455
Mg       0.93708017       4.31482459       8.00723287
Cu       0.52312673      11.49580203       1.02321250
Cu       0.62440235      11.57584711       7.92930451
Cu       7.66259987       4.37864195       1.01185066
Cu       7.64857488       4.20532379       7.93679035
Mg       7.38635328      11.53451758       1.09061972
Cu       7.49709156      11.48831423       8.06952883
Cu       4.31220165       4.38977595       4.45535799
Cu       4.45819319       4.31037694      11.44116060
Cu       4.03843111      11.48120634       4.45657038
Cu       4.14904280      11.44701135      11.65871651
Cu      11.08979306       4.22153175       4.46662430
Cu      11.19993787       4.29419775      11.52272047
Cu      10.90911029      11.43659588       4.62806669
Cu      11.03432980      11.46206338      11.61304851
Cu       0.75987139       6.11825696       2.79004580
Cu       0.85679838       6.16127491       9.68364919
Cu       0.55495527      13.27520868       2.88250143
Cu       0.69518512      13.23886265       9.88878588
Cu       7.60384807       6.10061276       2.71922099
Cu       7.77503072       5.99565175       9.83214865
Cu       7.43263104      13.18503459       2.80838599
Cu       7.50972366      13.12179595       9.93219796
Cu       2.46150122       6.22600687       0.98392180
Cu       2.54458892       6.13053840       7.96581004
Cu       2.24449728      13.35141570       1.07664659
Cu       2.29704428      13.28754114       8.17961795
Cu       9.31648957       6.25111751       1.03127496
Cu       9.35718504       6.09866607       7.94929011
Cu       9.12786693      13.27526389       1.14600602
Cu       9.18809928      13.16739744       8.12919331
Cu       2.49423554       4.49044450       2.69192107
Cu       2.57672679       4.20654261       9.77258849
Cu       2.36413258      11.54596764       2.81413645
Cu       2.40980993      11.35254413       9.81370053
Cu       9.34569230       4.40451281       2.81194604
Cu       9.49390008       4.28387410       9.74953019
Cu       9.02829473      11.50216522       2.88578654
Cu       9.24330447      11.38429205       9.95149750
Cu       4.28855226       2.62032475       2.69311916
Cu       4.36011763       2.49427233       9.73799488
Mg       4.05155517       9.69135316       2.85839571
Cu       4.19517760       9.60831394       9.87171764
Cu      11.08888227       2.54995199       2.82063001
Cu      11.02847104       9.56459242       9.83483406
Cu       5.84888547       6.17251745       4.57322454
Cu       6.04506403       6.04174549      11.48577655
Cu       5.65292628      13.27487159       4.60691466
Cu       5.81004480      13.14452998      11.63541714
Cu      12.75019092       6.05085874       4.59227643
Cu      12.89208339       6.00952541      11.62328651
Cu      12.52235745      13.20631287       4.56240735
Cu      12.76568434      13.05880295      11.62060312
Cu       2.67287539       0.78693334       6.22183778
Cu       2.84852012       0.75442874      13.28076466
Cu       2.37982040       7.91526337       6.25037309
Cu       2.56411215       7.76159040      13.39206163
Cu       9.50229950       0.77250730       6.29823679
Cu       9.59196698       0.66896598      13.31016350
Cu       9.31849004       7.89864895       6.35746328
Cu       9.41599307       7.79525826      13.42831366
Cu       0.89329321       0.82964549       4.41222640
Cu       1.02033160       0.76201701      11.46401704
Cu       0.75293199       7.92748014       4.54546698
Cu       0.76933368       7.85014242      11.45925494
Cu       7.76506255       0.69486026       4.48687717
Cu       7.95863968       0.68025773      11.51344214
Cu       7.48673148       7.86476093       4.59403760
Cu       7.65124774       7.81582790      11.67511385
Mg       5.91888085       2.62348066       1.04262667
Cu       6.01231088       2.54047878       7.96541377
Cu       5.70595387       9.80729788       1.00964131
Cu       5.87511575       9.63843602       8.05617964
Cu      12.77338772       2.54686161       1.01234716
Cu      12.91791671       2.44183265       8.13737223
Cu      12.54633934       9.65188110       1.12034371
Cu      12.71873447       9.60164591       8.18378702
Cu       0.94458696       2.61625552       6.22569600
Cu       0.99680489       2.50228237      13.21670084
Cu       0.69127736       9.62123524       6.29743133
Cu       0.80057866       9.53267997      13.43463295
Cu       7.76390999       2.55581501       6.17789563
Cu       7.95768852       2.44276317      13.26185877
Cu       7.68250508       9.62505643      13.41047660
Cu       4.24826685       0.80669906       0.88450798
Cu       4.45557859       0.78762538       7.95038905
Cu       4.10540025       8.02940553       1.05192886
Cu       4.20856579       7.88710063       8.08140150
Cu      11.08545083       0.80952361       1.02853873
Cu      11.20975888       0.77279287       7.96228216
Cu      11.01440003       7.97257813       1.00590374
Cu      11.14951033       7.84198113       8.13023842
