190
Lattice="14.292781361752887 -0.216780845863063 0.1143436694162649 -0.21120167540698248 14.450886648519727 -0.08054113821508616 0.2155322221424322 -0.22053220713059363 13.908402497291924" Properties=species:S:1:pos:R:3 pbc="T T T"
Mg       3.65798677      -0.11127661       3.53318323
Mg       3.75328382      -0.09266560      10.41332532
Mg       3.49494754       7.09223429       3.47437404
Cu       3.58960466       7.00926854      10.46586620
Mg      10.75496855      -0.17314258       3.65622124
Mg      10.81540399      -0.33697322      10.46817511
Mg      10.63896651       6.97626222       3.46087672
Mg      10.80133358       6.84517386      10.45370831
Mg       1.74108561       1.77874636       1.73709865
Mg       1.91603244       1.66571931       8.71943884
Mg       1.62774230       9.06277747       1.67833610
Mg       1.77376507       8.85666589       8.60545650
Mg       8.97489514       1.59507508       1.79017558
Mg       9.08663585       1.48497370       8.78413924
Cu       8.86895748       8.89022244       1.79873781
Mg       8.96366440       8.76756961       8.73187531
Mg       0.06077200      -0.01063382      -0.00644362
Mg       0.04384216      -0.16022044       6.95759816
Mg      -0.18476455       7.17936614      -0.01494447
Mg       0.04728375       7.18764803       6.93077387
Mg       7.21697954      -0.13395769       0.12745024
Mg       7.19254662      -0.18588096       7.06300852
Mg       7.12649112       7.12606276       0.12118406
Mg       7.14533633       7.02394008       6.92859351
Mg       1.79053732       5.30014868       5.22863845
Mg       1.91971708       5.20555761      12.20956850
Mg       1.70450176      12.53752987       5.07619584
Mg       1.71968104      12.41835368      12.15198038
Mg       8.88676913       5.19828703       5.27413914
Mg       9.03165522       5.10783558      12.15421244
Cu       8.80172744      12.38734290       5.15786529
Mg       8.91650347      12.32185322      12.20075113
Mg       5.29639290       1.65368717       5.28124653
Mg       5.53354374       1.54972793      12.11904951
Mg       5.28973022       8.88074443       5.15484912
Mg       5.45946242       8.69516309      12.26451648
Mg      12.49303153       1.50839704       5.36815251
Mg      12.71665019       1.41310229      12.29397347
Mg      12.44119159       8.72686324       5.23614242
Mg      12.47930320       8.62253380      12.19907036
Mg      -0.01789322       3.54612696       3.41522906
Mg       0.10773209       3.30241462      10.42363894
Mg      -0.11244882      10.85324229       3.43481714
Mg      -0.02310254      10.67138339      10.39786225
Mg       7.14253907       3.48653787       3.53271180
Cu       7.31279285       3.34174825      10.44389470
Mg       7.10986002      10.60108056       3.47295644
Mg       7.11430821      10.56855304      10.54772807
Mg       3.51122636       3.52937503      -0.02589633
Mg       3.71701518       3.47809246       7.03268991
Mg       3.38735334      10.72128219       0.04614992
Mg       3.57773122      10.66565417       6.92932145
Mg      10.60872863       3.43186048       0.05695215
Cu      10.62601890       3.35451564       6.96883706
Mg      10.61779096      10.64489104       0.07009741
Mg      10.67159317      10.57063998       6.98832039
Mg       5.34135900       5.29280799       1.78483079
Mg       5.50119426       5.17208966       8.64400254
Mg       5.19449168      12.58631670       1.69162380
Mg       5.23486671      12.34012696       8.67281358
Mg      12.44361994       5.20071343       1.81538892
Mg      12.60435173       5.05247780       8.73005400
Mg      12.34996643      12.45418464       1.79119404
Mg      12.44995533      12.36598408       8.69703178
Cu       6.24182477       4.36321867       6.07878505
Cu       6.29156179       4.22904380      13.13733614
Cu       6.20085314      11.56250902       6.08121268
Cu       6.26009789      11.35926523      13.11505274
Cu      13.43773032       4.29611695       6.12565380
Cu      13.53848239       4.11631378      13.15195095
Cu      13.38596515      11.35492133       6.08033357
Cu      13.45789136      11.40203849      13.05344472
Cu       4.54215931       6.19171351       6.16631273
Cu       4.55777097       6.01364055      13.09464960
Cu       4.31193048      13.38374296       6.13785419
Cu       4.48060329      13.28109116      12.94910808
Cu      11.61348807       6.12817877       6.16289698
Cu      11.74076180       5.98613568      13.17439968
Cu      11.57921152      13.27149495       6.09970905
Cu      11.58876575      13.21889929      12.88244633
Cu       2.79648900       2.55995380       4.31463877
Cu       2.81196740       2.43243698      11.34858308
Cu       2.58737649       9.84813159       4.36131768
Cu       2.69659891       9.77386389      11.26560456
Cu       9.83705491       2.52636399       4.47448059
Cu       9.97835275       2.27478243      11.38667821
Cu       9.67751274       9.62322830       4.37461145
Cu       9.90907951       9.67704518      11.34789696
Cu       6.29305972       0.75892979       2.69760006
Cu       6.49844979       0.77280423       9.65866853
Cu       6.11729542       7.95393099       2.59092405
Cu       6.34604958       7.90573703       9.46766123
Cu      13.55912654       0.53856367       9.64956863
Mg      13.24961931       7.90251015       2.68120824
Cu      13.43899461       7.74653036       9.62735259
Cu       0.89757408       4.53224053       0.78874417
Cu       0.91801647       4.40718211       7.82759613
Cu       0.76195610      11.69378156       0.79474315
Cu       0.86519516      11.73280303       7.72966719
Cu       7.97616467       4.44775264       0.90643549
Cu       8.05153318       4.22006097       7.89491912
Cu       7.89198573      11.66355036       0.83461237
Cu       8.07176623      11.52821322       7.85484339
Cu       4.46226854       4.33928578       4.32196417
Cu       4.49622873       4.23021751      11.23862995
Cu       4.37228553      11.61056037       4.39048889
Cu       4.50929356      11.42987649      11.28827349
Cu      11.60842690       4.20801843       4.35404205
Cu      11.67109935       4.27132350      11.36457656
Cu      11.50437940      11.44440575       4.34855704
Cu      11.62866354      11.45496374      11.34034038
Cu       0.77980433       6.26300684       2.61497452
Cu       0.94393293       6.22813280       9.45802883
Cu       0.77435331      13.52163298       2.55997544
Cu       0.86915537      13.48865973       9.39110641
Cu       8.00474980       6.11635404       2.59898111
Cu       8.03441636       6.01837223       9.66234746
Cu       7.89405443      13.36225743       2.56490868
Cu       8.02596070      13.34455119       9.60749047
Cu       2.64812900       6.25044142       0.86412891
Cu       2.73264585       6.06409475       7.80128300
Cu       2.44890019      13.51907891       0.81190044
Cu       2.62144376      13.42291103       7.81160145
Cu       9.71930755       6.09743117       0.90826529
Cu       9.88907728       6.07710664       7.83737295
Cu       9.66534878      13.33605979       0.91122514
Cu       9.84354669      13.29927486       7.92237847
Cu       2.51499460       4.28917286       2.64453648
Cu       2.71883760       4.39150324       9.57030434
Cu       2.57917996      11.68553442       2.51402572
Cu       2.63274383      11.67517679       9.55483605
Mg       9.85642760       4.35480608       2.65790610
Cu       9.84567088       4.21554129       9.56058091
Cu       9.72634153      11.63665782       2.62119166
Cu       9.84098948      11.47463614       9.57975484
Cu       4.41513268       2.63781696       2.66655277
Cu       4.52927718       2.43020256       9.63772710
Cu       4.30455815       9.83647832       2.51971929
Cu       4.50382424       9.69176084       9.52064718
Cu      11.67412526       2.58145464       2.68528433
Cu      11.80554929       2.38852434       9.64426142
Cu      11.51195534       9.72175742       2.63424631
Cu      11.70276593       9.62136874       9.50334973
Cu       6.16061591       6.11749969       4.41517817
Cu       6.34211005       5.98591091      11.35065003
Cu       6.10559361      13.42272326       4.27247271
Cu       6.24488375      13.33647458      11.20663629
Cu      13.37691835       6.15231273       4.43353860
Cu      13.45338233       5.97996662      11.38055425
Cu      13.23127155      13.31009347       4.40682616
Cu      13.39076293      13.10042260      11.30037991
Cu       2.78491016       0.85313898       6.04087277
Cu       2.94569838       0.58453455      13.07686462
Cu       2.59140908       8.07134317       6.07828687
Cu       2.75949855       7.95705174      12.97130866
Cu       9.91506317       0.66828789       6.17803598
Cu      10.00873231       0.59321270      13.10670452
Cu       9.81946917       7.92045424       6.18146463
Cu       9.93272470       7.75427725      13.08920333
Mg       0.95530313       0.82988618       4.30072497
Cu       1.05490272       0.69417480      11.34786384
Cu       0.85677829       7.97765343       4.28997584
Cu       0.85654610       7.96560892      11.29858152
Cu       8.10329614       0.71303855       4.39418902
Cu       8.26959424       0.58239704      11.40590255
Cu       8.02474596       7.77902696      11.32440145
Cu       6.15351300       2.64540037       0.92048951
Cu       6.45360122       2.50560987       7.81339769
Cu       6.07828966       9.83744513       0.82131733
Cu       6.26916393       9.64370513       7.90373544
Cu      13.38731379       2.44624622       1.02022084
Cu      13.50410266       2.25945183       7.85775872
Cu      13.29805226       9.71995810       0.87179621
Mg      13.40365691       9.59534659       7.90984187
Cu       0.98126862       2.57577211       6.10612487
Mg       1.13171489       2.45294656      12.99117195
Cu       0.83867437       9.88333289       6.00790809
Cu       0.94417275       9.76130837      12.95108567
Cu       8.13498829       2.46662080       6.08327761
Cu       8.14604967       2.33591476      13.07918287
Cu       7.91214878       9.64058893       6.15902324
Cu       8.05885150       9.62563410      13.07103351
Cu       4.48918759       0.83684258       0.89006818
Cu       4.60878150       0.77925924       7.80724255
Cu       4.29294614       8.14757067       0.78469770
Cu       4.52301811       7.96301394       7.72907488
Cu      11.52200708       0.71789004       1.01328280
Cu      11.74738068       0.67562748       7.86067029
Cu      11.51563654       7.92250641       1.02975757
Cu      11.68137221       7.85663519       7.90984742
