190
Lattice="14.732006719711409 -0.3937468474005089 -0.01936447839499386 -0.009856094933252565 14.286613463043123 -0.4324523219341028 0.11525579917993416 -0.1204017365309484 14.083796740551216" Properties=species:S:1:pos:R:3 pbc="T T T"
Cu       3.71848397      -0.21769905       3.48415095
Mg       3.79455199      -0.18944747      10.54441407
Mg       3.71370967       7.01962895       3.26292806
Mg       3.72314596       7.00085383      10.27015452
Mg      11.17568184      -0.38928010       3.47952407
Mg      11.08740672      -0.41775281      10.61366019
Mg      11.10450803       6.80673604       3.30606537
Mg      11.06083279       6.75231172      10.31983189
Mg       1.87189077       1.81386874       1.71349528
Mg       1.89147188       1.69605624       8.75884240
Mg       1.83321741       8.94268140       1.46363144
Mg       1.84465468       8.82393629       8.49619099
Mg       9.25724765       1.45923344       1.67403307
Mg       9.31788794       1.39185555       8.72248242
Mg       9.32545869       8.59923529       1.48129252
Mg       9.17855676       8.53888719       8.51141853
Mg       0.01670820       0.05224635       0.08724924
Mg       0.08933778      -0.00479469       7.02201904
Mg      -0.00409346       6.96211698      -0.24230501
Mg      -0.01150357       7.07699190       6.93303835
Mg       7.24751331      -0.19387299      -0.07284407
Mg       7.40639730      -0.29572798       7.14061434
Mg       7.32643921       6.90520876      -0.16833151
Mg       7.39835395       6.90368342       6.88961574
Mg       1.94640972       5.20982535       5.07610868
Mg       1.96783857       5.26559437      12.12728455
Mg       1.82766478      12.36955551       4.85466167
Mg       1.93471849      12.36430165      11.97089902
Mg       9.24910960       5.09504610       5.05257673
Mg       9.36885832       5.10371782      12.13251213
Mg       9.15244624      12.16122110       4.97555460
Mg       9.36687938      12.10402543      12.10437194
Mg       5.62538206       1.60792776       5.26480144
Mg       5.59056126       1.55305824      12.24549853
Mg       5.68827092       8.73634749       4.96059102
Mg       5.63128347       8.61133628      12.00594438
Mg      12.98637286       1.42461288       5.22688658
Mg      13.07289843       1.29876263      12.21855313
Mg      12.86413372       8.53340143       5.01925120
Mg      12.98800178       8.51659891      12.03702872
Mg       0.05761473       3.52535622       3.41783460
Mg      -0.08121205       3.42334981      10.47054334
Mg       0.12685926      10.68309150       3.25604938
Mg       0.06695303      10.61958449      10.20469115
Mg       7.41750482       3.39277543       3.42237218
Mg       7.53158040       3.22787897      10.52439254
Mg       7.36537686      10.52079469       3.09719621
Mg       7.33021403      10.40557306      10.23377778
Mg       3.70709192       3.38119944      -0.11329515
Mg       3.81599530       3.34140131       6.81648764
Mg       3.57922299      10.56866049      -0.37114171
Cu       3.77130776      10.55435947       6.71935758
Mg      11.03253761       3.33507988      -0.11882205
Mg      11.15440899       3.16154091       6.98054090
Mg      11.05336497      10.45793593      -0.37323232
Cu      11.14885023      10.35800197       6.73324370
Mg       5.60808214       5.13746134       1.69425138
Cu       5.71372899       5.06320133       8.64101595
Mg       5.51760383      12.27569725       1.30475798
Mg       5.51324411      12.24363646       8.47130141
Cu      12.99834837       5.00259297       1.59469532
Mg      12.94243009       4.92781068       8.63384546
Mg      12.81974535      12.07391067       1.36104232
Mg      12.86042881      12.02273681       8.41434012
Cu       6.45750517       4.21507693       6.03498680
Cu       6.52905285       4.19618398      13.07112521
Cu       6.51650100      11.39990798       5.79440151
Cu       6.51621379      11.35909148      12.87603875
Cu      13.87242234       3.97311626       5.97197959
Cu      14.02194618       4.01485504      13.09993817
Cu      13.87122111      11.13140343       5.86047733
Cu      13.84433888      11.15076295      12.74525950
Cu       4.59961191       6.04675811       5.92903928
Cu       4.68693386       6.03187967      12.99739624
Cu       4.75949667      13.25813484       5.72247650
Cu       4.77482400      13.18387494      12.82539491
Cu      11.99952070       5.90058367       5.91619155
Cu      12.05248746       5.84005284      12.97298582
Cu      12.00918326      13.03327074       5.76064721
Cu      11.99877556      12.91938770      12.77899727
Cu       2.83959950       2.54774166       4.32113557
Cu       2.91233075       2.54334869      11.31677179
Cu       2.87126050       9.76115924       4.04063394
Cu       2.82517145       9.58686210      11.12908699
Cu      10.12030013       2.33941551       4.35951158
Cu      10.37514589       2.33784268      11.40246453
Cu      10.24069806       9.53238195       4.15287666
Cu       6.41714218       0.72882052       2.69475362
Cu       6.50179580       0.63307631       9.63752054
Cu       6.46355944       7.81718331       2.47224824
Cu       6.54519048       7.86517963       9.39870904
Cu      13.89406322       0.42149090       2.66965379
Cu      13.86377579       0.48628082       9.61700789
Cu      13.88220209       7.59235364       2.43072856
Cu      13.90854673       7.63553836       9.52501553
Cu       0.95662398       4.50071762       0.77973105
Cu       1.03579394       4.43193290       7.77865945
Cu       0.87914759      11.61849615       0.46234777
Cu       1.04973927      11.48636020       7.60493183
Cu       8.26687720       4.20872700       0.67049594
Cu       8.41144018       4.09141002       7.69977045
Cu       8.25855118      11.35981453       0.59975571
Cu       8.33788873      11.32533895       7.54433836
Cu       4.71607970       4.28931406       4.36604162
Cu       4.64449226       4.24170613      11.31887108
Cu       4.63135006      11.46459031       4.05445232
Cu       4.70006908      11.30964293      11.03053299
Cu      11.91721346       4.12237882       4.34328982
Cu      11.95624239       4.09863963      11.29220577
Cu      11.96079286      11.22229799       4.00232301
Cu      11.95118643      11.14310555      11.11458322
Cu       0.91825708       6.23084924       2.40478960
Cu       0.96048204       6.12131649       9.51754155
Cu       0.95310224      13.24003378       2.24992217
Cu       0.94986656      13.34185973       9.24489615
Cu       8.34732422       5.95640305       2.43906822
Cu       8.29556439       6.00264534       9.46202719
Cu       8.24392347      13.15265718       2.32774550
Cu       8.33659974      13.08484624       9.29485404
Cu       2.79424234       6.17267639       0.58606792
Cu       2.86350452       6.16248674       7.77947299
Cu       2.75162611      13.29280797       0.44258122
Cu       2.84817417      13.32112994       7.52924325
Cu      10.01172385       6.01614733       0.63441056
Cu      10.17755239       5.84438167       7.66007152
Cu      10.06583354      13.15502074       0.46926409
Cu      10.22460151      12.96422319       7.49494857
Cu       2.63515502       4.46233999       2.43446137
Cu       2.80711917       4.33503960       9.45172242
Cu       2.79048486      11.48023589       2.20145729
Cu       2.87960158      11.43791080       9.36080888
Cu      10.11508123       4.14706028       2.53284338
Cu      10.21094820       4.11631965       9.55768631
Cu      10.19402651      11.34422521       2.26263478
Cu      10.17448222      11.17417678       9.34241595
Cu       4.64780582       2.58197756       2.59139666
Cu       4.77507310       2.41544886       9.58892759
Cu       4.61891037       9.68203281       2.29663325
Cu       4.66478875       9.56175675       9.40467079
Cu      11.94308538       2.31040434       2.54822973
Cu      12.01973499       2.18362406       9.62162263
Cu      11.95811974       9.45065731       2.28241500
Cu      11.99380532       9.44841262       9.38677991
Cu       6.53617392       6.03725256       4.16521325
Cu       6.54748393       5.98203859      11.22616064
Mg       6.47964766      13.14089458       4.02527249
Mg       6.53473827      13.12609350      11.04659117
Cu      13.82545271       5.90278369       4.16136340
Cu      13.85204090       5.81242453      11.29003166
Cu      13.87367740      13.01502584       3.92381035
Cu      13.89135080      12.88551749      11.04253179
Cu       2.79975308       0.72119232       6.12247582
Cu       2.84443127       0.72097439      13.23811711
Cu       2.89898754       7.84325338       6.02988824
Cu       2.90701499       7.85741032      12.98830858
Cu      10.16153488       0.49759510       6.11161772
Cu      10.24932778       0.56703851      13.14929881
Cu      10.24021487       7.78103411       5.95205185
Cu      10.12672031       7.65172149      13.02012020
Cu       0.97786126       0.88066807       4.49102358
Mg       0.99791030       0.73644815      11.39867671
Cu       0.86560214       7.91883181       4.26078941
Cu       0.96043596       7.95019956      11.21524406
Cu       8.31060062       0.61838379       4.39414605
Cu       8.29960822       0.53289688      11.38485453
Cu       8.29446442       7.76709166       4.17572728
Cu       8.35378008       7.81960732      11.17448929
Cu       6.41886057       2.59056438       0.74368716
Cu       6.52349104       2.40271275       7.82447247
Cu       6.47191635       9.61614281       0.50578139
Cu       6.59462707       9.63837887       7.58867365
Cu      13.85638621       2.31562222       0.79904146
Cu      13.83543130       2.26854082       7.88821515
Cu      13.68538206       9.49101446       0.50628935
Mg      13.88468596       9.40808991       7.62646641
Cu       1.00180316       2.61155239       6.13829217
Cu       1.01013171       2.58486359      13.13149912
Cu       0.98935557       9.71839642       5.91731370
Cu       0.95488508       9.72958346      12.86197770
Cu       8.32037109       2.36905329       6.08695073
Cu       8.41478864       2.34733458      13.09403701
Cu       8.30536770       9.50037297       5.87535062
Cu       8.32547958       9.54938446      12.87031112
Cu       4.57848894       0.68110335       0.95971829
Cu       4.69635770       0.75633766       7.85139589
Cu       4.54733935       7.96041647       0.57530054
Cu       4.72026787       7.88608614       7.65392415
Mg      11.99389815       0.49077722       7.89207577
Cu      11.95208118       7.70453080       0.63869741
Cu      11.92653992       7.67129891       7.67892244
