189
Lattice="14.262963034559451 -0.2951543130152209 0.006587863749968782 0.10265964138983791 13.713265175835817 0.2663176754972692 0.1504941549388695 -0.218363394132248 13.867330062414553" Properties=species:S:1:pos:R:3 pbc="T T T"
Mg       3.59028692      -0.14364916       3.46433664
Mg       3.73390778      -0.26664038      10.36720708
Mg       3.74382162       6.75486597       3.62714762
Mg       3.72788985       6.58666414      10.65746048
Mg      10.69696695      -0.29410152       3.48826412
Mg      10.90573009      -0.43134113      10.34171879
Mg      10.74258966       6.53300782       3.57126836
Mg      10.78846827       6.53926377      10.54728377
Mg       1.79459351       1.70672735       1.73230421
Cu       1.83673475       1.53341569       8.65040459
Mg       1.78240318       8.55216866       1.91504716
Mg       1.95647841       8.42237733       8.83006043
Mg       8.92730924       1.51079638       1.81610392
Mg       8.99628181       1.46403685       8.76084844
Mg       9.07220219       8.34172943       1.86659823
Mg       9.06501740       8.19658898       8.80523293
Mg       0.00525016       0.03428465      -0.02079751
Mg       0.09900449      -0.19088347       6.91692329
Mg       0.07824990       6.86308475       0.10286023
Mg       0.11368924       6.64771284       7.08376907
Mg       7.23208596      -0.14752140      -0.06607058
Cu       7.16364208      -0.25770797       6.95535309
Cu       7.19880185       6.66254599       0.15461157
Mg       7.23344351       6.59122553       7.05936881
Mg       1.87433642       4.92793538       5.30974912
Mg       1.88987168       4.95174753      12.23325149
Mg       2.03486274      11.90847478       5.46366984
Mg       1.98878097      11.82042016      12.32191244
Cu       9.02086003       4.79544935       5.27650621
Mg       9.15842522       4.81283924      12.15639042
Mg       9.00714506      11.58851279       5.41234339
Cu       9.13809512      11.62403695      12.39639642
Mg       5.33789527       1.51015389       5.18851087
Mg       5.47442049       1.41744985      12.04952814
Mg       5.46547028       8.37346125       5.30269682
Mg       5.47059092       8.26549390      12.26631406
Mg      12.58163435       1.38463970       5.35405097
Mg      12.58163883       1.27754074      12.19950169
Mg      12.56610160       8.22513915       5.39917767
Mg      12.69191536       8.12486414      12.29044673
Mg       0.08274999       3.46931733       3.54588753
Mg       0.23301614       3.25881919      10.47730641
Cu       0.08744395      10.19751262       3.68682551
Mg       0.24069246      10.09433932      10.67085509
Mg       7.14562405       3.22871998       3.54625555
Mg       7.23696145       3.19841304      10.53030495
Mg       7.17839388      10.14647368       3.62243359
Mg       7.24133585       9.90513363      10.61204898
Mg       3.56259952       3.40397329       0.17427408
Mg       3.68745858       3.19511169       7.07002342
Mg       3.66944860      10.16950565       0.18447596
Mg       3.77176101      10.08069297       7.04891351
Mg      10.74456059       3.08690535       0.03290602
Mg      10.78525348       3.05255816       6.88069260
Mg      10.89258600       9.92854122       7.19658980
Mg       5.36734669       5.07709121       1.89675551
Mg       5.48926462       4.94777595       8.78222670
Mg       5.46996372      11.88884177       2.00494244
Mg       5.48147801      11.75765808       8.90856980
Mg      12.58333914       4.80042705       1.83527729
Mg      12.68252011       4.78021728       8.74079812
Mg      12.62434794      11.74286713       1.97256523
Mg      12.65826704      11.60676605       8.88655164
Cu       6.36148637       4.08326459       6.11988563
Cu       6.40843200       3.91006395      13.03167997
Cu       6.34011817      10.86840299       6.24780951
Cu       6.40626428      10.77805251      13.24043226
Cu      13.55965059       3.97563543       6.12035425
Cu      13.57976314       3.76554816      13.12609129
Cu      13.52283407      10.73109908       6.29128618
Cu      13.65496061      10.57543779      13.19320554
Cu       4.58561445       5.74178699       6.20499927
Cu       4.62469068       5.67451651      13.09736660
Cu       4.62182043      12.69754298       6.31616246
Cu       4.73770077      12.48539140      13.27983643
Cu      11.67468509       5.65773236       6.18750771
Cu      11.82349296       5.51711818      13.11047478
Mg      11.68997296      12.58641740       6.30719389
Cu      11.78567265      12.40096441      13.18730977
Cu       2.66489246       2.41060187       4.34748090
Cu       2.81505527       2.43400059      11.32866923
Cu       2.78594711       9.37997038       4.56768590
Cu       2.79879766       9.14220835      11.40884007
Cu       9.91987661       2.22994908       4.37230949
Cu       9.96217114       2.20500061      11.28583953
Cu       9.94647238       9.24240752       4.49746436
Mg      10.03274036       9.13922328      11.53656494
Cu       6.29069577       0.67035647       2.56400431
Cu       6.46182797       0.55221019       9.56583296
Cu       6.31914541       7.46165930       2.69308176
Cu       6.38261839       7.43742131       9.67384458
Cu      13.46394994       0.48227192       2.60908206
Cu      13.45657415       0.40944161       9.55340010
Cu      13.36346191       7.46059866       2.74003868
Cu      13.53870404       7.35153867       9.66267388
Cu       1.00060506       4.24837317       0.98528787
Mg       1.00860418      11.13070493       1.09160224
Cu       1.10830749      11.02503783       8.01604191
Cu       8.12618862       4.12332089       0.89548663
Cu       8.16500200       3.97961059       7.90267767
Cu       8.06814055      10.92218020       1.19351295
Cu       8.15964702      10.90435629       8.04817058
Cu       4.55187300       4.12565058       4.36006953
Cu       4.63489745       4.06468299      11.33844986
Cu       4.58521638      10.97724913       4.59162592
Cu       4.61049147      10.82378975      11.46958500
Cu      11.64280413       3.93840242       4.32264378
Cu      11.78369922      10.83712646       4.56965336
Cu      11.85117431      10.66205931      11.46377895
Cu       0.96549105       5.83419914       2.78353740
Cu       1.08029337       5.87240522       9.61789936
Cu       0.98186526      12.83680121       2.82086927
Cu       1.05588249      12.62232872       9.79574912
Cu       8.16222941       5.85754140       2.74704980
Cu       8.20212175       5.70777850       9.59781446
Cu       8.13909878      12.54367784       2.87075267
Cu       8.31385304      12.55490929       9.77261452
Cu       2.72352610       5.72864045       0.96917098
Cu       2.78397440       5.77408026       7.93056071
Cu       2.73747683      12.80587881       1.03787119
Cu       2.90440740      12.72536670       7.99043786
Cu       9.84875331       5.70574437       0.99460383
Cu       9.94509140       5.62713175       7.85381370
Cu       9.88344231      12.58950839       1.12640583
Cu      10.04324560      12.62044131       8.01315996
Cu       2.73125878       4.18081031       2.65758996
Cu       2.75573215       4.00676617       9.62657771
Cu       2.80967320      11.08772886       2.81193260
Cu       2.87951369      10.91843191       9.71260955
Cu       9.79779933       3.99387363       2.69351572
Cu       9.90413688       3.89538944       9.67047805
Cu       9.79479039      10.93333735       2.84812969
Cu       9.98986593      10.79014686       9.71014292
Cu       4.50713779       2.44814493       2.56527340
Cu       4.51245229       2.43287213       9.54187634
Cu       4.64492363       9.27591054       2.81799316
Cu       4.66308533       9.15211396       9.65418176
Cu      11.59379459       2.35665756       2.70563631
Cu      11.77964821       2.14102512       9.54899065
Cu      11.68408597       9.17345309       2.71167305
Cu      11.78070419       8.99929956       9.67651834
Cu       6.28773244       5.80823092       4.46544648
Cu       6.41382258       5.61377410      11.35110101
Cu       6.43894725      12.68662025       4.60327101
Cu       6.44899857      12.49452146      11.46259698
Cu      13.45567543       5.59910901       4.35180828
Cu      13.51890370       5.51719109      11.37752370
Cu      13.57533635      12.47913726       4.57863759
Mg      13.60304138      12.39485929      11.53299507
Cu       2.78096228       0.69285535       6.00216648
Cu       2.90221768       0.54282810      13.07702294
Cu       2.73467745       7.59326751       6.26693637
Cu       2.86560472       7.41781406      13.13671722
Cu       9.73853555       0.54024934       6.07941307
Cu       9.98589365       0.36856688      13.01671024
Cu       9.94294472       7.47899308       6.29425934
Cu      10.00195121       7.31098138      13.25021454
Cu       0.95484983       0.79572802       4.36634876
Cu       0.93007463       0.72254409      11.34293512
Cu       0.98141465       7.68173545       4.53190090
Cu       1.08178358       7.55128749      11.39813175
Cu       8.01867121       0.58119933       4.34478869
Cu       8.14361724       0.53417898      11.37000642
Cu       8.24551881       7.48579589       4.47738328
Mg       8.14400498       7.27465670      11.40527785
Cu       6.25970384       2.45311350       0.88316945
Cu       6.31474332       2.26998483       7.77591225
Cu       6.26650572       9.19876949       0.99778924
Cu       6.39269659       9.19070822       8.02896979
Cu      13.48407823       2.25840144       0.85061018
Cu      13.45935456       2.16494714       7.81377822
Cu      13.45985227       9.12490659       1.06164562
Cu      13.45909759       9.06939080       8.00550975
Cu       0.96365609       2.40703925       6.04731354
Cu       1.04405320       2.35060721      13.06820983
Cu       0.91293130       9.23032073       6.31433270
Cu       1.10362275       9.22674661      13.18666554
Cu       8.14499409       2.28797071       6.17622026
Cu       8.25619032       2.28152223      13.06048124
Cu       8.15145897       9.12810371       6.18922242
Cu       8.26681995       9.03141316      13.20848994
Cu       4.44513128       0.63727660       0.92400668
Cu       4.50226836       0.62349694       7.77684587
Cu       4.58534980       7.59755308       0.98314667
Cu       4.62773705       7.50508588       7.95601886
Cu      11.63782240       0.63860210       0.91790903
Cu      11.64656142       0.47580250       7.77625132
Mg      11.64596166       7.48754730       1.08362349
Cu      11.55980823       7.35741467       7.93463458
