191
Lattice="14.411519751599535 0.3820848405465051 0.22467694499666155 -0.47019702617059833 13.749553702305843 -0.09457773747030672 0.47719925295215676 0.18813547372452508 14.418367747658762" Properties=species:S:1:pos:R:3 pbc="T T T"
Mg       3.70473329       0.18834959       3.63169020
Mg       3.94089097       0.24338798      10.78679052
Mg       3.45176890       7.10907778       3.54761803
Mg       3.77863097       7.10319384      10.75854558
Mg      10.93705632       0.33952509       3.78643647
Mg      11.24019192       0.37503528      11.01457974
Mg      10.72443815       7.23006622       3.69933340
Mg      10.87622651       7.27059013      10.95231216
Mg       1.73698683       1.75958020       1.73432955
Mg       2.09593218       1.94392952       9.01990324
Mg       1.57981812       8.72698080       1.79125852
Mg       1.74234048       8.74713814       8.99024330
Mg       9.03344657       1.95093284       1.89672329
Mg       9.19975845       2.14677404       9.11854677
Mg       8.77559442       8.78571765       1.89689583
Cu       8.93616198       8.98576537       9.16241839
Mg      -0.04169251      -0.03606774       0.05342204
Mg       0.20402739       0.02472444       7.26274090
Mg      -0.27465457       6.82208668      -0.08307531
Mg      -0.01522809       7.01618403       7.20114415
Mg       7.25941724       0.18473396       0.15408957
Mg       7.49964267       0.26335663       7.26560956
Mg       7.00945310       6.99472339       0.07433232
Mg       7.30934073       7.11611026       7.22011677
Mg       1.84204086       5.25437382       5.35976276
Cu       1.99666187       5.42174493      12.63268104
Cu       1.59838697      12.14458389       5.40818764
Mg       1.81631253      12.20636131      12.53468828
Mg       9.11230724       5.53659521       5.50834660
Mg       9.27993338       5.57146250      12.81460344
Cu       8.80822412      12.26784119       5.55831776
Mg       9.00978344      12.39205570      12.69492143
Mg       5.61645977       1.92002880       5.33235331
Cu       5.75826145       2.04759927      12.62646201
Mg       5.26488369       8.83928046       5.38338427
Mg       5.60116616       8.89867366      12.62144344
Mg      12.77797725       2.14164334       5.60374744
Mg      13.03465791       2.27219226      12.82265421
Mg      12.46934162       8.99023791       5.48828808
Mg      12.67878118       9.03391564      12.71863842
Mg       0.02268763       3.45179192       3.60952733
Mg       0.30337110       3.61026623      10.76501912
Mg      -0.31578004      10.29967403       3.54571226
Mg       0.02636186      10.51197670      10.79607527
Cu       7.19842566       3.70021245       3.72221840
Mg       7.44252008       3.69964291      10.89350169
Mg       7.00600420      10.56522054       3.71796731
Mg       7.25686273      10.62146042      10.92242186
Mg       3.54047605       3.55459305      -0.00842504
Mg       3.69774455       3.57923531       7.21597758
Mg       3.27076988      10.43866730       0.06841832
Mg       3.39615290      10.52222672       7.27094017
Mg      10.65790606       3.79995211       0.15933981
Mg      10.84502735       3.78153360       7.38488703
Mg      10.42054096      10.61990502       0.11341434
Mg      10.60246127      10.63098919       7.32184964
Mg       5.35164882       5.24754083       1.90610299
Mg       5.47813750       5.37316511       9.07971661
Mg       5.01889520      12.22051213       1.76693975
Mg       5.30286521      12.26512499       9.00855239
Mg      12.47842576       5.48406613       1.96096864
Mg      12.69290324       5.72770824       9.14975439
Mg      12.30460654      12.37994688       1.88504373
Mg      12.49707670      12.58013189       9.14399684
Cu       6.43139207       4.51916544       6.28214698
Cu       6.65417422       4.60183550      13.55877510
Cu       6.14616993      11.40865656       6.32106916
Cu       6.30747996      11.47565012      13.54889402
Cu      13.62310420       4.67975679       6.37282360
Cu      13.78586569       4.84034241      13.65746079
Cu      13.40702834      11.59037865       6.45278190
Cu      13.60833903      11.67160480      13.55178900
Cu       4.58449677       6.33477093       6.37507584
Mg       4.81272713       6.32754474      13.47167450
Cu       4.24904289      13.15885387       6.30556158
Cu       4.57291456      13.20049131      13.47853573
Cu      11.71527278       6.39685102       6.42174865
Cu      11.98224792       6.50526086      13.69141132
Mg      11.42416031      13.26030753       6.39770754
Cu      11.73853075      13.34073926      13.62305565
Cu       2.77697667       2.73492015       4.55330118
Cu       3.02126749       2.84655390      11.74498529
Cu       2.55484255       9.58579863       4.46536217
Cu       2.75922157       9.60274837      11.69517278
Cu       9.93792807       2.93334815       4.62625002
Cu      10.21247990       3.07317611      11.84583416
Cu       9.75060585       9.81647620       4.53932771
Cu       9.96987715       9.85742299      11.83825584
Cu       6.36031841       0.99377512       2.74171444
Cu       6.62112085       1.17275812      10.00207697
Cu       6.13945645       8.05057289       2.66109383
Cu       6.36244018       7.95022257       9.97032326
Cu      13.56773165       1.23708678       2.96037745
Cu      13.84231524       1.34559035      10.11784804
Cu      13.28085646       8.16819818       2.77814885
Cu      13.57545430       8.20451118      10.01361937
Cu       0.74115211       4.32693151       0.78528864
Cu       1.07591975       4.57786735       8.12336133
Cu       0.51533020      11.25727232       0.78984725
Cu       0.69496716      11.36166998       8.05025257
Cu       7.98342093       4.50657939       1.00094505
Cu       8.20499692       4.64102390       8.21254365
Cu       7.75508826      11.40679200       0.96107011
Cu       8.06452311      11.50840151       8.10340918
Mg       4.53238256       4.51921289       4.57384699
Cu       4.65065139       4.51562197      11.70407724
Cu       4.29943197      11.37218024       4.43000296
Cu       4.52822461      11.45951629      11.71341976
Cu      11.75150086       4.66565544       4.57303959
Cu      11.85808271       4.74725104      11.87791414
Cu      11.60076237      11.55122510       4.65543672
Cu      11.79438579      11.67652389      11.85371681
Cu       0.79207703       6.11903034       2.66426093
Cu       0.57635592      13.00539800       2.56683677
Cu       0.76769291      12.99240928       9.79463419
Cu       8.08926336       6.32099925       2.81674587
Cu       8.39580879       6.33301703       9.99167447
Cu       7.85145443      13.12071699       2.81310867
Cu       7.97772154      13.22810459       9.97236528
Cu       2.54741556       6.14961303       0.91293564
Cu       2.78349851       6.14085559       8.13373189
Cu       2.23841630      12.97290638       0.82656728
Cu       2.51313257      13.10228669       7.99888814
Cu       9.75595045       6.30718438       1.01233405
Cu       9.98198260       6.32571110       8.29078841
Cu       9.40771365      13.18610976       0.94530095
Cu       9.71741665      13.26181225       8.17316197
Cu       2.64835577       4.41225505       2.70862674
Cu       2.94905604       4.40030036       9.85526790
Cu       2.43946067      11.26891602       2.65243768
Cu       2.72486923      11.38142945      10.00053660
Cu       9.78857876       4.55820232       2.87787990
Cu      10.06131745       4.73659593       9.98569727
Cu       9.55877054      11.44914667       2.77049002
Cu       9.84044609      11.56278501       9.96461126
Cu       4.54964928       2.81254937       2.68518869
Cu       4.72356085       2.88684277       9.99132448
Cu       4.17279113       9.62111052       2.75332922
Cu       4.47321223       9.73634515       9.85085356
Cu      11.78106662       2.87165901       2.88668989
Cu      11.92276566       3.01544691      10.13858683
Cu      11.42005669       9.85044658       2.89344268
Mg      11.75746572       9.93527495      10.10243123
Cu       6.19668344       6.21878899       4.49674082
Cu       6.54640753       6.32475483      11.75811807
Cu       6.01685996      13.10303906       4.53238431
Cu       6.20308891      13.22645656      11.65196695
Cu      13.47738932       6.36981334       4.64518873
Cu      13.81885442       6.56742415      11.85041857
Cu      13.20795516      13.34102993       4.72735431
Cu      13.49970478      13.49363887      11.77892830
Cu       2.90544269       0.96315795       6.37314846
Cu       3.12862900       1.06576748      13.47278076
Cu       2.64402298       7.93789441       6.27132385
Cu       2.87896967       8.03089075      13.51211430
Cu      10.11263640       1.31722402       6.52962771
Cu      10.34353506       1.25458066      13.68831527
Cu       9.88021551       8.18703196       6.31077751
Cu      10.03987069       8.18467441      13.67192053
Cu       0.99841187       0.99739835       4.51010179
Cu       1.22815192       0.97389062      11.77856679
Cu       0.74048729       7.84116276       4.52689045
Cu       1.06737535       7.83419414      11.66478584
Cu       8.26140892       1.08779170       4.65740983
Cu       8.36948807       1.23864069      11.73715175
Cu       7.99825429       7.96655500       4.54263823
Cu       8.28942245       8.13879968      11.83028582
Cu       6.29674955       2.73966401       0.96384032
Cu       6.50231189       2.83299953       8.24563516
Cu       6.02005425       9.67737769       0.93880068
Cu       6.23294395       9.71906492       8.07277793
Cu      13.48628507       2.95251324       1.12831993
Cu      13.75662061       2.98339587       8.25047938
Cu      13.14448158       9.94791090       1.05863896
Cu      13.35725356       9.92775964       8.14230142
Cu       0.98280171       2.58449956       6.31326346
Cu       1.29079369       2.74503133      13.46553308
Cu       0.82888532       9.51483070       6.29480794
Cu       0.98836996       9.62721746      13.38644762
Cu       8.23097597       2.99749567       6.37857985
Cu       8.41802316       2.92869299      13.59368781
Cu       7.92123945       9.77726898       6.35392120
Cu       8.29406510       9.85798357      13.58390896
Cu       4.41150392       0.99873515       1.01030356
Cu       4.70208326       1.11462204       8.09488652
Cu       4.20446464       7.83498548       0.86272627
Cu       4.52660974       7.94974281       8.09798325
Mg      11.71121310       1.23160356       1.03398461
Cu      12.03126052       1.22891056       8.32068083
Cu      11.48787837       8.07402273       1.00859818
Mg      11.75529737       8.09373648       8.26986751
