191
Lattice="14.33961659331703 0.3337317932130583 0.31069594688564117 -0.5950432999848764 14.383593423586268 0.21132837448519626 0.568292218531378 -0.07046064991382321 14.564961736491835" Properties=species:S:1:pos:R:3 pbc="T T T"
Mg       3.71259233       0.02572923       3.73618732
Mg       4.02768177      -0.04927080      11.05333447
Mg       3.46388692       7.31462165       3.81115848
Mg       3.64752559       7.24120034      11.09401721
Mg      10.91992968       0.20586919       3.91245968
Mg      11.20160149       0.15395630      11.14792416
Mg      10.64335407       7.27467524       3.97960199
Mg      10.84618159       7.40390394      11.31316910
Mg       1.81561126       1.90237066       1.90309801
Mg       2.06956805       1.78574945       9.18209098
Mg       1.52294991       8.96651660       2.06600372
Mg       1.76152775       8.99286935       9.28108054
Mg       8.94955818       2.00874564       2.07059248
Mg       9.13265257       1.89474731       9.30301302
Mg       8.64441934       9.17462570       2.19685999
Mg       8.93998457       9.18477840       9.41829701
Mg      -0.00314539      -0.06763625       0.03832268
Mg       0.25676323      -0.07789686       7.20316555
Mg      -0.31181138       7.26750576       0.07559082
Mg      -0.09149114       7.11711117       7.45591894
Mg       7.17504347       0.13781016       0.16267835
Mg       7.42263318       0.10524070       7.45422574
Mg       7.02397998       7.44384886       0.28372568
Mg       7.13677159       7.38031954       7.47362943
Mg       1.80532251       5.32839189       5.66123680
Mg       2.05358203       5.31353915      12.88917126
Mg       1.55756007      12.64392512       5.67422874
Mg       1.76888769      12.54481865      13.09048005
Mg       9.01532688       5.63565023       5.83431895
Mg       9.15233535       5.58859166      13.05177532
Mg       8.60772269      12.74379269       5.82678084
Mg       8.98732693      12.78598911      13.08865432
Mg       5.49529649       1.84219715       5.60655094
Mg       5.76455014       1.83756451      12.95855020
Cu       5.32808483       9.09584772       5.57888358
Mg       5.53660588       9.04472594      13.08288043
Mg      12.75824511       2.11635045       5.71901947
Mg      12.88806618       2.01481543      13.15516559
Mg      12.42773431       9.25965607       5.86337521
Mg      12.76572582       9.27578041      13.08536105
Mg      -0.01015961       3.54785862       3.67302824
Mg       0.25041876       3.47260659      11.00785176
Mg      -0.28064422      10.73040375       3.86708068
Mg      -0.04871383      10.74447559      11.08336447
Mg       7.18343737       3.80274267       3.72602890
Mg       7.39483720       3.63417843      11.18723727
Mg       6.85954005      10.92828943       3.87683930
Mg       7.22438722      10.90140068      11.23387979
Mg       3.48872881       3.64651780       0.19056331
Mg       3.63234446       3.61625791       7.41837905
Mg       3.11969924      10.89720083       0.27297699
Mg       3.44368447      10.83417673       7.50524410
Mg      10.70730615       3.86525932       0.39870507
Mg      10.80493677       3.75943416       7.51312604
Cu      10.22121104      11.00804255       0.50764664
Cu      10.51622612      11.03787395       7.74833951
Mg       5.13471149       5.44185015       1.95739360
Mg       5.43615261       5.43555220       9.24578332
Mg       4.98290314      12.70010753       2.16247851
Mg       5.29113528      12.62714085       9.49122939
Mg      12.34774393       5.68239131       2.16894358
Mg      12.65567501       5.68630292       9.40252523
Mg      12.12322160      12.94834983       2.30051396
Mg      12.36276635      12.81367732       9.50999981
Cu       6.36720631       4.59908104       6.53626638
Cu       6.63869618       4.57794191      13.87272044
Cu       6.14751413      11.74881434       6.66223227
Cu       6.32929551      11.73350365      13.87757852
Cu      13.55552266       4.77801349       6.71919737
Cu      13.79933653       4.69523348      13.99761296
Cu      13.27005575      12.01696041       6.79364483
Cu      13.52882414      11.89218465      14.15582590
Cu       4.52556604       6.37196880       6.65672485
Cu       4.80083080       6.29928996      13.78814850
Cu       4.13546765      13.59197956       6.72294877
Cu       4.48398790      13.57346285      13.98195500
Cu      11.66945382       6.58909294       6.73541263
Cu      12.04909502       6.54972693      13.99665373
Cu      11.30432013      13.73774416       6.90842647
Cu      11.60717352      13.65087014      14.14993968
Cu       2.78044531       2.72082801       4.68666612
Cu       3.05339719       2.68254368      12.01934906
Cu       2.48336427       9.97357446       4.73571467
Cu       2.70846769       9.87991937      12.04124312
Cu       9.98052041       2.94914462       4.87480924
Cu      10.21045790       2.89691941      12.10551816
Mg       9.62928347      10.09003420       5.02348055
Cu       9.91670384      10.03744461      12.18213873
Cu       6.38666656       1.03048254       2.85915282
Cu       6.57162613       1.02296024      10.14632297
Cu       6.03376116       8.24479081       3.05655871
Cu       6.29193513       8.08202551      10.20457357
Cu      13.50540893       1.21276091       3.06844002
Cu      13.71088582       1.15130925      10.35373375
Cu      13.28184776       8.48366874       3.18031075
Cu      13.39127966       8.33290000      10.39440029
Cu       0.72648863       4.56602191       0.97956616
Cu       1.03092199       4.40917725       8.28233189
Cu       0.54884400      11.63501951       1.13770404
Cu       0.82232464      11.70127597       8.33228894
Cu       7.94142342       4.77408637       1.16445534
Cu       8.25830649       4.67660329       8.37118682
Cu       7.62001150      11.83980959       1.27025688
Cu       8.04313527      11.82588993       8.57179646
Cu       4.42932668       4.54108441       4.71384776
Cu       4.77999105       4.56159773      12.02566783
Cu       4.21959400      11.83400878       4.90160580
Cu       4.44327644      11.72177335      12.00444453
Cu      11.68809313       4.73472222       4.86492653
Cu      11.91029548       4.70946760      12.07499133
Cu      11.39032127      11.98348016       4.99588436
Cu      11.53923424      11.90377043      12.31680081
Cu       0.69969610       6.34031876       2.85317307
Cu       1.02942112       6.20685479      10.06883966
Cu       0.45619627      13.47007824       2.91973845
Cu       0.72094092      13.43605764      10.21199141
Cu       7.95343608       6.45209429       2.95774447
Cu       8.32672286       6.36554394      10.31126711
Cu       7.53605732      13.58758805       3.12768171
Cu       7.90894193      13.62426815      10.39960032
Cu       2.38161373       6.28977878       0.93328995
Cu       2.68038550       6.23416233       8.32874669
Cu       2.16158410      13.54984270       1.13407492
Cu       2.45846202      13.52934949       8.38395156
Cu       9.62635558       6.55337362       1.19617779
Cu       9.89877516       6.45538197       8.59779260
Cu       9.39718026      13.74374489       1.28255959
Cu       9.56832674      13.73010875       8.57851145
Cu       2.69333355       4.53131205       2.98855110
Cu       2.87922293       4.49461954      10.25763722
Cu       2.23639832      11.78667315       2.97535113
Cu       2.59859214      11.78380352      10.25350916
Mg       9.78458655       4.72479369       2.97169142
Cu      10.03424538       4.70720938      10.24159701
Cu       9.53313454      11.91361393       3.10021920
Cu       9.80054542      11.95292872      10.29475055
Cu       4.43411637       2.85078107       2.86653190
Cu       4.72885452       2.77477248      10.14527297
Cu       4.09638569      10.00709221       2.93137787
Cu       4.40516525      10.07357765      10.35481863
Cu      11.65213953       3.00304155       3.09293794
Cu      11.95415123       2.97651221      10.26966217
Cu      11.42224218      10.15509371       3.10505698
Cu      11.63963248      10.14618363      10.55252617
Cu       6.27466151       6.40555864       4.81644475
Cu       6.44568299       6.46791603      12.15096777
Cu       5.87292166      13.57551470       4.96546304
Cu       6.25306737      13.61039684      12.14703137
Cu      13.13923283       6.63919922       4.89157266
Cu      13.60950888       6.55246538      12.19650962
Cu      13.02551769      13.86588460       5.00936900
Cu      13.34795324      13.72303775      12.31369667
Cu       2.89361640       0.95142031       6.46288884
Cu       3.17360211       0.91147981      13.66479327
Cu       2.61691560       8.18347023       6.61224169
Cu       2.86096145       8.11040046      13.83562847
Cu      10.03649250       1.14873943       6.64641781
Cu      10.36105301       1.10628863      13.87715835
Cu       9.80027438       8.27451962       6.71370576
Cu      10.10995103       8.22096104      14.00164249
Cu       1.01303799       0.95201837       4.60588192
Cu       1.32024459       0.91108227      11.90649610
Mg       0.69398795       8.07505213       4.65250356
Cu       1.09435557       8.06322441      11.99881594
Cu       8.17548600       1.05729544       4.87061335
Cu       8.45737439       1.08021410      12.10682265
Cu       7.92468764       8.31740493       4.85648783
Cu       8.19386707       8.16755872      12.12052957
Cu       6.17530836       2.72768217       1.11734522
Cu       6.42381183       2.82118865       8.31850447
Cu       5.94755028      10.07157590       1.22639592
Cu       6.21104566      10.04726884       8.46750620
Cu      13.34351146       3.05782975       1.31641198
Cu      13.60292429       2.99043177       8.44039324
Cu      13.09453569      10.25305174       1.35286223
Cu      13.38703409      10.14208262       8.67091874
Cu       1.00219750       2.81024633       6.44593600
Cu       1.34592714       2.65741579      13.74008461
Cu       0.57310499       9.89917072       6.60089312
Cu       0.97223035       9.84610631      13.81522397
Cu       8.20519420       2.86439189       6.54988874
Cu       8.51782739       2.83555958      13.79829863
Cu       7.86863842      10.02387120       6.69929065
Cu       8.21283083      10.03069915      13.99195592
Cu       4.46792477       0.97924590       0.97133899
Cu       4.78274219       0.94448017       8.34276487
Cu       4.19127251       8.28885677       1.09637264
Cu       4.36937378       8.18272877       8.46639481
Cu      11.64700410       1.20999143       1.20995989
Cu      11.27101829       8.29713548       1.27440662
Cu      11.65107617       8.29368943       8.60686886
