190
Lattice="13.840894876299448 -0.2296827090417748 0.1501942667438311 0.3804284955057168 14.231509891229665 -0.030832437781239657 -0.10295010342548559 0.40109731592509074 14.141788833868299" Properties=species:S:1:pos:R:3 pbc="T T T"
Mg       3.46542149      -0.01133031       3.63142363
Cu       3.42574550       0.32838994      10.68399271
Mg       3.61051263       7.17395553       3.62082278
Mg       3.58606834       7.37956704      10.62159717
Mg      10.39492988      -0.11366841       3.70571087
Mg      10.22165450       0.13708764      10.69328922
Mg      10.53615084       7.09960957       3.63227375
Mg      10.52767627       7.23908565      10.64233947
Mg       1.79371187       1.90389826       1.72429543
Mg       1.72192815       2.08411496       8.79958388
Mg       1.86545682       8.97717161       1.75734417
Mg       1.85573869       9.16251843       8.84025749
Mg       8.66221961       1.68838261       1.85762026
Mg       8.60464681       1.93966710       8.97036380
Mg       8.89979599       8.79772546       1.94838404
Mg       8.79167809       8.95187539       8.97078960
Cu      -0.04207539       0.10855079      -0.00316053
Mg      -0.13783723       0.22304616       7.02415733
Mg       0.19277071       7.06881274       0.00737831
Cu       0.12258178       7.29313543       7.09855219
Mg       6.89148831      -0.12904501       0.09707121
Mg       6.92095085       0.04127768       7.05653963
Mg       7.12874838       7.00977143       0.07138497
Mg       7.02778815       7.16337047       7.09445002
Mg       1.86949045       5.41696362       5.35795724
Mg       1.80853786       5.59362576      12.41829822
Mg       2.00525835      12.50029996       5.31549504
Mg       2.01016804      12.77040756      12.33476677
Mg       8.75019191       5.39364911       5.41301018
Mg       8.74310452       5.59187431      12.59547216
Mg       8.97672923      12.51378539       5.41615512
Mg       8.81823572      12.68469941      12.47176295
Cu       5.23506542       1.90245659       5.37049010
Mg       5.10015576       1.99549895      12.42623924
Cu       5.45280063       8.96865817       5.33895722
Mg       5.30780536       9.14270518      12.45107211
Mg      12.07864937       1.76502517       5.44692676
Mg      12.07878024       1.88480383      12.45002454
Mg      12.29376923       8.79661963       5.35563309
Mg      12.24405629       8.89050795      12.58124237
Mg       0.12296590       3.53713032       3.44920138
Mg      -0.02423404       3.88301786      10.52685375
Mg       0.26205609      10.80656016       3.52094551
Mg       0.22179955      10.91926272      10.63785760
Mg       6.99809841       3.50600861       3.57869517
Mg       6.91252983       3.75593318      10.68431425
Mg       7.21687774      10.67398841       3.54028584
Mg       7.21158136      10.89199176      10.69770157
Mg       3.62358212       3.60992975       0.07356943
Cu       3.45908422       3.66814303       7.08273091
Mg       3.79169489      10.62991550       0.03189833
Mg       3.70805441      10.87446379       7.09964797
Mg      10.49469623       3.42612026      -0.00384343
Mg      10.40570297       3.46403242       7.19522624
Mg      10.75467920      10.51578239       0.14257121
Mg      10.61531237      10.56943986       7.12403002
Mg       5.27599534       5.25628950       1.84631789
Mg       5.32568309       5.38360576       8.84949055
Mg       5.48921050      12.39270755       1.81154772
Mg       5.45532498      12.61069070       8.82378504
Mg      12.31622878       5.17078254       1.90568199
Mg      12.14047137       5.39850960       9.02213264
Mg      12.48281800      12.28326051       1.94270421
Mg      12.33284063      12.37415167       8.86664892
Cu       6.11026545       4.43891672       6.28408359
Cu       6.06615183       4.69541205      13.25143072
Cu       6.28485601      11.67571473       6.21695589
Cu       6.31239336      11.91073349      13.39027019
Mg      12.97771826       4.40848189       6.25502647
Cu      13.24167242      11.46881562       6.37713169
Cu      13.23190638      11.69555925      13.32618127
Cu       4.42538948       6.34314222       6.11215818
Cu       4.42671656       6.51068101      13.33394687
Cu       4.65933491      13.50781097       6.19991441
Cu       4.65151677      13.64819093      13.25894446
Cu      11.37933728       6.19277005       6.36663956
Cu      11.29337048       6.35707736      13.26124921
Cu      11.63471093      13.29358736       6.24122617
Cu      11.46543067      13.57028331      13.36551698
Cu       2.62925201       2.77912363       4.44187076
Cu       2.56033640       2.96436873      11.52990886
Cu       2.82843429       9.85191715       4.44720267
Cu       2.81163623      10.04733776      11.49811060
Cu       9.56206975       2.64156517       4.50551258
Cu       9.49483377       2.87816719      11.62745835
Cu       9.66644409       9.69363243       4.49728227
Cu       9.80649891       9.94877978      11.64887343
Cu       5.99423667       0.90812578       2.75385507
Cu       6.03169886       1.07759645       9.73768436
Cu       6.31295522       8.04134204       2.72038710
Cu       6.20657434       8.20963929       9.68589402
Cu      13.02075088       0.78181718       2.83133146
Cu      12.93898139       0.95535267       9.91802283
Mg      13.18231338       7.90373508       2.79635597
Cu      13.13629521       8.17450081       9.82352747
Cu       0.89406272       4.41555600       0.86311393
Cu       0.89739974       4.67598392       7.90339760
Cu       1.11116660      11.61648636       0.84454885
Cu       1.11317975      11.85694555       7.97813303
Cu       7.88291172       4.39079787       1.00839483
Cu       7.79302171       4.63783000       8.04982294
Cu       8.07789770      11.49432117       0.94584639
Cu       8.03035617      11.67515927       8.04876331
Cu       4.40971023       4.46338067       4.43542924
Cu       4.34519970       4.65739122      11.58120305
Cu       4.57752676      11.60376318       4.39421808
Mg       4.55128919      11.89071261      11.47901719
Cu      11.39280540       4.42732856       4.53338014
Cu      11.17600150       4.61819000      11.62010403
Cu      11.52712869      11.55326341       4.56163920
Mg      11.46736749      11.59921662      11.56538747
Cu       0.98771064       6.17783175       2.68027132
Cu       0.98631879       6.49724105       9.62028388
Cu       1.18367399      13.38457845       2.67248121
Cu       1.14193929      13.70988773       9.67545412
Cu       7.88803893       6.17345349       2.73478388
Cu       7.89954591       6.34830013       9.78875321
Cu       8.15808488      13.27307962       2.74077374
Mg       8.04781898      13.53565132       9.75102134
Cu       2.82944656       6.15672139       0.94173422
Cu       2.74108614       6.36467185       7.93934155
Cu       2.94064389      13.28207252       0.90147240
Cu       2.89259154      13.46507051       7.94796045
Cu       9.61311295       6.00954234       0.95038454
Cu       9.64454660       6.28103527       8.04160627
Cu       9.81159977      13.44844042       8.04645212
Cu       2.71989806       4.52914597       2.69291200
Cu       2.76317064       4.64762870       9.72700378
Cu       2.92270997      11.62035493       2.64937767
Cu       2.85597095      11.77346285       9.71097507
Cu       9.61340696       4.33201769       2.77227358
Cu       9.64187453       4.57481873       9.87340893
Cu       9.79048454      11.48129688       2.76437957
Cu       9.82130770      11.70606727       9.79041533
Cu       4.37146111       2.61377318       2.67656920
Cu       4.35313335       2.83884058       9.71556849
Cu       4.55305613       9.77793563       2.59150410
Cu       4.52150073       9.96973357       9.77632074
Cu      11.30099184       2.63438105       2.70415087
Cu      11.30882044       2.88133694       9.89168049
Cu      11.55840290       9.65744872       2.80121355
Cu      11.51470520       9.85035381       9.80004435
Cu       6.22225726       6.22088602       4.41109176
Cu       6.16795856       6.41449191      11.55554401
Cu       6.41572146      13.43946038       4.43095605
Cu       6.35414289      13.50682761      11.52389109
Cu      13.03338034       6.19799638       4.56101919
Cu      13.08864860       6.39055632      11.63689950
Cu      13.34915564      13.24350435       4.56299843
Cu      13.26877869      13.44782370      11.57746718
Cu       2.56953435       1.03421300       6.22611797
Cu       2.50092668       1.23407682      13.29903237
Cu       2.81100487       8.19510589       6.17096715
Cu       2.69934975       8.30615320      13.30266291
Cu       9.51168600       0.87978419       6.33482274
Cu       9.45901165       1.04741965      13.30118373
Cu       9.72367508       7.97968899       6.28212829
Cu       9.66434339       8.18094336      13.38690553
Cu       0.93598004       1.00289676       4.41044783
Cu       0.80281069       1.16626853      11.47489812
Cu       1.06202574       8.11497246       4.36477988
Cu       0.96295516       8.38058730      11.37572549
Cu       7.70420731       0.93397384       4.44792061
Cu       7.75602887       1.01061606      11.63672650
Cu       7.98731535       7.99769620       4.45467629
Cu       7.87609191       8.29953276      11.60876627
Cu       6.10305386       2.61892262       0.89285081
Cu       6.10383283       2.79061881       8.05660480
Cu       6.25930698       9.65138265       0.97626158
Cu       6.25328887       9.82646456       8.02383244
Cu      13.05028873       2.54648839       1.08221448
Cu      12.97534430       2.69360950       8.08767550
Cu      13.21288741       9.54056656       1.00678349
Cu      13.08543911       9.73646343       8.13591852
Cu       0.90904336       2.87579898       6.21767234
Cu       0.85603461       2.97900343      13.27002801
Cu       1.09628890      10.01522533       6.17596451
Cu       1.01006905      10.06946567      13.31762357
Cu       7.89252156       2.78944792       6.23850726
Cu       7.75436404       2.94171608      13.44084315
Cu       7.94502316       9.79668130       6.32997061
Cu       7.99804894      10.05903924      13.34095236
Cu       4.32096856       0.89024315       1.06540272
Cu       4.33284475       1.05493982       7.98288091
Cu       4.46874677       7.98272894       0.86625808
Cu       4.47866524       8.20143188       7.91501811
Cu      11.26646573       0.65025864       1.06259005
Cu      11.06826972       0.87080264       7.95449122
Cu      11.41940125       7.81459159       0.97309216
Cu      11.46409138       8.02355184       8.06249330
