189
Lattice="14.247072064344472 -0.17617138933005394 0.27181131316639273 0.02682593960836115 14.0247940984684 -0.1257784735245036 -0.04181515570394655 0.14717529661171888 13.873318720209529" Properties=species:S:1:pos:R:3 pbc="T T T"
Mg       3.67256215       0.05363636       3.47334041
Mg       3.59932135       0.07813960      10.49189468
Mg       3.60323892       6.99759387       3.55109104
Mg       3.58920514       7.02414452      10.35025584
Mg      10.60357161      -0.13087036       3.62816369
Mg      10.65682601      -0.07781247      10.69719611
Mg      10.58123703       7.01134484       3.61711839
Mg      10.74743240       6.91499674      10.53935186
Mg       1.82816315       1.77578923       1.66462469
Mg       1.76361385       1.85048770       8.66828108
Mg       1.81604299       8.73109876       1.62782323
Mg       1.75468054       8.78947578       8.72390632
Mg       8.91054498       1.76431613       1.91392526
Mg       8.86279579       1.77014017       8.85096507
Mg       8.90785547       8.67855893       1.81988613
Mg       8.83761023       8.68420152       8.80959492
Mg      -0.02172050      -0.06220528      -0.10598524
Mg       0.01298713       0.01947575       7.01282000
Mg      -0.03286838       7.08228808      -0.04453218
Mg       0.01169505       7.03367797       6.89123727
Mg       7.15402633      -0.05017948       0.10506975
Mg       7.07873704       0.02099690       7.16001528
Mg       7.09008233       6.91531202       0.02270052
Mg       7.12355679       7.08466070       6.98804559
Mg       1.77145179       5.27658034       5.29443537
Mg       1.83214662       5.33901725      12.00496496
Mg       1.76481565      12.32069572       5.14999773
Mg       1.74277060      12.38731005      12.07674947
Mg       8.93518979       5.15850382       5.31592907
Mg       8.95327268       5.34248313      12.27286127
Mg       8.95718949      12.08353370       5.31186470
Cu       8.85248819      12.22192484      12.23316851
Mg       5.30394010       1.75939659       5.25295181
Mg       5.32656536       1.81048734      12.24338123
Mg       5.40749481       8.72100936       5.22587003
Mg       5.29596185       8.88068405      12.13417940
Mg      12.44687761       1.63496960       5.42105561
Mg      12.39216437       1.73450645      12.41119932
Mg      12.43975681       8.66729386       5.30195914
Mg      12.52346708       8.73318174      12.29661011
Mg       0.00892099       3.49621015       3.38128378
Mg      -0.03965591       3.63787847      10.32424044
Mg      -0.08481560      10.53019531       3.38076499
Cu      -0.03216152      10.64662124      10.19234865
Cu       7.17086774       3.43772093       3.52200125
Mg       7.09182941      10.48805196      10.42193299
Mg       3.68752663       3.48855964       0.05368181
Mg       3.48197074       3.52508271       6.95417118
Cu       3.56383138      10.52180653      -0.02337967
Cu       3.54826720      10.48684580       6.89968382
Mg      10.71055432       3.36764281       0.18452984
Mg      10.62686616       3.44135583       7.15460524
Mg      10.68009949      10.30645914       0.02183477
Mg      10.71937516      10.44802283       7.02364449
Cu       5.29887651       5.18643256       1.81028599
Mg       5.34248804       5.24463332       8.66923330
Mg       5.35256250      12.08503372       1.73099320
Mg       5.38187583      12.31814430       8.74289563
Mg      12.52875224       5.04736947       1.94118483
Mg      12.39755579       5.16556202       8.85125008
Mg      12.51287572      12.10943334       1.91369828
Mg      12.51685734      12.23350582       8.84076881
Cu       6.14122780       4.29165641       6.13065537
Cu       6.29137095       4.45275505      13.17927020
Cu       6.31773388      11.43901690       6.18335433
Cu       6.21453452      11.45138289      12.94849085
Cu      13.34510884       4.36345081       6.30634396
Cu      13.41095707       4.35416021      13.20228802
Cu      13.30445759      11.32037802       6.21242771
Cu      13.36231858      11.40598692      13.19317503
Cu       4.51096308       6.18424098       6.18120218
Cu       4.52337294       6.14679418      13.09944385
Cu       4.47851322      13.09084833       6.10617221
Mg       4.37639252      13.17947826      12.98923808
Cu      11.58697479       6.08041642       6.18787586
Cu      11.53575463       6.16827449      13.11878590
Cu      11.48513370      13.05364837       6.17461068
Cu      11.58936459      13.10344753      13.15741811
Cu       2.68544056       2.69206904       4.34032852
Cu       2.60294681       2.65674664      11.27323184
Cu       2.70781641       9.68362337       4.34610300
Cu       2.64676314       9.77050427      11.23256715
Cu       9.75841862       2.56546089       4.48708855
Cu       9.72979835       2.59054633      11.41033246
Cu       9.81438995       9.58381199       4.33988229
Cu       9.79640484       9.56832765      11.36772493
Cu       6.14428575       0.72653997       2.66329461
Cu       6.22425904       0.88056399       9.70414405
Cu       6.29110257       7.90301235       2.70364277
Cu       6.19225141       7.91526538       9.49370757
Cu      13.35963449       0.77266259       2.79056337
Cu      13.37853123       0.81018218       9.84066737
Cu      13.36070007       7.69088147       2.86078742
Cu      13.28870090       7.84327274       9.76259614
Cu       1.02064480       4.40955399       0.83666184
Cu       0.88496553       4.40316203       7.80305531
Cu       0.95099936      11.42379158       0.77881200
Cu       0.88620012      11.47483144       7.71441472
Cu       7.97254768       4.34902607       0.97736405
Cu       7.97141450       4.40755473       7.90598356
Cu       7.99918448      11.34364772       0.90980016
Cu       7.98046389      11.48475205       7.84388359
Cu       4.44297366       4.38459464       4.40997943
Cu       4.34117846       4.46838056      11.34231603
Cu       4.42590343      11.39395652       4.31437417
Cu       4.40877761      11.50401628      11.29649713
Cu      11.58835676       4.30017778       4.54473201
Cu      11.57088222       4.37174076      11.50439472
Cu      11.60607375      11.21556576       4.44787792
Cu      11.54744504      11.33168037      11.37905264
Cu       0.93013430       6.17691360       2.56618814
Cu       0.88384666       6.32870716       9.45502066
Cu       0.90040841      13.09173816       2.46237030
Cu       0.84027836      13.18159807       9.45559545
Cu       7.95980505       6.14210932       9.68187952
Cu       7.99760087      13.06399719       2.68901861
Cu       7.96382717      13.27835099       9.53859402
Cu       2.76075906       6.21828430       0.77604817
Cu       2.56160092       6.26759101       7.75451191
Cu       2.71078928      13.16850923       0.83447411
Cu       2.71108082      13.12510855       7.72496025
Mg       9.76329865       5.98491655       0.96162515
Cu       9.73373606       6.07817651       7.89067864
Cu       9.82831652      13.00157763       1.01043922
Cu       9.72732756      13.15922956       7.81867200
Cu       2.57920099       4.39655940       2.64540484
Mg       2.65951889       4.37811237       9.48233646
Cu       2.70509079      11.46300260       2.47381386
Cu       2.64364669      11.49369419       9.47031714
Cu       9.90899533       4.20631682       2.82853317
Cu       9.84081218       4.36074112       9.68142362
Cu       9.77999484      11.28708109       2.66823393
Cu       9.85503339      11.42163457       9.67388101
Cu       4.47329424       2.58712611       2.57968588
Cu       4.46160055       2.64934646       9.57055108
Cu       4.52136169       9.61102899       2.54747267
Cu       4.45145111       9.73816782       9.35138827
Cu      11.63577745       2.45657763       2.77586389
Cu      11.56713994       2.57888928       9.71854749
Cu      11.62298206       9.42651010       2.81410477
Cu      11.61292442       9.57074427       9.59845063
Cu       6.21958111       6.00727467       4.33280856
Cu       6.14845676       6.13882617      11.27125493
Cu       6.29648393      13.15892291       4.42296678
Cu       6.17193461      13.21950735      11.29806519
Cu      13.34931945       6.07402710       4.57718293
Cu      13.38044660       6.11375652      11.45005106
Cu      13.44333160      13.06100495       4.53277229
Cu      13.36794101      13.23452770      11.40681852
Cu       2.71191516       0.85333213       6.15185706
Cu       2.61236400       0.98429015      13.06999027
Cu       2.70575308       7.96426289       6.01394204
Cu       2.68689636       7.97642743      12.93008306
Cu       9.70795087       0.77827511       6.22139210
Cu       9.65574321       0.84261649      13.22899067
Cu       9.71209969       7.80755070       6.23292968
Cu       9.69346984       7.95981902      13.16939384
Mg       0.82254349       0.92413438       4.34732902
Cu       0.95630865       1.00797674      11.24933553
Cu       0.88316409       7.91767973       4.28908358
Cu       0.84890988       7.98470694      11.24580405
Mg       7.98257495       0.83153767       4.55708913
Mg       7.94140784       0.92076549      11.41528723
Cu       8.02931262       7.82503370       4.46215736
Cu       8.01887229       7.95106571      11.32405679
Cu       6.26259207       2.52380461       0.91186315
Cu       6.19305694       2.63860204       7.99685614
Cu       6.29535791       9.56059830       0.92798213
Cu       6.29373917       9.74068001       7.77989325
Cu      13.33237827       2.56549893       1.17838974
Cu      13.40566866       2.57980171       8.04578079
Cu      13.34004088       9.50385888       1.04816478
Cu      13.43830614       9.51820612       7.97870793
Cu       0.83751208       2.64744412       6.08225693
Cu       0.87967757       2.75278547      12.97294351
Cu       0.97367534       9.67386503       6.01451754
Cu       0.83533058       9.72997357      12.87096341
Cu       8.10562929       2.59726067       6.27719889
Cu       7.98622705       2.67274011      13.12969524
Cu       8.00335377       9.58111014       6.16771517
Cu       8.03360868       9.58469443      13.02141897
Cu       4.49916775       0.82846323       0.94896828
Cu       4.41280820       0.90880666       7.85997712
Cu       4.45027382       7.73086350       0.81893815
Cu       4.47881975       7.84478914       7.73720816
Cu      11.65002814       0.75634711       1.10054203
Cu      11.53761309       0.83768807       7.98039362
Cu      11.63383096       7.80075932       0.97707051
Cu      11.50250884       7.71432361       7.92362271
