190
Lattice="14.207915659408458 -0.06392145779041448 0.23156794868015593 0.10407748919542523 14.231601956267077 0.12153126668969678 -0.21931403144990305 0.05543860052998144 14.396419867783651" Properties=species:S:1:pos:R:3 pbc="T T T"
Mg       3.48106189      -0.07211613       3.63626766
Mg       3.40720898       0.00099317      10.83091260
Mg       3.51446902       7.15985754       3.60378834
Mg       3.48979300       7.08041567      10.86068630
Mg      10.64880788       0.08921472       3.74747350
Cu      10.47065143      -0.06429616      11.03791173
Mg      10.74402009       7.13371394       3.77336473
Mg      10.52275329       7.12020585      11.04813067
Mg       1.79650780       1.82113735       1.87788785
Mg       1.67067052       1.85601642       8.99556661
Mg       1.81792892       8.89673783       1.89862805
Mg       1.71821929       8.97982851       9.06433159
Mg       8.90327509       1.68222632       1.99942160
Mg       8.81584560       1.74536353       9.18221981
Mg       8.75518868       8.93144183       9.26173819
Mg      -0.04182603      -0.05829502       0.01118684
Mg      -0.12856479       0.02021014       7.19363187
Mg       0.09487179       7.09550955       0.06155940
Mg      -0.07495514       7.18598274       7.33509255
Mg       7.11322949       0.00787425       0.07495278
Mg       7.03665287      -0.00220674       7.32330009
Mg       7.22745869       7.05158930       0.23298025
Mg       7.00103055       7.23312158       7.33310957
Mg       1.72595095       5.44153769       5.48821546
Mg       1.57320786       5.31166178      12.59088012
Cu       1.79673281      12.44058226       5.54005924
Mg       1.60618196      12.48655832      12.69612961
Mg       8.82735368       5.36315913       5.55580535
Mg       8.82928163       5.29462491      12.78603886
Mg       8.84062307      12.38380918       5.71378685
Mg       8.81492326      12.47885121      12.92613811
Mg       5.25048906       1.79472460       5.51516916
Mg       5.19188866       1.81073809      12.71490564
Cu       5.36600904       8.94089227       5.50844992
Mg       5.14495263       8.92814523      12.73495504
Mg      12.36848586       1.68946597       5.62209986
Mg      12.17418462       1.78059232      12.85942944
Cu      12.38736284       8.91129802       5.67385680
Mg      12.35175432       8.93015651      12.82674464
Mg      -0.10291302       3.55047464       3.60169308
Mg      -0.15854429       3.72114600      10.92612702
Mg      -0.00085201      10.68956135       3.68429565
Cu      -0.04937271      10.70965118      10.86768538
Mg       7.07891747       3.46616223       3.81501724
Mg       6.96812203       3.52069879      10.98215653
Mg       7.08924506      10.64604341       3.84209805
Mg       6.99403100      10.61725098      10.99536441
Mg       3.59935953       3.55475700       0.10378552
Mg       3.53536633       3.54870927       7.29460069
Mg       3.66191079      10.73396198       0.10293828
Mg       3.46973274      10.67420441       7.26375288
Mg      10.71715611       3.53571163       0.18506626
Mg      10.55905898       3.44467819       7.40902827
Mg      10.70981838      10.61723937       0.31122536
Mg      10.62228693      10.67613637       7.49041291
Mg       5.34554364       5.41198178       1.91660098
Mg       5.27732573       5.47444780       9.16169177
Mg       5.43962392      12.44161649       1.98568780
Mg       5.21727675      12.48111844       9.14088873
Mg      12.37492247       5.24821740       2.03072742
Mg      12.36178392       5.30276283       9.31060332
Mg      12.47133714      12.40647392       2.08339845
Cu       6.15744126       4.48676760       6.47368110
Cu       5.96438901       4.39407391      13.66473418
Cu       6.19532078      11.64998731       6.44818965
Cu       6.01588712      11.53010255      13.72398564
Cu      13.19316160       4.40470944       6.45798825
Cu      13.13204758       4.41403010      13.76576974
Cu      13.25961749      11.53210744       6.66149949
Cu      13.16885483      11.58989198      13.75530452
Cu       4.40542796       6.18937076       6.42058464
Cu       4.23773752       6.26646328      13.54821017
Cu       4.39206174      13.33308756       6.49806231
Cu       4.31054916      13.29998191      13.71871570
Cu      11.45326187       6.19124761       6.49605611
Cu      11.41561360       6.17447418      13.77085632
Cu      11.58111051      13.32803728       6.53726271
Cu      11.46036449      13.35726131      13.80028294
Cu       2.65660677       2.70255503       4.61049654
Cu       2.59333688       2.61911565      11.72231440
Cu       2.65932391       9.88211890       4.58860402
Cu       2.52860634       9.84409202      11.87694295
Cu       9.72694870       2.73644392       4.75263090
Cu       9.58283571       2.65743374      11.81985778
Cu       9.74543050       9.74885327       4.69657511
Cu       9.55407337       9.80506652      11.86447558
Cu       6.16041839       0.96032053       2.80554233
Cu       6.15000700       0.91131657      10.08082717
Cu       6.22263196       8.00595445       2.91780965
Cu       6.06824512       8.06099915      10.02873087
Mg      13.30802951       0.81560426       3.01131475
Cu      13.19258670       0.75038829      10.13489864
Cu      13.33314471       7.92120330       2.95216888
Cu      13.20124696       7.94146124      10.23850703
Cu       0.80575762       4.47399077       0.98495676
Cu       0.80797237       4.44436765       8.24685426
Cu       0.93478555      11.52669677       1.08277460
Cu       0.82211535      11.53868465       8.17175716
Cu       7.91013535       4.39959686       1.03258931
Cu       7.97226604       4.42708568       8.25224579
Cu       8.05334013      11.52471912       1.11800002
Cu       7.93059648      11.60133306       8.29151238
Cu       4.41554312       4.51002054       4.61633215
Cu       4.19059342       4.50135779      11.70616374
Cu       4.45616866      11.52270329       4.68374579
Cu       4.42188478      11.49529929      11.77807960
Cu      11.47063285       4.33821802       4.77069195
Cu      11.34732807       4.44823573      11.93776756
Cu      11.53494657      11.55378495       4.80450760
Mg      11.47281035      11.55558877      11.97574933
Cu       0.87886483       6.22537644       2.78085338
Cu       0.70433948       6.36176227       9.98483200
Cu       0.95631593      13.38449638       2.82546258
Cu       0.78887693      13.29319251       9.93913187
Cu       7.95815003       6.20859752       2.87069086
Cu       7.81321509       6.26482631      10.01103340
Cu       8.00198498      13.41416328       2.94133607
Cu       7.97687254      13.36329336      10.06058431
Cu       2.73140011       6.24027591       0.88553745
Cu       2.52518276       6.26274316       8.27358551
Cu       2.74388511      13.28086237       1.07110671
Cu       2.59647736      13.27069235       8.21327668
Cu       9.71972720       6.16080370       1.07066184
Cu       9.75788246       6.28983394       8.26266091
Cu       9.84910228      13.40763328       1.12708732
Cu       9.79688144      13.33117559       8.36717181
Cu       2.67399014       4.53586705       2.78371095
Cu       2.60556389       4.55690190       9.99168167
Cu       2.64003120      11.57187492       2.90826830
Cu       2.61715362      11.49575611       9.98039457
Cu       9.75245929       4.42944307       2.83203012
Cu       9.66237157       4.37643908      10.09432262
Cu       9.81245249      11.54527123       2.98770140
Cu       9.74600113      11.49697325      10.16274594
Cu       4.39685216       2.64667673       2.82082688
Cu       4.24971346       2.73042497       9.96100376
Cu       4.54670071       9.70475813       2.91993282
Cu       4.33231830       9.77610329      10.04054825
Mg      11.53396335       2.56801524       2.99787080
Cu      11.47172714       2.62135299      10.02395999
Cu      11.57460839       9.63078799       2.94981029
Cu      11.44884437       9.74716552      10.19003901
Cu       6.21315744       6.21315836       4.56937422
Cu       6.10264753       6.27021245      11.91117371
Cu       6.24339705      13.25601091       4.69007810
Cu       6.17461519      13.24789269      11.85599730
Mg      13.34261461       6.14352866       4.77537835
Mg      13.16074402       6.26853725      12.04705864
Cu      13.32365216      13.27598564       4.85447506
Cu      13.28750371      13.39059396      12.03322338
Cu       2.58473815       0.90505743       6.29512354
Cu       2.42536371       0.90202013      13.55689301
Cu       2.67873303       8.06116301       6.35241472
Cu       2.48078281       8.00549901      13.52189708
Cu       9.58698682       0.91569298       6.45337894
Cu       9.58229691       0.90512308      13.66754307
Cu       9.70013941       8.06101476       6.46670008
Cu       9.61813178       7.95047628      13.75844787
Cu       0.84300230       0.96715653       4.48625219
Cu       0.68479939       0.93216792      11.80649132
Cu       0.87816062       8.05973670       4.55435192
Cu       0.80100764       8.08225015      11.82501182
Cu       7.95070234       0.97010059       4.66100195
Cu       7.88475595       0.92583180      11.74350102
Cu       7.91062235       7.90562231       4.64899335
Cu       7.87858047       7.99557345      11.96615803
Cu       6.23549372       2.62442314       1.09130579
Cu       6.05647226       2.61986663       8.24760931
Cu       6.28182452       9.79096157       1.08375283
Cu       6.15015322       9.85730710       8.31489606
Cu      13.34925853       2.65108816       1.14360180
Cu      13.22807190       2.67806466       8.28589689
Cu      13.34590314       9.63315708       1.25416475
Cu      13.20943253       9.73567981       8.24986404
Cu       0.77388027       2.59054941       6.32797620
Cu       0.73417567       2.74218821      13.56020841
Cu       0.82801429       9.82010239       6.39090481
Cu       0.72499782       9.89093530      13.56941705
Cu       7.84548491       2.66041245       6.53971463
Cu       7.76363298       2.67165087      13.64079620
Cu       7.98848782       9.81371758       6.51296191
Cu       7.92924652       9.73142690      13.78935547
Cu       4.43823654       0.85483980       0.97232978
Cu       4.29278466       0.95463731       8.18407052
Cu       4.49351006       7.86984611       1.06740027
Cu       4.36800688       7.96273371       8.21613812
Cu      11.56962373       0.85175320       1.05680345
Cu      11.44290298       0.88457400       8.32951652
Cu      11.53514679       7.94914858       1.14372766
Cu      11.43587071       8.00543613       8.31161728
