191
Lattice="14.480118324675551 0.3938928539930727 0.17028681150089162 -0.05426978704129002 13.939521929596046 0.28314345924736006 0.3864788515124539 0.10484431123228777 14.593896305106984" Properties=species:S:1:pos:R:3 pbc="T T T"
Mg       3.77303342       0.10448425       3.75629029
Mg       3.88418761       0.17660306      10.92437106
Mg       3.61721514       7.11302954       3.85515531
Mg       3.80991812       7.16370198      11.13287182
Mg      11.05730374       0.30035891       3.86357280
Mg      11.14241978       0.31450565      11.10202635
Mg      10.90170394       7.22033889       3.80462676
Mg      11.13589339       7.36436727      11.19538401
Mg       1.89336646       1.84110444       1.80443748
Mg       2.12009879       1.79251421       9.20630162
Mg       1.81113527       8.79623726       2.02708139
Mg       2.05102773       8.77798284       9.36495689
Mg       9.04443263       2.03249842       1.92222325
Mg       9.24921870       2.11715279       9.32990465
Mg       9.12731678       9.00311504       2.15348571
Mg       9.13882759       9.00000125       9.39192942
Mg       0.12516182      -0.02467090       0.00590325
Mg       0.24542177       0.03858169       7.25384833
Mg       0.01729754       6.99506532       0.13637036
Mg       0.18377775       7.04882210       7.45785451
Mg       7.27413250       0.15272491       0.00290989
Mg       7.45964241       0.15930879       7.40323194
Mg       7.29257623       7.25234766       0.20947152
Mg       7.38870171       7.16220215       7.52966349
Mg       1.83237558       5.33355411       5.60157319
Mg       2.19062138       5.40477302      12.96026957
Mg       1.95493791      12.23114732       5.83260724
Mg       2.16214071      12.36778354      12.93306914
Mg       9.18677650       5.49742889       5.78783621
Mg       9.36715926       5.53374375      12.98999181
Mg       9.23984801      12.40235259       5.92579460
Mg       9.34369082      12.51323572      13.11244377
Mg       5.60405796       1.98074862       5.51938391
Mg       5.56638308       8.94051822       5.71804284
Mg       5.76477865       8.99859979      13.05650819
Mg      12.75333507       2.11545858       5.68472002
Cu      12.95422582       2.26845701      12.95639750
Mg      12.75875346       9.07086078       5.83564810
Mg      12.94591951       9.12167538      13.12380321
Mg       0.06498269       3.51598409       3.78881639
Mg       0.30027273       3.59312649      11.13431219
Mg       0.00614170      10.45892834       3.82470736
Mg       0.17026323      10.47162681      11.07112888
Mg       7.38992893       3.73066111       3.81946367
Mg       7.56139983       3.71983384      11.11369176
Mg       7.23708782      10.59637751       3.90306506
Mg       7.47314757      10.78866093      11.27866325
Mg       3.69861223       3.60351874       0.08658062
Mg       3.76429098       3.59003243       7.44631225
Mg       3.59708547      10.51521149       0.19905474
Mg       3.81930391      10.63137448       7.57830347
Mg      10.78739160       3.79699170       0.27134831
Cu      10.96998351       3.83535698       7.39132689
Mg      10.85150375      10.74910480       0.25299653
Mg      10.92289837      10.77756127       7.61013410
Mg       5.45157454       5.43048153       1.98925578
Mg       5.53361079       5.48193969       9.27936364
Mg       5.43323130      12.38312863       2.10234374
Mg       5.66071537      12.44249121       9.51370646
Mg      12.63457281       5.59549804       2.00521229
Mg      12.86673959       5.62735495       9.33751537
Mg      12.70521673      12.54046368       2.21361728
Mg      12.97080099      12.64290173       9.55052309
Cu       6.42979051       4.56088219       6.60216720
Cu       6.69543326       4.67308098      13.85378949
Cu       6.43631566      11.53977826       6.62518557
Cu       6.66202278      11.58615481      14.00359038
Cu      13.69666439       4.83794315       6.58853643
Cu      13.91180034       4.78432507      13.96872203
Cu      13.63356967      11.79718524       6.83966066
Cu      13.85907266      11.81185577      14.06481937
Cu       4.63775023       6.20154915       6.54160736
Cu       4.89878503       6.27853696      13.77378165
Cu       4.70161418      13.29911355       6.65848757
Cu       4.89342032      13.25809368      14.01506587
Cu      11.94307320       6.35767123       6.63426022
Cu      12.06627385       6.51322727      14.04444058
Cu      11.81594728      13.41771940       6.92118751
Mg      12.04529056      13.52385533      14.10639534
Cu       2.81238963       2.61842976       4.74345079
Cu       2.98509888       2.78587831      11.90808180
Cu       2.82492897       9.67049128       4.82271878
Cu       2.98905655       9.79716293      12.12296580
Cu      10.08428480       2.98276003       4.77519211
Cu      10.28587374       2.96120637      12.05076792
Cu      10.04104891       9.85780208       4.90476977
Cu      10.26739015       9.98384631      12.14321308
Cu       6.44978003       1.10576683       2.82472649
Mg       6.62544069       1.16160035      10.09460902
Cu       6.29136587       8.02488458       2.95780106
Cu       6.63831310       8.04998288      10.25172562
Cu      13.66755242       1.24866914       2.88442682
Cu      13.79432271       1.25462469      10.13032820
Cu      13.68586254       8.16642387       3.00362119
Cu      13.80489151       8.19796437      10.34712182
Cu       0.96645762       4.45511858       1.03997279
Cu       1.07483499       4.54076327       8.43219507
Cu       0.97380034      11.37907279       1.16801045
Cu       1.06343263      11.38073561       8.46359973
Cu       8.05868749       4.62291425       1.04028470
Cu       8.30078578       4.70515864       8.37243293
Cu       8.15784582      11.53493252       1.19015551
Cu       8.24735447      11.67738689       8.50747365
Cu       4.62489008       4.54263735       4.69632956
Cu       4.89135067       4.62338632      12.00962669
Cu       4.60566790      11.44459964       4.71141537
Cu       4.67917473      11.51761732      12.20979778
Cu      11.85651294       4.73067165       4.81699081
Cu      12.11661294       4.81379131      12.01680963
Cu      11.70338360      11.63623753       4.91806019
Cu      11.99758489      11.72522400      12.24029215
Cu       1.04382555       6.13012189       2.78779135
Cu       1.16219259       6.18844381      10.21260996
Cu       0.94809055      13.18999066       3.02242374
Cu       1.20226635      13.17213293      10.35524630
Cu       8.20961111       6.30322329       3.11184528
Cu       8.41319729       6.46377069      10.21091569
Cu       8.14017361      13.29930218       3.16746428
Cu       8.34905491      13.37792296      10.26630635
Cu       2.75256722       6.21894644       1.07850908
Cu       2.91748095       6.17047543       8.34911765
Cu       2.66211513      13.19934028       1.20184595
Cu       2.97020341      13.17187216       8.52399765
Cu       9.91556220       6.37817614       1.22206002
Cu      10.22026874       6.54692613       8.48538257
Cu       9.95923839      13.35300946       1.35996379
Cu      10.06055912      13.37076773       8.56392068
Cu       2.81961053       4.41754816       2.80385189
Cu       2.99082771       4.55774362      10.22543617
Cu       2.63086057      11.42293692       2.99588135
Cu       2.92890323      11.48040436      10.36877789
Cu      10.05824891       4.60018560       2.97508514
Cu      10.25733332       4.74364515      10.26547992
Cu      10.03614234      11.63035447       3.07144631
Cu      10.22510698      11.65660206      10.30896658
Cu       4.53948886       2.75437119       2.81247853
Cu       4.83531781       2.77693992      10.16779694
Cu       4.63435486       9.74986087       2.99667255
Cu       4.75928178       9.69975708      10.22648594
Cu      11.80373988       2.96015869       2.89886671
Cu      12.01126265       3.01626581      10.17065970
Cu      11.84155950       9.84849655       3.10635651
Cu      12.01639319       9.94880917      10.34686401
Cu       6.43744831       6.31999254       4.80192551
Cu       6.63003707       6.34400563      12.06347709
Cu       6.48815684      13.27778778       4.86330874
Cu       6.56580725      13.33391796      12.20348845
Cu      13.72651389       6.45334449       4.83967032
Cu      13.87417810       6.54145301      12.19558877
Cu      13.64166629      13.47054270       4.98319810
Cu      13.85056158      13.52240234      12.25997799
Cu       2.94693731       0.98461229       6.45733732
Cu       3.11467097       1.06544995      13.78826672
Cu       2.80425504       7.97936195       6.53685578
Cu       3.02641360       7.92812892      13.85900048
Cu      10.07265908       1.12713670       6.43664598
Cu      10.33670190       1.20573236      13.71847957
Cu      10.04363102       8.08597415       6.62099519
Cu      10.26980818       8.24681772      13.88943296
Cu       1.02682534       0.93198598       4.59970420
Cu       1.17686933       0.91212172      11.87134854
Cu       1.05046255       7.93845392       4.73712283
Cu       1.18920877       7.96528777      12.03884493
Cu       8.30414421       1.08160176       4.67963595
Cu       8.49069430       1.23184010      12.04342247
Cu       8.27929607       8.05027697       4.85842937
Cu       8.44309168       8.11638854      12.13952939
Cu       6.38893701       2.82875855       1.08298324
Cu       6.64812639       2.80619091       8.23022874
Cu       6.21882614       9.76121246       1.24120144
Cu       6.50493597       9.78327963       8.43615341
Cu      13.64375697       2.96179805       1.07590267
Cu      13.81576376       2.88898475       8.57074949
Cu      13.53931409       9.98977642       1.26405181
Cu      13.72981209       9.94143389       8.64764789
Cu       1.04281263       2.71494368       6.41217118
Cu       1.19999300       2.79976664      13.82311276
Cu       1.09679534       9.69540144       6.65118842
Cu       1.27882076       9.70745678      13.88163791
Cu       8.28074639       2.86103255       6.45914399
Cu       8.45814965       2.98578186      13.91019939
Cu       8.30917437       9.84481538       6.72451475
Cu       8.44328887       9.94775160      14.02478896
Cu       4.56926123       0.94102688       0.97125870
Cu       4.79230124       1.05033423       8.31771995
Cu       4.56844259       7.94648553       1.19508233
Cu       4.74093683       7.99826362       8.42413309
Cu      11.80789341       1.13710800       1.12745796
Cu      11.98260187       1.27886424       8.31404430
Cu      11.77378072       8.17217642       1.16390993
Cu      11.99437025       8.22770502       8.47710679
