189
Lattice="14.556130669275845 0.5522397867186425 0.05767863542814275 -0.025285431131913783 14.01661769482662 -0.2954377957031886 0.4563869879920148 -0.3515579188721015 14.279588646732313" Properties=species:S:1:pos:R:3 pbc="T T T"
Mg       3.77418884       0.04467912       3.48549144
Mg       4.02212675      -0.08004291      10.72375083
Mg       3.68827407       6.99834718       3.38708899
Mg       3.87530592       6.89397645      10.57985267
Mg      11.08453216       0.32755389       3.62992543
Mg      11.31785611       0.15091585      10.80532231
Mg      11.02274324       7.26998144       3.48496487
Mg      11.21519576       7.20593739      10.56271105
Mg       1.94905404       1.73351747       1.80308929
Mg       2.12666857       1.64868295       8.90450276
Mg       1.87013376       8.92504398       1.66752663
Mg       2.14469369       8.56247585       8.68192186
Mg       9.10882800       2.05568541       1.80266366
Mg       9.40753552       1.85274974       8.97707408
Mg       9.06703136       9.11599060       1.57071388
Mg       9.40634531       8.79098998       8.78262133
Mg      -0.04465095      -0.00976698       0.00270975
Mg       0.24303820      -0.13542851       7.15405752
Mg       0.00117276       7.00327891      -0.18015491
Mg       0.24911108       6.86358037       6.99263431
Mg       7.35040083       0.24910069      -0.03939838
Mg       7.53195441       0.17955184       7.15099537
Mg       7.32390492       7.27336632      -0.16849036
Mg       7.45423095       7.12499986       7.05129338
Mg       1.99530751       5.18401068       5.26724410
Mg       2.28007999       5.02748992      12.36147831
Mg       1.87172504      12.15763499       5.07738049
Mg       2.15120785      12.07379106      12.22732246
Mg       9.21605600       5.41882771       5.27123573
Mg       9.48961759       5.33364264      12.51754329
Mg       9.13086375      12.53146142       5.06230485
Mg       9.42623612      12.43587946      12.32775831
Mg       5.67532482       1.82000741       5.22676880
Mg       5.94464352       1.78311134      12.47882224
Mg       5.60526964       8.87210842       5.26550693
Mg       5.90523022       8.58112780      12.41779934
Mg      12.99656705       2.18302485       5.32326523
Mg      13.07808000       1.94033584      12.47150644
Mg      12.89632072       9.13444360       5.29814609
Mg      13.09715151       8.91929524      12.44879172
Mg       0.09948356       3.46459354       3.51063390
Mg       0.40428693       3.22799025      10.67163594
Cu       0.14753948      10.37114764       3.28226175
Mg       0.29800793      10.20725304      10.43606475
Mg       7.39348556       3.76124482       3.50263287
Mg       7.56660805       3.51426287      10.65518045
Mg       7.35132033      10.71564688       3.34230458
Mg       7.72834061      10.53504588      10.50973249
Cu       3.61992492       3.61234583      -0.12592111
Mg       3.94405955       3.42359350       6.97069962
Mg       3.63257153      10.64045577      -0.30446321
Mg       3.83790087      10.40760791       6.92989364
Mg      10.94640771       3.88901841       0.03582213
Mg      11.12352254       3.78392315       7.05215887
Mg      10.91918101      10.93708537      -0.18307416
Mg      11.08946024      10.74639196       6.98218176
Mg       5.55574391      12.44332086       1.52056072
Mg       5.74217178      12.15017828       8.62885587
Mg      12.80709113       5.73599232       1.70444906
Cu      13.01259380       5.49989985       8.88484883
Cu      12.75694103      12.61695580       1.53232869
Mg      12.99588449      12.48830526       8.76507376
Cu       6.53491677       4.47916209       6.22630388
Cu       6.84226202       4.30955246      13.25079293
Cu       6.57055545      11.49508860       6.04035194
Cu       6.75535778      11.35165016      13.11346353
Cu      13.81288429       4.73727497       6.23829206
Cu      14.11321847       4.60404588      13.37151219
Cu      13.79648208      11.76919620       6.04562050
Cu      14.03424897      11.55824919      13.18785561
Cu       4.75044024       6.10833422       6.17456879
Cu       4.82300983       5.91507451      13.25974450
Cu       4.63541401      13.17013874       5.96890749
Cu       4.94972434      12.99557814      13.10955288
Cu      12.11331186       6.45853460       6.17731936
Cu      12.19921589       6.25715129      13.39900755
Cu      12.02683707      13.38615912       5.99100378
Cu      12.21783120      13.30397916      13.10659386
Cu       2.82473578       2.53022753       4.46748679
Cu       3.08593207       2.37555459      11.49564839
Cu       2.85700881       9.61871130       4.29366223
Cu       3.06891089       9.46156531      11.44944143
Cu      10.12332619       2.88397093       4.45351247
Cu      10.33677632       2.74454743      11.54785973
Cu      10.21037693       9.87548433       4.31535176
Cu      10.32228698       9.76802314      11.38387469
Cu       6.37073386       1.04238537       2.77763959
Cu       6.71842973       0.86334437       9.78293547
Cu       6.41339049       8.08514359       2.46488504
Cu       6.66743021       7.94096049       9.59156965
Cu      13.71124329       1.31513273       2.68765860
Cu      13.92259754       1.18457059       9.94788072
Cu      13.72955987       8.32580271       2.50276520
Cu      13.92160937       8.15473219       9.75446916
Cu       1.01814111       4.36838425       0.76869125
Cu       1.19768631       4.23652961       7.97493028
Cu       0.93696573      11.32161704       0.64095788
Cu       1.11368190      11.23474086       7.75567439
Cu       8.16719284       4.68977243       0.80101200
Cu       8.43411928       4.49911743       7.93220020
Cu       8.17247689      11.74166457       0.69329818
Cu       8.32834996      11.41464159       7.73795273
Cu       4.70970649       4.40675339       4.29869722
Cu       5.00483879       4.24129281      11.50701572
Cu       4.69610380      11.46566213       4.29806799
Cu       4.79222347      11.36020444      11.34316532
Mg      11.93720437       4.73450002       4.49450161
Cu      12.16432416       4.50987841      11.53879505
Cu      11.97408383      11.67474753       4.30158574
Cu       1.00616229       6.09036923       2.63021041
Cu       1.15674480       5.97625054       9.65640167
Cu       0.96139068      13.07792759       2.40090646
Cu       1.15154436      12.99020246       9.52290616
Cu       8.33866550       6.47682800       2.62126346
Cu       8.50667338       6.16927989       9.74814855
Cu       8.32762931      13.35999520       2.43552780
Cu       8.56773629      13.19894430       9.68946141
Cu       2.77667547       6.23862188       0.75196999
Cu       3.04392200       6.04261227       7.87711295
Cu       2.69179273      13.25122882       0.67415472
Cu       2.96127430      12.99623797       7.78663577
Cu      10.01095796       6.42978105       0.78990966
Cu      10.19630916       6.32624227       7.91422981
Cu      10.04730424      13.51194185       0.64088743
Cu      10.32484788      13.30871498       7.90412873
Cu       2.81435131       4.49753929       2.50052739
Cu       3.09661325       4.21033351       9.78064751
Cu       2.84078022      11.37762713       2.37146886
Cu       3.00602804      11.23381722       9.50317853
Cu      10.05814821       4.69441200       2.63433893
Cu      10.31827856       4.42594227       9.75631467
Cu      10.00722796      11.63227810       2.50796314
Cu      10.30923182      11.51464729       9.57465068
Cu       4.62973677       2.65724491       2.71584795
Cu       4.83899465       2.52053575       9.80832242
Cu       4.47532867       9.83232272       2.50039132
Cu       4.84939526       9.54974157       9.66029761
Cu      11.81520731       2.92868939       2.61404824
Cu      12.14143183       2.83825506       9.82745083
Mg      11.85202946      10.04142770       2.52606997
Cu      12.15578084       9.79775034       9.60261631
Cu       6.51673084       6.27126076       4.28574001
Cu       6.70049210       6.05207720      11.58511664
Cu       6.53603997      13.21461148       4.28479763
Cu       6.70249656      13.04876798      11.41202839
Cu      13.74417872       6.57944972       4.42500582
Cu      13.93695803       6.37123428      11.42816954
Cu      13.75002759      13.57368045       4.19685967
Cu      13.98534561      13.33280750      11.27974573
Cu       2.91359249       0.85874537       6.15696091
Cu       3.17240324       0.66529467      13.44331172
Cu       2.99703451       7.87867892       6.09966960
Cu       3.14657777       7.63465498      13.14642035
Cu      10.20317410       1.11126025       6.22309242
Cu      10.35844971       0.89230249      13.39296436
Mg      10.19537913       8.13558331       6.10363239
Cu      10.50525246       8.02049027      13.26769832
Cu       1.12820060       0.86695122       4.48360427
Cu       1.27571413       0.53174684      11.61098046
Cu       0.99521580       7.81148155       4.31935681
Cu       1.17117918       7.58567482      11.44762679
Cu       8.33395783       1.18550865       4.52686285
Cu       8.47505461       0.88845096      11.66498771
Cu       8.39008296       8.12156863       4.33592332
Cu       8.56512338       7.86222316      11.43405397
Cu       6.40192665       2.85498748       0.80234533
Cu       6.57995367       2.68704643       7.97490934
Cu       6.36172400       9.86968658       0.68079272
Cu       6.72906317       9.60198440       7.84625295
Cu      13.66820823       3.00840505       0.86553068
Cu      13.93275716       2.93564323       8.04283060
Cu      13.60057994      10.16347923       0.79948861
Cu      13.93067950      10.04816169       7.89761189
Cu       1.08325055       2.47501646       6.16195597
Cu       1.29883034       2.43720703      13.34706391
Mg       1.06836498       9.57399852       5.98004865
Cu       1.36928651       9.38510689      13.12625850
Cu       8.32901994       2.70447062       6.25845279
Cu       8.54386238       2.58505047      13.36111143
Cu       8.33112668       9.85868847       6.00744710
Cu       8.55594473       9.68615499      13.20056764
Cu       4.55547563       1.00732638       0.95670508
Cu       4.76054948       0.83132827       8.06294850
Cu       4.50312804       8.01542942       0.80308440
Cu       4.78998455       7.83960065       7.91360787
Cu      11.81630857       1.22873554       0.93365564
Cu      12.09878663       1.15954350       8.10414669
Cu      11.83624116       8.38093510       0.74631974
Cu      12.07761570       8.10890910       7.98024714
