190
Lattice="14.159994483506507 0.4121573231115488 0.07388899101999208 -0.12561334013497433 14.356724608308877 0.13655818141429293 0.197284903942677 -0.2572276267626644 14.181384051049708" Properties=species:S:1:pos:R:3 pbc="T T T"
Mg       3.61464973       0.02103900       3.57371321
Mg       3.62198052      -0.09572406      10.68556356
Mg       3.61684506       7.19586407       3.60919642
Mg       3.65583472       6.97561610      10.67258977
Mg      10.61943580       0.15555470       3.66261619
Mg      10.69677185       0.11838470      10.66400521
Mg      10.67240044       7.38620543       3.69862258
Mg      10.71477720       7.33925248      10.84834730
Mg       1.80425296       1.81526120       1.81040123
Mg       1.83748736       1.67448040       8.91351210
Mg       1.72634349       8.89051872       1.87899216
Mg       1.83930426       8.88249847       8.94408275
Cu       8.88525514       1.91658910       1.82667340
Mg       8.98762073       1.90911654       8.90397880
Mg       8.79375729       9.13361559       1.86861174
Mg       8.83552322       9.00640856       9.03302756
Cu      -0.07245674      -0.07040178      -0.02144302
Mg       0.01145768      -0.20890732       7.06801707
Cu       0.01026854       7.14526944       0.11007866
Mg       0.06501886       6.99441101       7.06755022
Cu       7.16213639       0.24641821       0.08146541
Mg       7.20646565       0.08754849       7.07905017
Mg       7.00016254       7.42802004       0.20294225
Mg       7.09828845       7.32879827       7.16061161
Mg       1.74007141       5.30426360       5.32941223
Cu       1.96705430       5.18878073      12.49091746
Mg       1.75164941      12.61787863       5.41108273
Mg       1.81625099      12.39724114      12.56836388
Cu       8.93887179       5.48710879       5.35678409
Mg       8.99660699       5.51551533      12.47760485
Mg       8.83363271      12.68254875       5.50916626
Mg       8.98992917      12.52161399      12.51362560
Mg       5.37610579       1.82589214       5.36742110
Mg       5.46525567       1.79264551      12.38365275
Mg       5.35398669       8.93478876       5.50748234
Mg       5.43399613       8.87579308      12.63682092
Mg      12.45552484       2.07543212       5.41550684
Mg      12.53411904       1.92219991      12.47114959
Mg      12.40682372       9.21028497       5.45496132
Mg      12.50577085       9.11250149      12.49380338
Mg       0.11803093       3.57451884       3.53803703
Mg       0.13381599       3.47221510      10.72602609
Mg      -0.03371015      10.66302379       3.65426016
Cu       0.08918710      10.56135953      10.72870809
Mg       7.09733228       3.69434236       3.61530262
Mg       7.14610045       3.56920096      10.75713642
Mg       7.01166357      10.94610267       3.61978228
Mg       7.21986036      10.70620800      10.77962880
Mg       3.51815295       3.58851291      -0.01782790
Mg       3.62495866       3.53120452       7.14056934
Mg       3.41688288      10.93070335       0.10112770
Mg       3.54698047      10.66566162       7.16441045
Mg      10.55966866       3.87366833       0.13618304
Cu      10.61678655       3.94743980       7.15407440
Mg      10.56696254      11.14487201       0.16516613
Mg      10.69128669      10.94077491       7.12905403
Mg       5.27911997       5.43772329       1.85883174
Mg       5.38698911       5.41953229       8.84011664
Mg       5.27922280      12.61099052       1.80785509
Mg       5.26449108      12.49644426       9.00475060
Mg      12.35935953       5.80105127       1.83108163
Mg      12.41384614       5.55472721       9.00517895
Mg      12.28109786      12.86651368       2.05411493
Mg      12.38817534      12.71303697       9.11039742
Cu       6.24071976       4.56936489       6.23461813
Cu       6.27190464       4.43966295      13.30162576
Cu       6.15171987      11.77965661       6.35970469
Cu       6.27139006      11.54454297      13.52407087
Cu      13.24724296       4.80137737       6.25966709
Cu      13.41266740       4.57736715      13.42815427
Cu      13.31277865      11.84800160       6.30882096
Cu      13.35932762      11.73295733      13.50430411
Cu       4.40326579       6.33282588       6.29721739
Cu       4.62619476       6.13965494      13.36513927
Cu       4.42862860      13.51910173       6.47410560
Cu       4.53374286      13.41022640      13.47566510
Cu      11.51377323       6.51816976       6.33080618
Cu      11.59695269       6.50757820      13.43388628
Cu      11.43127914      13.62592135       6.35312817
Cu      11.63006321      13.45295057      13.44822533
Cu       2.64383515       2.80977708       4.44568397
Cu       2.77105744       2.50872568      11.51467208
Cu       2.57374667       9.80602457       4.42253227
Cu       2.67138780       9.76904388      11.62320017
Cu       9.78253138       2.83212467       4.55529948
Cu       9.88156943       2.80300136      11.61690461
Cu       9.70269573      10.04934184       4.56420274
Cu       9.78161062      10.02268112      11.67932686
Cu       6.27050820       1.03458108       2.63554442
Cu       6.27896676       0.91402380       9.77566742
Cu       6.23507606       8.23130865       2.82654605
Cu       6.22236828       7.97118346       9.80083244
Cu      13.29175452       1.24665516       2.71057476
Cu      13.34062029       1.03081629       9.80421543
Mg      13.23825860       8.37088315       2.72327275
Cu      13.38783432       8.22916497       9.97256759
Cu       0.91002974       4.39852682       0.90893936
Cu       0.88731145       4.40616643       8.00625601
Cu       0.79401352      11.59086821       0.92122774
Cu       0.93462126      11.58218244       8.08165732
Cu       7.91773667       4.69470674       1.00192070
Cu       8.04788269       4.58393226       8.05992844
Cu       7.79977552      11.88588318       0.98227593
Cu       8.05740344      11.70574739       8.08620638
Cu       4.48100766       4.56528685       4.48856546
Cu       4.56816417       4.34985669      11.63787363
Cu       4.47693340      11.60195379       4.52114526
Cu       4.37374982      11.53090617      11.59277269
Cu      11.49199725       4.68374615       4.42545348
Cu      11.55490699       4.65790488      11.64184221
Cu      11.51621336      11.84505113       4.62297597
Cu      11.48459023      11.71777715      11.73596371
Cu       0.83441623       6.23709740       2.72929500
Cu       1.04942375       6.14930544       9.86267478
Cu       0.81539555      13.27483928       2.86071638
Cu       0.98781653      13.26338390       9.88124830
Cu       7.96670805       6.55072843       2.81665037
Mg       8.04134032       6.34711105       9.87766741
Cu       7.90735640      13.65694371       2.82562518
Cu       7.99293017      13.53547880       9.84560660
Cu       2.69330332       6.33988232       0.97305017
Cu       2.62728502       6.26541651       8.05573989
Cu       2.65055623      13.48930283       0.92726946
Cu       2.58085175      13.34509034       8.07109627
Cu       9.71674039       6.55242747       1.04887953
Cu       9.77325777       6.38566025       8.09272270
Mg       9.57150074      13.73278617       1.13518817
Cu       9.65534178      13.56972140       8.11728886
Cu       2.62135871       4.51775553       2.68312191
Cu       2.73936150       4.38915002       9.77306184
Cu       2.57653549      11.68335760       2.85527277
Cu       2.64484300      11.63806132       9.93372213
Cu       9.67612923       4.76649398       2.79643632
Cu       9.85584727       4.53448251       9.80694667
Cu       9.66898612      11.85286478       2.84577361
Cu       9.81148674      11.82048218       9.94155004
Cu       4.45564867       2.77438563       2.70951950
Cu       4.45643824       2.58491482       9.86315337
Cu       4.39602892      10.00104595       2.76053443
Cu       4.51283012       9.90983575       9.88578933
Cu      11.54524957       2.76698436       9.77845331
Cu      11.41974582      10.10899582       2.83908865
Cu      11.57966537      10.07606952       9.95796741
Cu       6.18864354       6.46202536       4.46648087
Cu       6.37437249       6.21515628      11.57992975
Cu       6.11951690      13.55437666       4.55654105
Cu       6.13065727      13.47298906      11.69216288
Cu      13.21387401       6.67035817       4.62907404
Cu      13.41966575       6.61153249      11.67132382
Mg      13.21397980      13.71351421       4.62207937
Cu      13.27390671      13.68887208      11.77594957
Cu       2.73803815       0.81010392       6.34982161
Cu       2.91444049       0.76486965      13.25255454
Cu       2.70615456       8.03526238       6.26445439
Cu       2.71363657       7.82733934      13.36637430
Cu       9.84390704       1.09831661       6.28441433
Cu       9.90126366       0.83035058      13.30884713
Cu       9.69574411       8.24039022       6.27005544
Cu       9.75853421       8.06892159      13.43555681
Mg       0.91679491       0.81846115       4.41754672
Cu       1.05795673       0.68629687      11.61412229
Cu       0.86968206       8.00826286       4.55141198
Cu       0.92797883       7.83190994      11.57337725
Cu       7.98393622       1.00531276       4.45800804
Mg       8.10100981       0.91729695      11.61051705
Cu       7.96331029       8.23331657       4.55774936
Cu       8.02977686       8.18627974      11.75380352
Cu       6.12953980       2.86653206       0.96063668
Cu       6.33278766       2.73088008       8.04497583
Cu       6.09020093      10.01162766       1.01176169
Cu       6.21429069       9.89136268       8.01891579
Mg      13.31872336       2.98711061       1.03224156
Cu      13.41617687       2.97785535       8.10574114
Cu      13.28428461      10.27216971       1.05288953
Cu      13.29907879      10.04122321       8.08252103
Cu       1.02749298       2.42468718      13.33779612
Cu       0.95935498       9.77347249       6.35756246
Mg       1.01010121       9.58831619      13.47260010
Cu       8.07503394       2.82900549       6.19446134
Cu       8.12847219       2.72574859      13.40485864
Cu       7.96165012      10.01400894       6.36311540
Cu       8.04944398       9.86037006      13.38967543
Cu       4.48656425       0.97970648       0.94369161
Cu       4.56059950       0.82411342       8.00683233
Cu       4.38775560       8.25199458       0.96526963
Cu       4.44234009       8.05988039       8.12827633
Cu      11.48712462       1.19519110       0.89487564
Cu      11.54636693       1.14146903       8.03354891
Cu      11.32277075       8.38272875       1.03257765
Cu      11.51184601       8.30875200       8.19592932
