192
Lattice="9.921874710461996 0.2615912222549597 -0.0630562013845624 -4.892462001767357 8.307216494893094 0.032930687380078524 -0.28353011581816867 1.0036885776239204 32.19130066432251" Properties=species:S:1:pos:R:3 pbc="T T T"
Mg      -0.06047432       0.22565312       6.59707300
Mg      -0.23921701       0.71572295      22.69232649
Mg      -2.53430017       4.40898320       6.55740241
Mg      -2.71773574       4.81464669      22.57434598
Mg       4.89098589       0.38820827       6.51144681
Mg       4.74302784       0.82182993      22.55613134
Mg       2.49435532       4.47313495       6.48975666
Mg       2.34003626       4.97440828      22.53878830
Mg      -0.20270735       0.47372813      14.57273877
Mg      -0.28605171       0.93763013      30.57558841
Mg      -2.61653007       4.60176186      14.50135288
Mg      -2.56226377       5.07722365      30.54240630
Mg       4.83949226       0.58414670      14.65862750
Mg       4.65399072       1.10824407      30.59177716
Mg       2.38373821       4.73564674      14.63066624
Mg       2.27264781       5.22282939      30.59717092
Mg      -0.02784654       0.28883955       9.57432270
Mg      -0.23543085       0.68161615      25.67187873
Mg      -2.57534725       4.43429741       9.57856713
Mg      -2.67870915       4.95459559      25.81542578
Mg       4.78509075       0.48164634       9.54950518
Mg       4.67381794       0.95548173      25.53718863
Mg       2.34410233       4.61844981       9.59431429
Mg       2.31515075       5.11469179      25.57531384
Mg      -0.04484817       0.03255032       1.58374918
Mg      -0.15535664       0.52152163      17.51406388
Mg      -2.46436444       4.21084914       1.46582104
Mg      -2.60520890       4.70114404      17.61637550
Mg       5.03533622       0.17529078       1.44866093
Mg       4.76851072       0.64432286      17.46726279
Mg       2.54411234       4.30490886       1.55288414
Mg       2.41975248       4.81626130      17.60455063
Mg      -0.08910896       3.09925920      10.57769552
Mg      -0.25771102       3.63127492      26.63541498
Mg      -2.60318537       7.38276771      10.53816891
Mg      -2.72508692       7.73813960      26.69263024
Mg       4.82567934       3.18944043      10.65300889
Mg       4.77428169       3.75372259      26.68077923
Mg       2.40592453       7.48874444      10.49464110
Mg       2.33653320       7.94205835      26.60844958
Mg       2.44817079       1.50544081       2.53741855
Mg       2.39743227       2.06587926      18.55567081
Mg       0.03640520       5.79208136       2.51592993
Mg      -0.13083645       6.15371921      18.62054976
Mg       7.49488647       1.70597411       2.61050166
Mg       7.29432859       2.29740266      18.51854009
Mg       4.97081613       5.73888374       2.37704891
Mg       4.84226653       6.32203215      18.52299658
Mg       2.46625075       1.57421171       5.52568845
Mg       2.37130440       2.11474865      21.59025212
Mg      -0.00500675       5.85905946       5.48777273
Mg      -0.18910313       6.40857639      21.56140399
Mg       7.43284596       1.87395337       5.42060810
Mg       7.27885493       2.31709057      21.65901752
Mg       5.02933894       5.84361492       5.54548066
Mg       4.85187241       6.50519688      21.64527300
Mg      -0.05146643       3.20596259      13.58936553
Mg      -0.33567863       3.75977065      29.65134077
Mg      -2.53647480       7.36445774      13.56044857
Mg      -2.65153053       7.91635896      29.72854654
Mg       4.92704687       3.31601389      13.61648482
Mg       4.71525315       3.86951092      29.65118115
Mg       2.45228835       7.52802914      13.54726202
Mg       2.31651470       8.09297616      29.64425465
Ni      -0.03021112       3.04782996       8.01040874
Ni      -0.18747240       3.66888201      24.17949675
Ni      -2.57298574       7.12203905       8.09184051
Ni      -2.59844700       7.71627555      24.25043381
Ni       4.84231968       3.19160975       8.05558166
Ni       4.79544034       3.60368150      24.06296455
Ni       2.41746099       7.40133133       8.11071207
Ni       2.32396683       7.91586305      24.15499136
Ni       2.50375291       1.48657478      -0.03921524
Ni       2.36681645       2.00425929      16.14511042
Ni      -0.02575904       5.59635536       0.00139845
Ni      -0.04546367       6.11993726      16.09589976
Ni       7.50865756       1.52878832      -0.08324672
Ni       7.23507243       2.06149550      16.01062688
Ni       4.95991028       5.77822461       0.03750170
Ni       4.91035439       6.24848834      15.99703814
Ni       2.40441066       1.69399115       8.00222895
Ni       2.36943708       2.34809303      24.10222668
Ni      -0.00897769       5.83855987       8.18612576
Ni      -0.19594414       6.35804910      24.13322143
Ni       7.37945731       1.86730976       8.02566736
Ni       7.32583880       2.26828771      24.12879570
Ni       4.90613468       6.04693665       7.90968749
Ni       4.81674601       6.53947066      24.01416958
Ni      -0.01318096       2.89077956       0.02563694
Ni      -0.08486345       3.36662419      16.08472752
Ni      -2.36943155       6.91664881       0.05061862
Ni      -2.52076555       7.53161031      16.07839366
Ni       4.99821716       3.05564989       0.00684879
Ni       4.86011259       3.40519308      16.13863426
Ni       2.61553931       7.11326384       0.11056462
Ni       2.38242364       7.63818030      16.06862969
Ni      -0.03703353       1.48763212       4.09738886
Ni      -0.15262277       2.02782483      20.08142363
Ni      -2.54696686       5.64799676       4.10673718
Ni      -2.69782281       6.16082102      20.11697693
Ni       4.99324905       1.69202974       3.94057284
Ni       4.76179178       2.18255121      20.20910928
Ni       2.51722297       5.85388311       3.99819381
Ni       2.45752603       6.37643489      20.10929126
Ni       3.54209740       1.17122466      12.08806520
Ni       3.47800082       1.67089385      28.12436437
Ni       1.22008294       5.34041528      11.98047624
Ni       1.00884271       5.89831469      28.08182639
Ni       8.58247757       1.26416907      11.93854662
Ni       8.45805826       1.76802803      28.16228019
Ni       6.12763646       5.54129987      12.07025217
Ni       5.99593895       6.00519388      28.07232773
Ni       2.39375140       3.25704692      12.04635403
Ni       2.19189642       3.72718543      28.16414420
Ni       0.05192331       7.37663078      12.07674019
Ni      -0.20773567       7.88466495      28.04095917
Ni       7.40821421       3.34746441      12.11224273
Ni       7.19861266       3.94311826      28.11614467
Ni       4.87393762       7.56432047      12.02436665
Ni       4.81524071       8.04701424      28.12845465
Ni      -1.22302656       3.66315839       4.11154227
Ni      -1.36885391       4.15893383      20.16544969
Ni      -3.68021918       7.79167007       4.03483196
Ni      -3.83307859       8.23305215      20.15296305
Ni       3.72945663       3.79724536       3.98097885
Ni       3.56762515       4.31696822      20.06156123
Ni       1.36201351       7.94282273       4.03680010
Ni       1.10554120       8.32244306      20.06567167
Ni       1.18234567       3.69056219       4.02654282
Ni       1.18526574       4.21064219      20.16059404
Ni      -1.23389592       7.90754712       4.14410370
Ni      -1.35110960       8.39154142      20.15002969
Ni       6.16866775       3.84368377       3.96960716
Ni       6.11247947       4.39494984      20.11276851
Ni       3.76026998       7.94331365       4.07932643
Ni       3.55701810       8.40839585      20.13059234
Ni       1.16051505       1.13158571      12.13711520
Ni       0.97618862       1.61159541      28.20956686
Ni      -1.22165443       5.30570114      11.97482041
Ni      -1.46975591       5.69165098      28.13416591
Ni       6.18345325       1.24714932      12.06452869
Ni       6.04614614       1.78391219      28.08272823
Ni       3.61392744       5.45333939      12.07393696
Ni       3.62476088       5.90891125      28.13049905
Ni       2.37366923       0.32716529       7.90423295
Ni       2.15013869       0.66596994      24.16066822
Ni       0.00711842       4.47971380       8.04707798
Ni      -0.16304385       4.92656416      24.16173152
Ni       7.42589020       0.37152539       8.03496300
Ni       7.17806362       0.86270598      24.13582492
Ni       4.90816428       4.65052796       8.04055278
Ni       4.73982424       5.07365592      24.17687705
Ni       1.23632381       2.17839146       0.01200882
Ni       1.12558696       2.66616801      16.08317619
Ni      -1.21278614       6.31963322       0.02804067
Ni      -1.34621144       6.81623630      16.08972614
Ni       6.15647265       2.22832590      -0.09774713
Ni       6.02085800       2.69692320      16.07708696
Ni       3.79356954       6.40645389      -0.05429750
Ni       3.56041228       6.96445931      16.02237903
Ni       2.53780023       0.07571084       0.02230691
Ni       2.33943538       0.51994931      16.14117206
Ni       0.02612906       4.15030129       0.03599625
Ni      -0.15885360       4.72236819      15.97003378
Ni       7.46609493       0.23181309       0.04934335
Ni       7.27295023       0.58523090      16.03571384
Ni       5.01375330       4.34204903       0.01613563
Ni       4.87643664       4.89308186      16.05581123
Ni       1.20623107       2.39407304       8.08171191
Ni       0.98052180       2.91306275      24.06081588
Ni      -1.27069656       6.57882844       8.09108217
Ni      -1.44703307       7.13749769      24.16827244
Ni       6.06477359       2.47221779       7.96002588
Ni       5.95248234       3.02169418      24.07517443
Ni       3.73726426       6.67194511       7.95647087
Ni       3.50006112       7.01929107      23.99964715
Ni      -1.18215105       1.97679313      -0.03717444
Ni      -1.42218880       2.62370389      16.15741618
Ni      -3.67822605       6.22870042       0.07183958
Ni      -3.86252363       6.75820098      16.07091207
Ni       3.81023101       2.26184207      -0.03395008
Ni       3.55341469       2.75985597      16.08441434
Ni       1.27516304       6.41732529       0.00113749
Ni       1.15701689       6.85892417      16.04347296
Ni      -1.27884373       2.32986084       8.11219932
Ni      -1.42629268       2.79461724      24.20786482
Ni      -3.74596383       6.53452443       8.08113013
Ni      -3.89450672       7.03236948      24.17762291
Ni       3.67627925       2.44104921       7.99813729
Ni       3.48538627       2.89817855      24.06550540
Ni       1.13466865       6.63357066       8.14613576
Ni       1.10015808       7.03193017      24.10646641
