192
Lattice="9.700984266837054 -0.040364872585589816 0.09965405260844652 -4.792988611161592 8.284437825574022 0.40438658141686157 0.6623643910787872 0.3227856005925057 31.985804254631972" Properties=species:S:1:pos:R:3 pbc="T T T"
Mg       0.08804420       0.06120447       6.47734756
Mg       0.42751908       0.22548382      22.57723963
Mg      -2.28534335       4.20089015       6.65532551
Mg      -1.92694210       4.37636420      22.63006080
Mg       5.04888945      -0.05480975       6.49797205
Mg       5.31022246       0.23349253      22.59279028
Mg       2.54025763       4.23149239       6.70293811
Mg       2.99419164       4.36446738      22.70061537
Mg       0.38369725       0.15558526      14.51095140
Mg       0.62220420       0.31853941      30.51416996
Mg      -2.05371156       4.32573799      14.71094763
Mg      -1.67708284       4.46670481      30.73299771
Mg       5.19102706       0.14837334      14.55805954
Mg       5.57818391       0.25717951      30.46133923
Mg       2.74114811       4.20295485      14.76007265
Mg       3.13178882       4.33832792      30.77346139
Mg       0.18786143       0.07839199       9.60831946
Mg       0.47092220       0.27764712      25.50696893
Mg      -2.16384613       4.23310249       9.74968924
Mg      -1.79919730       4.45673130      25.76426898
Mg       5.10103728       0.09342516       9.49664253
Mg       5.36611250       0.23204290      25.62079569
Mg       2.71813641       4.22695911       9.85715102
Mg       2.98583679       4.38590236      25.68200123
Mg       0.07564344       0.10485524       1.47301974
Mg       0.29626548       0.21264517      17.52436394
Mg      -2.34017292       4.14136185       1.68937564
Mg      -1.98187413       4.35770799      17.74557076
Mg       4.92388825      -0.07402437       1.60935236
Mg       5.30068118       0.12048002      17.58767967
Mg       2.45856950       4.13332862       1.64313503
Mg       2.90589909       4.27822771      17.77039993
Mg       0.29563563       2.86250387      10.62906893
Mg       0.52227299       3.03224528      26.54679562
Mg      -2.14118733       7.06228821      10.81900104
Mg      -1.83934550       7.16066754      26.89420715
Mg       5.17419676       2.83845517      10.74719968
Mg       5.43793142       3.01712252      26.58708503
Mg       2.71014169       6.94217196      10.80748176
Mg       3.02186038       7.18468203      26.86968475
Mg       2.46598570       1.39862124       2.60858240
Mg       2.84073266       1.57849838      18.55894219
Mg       0.01131905       5.53233659       2.79646319
Mg       0.50031200       5.70422672      18.80718191
Mg       7.45953110       1.36092435       2.65874077
Mg       7.67731099       1.52702276      18.68427674
Mg       4.95163141       5.53963771       2.83535348
Mg       5.27775771       5.64543334      18.89996781
Mg       2.47979384       1.42254262       5.55517232
Mg       2.89130328       1.55161368      21.46624173
Mg       0.18182232       5.49946068       5.81919306
Mg       0.49240876       5.76245124      21.91470885
Mg       7.42868364       1.49198326       5.70765975
Mg       7.78285308       1.59938532      21.63002334
Mg       5.01809366       5.57066236       5.91158151
Mg       5.19749513       5.80030386      21.89708307
Mg       0.31193695       2.99120501      13.60341557
Mg       0.66958747       3.01855476      29.65121532
Mg      -2.13940974       7.02669740      13.77757763
Mg      -1.76935472       7.19835243      29.84417331
Mg       5.22871703       2.85620499      13.71739794
Mg       5.49776122       3.01160182      29.72442463
Mg       2.69328641       6.94873085      13.76734726
Mg       3.07618515       7.26328963      29.91647666
Ni       0.16421380       2.81614567       8.12536365
Ni       0.60202943       2.93428304      24.17322489
Ni      -2.23661259       6.97537038       8.38300879
Ni      -1.83512728       7.01992131      24.29971381
Ni       4.97712971       2.75325225       8.12108856
Ni       5.27741018       3.02107097      24.21569885
Ni       2.61013548       6.94098571       8.35952311
Ni       2.90423661       7.02482247      24.43451388
Ni       2.49954915       1.34582619       0.03734046
Ni       2.64245925       1.49924749      16.03725101
Ni      -0.00829662       5.55004700       0.29397694
Ni       0.45543988       5.61051874      16.24070900
Ni       7.31821797       1.36315761       0.15488986
Ni       7.62488650       1.54668146      16.19843566
Ni       4.91382438       5.48814118       0.38032249
Ni       5.22740253       5.68363287      16.35356301
Ni       2.53187144       1.41070285       8.11250120
Ni       2.95445868       1.64342000      24.10225104
Ni       0.25441146       5.64021757       8.31350768
Ni       0.60718804       5.77012295      24.42681571
Ni       7.43701981       1.42643255       8.20375678
Ni       7.81593386       1.48883504      24.09173302
Ni       5.16444793       5.57362269       8.33564851
Ni       5.36161876       5.77965418      24.31769600
Ni       0.03138450       2.80047202       0.16171340
Ni       0.36469385       3.00309320      16.05338236
Ni      -2.38290919       6.86769252       0.42042107
Ni      -1.90273128       7.02728170      16.31838360
Ni       4.84807384       2.76489075       0.16248695
Ni       5.21829365       2.89265433      16.19342011
Ni       2.48347664       6.85409430       0.45261928
Ni       2.82460062       7.02385731      16.41832046
Ni       0.03202869       1.48846271       4.02416866
Ni       0.38496441       1.60057977      20.12940564
Ni      -2.37685037       5.49632491       4.33315925
Ni      -1.94256750       5.69604013      20.32933196
Ni       4.98616720       1.35365168       4.06310714
Ni       5.24591335       1.51829435      20.10821545
Ni       2.58701487       5.52096130       4.41452006
Ni       2.92315178       5.65909795      20.35109480
Ni       3.89603665       0.80710490      12.24097043
Ni       4.24241547       0.94716726      28.06735593
Ni       1.52833233       4.92673813      12.26410336
Ni       1.83405129       5.10448129      28.28191915
Ni       8.74711710       0.79944318      12.06614427
Ni       9.08838530       0.92009156      28.12236117
Ni       6.35516382       4.94616409      12.27327967
Ni       6.64499493       5.15731485      28.29721428
Ni       2.71129269       2.89014086      12.13086652
Ni       2.98919433       2.99135577      28.15285671
Ni       0.25771559       7.02260918      12.46821150
Ni       0.59243515       7.13719545      28.43267548
Ni       7.56926610       2.84299948      12.25763522
Ni       7.94375573       3.00684739      28.21993308
Ni       5.18214356       6.97988808      12.43345161
Ni       5.50740337       7.11683489      28.44527392
Ni      -1.23204080       3.47361438       4.18423555
Ni      -0.81476345       3.67650436      20.11525720
Ni      -3.53537785       7.70006548       4.32459724
Ni      -3.18147722       7.78833260      20.31999659
Ni       3.68687218       3.46073149       4.30449101
Ni       4.00580896       3.55973427      20.11995783
Ni       1.33698210       7.61139410       4.39432907
Ni       1.67331557       7.71920145      20.42681736
Ni       1.37135245       3.52091746       4.12918818
Ni       1.66547499       3.58379932      20.18136413
Ni      -1.12597592       7.67960799       4.34341680
Ni      -0.76275138       7.70048925      20.35191352
Ni       6.07309261       3.37225388       4.28518498
Ni       6.47156155       3.49707016      20.29877440
Ni       3.78771643       7.58531293       4.39786291
Ni       4.17014276       7.86032236      20.43868505
Ni       1.39798932       0.79539613      12.02963468
Ni       1.77547193       0.99030460      27.97426223
Ni      -0.97196863       5.02099150      12.21014188
Ni      -0.70131918       5.10586521      28.30011901
Ni       6.28520583       0.76467190      12.04608221
Ni       6.70941328       0.95084950      28.18921875
Ni       3.95443098       4.97420003      12.31339374
Ni       4.33708977       5.08619247      28.31879950
Ni       2.54618558       0.08759987       8.01540420
Ni       2.97769972       0.28422833      24.01694039
Ni       0.21328637       4.10970269       8.23708458
Ni       0.47901111       4.42796339      24.26914918
Ni       7.45809237       0.12422869       8.08299837
Ni       7.77470559       0.13821658      24.05521057
Ni       5.05196931       4.32089417       8.35075971
Ni       5.41839240       4.36724017      24.32627880
Ni       1.17672399       1.98004079       0.21483699
Ni       1.56241023       2.22555604      16.25253310
Ni      -1.24727987       6.22329122       0.41150068
Ni      -0.82125888       6.36517238      16.35585166
Ni       6.01817357       2.10051528       0.14681077
Ni       6.39560101       2.18733854      16.21418068
Ni       3.71531156       6.16709294       0.43117903
Ni       3.99421407       6.30973826      16.40473796
Ni       2.47543392      -0.05513772       0.02404129
Ni       2.77173107       0.14952494      16.05276244
Ni       0.00732972       4.09811509       0.21189720
Ni       0.32254998       4.24199739      16.18640886
Ni       7.29387797      -0.02252042       0.11529228
Ni       7.59737642       0.18343965      16.03789411
Ni       4.87241492       4.20886752       0.22038004
Ni       5.20551116       4.32061891      16.25136636
Ni       1.36507223       2.17495847       8.12504103
Ni       1.68106782       2.40114926      24.11342527
Ni      -1.02990339       6.31896073       8.38904268
Ni      -0.67511452       6.37108709      24.27272676
Ni       6.28046956       2.14080844       8.21529027
Ni       6.54698440       2.30071369      24.15649077
Ni       3.78806414       6.30422685       8.36380144
Ni       4.20320170       6.45183775      24.42310895
Ni      -1.11020419       2.01560674       0.08515682
Ni      -0.94174621       2.27773739      16.16626201
Ni      -3.65090252       6.22311299       0.29247695
Ni      -3.27587812       6.32229201      16.19265686
Ni       3.60613800       2.03981107       0.15518225
Ni       3.95784313       2.16839457      16.21739415
Ni       1.31144055       6.10048173       0.36925535
Ni       1.68899878       6.26052756      16.27936525
Ni      -1.02000848       2.17279794       8.01103851
Ni      -0.69169905       2.35993367      24.12798381
Ni      -3.44327417       6.25784289       8.24688453
Ni      -3.07473912       6.50887152      24.25202130
Ni       3.81197058       2.06115078       8.20033796
Ni       4.21631676       2.29096781      24.11177752
Ni       1.34149048       6.23661459       8.34564371
Ni       1.76380170       6.39275857      24.32090751
