192
Lattice="10.014634915672461 0.17374837744836777 -0.0004648475949850888 -4.73510770370408 8.463855489990978 -0.2802576331529557 -0.07546704800235174 -0.05269794880320413 32.4817277639312" Properties=species:S:1:pos:R:3 pbc="T T T"
Mg      -0.05716015       0.03504210       6.61469957
Mg      -0.08080042      -0.10881909      22.78481707
Mg      -2.41248210       4.20009109       6.48607992
Mg      -2.44684064       4.23120850      22.78477398
Mg       4.98560457      -0.00118668       6.59758487
Mg       4.97973430       0.03042230      22.81960828
Mg       2.53790168       4.34409647       6.46547606
Mg       2.68340905       4.30976889      22.59781268
Mg      -0.01398686      -0.04845054      14.74724335
Mg      -0.09700626      -0.01709812      30.98518484
Mg      -2.38195293       4.16939667      14.58896621
Mg      -2.43258741       4.27347972      30.83245287
Mg       4.97230326      -0.00390247      14.69066646
Mg       4.86580983      -0.04412406      30.96105560
Mg       2.62624772       4.28827282      14.63970243
Mg       2.49135508       4.24661251      30.81368607
Mg      -0.03204360       0.05450556       9.66988917
Mg      -0.07836585      -0.02918761      25.86361371
Mg      -2.35576770       4.26958338       9.48737449
Mg      -2.40698508       4.16976091      25.76437055
Mg       5.03184470       0.09061963       9.62029707
Mg       4.90751026       0.10025945      25.91737410
Mg       2.74221939       4.33083612       9.49494383
Mg       2.55740340       4.21958622      25.81050432
Mg      -0.01637934      -0.04014691       1.61831583
Mg      -0.00248582      -0.02166287      17.80363634
Mg      -2.35717506       4.26104094       1.33748490
Mg      -2.43568588       4.14615639      17.63053612
Mg       4.96483135       0.04123676       1.52242913
Mg       4.98352733       0.03435826      17.78695425
Mg       2.69741780       4.35499135       1.31343222
Mg       2.55884368       4.26699478      17.68340944
Mg       0.08342783       2.76184522      10.53159532
Mg      -0.04075648       2.88330128      26.82040512
Mg      -2.35625842       7.11333455      10.39779628
Mg      -2.36835290       7.11105312      26.69220539
Mg       5.03762340       2.93882102      10.54209043
Mg       5.07834807       2.95013175      26.78067212
Mg       2.62965975       7.20095545      10.54553487
Mg       2.69600686       7.05192918      26.64985859
Mg       2.54711366       1.36378383       2.55052883
Mg       2.44937213       1.45137393      18.76529616
Mg       0.17316362       5.74331370       2.33181202
Mg       0.07880551       5.75635865      18.61642991
Mg       7.55042569       1.57467638       2.51354738
Mg       7.44247206       1.47407462      18.72847165
Mg       5.23249073       5.84507009       2.32378157
Mg       5.11371760       5.80479302      18.58819013
Mg       2.53772637       1.54112137       5.55266168
Mg       2.47976861       1.37875490      21.91129362
Mg       0.11317648       5.63990196       5.36115308
Mg       0.15058095       5.69553292      21.61362842
Mg       7.54682082       1.52561489       5.54811422
Mg       7.51790203       1.53255100      21.74328370
Mg       5.15442832       5.83760835       5.44389037
Mg       5.21771089       5.79616318      21.69351172
Mg       0.04578354       2.79663874      13.65811473
Mg       0.07185565       2.84557021      29.84631632
Mg      -2.29469812       7.09043497      13.53743403
Mg      -2.39730065       6.99679179      29.73589918
Mg       4.96726968       2.93509249      13.53884926
Mg       4.97161320       2.80621932      29.89999716
Mg       2.72534636       7.12770445      13.45897835
Mg       2.65299078       7.09881784      29.64884920
Ni       0.20863896       2.80286595       8.04965930
Ni       0.06589073       2.79133941      24.21968675
Ni      -2.39496633       6.94917427       7.96460060
Ni      -2.42001828       7.03857425      24.02308209
Ni       5.03915392       2.96291503       8.00858305
Ni       5.04421702       2.86391488      24.30833941
Ni       2.63677065       7.18309151       7.78273371
Ni       2.64382858       7.17959130      24.17650788
Ni       2.54925143       1.51196714      -0.05177218
Ni       2.47894203       1.46898310      16.18317355
Ni       0.26082960       5.66295387      -0.11004100
Ni       0.11029894       5.72291551      16.04557485
Ni       7.46331508       1.52944602      -0.02017817
Ni       7.52038121       1.45597829      16.20400992
Ni       5.19160710       5.81871481      -0.23438274
Ni       5.22644680       5.74964267      16.16871650
Ni       2.47544402       1.58495085       8.02869768
Ni       2.43525120       1.48739098      24.21247899
Ni       0.21064532       5.72174170       7.78463604
Ni       0.17676388       5.56586177      24.13666293
Ni       7.56361293       1.52943039       8.05507803
Ni       7.41121641       1.49280428      24.28526228
Ni       5.28673223       5.79257559       7.95651566
Ni       5.15742533       5.79559869      24.17326160
Ni       0.06438046       2.78729371      -0.23832447
Ni      -0.00347580       2.89845804      16.12176554
Ni      -2.22850467       7.06803477      -0.17188728
Ni      -2.35003360       7.04184307      15.96839324
Ni       5.13791987       2.89266254      -0.05155268
Ni       5.02581861       2.99790781      16.12444956
Ni       2.86664165       7.09248570      -0.24148397
Ni       2.62232895       7.19211193      15.95543228
Ni      -0.02524974       1.37740533       4.04284414
Ni       0.04596323       1.33915748      20.25200388
Ni      -2.27706357       5.61275907       3.90210123
Ni      -2.48516263       5.54308696      20.06530324
Ni       5.01206197       1.51831933       3.96520348
Ni       4.95894731       1.40235999      20.22110952
Ni       2.70595988       5.78513311       3.91251009
Ni       2.65276651       5.74263685      20.09738469
Ni       3.71714608       0.77574484      12.13676190
Ni       3.70574412       0.66438751      28.37726807
Ni       1.31808609       4.98994495      12.01182304
Ni       1.35582945       4.93333484      28.31518471
Ni       8.84444486       0.82972179      12.12954569
Ni       8.71797444       0.77747651      28.44031061
Ni       6.30178498       5.05116561      12.02253375
Ni       6.39770441       4.98416327      28.20835129
Ni       2.55887119       2.91696096      12.10906167
Ni       2.62664861       2.85395169      28.41230877
Ni       0.17748006       7.16828544      11.91371418
Ni       0.14060164       7.01276885      28.19099569
Ni       7.56672901       2.97633017      12.11726942
Ni       7.54968262       2.94113578      28.47784499
Ni       5.18582111       7.19608009      11.99354049
Ni       5.09976951       7.19883032      28.20245290
Ni      -1.25573069       3.52063939       3.96975410
Ni      -1.23151559       3.48472710      20.23552222
Ni      -3.50842268       7.72567142       3.87816790
Ni      -3.60499651       7.75447653      19.99566104
Ni       3.91161112       3.62785290       3.92358019
Ni       3.87712563       3.49081996      20.16816264
Ni       1.43600672       7.87822225       3.88897249
Ni       1.46459245       7.78950569      20.03228458
Ni       1.30798119       3.57551273       3.93184747
Ni       1.45076342       3.51864895      20.16386598
Ni      -0.99062937       7.78948384       3.74917592
Ni      -1.11523462       7.79379133      20.08546798
Ni       6.37912822       3.74261569       3.94909919
Ni       6.29813375       3.75337873      20.15768468
Ni       4.00154565       7.85612826       3.90313886
Ni       3.93434521       7.87796092      20.10676097
Ni       1.24525074       0.73261935      12.17501448
Ni       1.12815073       0.68946597      28.38245112
Ni      -1.04743141       4.86315364      12.08395487
Ni      -1.11169310       4.91077703      28.38308134
Ni       6.17103922       0.79924913      12.09029549
Ni       6.18706682       0.78833956      28.29860474
Ni       3.98159813       5.09536321      11.97652187
Ni       3.89289639       5.04646127      28.25112168
Ni       2.48413222       0.04944949       8.14729990
Ni       2.36885666      -0.00349964      24.43908582
Ni       0.10328644       4.25187046       7.98067244
Ni       0.15203861       4.13378526      24.22812462
Ni       7.47256490       0.13143974       8.15151557
Ni       7.59764309       0.01688615      24.32235358
Ni       5.13836588       4.30586282       7.97553951
Ni       5.13857389       4.36660322      24.23399620
Ni       1.31706937       2.11912474      -0.08518864
Ni       1.24514056       2.16295535      16.23090375
Ni      -1.11257663       6.37113355      -0.17536677
Ni      -1.03070466       6.33389659      15.97734382
Ni       6.26645184       2.29686444      -0.01489480
Ni       6.29664656       2.21658687      16.18265927
Ni       3.90353891       6.55338977      -0.17418396
Ni       3.99333536       6.47901700      16.03948133
Ni       2.51272410       0.06312668       0.01560932
Ni       2.51070993       0.02060228      16.27825186
Ni       0.22273396       4.27944806      -0.13018142
Ni       0.17243738       4.20975160      16.15891530
Ni       7.51238608      -0.00616361       0.04646413
Ni       7.40823923       0.08945404      16.28257428
Ni       5.08757067       4.32724009      -0.22884088
Ni       5.16110575       4.28137033      16.13988075
Ni       1.23338923       2.10865295       8.03189867
Ni       1.36985991       2.08388875      24.30599960
Ni      -1.12916087       6.32696492       7.92672323
Ni      -1.04582473       6.34066474      24.18114095
Ni       6.27843549       2.14871326       8.02272639
Ni       6.22207414       2.14070882      24.24615768
Ni       4.01954210       6.45731663       7.84518081
Ni       3.83544054       6.35060403      24.15885645
Ni      -1.19686943       2.18621542      -0.00039233
Ni      -1.18614399       2.09242155      16.05626238
Ni      -3.60111522       6.29890863      -0.26420152
Ni      -3.56169512       6.30734858      15.99783904
Ni       3.88695714       2.28560400      -0.09541842
Ni       3.75210042       2.12021542      16.12974976
Ni       1.39009909       6.33398433      -0.32249206
Ni       1.33091918       6.38598662      15.95533691
Ni      -1.28259118       2.13768836       8.07195529
Ni      -1.27860132       2.17777205      24.30117581
Ni      -3.54722795       6.33383683       7.89977570
Ni      -3.60521303       6.26807797      24.17421466
Ni       3.76593424       2.21945038       8.12919914
Ni       3.85140434       2.10957861      24.23460552
Ni       1.46182348       6.45619145       7.89103875
Ni       1.42732185       6.37468792      24.14846212
