192
Lattice="9.614971153946616 -0.06501202638345308 -0.037308681596741014 -5.099240718976131 8.412570657509795 -0.08427036069775273 -1.7164418814645985 0.060871002983059565 32.14840495001463" Properties=species:S:1:pos:R:3 pbc="T T T"
Mg      -0.40492426      -0.05112253       6.51055333
Mg      -1.20207720       0.05319662      22.56044959
Mg      -2.83099758       4.25194480       6.57023851
Mg      -3.75570758       4.29333842      22.55732632
Mg       4.49300819      -0.02382935       6.52535685
Mg       3.55625051       0.00807974      22.56760984
Mg       1.85574740       4.22886608       6.51342051
Mg       0.95042499       4.28568243      22.49748004
Mg      -0.73928528       0.12469916      14.64722672
Mg      -1.57942118       0.07160289      30.63095581
Mg      -3.31904963       4.22130537      14.50739518
Mg      -4.22755095       4.34515143      30.61890467
Mg       4.05707289       0.05786351      14.55125401
Mg       3.13402579       0.06635556      30.66100200
Mg       1.49004272       4.22395831      14.44333587
Mg       0.72113580       4.37122127      30.61195032
Mg      -0.50361829      -0.03933526       9.58409747
Mg      -1.36823512       0.03465088      25.59893964
Mg      -3.03949933       4.34610753       9.56881813
Mg      -3.95294898       4.23672030      25.55285549
Mg       4.27267523      -0.01156629       9.57079835
Mg       3.53495142       0.04298522      25.56993274
Mg       1.67704789       4.16631719       9.51706345
Mg       0.88760082       4.37702088      25.59843998
Mg      -0.14025935       0.11776679       1.49560802
Mg      -0.97971016       0.10322327      17.53654098
Mg      -2.57119190       4.19238153       1.43753141
Mg      -3.48670352       4.23811758      17.54430492
Mg       4.71556299       0.01141308       1.39836105
Mg       3.75994639      -0.01551435      17.57583877
Mg       2.14170757       4.12108696       1.43286377
Mg       1.31053037       4.22049778      17.66602709
Mg      -0.56032854       2.84007278      10.54005218
Mg      -1.45318765       2.90788935      26.58784707
Mg      -3.16679695       7.01302085      10.41492792
Mg      -3.99715136       7.11056113      26.51792336
Mg       4.17831932       2.81461565      10.44318944
Mg       3.37935051       2.83371620      26.50442184
Mg       1.64778031       6.97020041      10.41594467
Mg       0.84057287       7.02092668      26.47762038
Mg       2.29502003       1.45388299       2.43567713
Mg       1.34401355       1.42060889      18.51268428
Mg      -0.27894766       5.62549583       2.43412915
Mg      -1.15210663       5.67586963      18.48289213
Mg       7.05338614       1.39162966       2.42976335
Mg       6.14392764       1.39465837      18.51552202
Mg       4.46396562       5.54255880       2.50885352
Mg       3.60767001       5.54368000      18.45398987
Mg       2.05258382       1.42377377       5.40632141
Mg       1.25558851       1.36160769      21.53731706
Mg      -0.45017240       5.64349959       5.49814345
Mg      -1.37687640       5.64964490      21.57283253
Mg       6.83513873       1.42357533       5.48501155
Mg       6.04838366       1.34695852      21.53235179
Mg       4.31998618       5.50911610       5.40651697
Mg       3.51218027       5.55663094      21.56420311
Mg      -0.80841543       2.82915414      13.53294112
Mg      -1.65205457       2.85502885      29.57210710
Mg      -3.32555745       7.04388914      13.57343520
Mg      -4.23603834       7.09699692      29.51519795
Mg       4.03385859       2.79769187      13.47126587
Mg       3.13996787       2.76646037      29.61756146
Mg       1.42605909       6.95236464      13.47173601
Mg       0.61240095       6.94128335      29.49719991
Ni      -0.49338225       2.93023808       7.99411683
Ni      -1.40011157       2.92104850      24.00742773
Ni      -3.06553575       7.05523687       7.91423706
Ni      -3.92467627       7.04456843      23.99448334
Ni       4.25220077       2.81154920       7.94746838
Ni       3.36472736       2.69685873      24.11289434
Ni       1.63340277       6.99971349       7.99011757
Ni       0.87694864       7.02604065      24.01570241
Ni       2.41464139       1.40455325      -0.04878527
Ni       1.48798630       1.38734402      16.10036302
Ni      -0.15274161       5.55723337       0.02976105
Ni      -0.95986840       5.61831636      15.94576516
Ni       7.21223748       1.38020590      -0.02757581
Ni       6.31986674       1.32961308      16.01944031
Ni       4.63699830       5.54310372      -0.10373942
Ni       3.72662028       5.58831664      15.93312231
Ni       1.89554838       1.39355027       7.92242476
Ni       1.13535388       1.43615965      24.15478469
Ni      -0.61943482       5.64429746       7.98356544
Ni      -1.44871138       5.64206778      24.10350440
Ni       6.68001659       1.35309159       8.00637924
Ni       5.83987384       1.38711930      24.09240890
Ni       4.14357090       5.60748406       7.98160048
Ni       3.32355484       5.55967441      24.01625304
Ni      -0.12129352       2.79760490      -0.11080421
Ni      -0.93196150       2.83590518      16.04958670
Ni      -2.73715346       6.97153976      -0.08279215
Ni      -3.53649328       7.04184276      16.05614913
Ni       4.71082577       2.77621778      -0.01333971
Ni       3.92534490       2.73316401      16.07447149
Ni       2.14629000       6.91433416       0.03628646
Ni       1.28539830       7.04976411      15.91167137
Ni      -0.21048218       1.38629190       4.05971114
Ni      -1.12337535       1.36510678      20.10213771
Ni      -2.90068163       5.62756735       4.03256834
Ni      -3.66925487       5.60210377      20.08368927
Ni       4.47559763       1.35845299       3.96490282
Ni       3.66914486       1.32260415      20.14644763
Ni       2.01585643       5.46725695       3.91794620
Ni       1.16248165       5.66051120      20.03918020
Ni       2.86028842       0.71187456      12.02886809
Ni       2.15573747       0.70152178      28.07989731
Ni       0.32834737       5.00309459      12.00472120
Ni      -0.41331367       4.89329455      27.97791941
Ni       7.65378556       0.71140694      12.00543478
Ni       6.92286229       0.68168896      28.03236341
Ni       5.22425189       4.90038001      12.03436102
Ni       4.33741555       4.90704117      28.03640617
Ni       1.64209230       2.75348189      11.96999956
Ni       0.78591259       2.79410433      28.09977623
Ni      -0.90311930       7.00980301      12.02245049
Ni      -1.72600936       7.00433404      28.02220891
Ni       6.46049326       2.81804953      11.93852180
Ni       5.60461886       2.78737203      28.05588589
Ni       3.89991736       7.01710190      11.87810401
Ni       2.96264553       6.99901458      28.07547107
Ni      -1.46987666       3.50815087       3.87084423
Ni      -2.43910313       3.55815149      20.08665743
Ni      -4.12571571       7.65311310       3.97622770
Ni      -4.99217295       7.73843933      20.04245807
Ni       3.31430926       3.39552282       3.83967863
Ni       2.41662459       3.47414055      20.09260992
Ni       0.77414894       7.69245532       3.88505322
Ni      -0.18458002       7.78906315      20.00554330
Ni       0.87590756       3.36323100       3.91435181
Ni       0.06272274       3.50619317      20.11122844
Ni      -1.69868443       7.70852193       3.98187039
Ni      -2.54031031       7.74163129      19.95665937
Ni       5.65781649       3.36876064       3.97795942
Ni       4.80742193       3.47575846      20.05423568
Ni       3.06091008       7.65989269       3.88151889
Ni       2.31235973       7.72661451      20.11376972
Ni       0.52984871       0.76319938      11.93935978
Ni      -0.35425444       0.78282657      28.16100163
Ni      -2.09915316       4.89393114      11.96801503
Ni      -2.83008419       4.96884776      28.05977545
Ni       5.39179246       0.73524622      12.05816087
Ni       4.49323723       0.71383455      28.08259576
Ni       2.82946401       4.92467652      11.97316438
Ni       1.98951858       4.92200568      28.08900513
Ni       1.90684146       0.03254068       8.04049536
Ni       1.16301479       0.10387799      24.18876997
Ni      -0.58223206       4.20153393       7.96926276
Ni      -1.48571656       4.26419125      24.11701211
Ni       6.71137146      -0.04489764       8.00491780
Ni       5.94341858       0.05761561      24.06158133
Ni       4.34086791       4.20417173       7.94099754
Ni       3.40321836       4.24052586      24.06551344
Ni       1.13633850       2.04376273      -0.00258820
Ni       0.24002723       2.15839285      16.06522519
Ni      -1.42402932       6.24557959      -0.05152985
Ni      -2.19415639       6.28770521      16.03341187
Ni       5.94518375       2.01587467      -0.02931015
Ni       5.10939107       2.12430586      15.98657741
Ni       3.31255171       6.31052174      -0.07672615
Ni       2.53225682       6.29772995      16.00964400
Ni       2.47930401      -0.00200370       0.04035268
Ni       1.58820032      -0.01827628      16.12871921
Ni      -0.04750825       4.18607229      -0.06625301
Ni      -0.97447209       4.17140600      15.94302236
Ni       7.14364542      -0.04198949       0.01669002
Ni       6.30468598      -0.01237023      16.03180840
Ni       4.66202083       4.12116257      -0.14075366
Ni       3.75663807       4.30232010      15.99309531
Ni       0.65391176       2.12615256       7.93584039
Ni      -0.10263076       2.08825062      24.08679570
Ni      -1.87565316       6.30793222       7.96279752
Ni      -2.66074570       6.31162587      23.97152676
Ni       5.60138319       2.02887785       7.99014449
Ni       4.66725266       1.97568395      24.10196171
Ni       2.97733572       6.22068042       7.96003423
Ni       2.15448778       6.38154745      23.97595938
Ni      -1.29627235       2.16139671       0.03029423
Ni      -2.11654803       2.07133624      16.00518879
Ni      -3.77476026       6.30629388       0.02112566
Ni      -4.77677302       6.47267409      16.01047014
Ni       3.46504757       2.06167070      -0.03241659
Ni       2.57304179       2.09807445      16.01147965
Ni       0.97275697       6.19819573      -0.19135196
Ni       0.02728338       6.29722064      16.03729323
Ni      -1.65591290       2.17491515       8.04122346
Ni      -2.62556965       2.24025295      24.07768512
Ni      -4.23898896       6.34585751       8.05546877
Ni      -5.05758221       6.33616595      24.02020274
Ni       3.05571237       2.04908885       7.97133275
Ni       2.15498664       2.10838187      24.14192783
Ni       0.43652371       6.24664745       7.99461817
Ni      -0.32395922       6.25647950      24.03176331
