192
Lattice="9.80930168735536 -0.0013689387269902869 0.1946941021038541 -4.8264525062519406 8.489696714101113 -0.32370064970013757 -1.1836908538033908 0.5951387753862977 32.70570169361005" Properties=species:S:1:pos:R:3 pbc="T T T"
Mg      -0.25979600       0.11020794       6.62327180
Mg      -0.90308998       0.41423358      22.94934051
Mg      -2.70812878       4.38951821       6.47228299
Mg      -3.32329951       4.67817234      22.79360011
Mg       4.71762496       0.15170400       6.66376072
Mg       4.10625925       0.43752642      23.01038700
Mg       2.28234585       4.33526089       6.62449816
Mg       1.59125047       4.70053370      22.86427893
Mg      -0.55099145       0.23721229      14.83543161
Mg      -1.13960024       0.68879491      31.19520827
Mg      -2.98355988       4.42991633      14.68466767
Mg      -3.50088816       4.77926534      30.99092018
Mg       4.39347067       0.21715990      14.89568793
Mg       3.78281399       0.62705938      31.34918780
Mg       1.90885035       4.51213312      14.80676131
Mg       1.37225300       4.80036041      31.15783482
Mg      -0.30543472       0.25054840       9.76584980
Mg      -0.86552177       0.45860416      26.07580764
Mg      -2.73774756       4.43112265       9.57871568
Mg      -3.28666168       4.72922846      25.95826156
Mg       4.59569917       0.17245196       9.72382411
Mg       3.88261317       0.49046357      26.13509943
Mg       2.11533219       4.51021390       9.54893746
Mg       1.53066017       4.58288388      25.96471801
Mg      -0.08661634       0.00232891       1.58423443
Mg      -0.83107360       0.31448838      17.89799281
Mg      -2.46046518       4.26829960       1.34251119
Mg      -3.10154566       4.56886613      17.82641091
Mg       4.90102096       0.11128589       1.72958808
Mg       4.26574433       0.32041960      17.99157437
Mg       2.46934564       4.25613211       1.56737355
Mg       1.83768601       4.61652557      17.85142113
Mg      -0.34857412       2.97207443      10.75323058
Mg      -0.96688048       3.26325961      26.97592956
Mg      -2.80621594       7.35153789      10.55930756
Mg      -3.28118547       7.56746546      26.84602837
Mg       4.58059796       2.98857546      10.76155199
Mg       3.97947191       3.40999819      27.08579860
Mg       2.05754397       7.25174025      10.53465398
Mg       1.50001490       7.61480433      26.83969386
Mg       2.37442597       1.43953465       2.58395174
Mg       1.74886999       1.84533235      18.96923511
Mg      -0.07052014       5.67446991       2.35303456
Mg      -0.57716915       5.89050745      18.76224293
Mg       7.30397707       1.39918532       2.59939540
Mg       6.74458892       1.83911528      18.97520610
Mg       4.93636962       5.65033273       2.42872140
Mg       4.25051406       5.94737198      18.88764806
Mg       2.22423229       1.49228950       5.62347814
Mg       1.66644959       1.84312564      21.99156268
Mg      -0.16082252       5.82624408       5.45554218
Mg      -0.70618512       6.01094304      21.76515180
Mg       7.16980009       1.40576457       5.85175012
Mg       6.62098747       1.81777669      22.14430071
Mg       4.74119134       5.82145479       5.65345341
Mg       4.13163110       6.06756067      21.86458884
Mg      -0.49678746       3.02023906      13.75287068
Mg      -1.07982107       3.45219241      30.09583721
Mg      -2.97755064       7.35047071      13.65313772
Mg      -3.56241166       7.51715865      29.94556102
Mg       4.40422091       3.15004909      13.88760079
Mg       3.69572734       3.32966142      30.13935858
Mg       2.09517462       7.25992316      13.66462396
Mg       1.50384874       7.67376219      29.90087382
Ni      -0.26763646       2.88954864       8.10454314
Ni      -0.83991334       3.24188919      24.41433273
Ni      -2.64718252       7.27450864       7.95761391
Ni      -3.20929729       7.57071680      24.33386832
Ni       4.56691474       2.98608235       8.18119073
Ni       4.03473619       3.22919513      24.57814451
Ni       2.22640776       7.25846742       8.06532304
Ni       1.71053401       7.55799064      24.29691920
Ni       2.47315077       1.38376454      -0.02741186
Ni       1.88983222       1.69520228      16.30389339
Ni       0.08305851       5.61236326       0.00035763
Ni      -0.56192570       5.98235582      16.26893813
Ni       7.26845572       1.49544136       0.03566490
Ni       6.84905191       1.76824860      16.49749534
Ni       4.87863441       5.62700173      -0.01503676
Ni       4.38325723       5.97585709      16.31441741
Ni       2.19483955       1.54481888       8.17823909
Ni       1.62293456       1.87150502      24.61968269
Ni      -0.35233828       5.86415866       8.00485036
Ni      -0.94398104       6.08624493      24.34820491
Ni       7.04244031       1.65168336       8.30455727
Ni       6.44640885       1.92321024      24.59048257
Ni       4.73762971       5.81801817       8.08673946
Ni       4.04727220       6.17050375      24.44665948
Ni      -0.10097132       2.85098088      -0.06669740
Ni      -0.63402869       3.05238504      16.29506415
Ni      -2.47543935       7.06714165      -0.19347062
Ni      -2.99740212       7.36490590      16.14505053
Ni       4.83580259       2.84107651      -0.02488346
Ni       4.32874676       3.08509207      16.42702827
Ni       2.55658617       7.10141948      -0.23418766
Ni       1.96983254       7.41250976      16.18363593
Ni      -0.12604491       1.47642119       4.04296832
Ni      -0.74060017       1.70480683      20.40593723
Ni      -2.50633005       5.61065414       3.90307954
Ni      -3.18525564       6.04857256      20.29756937
Ni       4.75528664       1.37194748       4.13189145
Ni       4.14326746       1.85267589      20.53492314
Ni       2.36742454       5.70217046       3.94610304
Ni       1.74194116       6.12959621      20.27786217
Ni       3.28167677       0.99633813      12.34359170
Ni       2.69995842       1.38685497      28.57135583
Ni       0.77923922       5.17578763      12.15690422
Ni       0.19003881       5.49637408      28.54119872
Ni       8.24802599       0.89571665      12.46429813
Ni       7.50572194       1.19678757      28.72497134
Ni       5.70987905       5.17475951      12.25273162
Ni       5.06130229       5.52592265      28.56387509
Ni       2.00357857       3.10864469      12.17085581
Ni       1.41551114       3.33919553      28.60980472
Ni      -0.43430990       7.29063007      12.00620804
Ni      -0.89861609       7.56508442      28.53693781
Ni       6.90522340       3.01629340      12.37351850
Ni       6.24196891       3.29678547      28.80992098
Ni       4.47236891       7.32764799      12.12578392
Ni       3.93897115       7.65874337      28.41968083
Ni      -1.36358988       3.62419410       3.99416732
Ni      -1.99568448       3.95358517      20.28577273
Ni      -3.73240189       7.96202817       3.75410761
Ni      -4.46669621       8.14589559      20.24467594
Ni       3.58255923       3.69467433       4.11102229
Ni       2.91098586       3.90986136      20.45233425
Ni       1.11245778       7.82152662       3.93949643
Ni       0.53144173       8.20675196      20.23752021
Ni       1.13091254       3.61385125       4.05600389
Ni       0.48830700       3.94951854      20.39948118
Ni      -1.35441378       7.84749230       3.80839800
Ni      -1.92973136       8.14698774      20.24767157
Ni       5.96107526       3.53624384       4.14623952
Ni       5.48350618       3.85012793      20.46026808
Ni       3.55517418       7.81046475       4.02058679
Ni       2.94931582       8.07063432      20.30724180
Ni       0.79781562       0.90722305      12.35858586
Ni       0.18429036       1.21619168      28.55921226
Ni      -1.66312005       5.15850161      12.10302793
Ni      -2.22000774       5.51940271      28.45026645
Ni       5.72274886       0.98024548      12.31659261
Ni       5.08376928       1.21118036      28.73651415
Ni       3.34132178       5.10795894      12.20230345
Ni       2.66249772       5.49697527      28.65219714
Ni       2.20978159       0.20026037       8.25862859
Ni       1.56382626       0.48123215      24.61099623
Ni      -0.37128423       4.34852580       8.08655154
Ni      -0.82583437       4.80436618      24.42743471
Ni       7.00466577       0.19323344       8.38407726
Ni       6.49594019       0.39261087      24.63457691
Ni       4.65938058       4.36653386       8.18701555
Ni       4.09624986       4.70129750      24.70688943
Ni       1.23420257       2.08381459      -0.03489163
Ni       0.66952773       2.48321998      16.28530948
Ni      -1.15712268       6.43675556      -0.17422053
Ni      -1.80267834       6.72424646      16.22165020
Ni       6.16921368       2.08822914       0.03305471
Ni       5.58070191       2.38988841      16.52184067
Ni       3.81143460       6.28540463      -0.04150120
Ni       3.10936227       6.68775887      16.20353490
Ni       2.47219191       0.06037356       0.12729655
Ni       1.89134863       0.21513521      16.44787536
Ni       0.05780325       4.34805448      -0.14477385
Ni      -0.43802884       4.51009320      16.21021729
Ni       7.38926591      -0.04062689       0.21549643
Ni       6.76179981       0.21768455      16.49542502
Ni       4.87526589       4.19749275      -0.07491071
Ni       4.30757940       4.52262792      16.28286386
Ni       0.96777356       2.29588526       8.21531199
Ni       0.32408940       2.51045099      24.40394390
Ni      -1.54892043       6.55178011       7.83726229
Ni      -2.02190743       6.81903871      24.29757886
Ni       5.79526285       2.19698461       8.36034935
Ni       5.23150129       2.58312440      24.64411829
Ni       3.56667838       6.55579962       8.03511605
Ni       2.80490335       6.84312127      24.42112012
Ni      -1.25305057       2.21451414      -0.08848980
Ni      -1.87629768       2.42049248      16.30178011
Ni      -3.68554452       6.41124064      -0.30011915
Ni      -4.24923671       6.68055287      16.13309311
Ni       3.65252777       2.00337051      -0.03017132
Ni       3.12448103       2.36991459      16.38998730
Ni       1.31392250       6.42329361      -0.15576037
Ni       0.63425222       6.65361565      16.18468044
Ni      -1.51484743       2.33024398       8.11137684
Ni      -2.08323023       2.55189962      24.40925602
Ni      -3.84413113       6.54173871       7.99728175
Ni      -4.59267133       6.78753434      24.20506863
Ni       3.51381183       2.27691494       8.20324469
Ni       2.85462395       2.54233952      24.58955510
Ni       1.05219122       6.50156586       7.98755655
Ni       0.48028101       6.81549443      24.42483139
