192
Lattice="9.57819272588918 0.18330105913750816 -0.524377352808455 -4.718470813804909 8.297678089856861 0.33995581332665653 -0.6355383767605493 -0.6159445886740375 31.0095837851085" Properties=species:S:1:pos:R:3 pbc="T T T"
Mg      -0.16100523       0.02798456       6.25614691
Mg      -0.50034888      -0.37641112      21.79271037
Mg      -2.48784510       3.92907953       6.47230906
Mg      -2.77885056       3.71206708      21.95532107
Mg       4.60535365      -0.00580601       6.07675538
Mg       4.30377898      -0.33857105      21.52512183
Mg       2.19495923       4.03376837       6.35717717
Mg       1.96310014       3.79674841      21.61992992
Mg      -0.30147889      -0.23880789      14.01216618
Mg      -0.58882546      -0.55036393      29.57123040
Mg      -2.74857175       3.83934132      14.25798658
Mg      -2.95755057       3.62139492      29.77800488
Mg       4.50716858      -0.16755921      13.80132041
Mg       4.16587829      -0.39825355      29.31548826
Mg       2.06035429       3.95654618      13.92685050
Mg       1.89278368       3.66794311      29.46934089
Mg      -0.22778632      -0.08381427       9.22317866
Mg      -0.48521693      -0.47253949      24.72538368
Mg      -2.55907310       3.88499552       9.43363351
Mg      -2.77092779       3.60907576      24.90985485
Mg       4.58040430       0.02993615       8.90199457
Mg       4.22664911      -0.38728341      24.40852475
Mg       2.31371983       4.17985220       8.97118827
Mg       1.89086621       3.73878071      24.65173902
Mg       0.02279543       0.02138332       1.41662227
Mg      -0.32442446      -0.34351960      17.10084659
Mg      -2.44726800       4.10658858       1.61050073
Mg      -2.75935977       3.84577005      17.16556528
Mg       4.74867175      -0.02595598       1.22236162
Mg       4.41863648      -0.29268953      16.69913385
Mg       2.44793396       4.21208188       1.38327360
Mg       2.16750029       3.96300712      16.80545180
Mg      -0.17374161       2.53802544      10.20734897
Mg      -0.53406992       2.32344516      25.69040605
Mg      -2.55460355       6.84353315      10.30312530
Mg      -2.88893539       6.47932608      25.87294184
Mg       4.54019626       2.64674311      10.00993108
Mg       4.34983115       2.36431634      25.37339094
Mg       2.30426662       6.78209100      10.06674752
Mg       1.98493325       6.48724377      25.53178553
Mg       2.32889375       1.42959952       2.30565771
Mg       2.11382159       1.16728886      17.82431498
Mg       0.01850780       5.57542335       2.48321080
Mg      -0.34078699       5.28582853      17.94429353
Mg       7.10850563       1.41735027       2.06568876
Mg       6.78377208       1.14245972      17.52340075
Mg       4.78589595       5.67733568       2.25005643
Mg       4.45871293       5.29103262      17.73414182
Mg       2.32519584       1.47432573       5.30103137
Mg       1.97953635       1.02505411      20.66365769
Mg      -0.01582785       5.43502832       5.39282721
Mg      -0.36388629       5.10183420      20.80554257
Mg       7.18291796       1.45892687       4.94931681
Mg       6.77674753       1.12850778      20.46064241
Mg       4.65387469       5.54748575       5.15053216
Mg       4.43136678       5.26235910      20.59936758
Mg      -0.15618331       2.54716853      13.17336920
Mg      -0.61363436       2.22005074      28.63994387
Mg      -2.61040849       6.62977618      13.25459612
Mg      -2.93289358       6.40397662      28.89263075
Mg       4.52279605       2.61669030      12.89358268
Mg       4.24301273       2.33558871      28.31869352
Mg       2.18635270       6.80716061      13.01647371
Mg       1.94098778       6.50215801      28.52228213
Ni      -0.14112789       2.60277697       7.74895027
Ni      -0.58819000       2.42381848      23.33183505
Ni      -2.47989898       6.71830408       7.97472257
Ni      -2.81920693       6.52589662      23.41448614
Ni       4.66900052       2.79090290       7.55093470
Ni       4.27654923       2.36488995      23.12977518
Ni       2.32189343       6.87818646       7.73069808
Ni       1.96326140       6.53227527      23.12357173
Ni       2.39821368       1.43298421      -0.02081454
Ni       2.13223687       1.13573936      15.35485352
Ni       0.07094282       5.62061837       0.09358960
Ni      -0.31106408       5.32389609      15.42992385
Ni       7.19346203       1.58848990      -0.37922693
Ni       6.95561854       1.19161077      15.10952946
Ni       4.82917330       5.65356660      -0.14706153
Ni       4.59625494       5.38272089      15.28407546
Ni       2.28922027       1.26679563       7.59399709
Ni       1.77313388       0.97459628      23.13198470
Ni      -0.13594151       5.39456494       7.81873734
Ni      -0.45871976       5.14290678      23.29988668
Ni       7.06956890       1.41916734       7.38176805
Ni       6.79962649       1.07197125      22.94803589
Ni       4.73624120       5.56353032       7.55349333
Ni       4.44182014       5.14146775      23.07538218
Ni       0.01148348       2.80119545      -0.03115685
Ni      -0.20825433       2.51952623      15.45971516
Ni      -2.40783441       6.96912997       0.28755849
Ni      -2.65575333       6.62910944      15.66188398
Ni       4.80712876       2.81416043      -0.24104199
Ni       4.49811939       2.50682680      15.17282588
Ni       2.44243451       7.02846533       0.03388398
Ni       2.09713103       6.74727868      15.45518610
Ni      -0.12010120       1.24267126       3.83514571
Ni      -0.38257759       1.03836587      19.37759337
Ni      -2.56212246       5.45191127       4.06465700
Ni      -2.76409341       5.18755492      19.59252849
Ni       4.75655972       1.51383278       3.60454286
Ni       4.28483407       1.07455960      19.17852287
Ni       2.33843180       5.56434427       3.78430296
Ni       1.97379687       5.21638803      19.30173038
Ni       3.34314821       0.54728503      11.49397766
Ni       3.07103976       0.30300154      26.92320250
Ni       1.00645271       4.69659713      11.59140890
Ni       0.78971917       4.29891220      27.15292710
Ni       8.15555437       0.68441699      11.17657224
Ni       7.92670969       0.29901995      26.68343504
Ni       5.87781453       4.69376000      11.35190704
Ni       5.39358499       4.52848246      26.73274866
Ni       2.09543139       2.59498383      11.50793116
Ni       1.86139010       2.32584686      27.09293153
Ni      -0.11839538       6.74867437      11.55285939
Ni      -0.43422900       6.46931569      27.16372495
Ni       6.99733118       2.68845032      11.23777861
Ni       6.63157502       2.37905294      26.77447805
Ni       4.55872901       6.89542955      11.41449429
Ni       4.34008055       6.49611839      26.81738614
Ni      -1.26463692       3.46463307       3.91419796
Ni      -1.55850380       2.96861446      19.39870885
Ni      -3.57338783       7.47991741       4.13744521
Ni      -3.91549077       7.21991727      19.64859922
Ni       3.58264565       3.53745187       3.72049143
Ni       3.23286433       3.19553624      19.24440140
Ni       1.11608816       7.65718141       3.90498012
Ni       0.89909953       7.35416068      19.34161956
Ni       1.12489101       3.37869359       3.83358223
Ni       0.86820627       3.14083369      19.38790117
Ni      -1.16642577       7.62268567       4.02733955
Ni      -1.55319389       7.27419752      19.45189657
Ni       6.03281432       3.48098521       3.54641786
Ni       5.61274257       3.22823162      19.05944197
Ni       3.56098521       7.71153957       3.74034565
Ni       3.28783109       7.42167741      19.19674798
Ni       0.98750932       0.50928803      11.55584261
Ni       0.69122355       0.10772363      27.09478247
Ni      -1.36945961       4.62815696      11.75801470
Ni      -1.75199850       4.41748170      27.35528634
Ni       5.67934379       0.51037484      11.25406270
Ni       5.46172657       0.29069616      26.72614562
Ni       3.45944016       4.72518725      11.52946426
Ni       3.13170561       4.39152501      26.98042856
Ni       2.27317268      -0.02100662       7.62394177
Ni       1.88129430      -0.35275968      23.14560793
Ni      -0.11819638       4.05136571       7.82316239
Ni      -0.36507169       3.68152022      23.31046309
Ni       7.06403189      -0.05100857       7.42483931
Ni       6.75116173      -0.31587681      22.92642422
Ni       4.74367625       4.16742630       7.54157268
Ni       4.35378185       3.85970438      22.97241692
Ni       1.22553654       2.09788358       0.03756495
Ni       0.88841318       1.83910091      15.37712466
Ni      -1.18792097       6.30904300       0.13472738
Ni      -1.48719252       5.97440098      15.64303372
Ni       5.95005886       2.27177690      -0.17742936
Ni       5.70347481       1.87740483      15.19024186
Ni       3.60570633       6.38031752      -0.14447878
Ni       3.26447985       6.07549492      15.35163831
Ni       2.40105891       0.13780308      -0.12945655
Ni       2.03186326      -0.28906720      15.38919501
Ni       0.00984579       4.18728868      -0.04246338
Ni      -0.35622404       3.89914069      15.58359157
Ni       7.07339769       0.10468910      -0.32087608
Ni       6.87352622      -0.16774710      15.10123031
Ni       4.73919880       4.18930192      -0.25936951
Ni       4.41870624       4.05707079      15.28431615
Ni       1.07462846       1.93914651       7.60376138
Ni       0.69604842       1.67694728      23.34353159
Ni      -1.21798296       6.14929261       7.78539655
Ni      -1.55556941       5.78128101      23.38951316
Ni       5.92207922       2.06659106       7.36877402
Ni       5.55519173       1.77244248      22.94286148
Ni       3.58224808       6.15251811       7.57591044
Ni       3.13012116       5.82628261      23.20234014
Ni      -1.25905900       2.05868136       0.06405729
Ni      -1.52968705       1.80321974      15.57379735
Ni      -3.47488150       6.16007457       0.24729020
Ni      -3.84857765       5.89261072      15.78613649
Ni       3.55230625       2.21666382      -0.15088901
Ni       3.29268401       1.81038522      15.29740277
Ni       1.20671447       6.29276555       0.01387101
Ni       0.90371777       6.00679713      15.49199360
Ni      -1.26006308       1.89936840       7.87529740
Ni      -1.65666585       1.72057684      23.38255125
Ni      -3.70109712       6.12967684       7.98777122
Ni      -4.07737847       5.78249352      23.49173511
Ni       3.49859430       2.05683708       7.54305650
Ni       3.11754542       1.66758846      23.04323097
Ni       1.10316671       6.17284186       7.75148040
Ni       0.76326553       5.85549592      23.34605718
