192
Lattice="9.840978154237856 0.2285683888714867 0.028487754637024007 -4.701292833749882 8.292991541889915 -0.07239997415942699 -0.4627939455847771 0.4373503078775298 31.72484970689715" Properties=species:S:1:pos:R:3 pbc="T T T"
Mg      -0.06099220       0.06187423       6.44895469
Mg      -0.34102631       0.31100877      22.24206350
Mg      -2.41456206       4.20825758       6.46687856
Mg      -2.63898699       4.39784453      22.31277146
Mg       4.72061806       0.26296815       6.44171567
Mg       4.59729718       0.42183061      22.27472758
Mg       2.57118440       4.40941582       6.54034055
Mg       2.26941318       4.52246847      22.21349274
Mg      -0.17792589       0.21706595      14.35279414
Mg      -0.38205961       0.27821020      30.28280795
Mg      -2.64160410       4.32985539      14.41041050
Mg      -2.81430908       4.60789198      30.22136071
Mg       4.72728850       0.24171528      14.36727961
Mg       4.55316383       0.51641156      30.19101696
Mg       2.42464321       4.45323088      14.35049321
Mg       2.09650996       4.68408720      30.06969766
Mg      -0.18715746       0.09839443       9.39583221
Mg      -0.39419835       0.29590996      25.17251263
Mg      -2.49432021       4.29368880       9.36272324
Mg      -2.65628055       4.50806394      25.26129578
Mg       4.74998651       0.20575310       9.40201820
Mg       4.44544511       0.53732054      25.19936583
Mg       2.45916142       4.44813776       9.45350294
Mg       2.06206697       4.60548237      25.26968047
Mg      -0.09170805       0.11475313       1.55959691
Mg      -0.19021230       0.36860295      17.28215298
Mg      -2.43646172       4.21777725       1.46647229
Mg      -2.59332489       4.42661918      17.34055610
Mg       4.85158812       0.14407666       1.48428458
Mg       4.66439258       0.37629747      17.33625734
Mg       2.59974872       4.33392524       1.43263695
Mg       2.27987620       4.51089711      17.28218173
Mg      -0.13722942       2.96219080      10.48742511
Mg      -0.34069531       3.16510197      26.21177775
Mg      -2.43782511       7.06872561      10.34189974
Mg      -2.80591210       7.25062692      26.21601249
Mg       4.72780121       2.99145009      10.46011273
Mg       4.55529621       3.37406612      26.24946935
Mg       2.47383000       7.25840170      10.42347344
Mg       2.30796190       7.45712305      26.29072268
Mg       2.45655050       1.44396831       2.52056724
Mg       2.25350525       1.82019668      18.34971212
Mg       0.06327175       5.66370628       2.44281181
Mg      -0.10829591       5.82990331      18.25401818
Mg       7.39641599       1.62494317       2.59183610
Mg       7.07440110       1.83344992      18.36263186
Mg       4.95214876       5.83542041       2.49301192
Mg       4.83281611       5.89611063      18.30065894
Mg       2.42718707       1.59212851       5.44530119
Mg       2.18909612       1.70385398      21.30888657
Mg       0.02260346       5.66949837       5.40701060
Mg      -0.17218008       5.87213581      21.33413930
Mg       7.31712285       1.52126736       5.45257636
Mg       7.23438075       1.88817312      21.30549611
Mg       5.05237192       5.83769206       5.55999625
Mg       4.74532806       6.04877426      21.29784345
Mg      -0.05783907       2.92380120      13.39227528
Mg      -0.33877803       3.13295426      29.18116981
Mg      -2.36185968       7.16550693      13.27702374
Mg      -2.71416107       7.27216262      29.17663484
Mg       4.74576543       3.06711532      13.37469458
Mg       4.57921150       3.38255986      29.23411093
Mg       2.41478621       7.30126229      13.22986107
Mg       2.23271085       7.50094607      29.30242689
Ni      -0.00981379       2.91590875       7.95301230
Ni      -0.33238968       3.13065087      23.81339973
Ni      -2.49567967       7.04044244       7.82205082
Ni      -2.62319862       7.33343321      23.74463770
Ni       4.85577135       3.08563550       8.00587079
Ni       4.63936477       3.20284467      23.70158885
Ni       2.47683963       7.26780294       7.94814550
Ni       2.24327214       7.43357382      23.65315403
Ni       2.44270432       1.46610102      -0.05523209
Ni       2.16341160       1.64642124      15.90655220
Ni       0.12999466       5.63725186       0.01222970
Ni      -0.05646374       5.79541636      15.79944554
Ni       7.38428695       1.58155477       0.06816809
Ni       7.11212511       1.78175649      15.88150950
Ni       5.06153617       5.72573051       0.00874197
Ni       4.82677959       5.98162744      15.82310339
Ni       2.40634567       1.56382994       7.92517363
Ni       2.20858592       1.85194949      23.70482744
Ni       0.06666879       5.62917195       7.86563588
Ni      -0.25981098       5.92392348      23.76863505
Ni       7.25799541       1.68449757       7.91604618
Ni       7.05145750       1.93542953      23.78150315
Ni       5.01417289       5.81888137       7.96390293
Ni       4.75823667       6.16106434      23.72975955
Ni       0.03778812       2.86308486       0.00917599
Ni      -0.15909303       3.02394744      15.80482339
Ni      -2.27172972       7.00601183      -0.03850972
Ni      -2.49893548       7.08840627      15.94175258
Ni       5.02166113       2.87958845      -0.01329946
Ni       4.72431699       3.15835678      15.93069480
Ni       2.73839173       7.06481868       0.01385279
Ni       2.36926745       7.24645092      15.89724027
Ni      -0.04018795       1.43232722       4.01246573
Ni      -0.25507500       1.67507166      19.84158075
Ni      -2.34461319       5.67167562       3.89166193
Ni      -2.67340642       5.88995383      19.83697897
Ni       4.89122593       1.56467502       3.93247175
Ni       4.60821738       1.79757642      19.73117213
Ni       2.49664603       5.68272217       3.97240609
Ni       2.35201708       5.93361388      19.73236931
Ni       3.58168437       0.93637181      11.84326999
Ni       3.29612617       1.20361467      27.75553527
Ni       1.16708706       5.03429735      11.87532643
Ni       0.98778736       5.37492438      27.88016205
Ni       8.47107540       1.05899665      11.89614583
Ni       8.30484613       1.19289000      27.78861105
Ni       6.11685397       5.25931194      11.88530330
Ni       5.89551180       5.39371509      27.72225280
Ni       2.30528536       2.99379544      11.98894097
Ni       2.08646079       3.14268003      27.73180280
Ni       0.01254857       7.20185799      11.83214371
Ni      -0.13237880       7.42118789      27.65931255
Ni       7.27908508       3.13775847      11.87544797
Ni       7.07257219       3.33671327      27.76217728
Ni       4.90063659       7.21225134      11.72750944
Ni       4.67543146       7.55867420      27.66494176
Ni      -1.18291507       3.50877538       3.96049793
Ni      -1.38377250       3.73940121      19.84557550
Ni      -3.52221980       7.58219684       3.96170549
Ni      -3.82733676       8.02237098      19.79402199
Ni       3.79114097       3.61423442       4.06053920
Ni       3.53483763       3.92925122      19.84966396
Ni       1.40513686       7.74862480       3.83925286
Ni       1.15983242       8.06053513      19.73470448
Ni       1.21257352       3.64301438       3.92564358
Ni       1.08517446       3.81425937      19.81345377
Ni      -1.05944833       7.69540236       3.97304130
Ni      -1.44709756       7.96037271      19.71082446
Ni       6.17847398       3.68647521       3.96287459
Ni       5.95307370       4.01243674      19.83822595
Ni       3.83342027       7.81473325       3.97908686
Ni       3.55411956       8.09305336      19.80912356
Ni       1.08843975       0.85224002      11.95405831
Ni       0.74000119       1.16741998      27.71141903
Ni      -1.26440955       5.03161996      11.85578601
Ni      -1.40636578       5.13065529      27.71615078
Ni       5.94993329       1.03765987      11.92950928
Ni       5.80299034       1.16194269      27.79976393
Ni       3.64582864       5.14017808      11.89635399
Ni       3.42731213       5.36109640      27.71902026
Ni       2.39994267       0.23630202       7.98392152
Ni       2.10425775       0.37846056      23.89299888
Ni       0.08980706       4.30385577       7.83570238
Ni      -0.28810446       4.51139082      23.79126458
Ni       7.34819455       0.30627961       7.88294460
Ni       7.03619662       0.55135848      23.85960420
Ni       4.88807192       4.39679893       7.90412087
Ni       4.70917814       4.56978674      23.82040874
Ni       1.26883330       2.10252508      -0.07702511
Ni       1.06792732       2.21284072      15.84278604
Ni      -1.04621300       6.29538802      -0.03817909
Ni      -1.32946415       6.37680038      15.76901793
Ni       6.18169723       2.27390610       0.03563326
Ni       5.99002169       2.42507443      15.80812433
Ni       3.74694780       6.40742545       0.02022435
Ni       3.59460690       6.60853602      15.83944801
Ni       2.50644994       0.00792194      -0.03824476
Ni       2.21718720       0.29936316      15.94449077
Ni       0.09959098       4.25561798       0.03306168
Ni      -0.14863238       4.49782741      15.87659988
Ni       7.37725263       0.18785368       0.00889318
Ni       7.08004048       0.36598139      15.85600625
Ni       5.06437809       4.31380440       0.00374788
Ni       4.72351939       4.50762146      15.89547987
Ni       1.19952747       2.23297417       7.93294292
Ni       0.79625648       2.42743632      23.81560792
Ni      -1.08770211       6.39749375       7.87751817
Ni      -1.42727088       6.59217830      23.73096370
Ni       6.02605200       2.35664293       7.93471708
Ni       5.82712097       2.50910844      23.88944394
Ni       3.73744340       6.55538328       7.81846478
Ni       3.56511376       6.76253415      23.73461036
Ni      -1.07863009       2.07029152      -0.03558035
Ni      -1.40232160       2.34670167      15.85488662
Ni      -3.41842780       6.24706578      -0.00905265
Ni      -3.78359283       6.42228157      15.82479739
Ni       3.77450166       2.14064600      -0.02804859
Ni       3.49518709       2.46932800      15.92223060
Ni       1.47950259       6.35858784      -0.13074593
Ni       1.14019971       6.53889927      15.86784740
Ni      -1.37286208       2.19893799       7.85009879
Ni      -1.53335908       2.36078890      23.77239720
Ni      -3.52694166       6.31569469       7.79431439
Ni      -3.91708422       6.49758833      23.71602841
Ni       3.51351822       2.30907506       7.95668566
Ni       3.37671843       2.48922931      23.77706380
Ni       1.33964855       6.39073385       7.94876010
Ni       1.02646458       6.66388599      23.81375242
