192
Lattice="10.058349185984996 -0.23469762063792363 0.6108352742895533 -4.839085151923917 8.781753102604773 -0.16418074883405773 0.6932836186627515 0.5366893815960074 31.787466398375887" Properties=species:S:1:pos:R:3 pbc="T T T"
Mg       0.19544195       0.06017910       6.53444964
Mg       0.55677413       0.40251731      22.37438029
Mg      -2.28503885       4.45499845       6.35570675
Mg      -1.90414236       4.80295732      22.25210354
Mg       5.17956770       0.00737117       6.84442967
Mg       5.46768265       0.27545463      22.64360898
Mg       2.76889534       4.29006307       6.65001388
Mg       3.13257566       4.66244122      22.55086651
Mg       0.27935346       0.17213983      14.37913328
Mg       0.71216319       0.45144234      30.32866751
Mg      -2.21340714       4.59362153      14.26030462
Mg      -1.83278557       4.80994559      30.26179772
Mg       5.37358745       0.13840479      14.60661284
Mg       5.69246488       0.42593492      30.67224743
Mg       2.86495912       4.56895774      14.66745110
Mg       3.28162324       4.77990952      30.52178579
Mg       0.15301620       0.17839596       9.47054046
Mg       0.52310799       0.36870303      25.25794877
Mg      -2.15154657       4.66555928       9.33436770
Mg      -1.84174560       4.81677642      25.24122608
Mg       5.27810564       0.06851585       9.73144082
Mg       5.56988200       0.28663274      25.65174519
Mg       2.76642767       4.48913615       9.56979429
Mg       3.26678571       4.72026668      25.60092373
Mg       0.01456596       0.03576415       1.55810399
Mg       0.38036922       0.28867923      17.30912341
Mg      -2.33420531       4.46337632       1.45167396
Mg      -2.06213491       4.59731013      17.25739556
Mg       5.11478136      -0.13823151       1.80040884
Mg       5.35141098       0.17799989      17.69508985
Mg       2.67661030       4.32759673       1.73331397
Mg       2.99662858       4.63416270      17.54821637
Mg       0.23950010       3.15518216      10.49904788
Mg       0.65910339       3.29539122      26.34575940
Mg      -2.10982782       7.39798918      10.35875941
Mg      -1.75267122       7.72044772      26.24890828
Mg       5.38221637       2.83850035      10.81103596
Mg       5.65361735       3.26523123      26.65920677
Mg       2.98497312       7.31484130      10.66421161
Mg       3.24393888       7.63940721      26.56872619
Mg       2.60720591       1.52614550       2.61962679
Mg       2.99696115       1.72855535      18.54558747
Mg       0.19252400       5.89195796       2.55960749
Mg       0.58518720       6.03262675      18.45765963
Mg       7.58513730       1.26469161       2.95672429
Mg       7.99298353       1.56826159      18.89589108
Mg       5.21074877       5.71474422       2.87357973
Mg       5.58306470       5.98936901      18.77521097
Mg       2.74841102       1.34980793       5.73019147
Mg       3.03762706       1.82603875      21.47295236
Mg       0.28775142       5.89305357       5.58896943
Mg       0.64291942       6.15083597      21.45105242
Mg       7.70194721       1.38653517       5.95830823
Mg       7.95166739       1.63657045      21.91026727
Mg       5.25458372       5.82261048       5.92876497
Mg       5.57304681       6.01491353      21.74560768
Mg       0.30785199       3.04148255      13.44919097
Mg       0.69434408       3.46777598      29.32143710
Mg      -2.05539469       7.48656880      13.39978204
Mg      -1.65539020       7.79253308      29.29273835
Mg       5.34864102       2.99305093      13.69985463
Mg       5.77203284       3.30488005      29.60405511
Mg       2.92691335       7.36321292      13.67164200
Mg       3.35844982       7.66843243      29.51934483
Ni       0.19066840       2.97413210       7.89831106
Ni       0.56742370       3.35271193      23.88143351
Ni      -2.14522984       7.32186733       7.91601571
Ni      -1.87788187       7.65509200      23.72978632
Ni       5.21666299       2.83333621       8.29359443
Ni       5.57874019       3.20821236      24.17071367
Ni       2.83857256       7.33742329       8.14954360
Ni       3.20875272       7.50892259      24.13110635
Ni       2.65179825       1.38655096       0.23553029
Ni       2.84512788       1.72932388      16.13185582
Ni       0.11563520       5.72690520       0.16437637
Ni       0.50020010       6.07015479      15.88954986
Ni       7.50693414       1.17552166       0.43115198
Ni       7.84225326       1.57938439      16.40256376
Ni       5.13203541       5.69278596       0.43956978
Ni       5.33074583       5.86856309      16.19837434
Ni       2.69696808       1.58198554       8.07705925
Ni       3.12481974       1.78912384      23.97453940
Ni       0.33856212       5.95764269       8.08253533
Ni       0.67693829       6.19769159      23.99582367
Ni       7.73539953       1.50153279       8.47278484
Ni       8.09112091       1.68964511      24.31083600
Ni       5.36277710       5.75916647       8.39401534
Ni       5.69903509       6.07204833      24.25481666
Ni      -0.00615306       2.95074480      -0.00991533
Ni       0.37046648       3.12210033      15.93663905
Ni      -2.33966523       7.23229458      -0.03648700
Ni      -1.91652086       7.59883564      15.89500090
Ni       5.08995266       2.75439696       0.31559239
Ni       5.40211379       3.09502401      16.26309376
Ni       2.62071177       7.13442795       0.32372786
Ni       3.05046495       7.37658595      16.19270925
Ni       0.18383602       1.45982252       3.98143952
Ni       0.45365163       1.90062619      19.91413651
Ni      -2.37971493       6.00584724       3.89281811
Ni      -1.98298186       6.19677734      19.75176038
Ni       5.11794785       1.35106569       4.37826334
Ni       5.46204546       1.55346732      20.18312699
Ni       2.77129568       5.76625848       4.31457304
Ni       3.05732470       6.08080109      20.10328600
Ni       4.07448041       0.78285842      12.20471656
Ni       4.34717815       1.12615481      28.02030418
Ni       1.72962148       5.19031913      12.00911520
Ni       2.03378385       5.40387193      27.98688713
Ni       9.08055956       0.69182363      12.48023147
Ni       9.40461238       0.90673639      28.42267320
Ni       6.70813757       5.13673078      12.35700245
Ni       6.98414934       5.37996356      28.24363871
Ni       2.75824051       3.06345454      12.12717018
Ni       3.16974566       3.23601761      27.97843861
Ni       0.45632703       7.50922291      12.02453157
Ni       0.78358992       7.73801521      27.90290098
Ni       7.92547498       2.87036102      12.39876314
Ni       8.20916220       3.16239269      28.40171419
Ni       5.37409971       7.34113294      12.37393860
Ni       5.85914748       7.59476093      28.22019542
Ni      -1.07643881       3.71161352       3.93979824
Ni      -0.82245919       3.96029407      19.84392098
Ni      -3.52651975       8.03281377       3.94075908
Ni      -3.25084045       8.37964323      19.73995019
Ni       3.97928300       3.57600272       4.31491434
Ni       4.36270239       3.81236342      20.12557043
Ni       1.50896018       8.01795734       4.15727280
Ni       1.83686703       8.23040044      20.03738189
Ni       1.45881166       3.60437238       4.18678893
Ni       1.75279319       3.93902053      19.97099486
Ni      -1.01127042       8.07105535       4.10040619
Ni      -0.63110309       8.27047900      19.92182615
Ni       6.53216577       3.54673928       4.44821161
Ni       6.78474013       3.79844533      20.30551990
Ni       3.98262831       7.87366593       4.35167055
Ni       4.30385145       8.18140667      20.13087014
Ni       1.56162630       0.87756472      12.07204092
Ni       1.86450397       1.17198960      27.91553918
Ni      -0.83917120       5.29172691      12.02708248
Ni      -0.55172538       5.62723315      27.82150639
Ni       6.54084684       0.70696459      12.29531580
Ni       6.90694550       0.97316695      28.16965604
Ni       4.17272116       5.09033036      12.28080781
Ni       4.52522850       5.48970019      28.12131706
Ni       2.64102270       0.06946440       8.03719106
Ni       2.95330512       0.37923128      23.98504420
Ni       0.32932145       4.55032620       8.07135767
Ni       0.58596356       4.72129244      23.93334049
Ni       7.64718150       0.00648202       8.47261726
Ni       8.00554953       0.13048045      24.33132475
Ni       5.27385545       4.37332743       8.28097468
Ni       5.72382388       4.69129171      24.19783324
Ni       1.35312045       2.15293821       0.23063885
Ni       1.70733500       2.41004051      16.03373558
Ni      -1.10680369       6.57028607       0.01314882
Ni      -0.70335577       6.74252005      15.89475407
Ni       6.35907496       2.02096891       0.42466157
Ni       6.72991859       2.33735797      16.36363932
Ni       3.90144229       6.40915056       0.33879844
Ni       4.18104293       6.63822313      16.27715940
Ni       2.43241338      -0.06043933       0.16372299
Ni       2.89337748       0.27175362      16.08781233
Ni       0.03842081       4.27949366       0.11301857
Ni       0.41449463       4.61288231      15.92052497
Ni       7.56800234      -0.12777193       0.47609070
Ni       7.87127602      -0.01809772      16.27301320
Ni       5.08718256       4.20858589       0.34716188
Ni       5.45300921       4.45733154      16.29992472
Ni       1.48210783       2.22546421       8.01299006
Ni       1.89750008       2.56411465      23.91328772
Ni      -1.00006160       6.59713309       7.98604218
Ni      -0.56097305       6.90132617      23.79421843
Ni       6.52515936       2.15739121       8.43552673
Ni       6.81502173       2.48236642      24.20053924
Ni       4.10730724       6.65114106       8.30946736
Ni       4.38356641       6.79972436      24.14106303
Ni      -1.24918159       2.18704030      -0.01719353
Ni      -0.86300316       2.47195391      15.87984303
Ni      -3.68094919       6.51066456      -0.09808122
Ni      -3.24658038       6.91037298      15.79269224
Ni       3.83254094       2.12708514       0.34607090
Ni       4.29531577       2.32921209      16.08721937
Ni       1.42993150       6.42804715       0.18327170
Ni       1.76723996       6.75880150      16.04908663
Ni      -0.90839585       2.24851457       7.95729207
Ni      -0.68877502       2.66863907      23.86654328
Ni      -3.49170283       6.64297950       7.87736579
Ni      -3.11282960       6.98825852      23.68313911
Ni       4.00347550       2.14640701       8.17173965
Ni       4.40374534       2.47163576      24.16236629
Ni       1.65541662       6.57648760       8.21155755
Ni       1.87050807       6.81760153      23.94563329
