192
Lattice="9.95009418768273 -0.12473023985340441 -0.10745081303843766 -5.006771424575232 8.575493041158648 -0.00787019783954912 0.2538531854755826 0.5098960880374135 31.50559235202571" Properties=species:S:1:pos:R:3 pbc="T T T"
Mg       0.05402610       0.06946770       6.42308848
Mg       0.14012516       0.34645125      22.22883224
Mg      -2.44739586       4.42120267       6.39524062
Mg      -2.25389062       4.62046720      22.22153508
Mg       5.09381004       0.05799751       6.34044733
Mg       5.15816525       0.30304152      22.11217609
Mg       2.52892685       4.39882055       6.30096912
Mg       2.62715122       4.58403557      22.05738123
Mg       0.13244484       0.17421521      14.31669684
Mg       0.20262498       0.50420164      29.97997715
Mg      -2.32813781       4.46155402      14.27485069
Mg      -2.12028646       4.68729472      29.99075966
Mg       5.19433156       0.16003046      14.19198537
Mg       5.24060163       0.55733672      29.95891541
Mg       2.55979745       4.60299218      14.22595166
Mg       2.76850450       4.73540011      29.95507383
Mg       0.01930894       0.19709074       9.31108751
Mg       0.13011545       0.46687760      25.17506839
Mg      -2.47346206       4.45027151       9.36295538
Mg      -2.36608907       4.67692141      25.06766759
Mg       5.08198346       0.10394517       9.34762412
Mg       5.16587986       0.39740317      25.00521039
Mg       2.55771369       4.36881490       9.26107654
Mg       2.69162958       4.61811679      25.11662565
Mg      -0.00242680      -0.01035539       1.49710179
Mg       0.12610213       0.15266515      17.30445912
Mg      -2.46699166       4.22454548       1.40716551
Mg      -2.39007646       4.62528575      17.27420649
Mg       5.07852488      -0.00465695       1.42490273
Mg       5.09745589       0.28382368      17.23819737
Mg       2.46318891       4.28634355       1.48106520
Mg       2.52434254       4.55151058      17.10079838
Mg       0.05525785       3.12755736      10.36840093
Mg       0.11501139       3.29574829      26.04932829
Mg      -2.45249601       7.21371997      10.26431159
Mg      -2.26186473       7.57995607      25.98545391
Mg       4.97578232       2.91300310      10.21704339
Mg       5.13429206       3.12718741      25.94860338
Mg       2.44128641       7.23001959      10.22483006
Mg       2.66665586       7.45361486      25.99142536
Mg       2.61245330       1.33411808       2.43183700
Mg       2.66338920       1.66990889      18.15180016
Mg      -0.05760727       5.65264614       2.39290194
Mg       0.15818824       5.97311405      18.20881831
Mg       7.51898627       1.35322465       2.45845031
Mg       7.77581777       1.58929573      18.00628919
Mg       4.98700270       5.58523024       2.43300991
Mg       5.07155581       5.95512699      18.02533514
Mg       2.51218653       1.42101520       5.38870812
Mg       2.65970342       1.72565246      21.11505414
Mg       0.11693262       5.74686317       5.32481949
Mg       0.17601719       5.94946487      21.07797924
Mg       7.48247453       1.37705820       5.32017365
Mg       7.59224344       1.69964043      21.11316116
Mg       5.01387580       5.67546500       5.26370123
Mg       5.12739854       5.92784462      21.09548573
Mg       0.14027311       3.15802051      13.29340605
Mg       0.25299342       3.30838715      29.08584051
Mg      -2.32393378       7.38763961      13.23559212
Mg      -2.22572462       7.63447454      29.09616602
Mg       5.20915297       3.00011188      13.20451563
Mg       5.34419339       3.29320850      28.99488557
Mg       2.60138211       7.29638807      13.22842688
Mg       2.81037606       7.53741725      28.91851828
Ni       0.02761547       2.99086758       7.80262157
Ni       0.15467063       3.14544411      23.59079514
Ni      -2.37768274       7.24394467       7.85171081
Ni      -2.20554988       7.50568005      23.61350246
Ni       5.18792821       2.90480164       7.84817556
Ni       5.13854351       3.18739615      23.59748397
Ni       2.57825370       7.24253057       7.77372365
Ni       2.64328186       7.46374577      23.62211213
Ni       2.48055404       1.48864208      -0.11704487
Ni       2.61704623       1.65991236      15.66615739
Ni      -0.08244048       5.70097332      -0.07962353
Ni       0.18530419       5.86688283      15.69748664
Ni       7.50087582       1.32674266      -0.13336660
Ni       7.54117177       1.59646216      15.69430600
Ni       4.98717311       5.49185167      -0.07017197
Ni       5.03518094       5.79132178      15.68881052
Ni       2.57587654       1.56685190       7.80280568
Ni       2.56159604       1.76590091      23.67192602
Ni       0.00354413       5.85356052       7.90016925
Ni       0.20931084       6.02495346      23.58549329
Ni       7.57055110       1.43602326       7.78370603
Ni       7.63833512       1.63450132      23.58695631
Ni       4.96852873       5.77562700       7.77636563
Ni       5.11004172       6.07781833      23.62181028
Ni       0.01289880       2.83471719      -0.04083177
Ni       0.17848013       3.13944486      15.82603855
Ni      -2.53562956       7.14904518      -0.10191464
Ni      -2.43077948       7.31688040      15.68238090
Ni       4.92018567       2.79752736      -0.10916569
Ni       5.11441141       2.97789804      15.71033534
Ni       2.43250694       7.04672549      -0.07083971
Ni       2.60428354       7.18303271      15.67280077
Ni       0.03984375       1.47232337       3.91690640
Ni       0.21530188       1.76471592      19.60411097
Ni      -2.47542647       5.74965604       3.96127843
Ni      -2.37523642       5.99840277      19.74937522
Ni       5.01901655       1.44691915       3.83060583
Ni       5.14493576       1.57728111      19.75510507
Ni       2.43119298       5.68506191       3.84700980
Ni       2.59244690       6.01094416      19.61771548
Ni       3.80893957       0.82251274      11.74440403
Ni       3.95964254       1.07633725      27.54715298
Ni       1.30304729       5.18923099      11.71418589
Ni       1.44543997       5.36405127      27.58064961
Ni       8.74594749       0.82504223      11.71955555
Ni       8.95151643       1.07183386      27.43407345
Ni       6.22057085       5.21558911      11.72667301
Ni       6.35874234       5.40950033      27.42880960
Ni       2.56198313       3.01006326      11.70282764
Ni       2.67223343       3.22447296      27.56961131
Ni       0.13991084       7.31923734      11.74838021
Ni       0.19441466       7.48720816      27.54843404
Ni       7.53049614       2.95877711      11.60817281
Ni       7.67790857       3.24984402      27.41557110
Ni       5.09981031       7.19555761      11.82150157
Ni       5.07170839       7.45316745      27.42999835
Ni      -1.20648285       3.68750137       3.81272748
Ni      -1.16477857       3.83870693      19.59347449
Ni      -3.78910925       7.94458210       3.93609550
Ni      -3.60016607       8.12485574      19.73551149
Ni       3.69505367       3.53512219       3.89630659
Ni       3.92736443       3.85265869      19.59395271
Ni       1.27994012       7.87926221       3.86779432
Ni       1.46762720       8.09945446      19.61801363
Ni       1.26109728       3.55534713       3.94889727
Ni       1.34028954       3.83743691      19.69928149
Ni      -1.22678753       7.96047580       3.90420626
Ni      -1.10768425       8.13024946      19.58226501
Ni       6.22071151       3.53913406       3.77665864
Ni       6.30887389       3.72192885      19.51893331
Ni       3.75679361       7.83481623       3.78594230
Ni       3.81860396       8.05730006      19.56053970
Ni       1.32914973       0.86992781      11.77955131
Ni       1.43221325       1.11431315      27.54523799
Ni      -1.19149426       5.10047592      11.82897414
Ni      -1.04680490       5.45323868      27.59229588
Ni       6.26110815       0.78911394      11.81439979
Ni       6.43826858       1.00950964      27.48088257
Ni       3.75957066       5.12230067      11.67626912
Ni       3.90085940       5.39942461      27.47736112
Ni       2.57907757       0.13619079       7.95138458
Ni       2.70456122       0.35669318      23.75914743
Ni       0.01768200       4.36201058       7.83292460
Ni       0.15765825       4.58552686      23.57781086
Ni       7.43846616      -0.01275715       7.78416355
Ni       7.72391405       0.28488836      23.52819833
Ni       4.98399520       4.33233158       7.83294410
Ni       5.09800029       4.63174444      23.61695668
Ni       1.21010008       2.12960630       0.03658844
Ni       1.36462160       2.33392745      15.75536633
Ni      -1.23819044       6.40217573      -0.06786929
Ni      -1.18090570       6.68592621      15.69104868
Ni       6.09399261       1.96898152      -0.12312421
Ni       6.40767135       2.25007703      15.61593211
Ni       3.68058980       6.31490974      -0.08869690
Ni       3.82156823       6.64547163      15.66432990
Ni       2.53207444       0.01104630       0.01057661
Ni       2.64021793       0.23995783      15.78572516
Ni      -0.05103877       4.28091363      -0.09997477
Ni       0.18145670       4.53078893      15.60821719
Ni       7.49288576      -0.06171406      -0.06873523
Ni       7.60772828       0.15655882      15.63633856
Ni       4.93416221       4.27576575       0.01721330
Ni       5.06056561       4.44752185      15.70700541
Ni       1.29417700       2.24602599       7.80582518
Ni       1.49306198       2.53830629      23.55884893
Ni      -1.20900554       6.46840906       7.85221114
Ni      -1.06432449       6.77397483      23.57244022
Ni       6.25725585       2.11648889       7.77210885
Ni       6.44289703       2.36126203      23.60622521
Ni       3.77376343       6.37129458       7.80163197
Ni       3.88565923       6.72068324      23.61609583
Ni      -1.25890125       2.15474264       0.00954080
Ni      -1.14404247       2.45512212      15.64246529
Ni      -3.76965154       6.48542727      -0.02849288
Ni      -3.64602436       6.65312157      15.77747781
Ni       3.75790649       2.04521013      -0.08816491
Ni       3.91041652       2.25301383      15.69921269
Ni       1.23175609       6.37841652      -0.18171999
Ni       1.37650483       6.70458154      15.71591224
Ni      -1.21907253       2.26582614       7.84396433
Ni      -0.99258734       2.46494323      23.58084953
Ni      -3.74172514       6.54338954       7.86146368
Ni      -3.51483456       6.85216749      23.64412439
Ni       3.78409411       2.22060890       7.73778459
Ni       3.80061275       2.48129285      23.58475478
Ni       1.28715570       6.43950274       7.79228811
Ni       1.38844283       6.74624439      23.50995225
