192
Lattice="9.897483719372394 -0.049666105237080295 0.028519020018724146 -4.830280625730635 8.534666563352681 0.12127393891974032 -0.36353377500993306 -0.011089706047261276 31.09550382783465" Properties=species:S:1:pos:R:3 pbc="T T T"
Mg      -0.00490839      -0.00050340       6.37248117
Mg      -0.29045521      -0.04764573      21.87983838
Mg      -2.47592337       4.22468468       6.38954996
Mg      -2.63668650       4.24233633      21.83647181
Mg       4.86352422       0.00332131       6.33142731
Mg       4.69954832      -0.09658051      21.91293593
Mg       2.40150577       4.17965396       6.32079709
Mg       2.30190369       4.20808419      21.98127987
Mg      -0.11271731       0.01113231      13.94653301
Mg      -0.32933627      -0.03152391      29.66652351
Mg      -2.52769854       4.27206334      14.19780494
Mg      -2.83198588       4.13779195      29.63932211
Mg       4.81543804      -0.01517531      14.10083398
Mg       4.59669319      -0.02343067      29.71401173
Mg       2.23728269       4.18888765      14.12679370
Mg       2.16855509       4.17616581      29.64455620
Mg      -0.10408275       0.02407440       9.21398662
Mg      -0.29088440       0.02016365      24.72074051
Mg      -2.61754167       4.27796359       9.27999253
Mg      -2.75014888       4.25075149      24.89830497
Mg       4.84937308      -0.10815550       9.19246577
Mg       4.66400611      -0.07031104      24.74360780
Mg       2.44920624       4.23768693       9.32524578
Mg       2.24694974       4.17513939      24.85096130
Mg       0.01930671       0.01878988       1.39781283
Mg      -0.28857920      -0.02322387      17.06245426
Mg      -2.44467759       4.32070275       1.41466853
Mg      -2.57877992       4.29760066      17.10903519
Mg       4.91497566      -0.11103268       1.38375391
Mg       4.69224357      -0.09327930      17.09807149
Mg       2.44814115       4.26015865       1.58219062
Mg       2.44586359       4.34639802      17.03544790
Mg      -0.00165157       2.82397037      10.31216947
Mg      -0.30507636       2.90343308      25.77474099
Mg      -2.46923949       7.04963010      10.26205145
Mg      -2.59508732       7.07130129      25.82649611
Mg       4.94283235       2.81896625      10.20468183
Mg       4.61772535       2.81396311      25.79297260
Mg       2.46114862       7.03358247      10.24611968
Mg       2.18051476       7.05945698      25.89470435
Mg       2.52025907       1.42457121       2.46115976
Mg       2.24652056       1.42932358      17.95817972
Mg       0.01421141       5.68404742       2.51820560
Mg      -0.04925302       5.68595968      18.06788362
Mg       7.36905939       1.40331261       2.54633397
Mg       7.22255247       1.33718010      18.12684170
Mg       4.96568465       5.65190967       2.53929334
Mg       4.84887444       5.63420739      18.02404504
Mg       2.47104642       1.50663325       5.42656484
Mg       2.23512997       1.40941787      20.93919043
Mg       0.06204739       5.67173656       5.44292846
Mg      -0.19708077       5.70305456      20.96009206
Mg       7.36326694       1.43261080       5.46389240
Mg       7.14911213       1.34156529      21.03925554
Mg       4.96628162       5.65478774       5.41236059
Mg       4.80015321       5.72450857      20.96140785
Mg      -0.13079340       2.82649067      13.14974519
Mg      -0.25653617       2.77570462      28.68911460
Mg      -2.49270365       7.10730674      13.18074666
Mg      -2.66940623       7.08706106      28.72529721
Mg       4.79029980       2.83989316      13.15184235
Mg       4.70055687       2.82859228      28.78044237
Mg       2.47550625       7.11828604      13.23974241
Mg       2.26170478       7.03700461      28.84392511
Ni       0.00205482       2.80955265       7.77438147
Ni      -0.17220017       2.86126833      23.42756169
Ni      -2.44967621       7.11141599       7.88208252
Ni      -2.53255692       7.21188227      23.43719127
Ni       4.95423914       2.92050082       7.82458809
Ni       4.67821533       2.79532909      23.48928097
Ni       2.51813199       7.14086144       7.94568932
Ni       2.34343233       7.17168689      23.53319055
Ni       2.47836718       1.43409095       0.00400693
Ni       2.25965503       1.43154960      15.58068940
Ni       0.03205102       5.65359146       0.13596280
Ni      -0.07054802       5.66469626      15.63688610
Ni       7.49677950       1.47126782       0.00628401
Ni       7.34552988       1.30206267      15.60975149
Ni       4.98680666       5.60207291       0.04828643
Ni       4.85812000       5.70104246      15.59435069
Ni       2.34103777       1.44227383       7.80731825
Ni       2.15862527       1.45572561      23.38810720
Ni       0.04307502       5.68592364       7.78092621
Ni      -0.22740313       5.69023522      23.39464301
Ni       7.36751012       1.45417227       7.83386927
Ni       7.14626084       1.33741234      23.34594492
Ni       4.99894321       5.71582012       7.83350789
Ni       4.71813463       5.69031229      23.42023496
Ni      -0.00611075       2.80123674       0.02894327
Ni      -0.17128543       2.90995089      15.57403021
Ni      -2.36575186       7.15708508       0.06206081
Ni      -2.53919275       7.10886821      15.71542679
Ni       4.96105004       2.79244282       0.03571067
Ni       4.85276646       2.81267146      15.64866826
Ni       2.58561498       7.04532343       0.10493104
Ni       2.40428746       6.97473253      15.73206459
Ni      -0.09821815       1.50848467       3.91737386
Ni      -0.08942291       1.40060019      19.45177870
Ni      -2.41062634       5.73171352       3.93255107
Ni      -2.55860244       5.65628136      19.45211894
Ni       4.85909515       1.43298082       3.82866063
Ni       4.74801761       1.51906208      19.49141344
Ni       2.52242039       5.71581234       4.04719020
Ni       2.35143176       5.67736866      19.45948186
Ni       3.58187982       0.73061284      11.70751621
Ni       3.36936975       0.68198659      27.23871037
Ni       1.17526679       5.01535229      11.81644503
Ni       1.07459423       4.88678627      27.25468373
Ni       8.59731738       0.56218499      11.63559561
Ni       8.42857210       0.76573280      27.30731282
Ni       6.13757032       4.88967175      11.65718885
Ni       6.00058586       4.85991772      27.38370207
Ni       2.37571327       2.76117993      11.64491263
Ni       2.26541415       2.87961307      27.32024373
Ni      -0.02580683       7.07281035      11.78633224
Ni      -0.29684176       7.09933921      27.30782013
Ni       7.28626977       2.70104798      11.71222188
Ni       7.20980126       2.76966041      27.26223812
Ni       4.89383590       7.12806947      11.79367013
Ni       4.66236133       7.02310110      27.29572771
Ni      -1.14490492       3.57805439       3.89794264
Ni      -1.33835358       3.42993771      19.47149356
Ni      -3.71444021       7.74606230       4.00203081
Ni      -3.76661075       7.82331408      19.61101922
Ni       3.74007592       3.47003504       3.97407465
Ni       3.59943129       3.55202002      19.46521758
Ni       1.35256493       7.78567576       3.97610345
Ni       1.10053547       7.80695675      19.47734444
Ni       1.29193107       3.50517464       4.01201693
Ni       1.06557346       3.53484190      19.48652405
Ni      -1.18347705       7.78057237       3.96821517
Ni      -1.36967869       7.82862428      19.53854216
Ni       6.14523328       3.37963837       3.90225800
Ni       5.99031657       3.46751034      19.50255154
Ni       3.73639467       7.82267025       3.97981664
Ni       3.55483898       7.79793778      19.60219900
Ni       1.08038979       0.69269007      11.67685558
Ni       0.93095998       0.70907250      27.26222352
Ni      -1.33091157       4.88407082      11.72589721
Ni      -1.47797657       4.96125761      27.21555275
Ni       6.04717124       0.70267567      11.71500147
Ni       5.88502049       0.69617701      27.26967645
Ni       3.72411185       5.01381337      11.78483881
Ni       3.44884012       4.86587965      27.29244761
Ni       2.37101857      -0.01646470       7.75495193
Ni       2.13443384      -0.12206038      23.23837584
Ni      -0.04994142       4.21948773       7.88285415
Ni      -0.21348333       4.27109800      23.40252732
Ni       7.36439607      -0.01218764       7.85365748
Ni       7.19250762      -0.04107009      23.29919879
Ni       4.88121560       4.20838445       7.87170796
Ni       4.74737032       4.23902315      23.41296926
Ni       1.22556221       2.11511991       0.10805494
Ni       1.09627738       2.10160082      15.61309916
Ni      -1.22460370       6.39448615       0.15286503
Ni      -1.28562833       6.32975394      15.64229738
Ni       6.22171137       2.13420891       0.01852909
Ni       5.94408860       2.03917632      15.65840949
Ni       3.79904904       6.36459961       0.19600628
Ni       3.63521930       6.40116657      15.63368263
Ni       2.49355879      -0.13459650      -0.00041032
Ni       2.24860059      -0.08758964      15.58535678
Ni       0.11298684       4.21273901       0.08923522
Ni      -0.17775555       4.22690801      15.67055675
Ni       7.46671243      -0.04675458       0.02048671
Ni       7.33057778      -0.00966545      15.61715433
Ni       5.06634566       4.21625387       0.09964573
Ni       4.78827870       4.24627853      15.62155225
Ni       1.22010152       2.07553467       7.87633744
Ni       0.99426966       2.08998398      23.45404245
Ni      -1.18226659       6.43190435       7.90662881
Ni      -1.36293854       6.38990087      23.42241357
Ni       6.20195622       2.03711999       7.87436057
Ni       5.98004727       2.05974000      23.29207055
Ni       3.70037856       6.31159288       7.90637725
Ni       3.55241489       6.31524288      23.42241013
Ni      -1.29025002       2.11719082       0.02100223
Ni      -1.37475530       2.15030977      15.52735507
Ni      -3.49694028       6.40204175       0.11092512
Ni      -3.78563266       6.36664661      15.62529841
Ni       3.70036664       2.14996613       0.09728819
Ni       3.65867329       2.06766751      15.61398475
Ni       1.30225927       6.38059613       0.12762683
Ni       1.13033942       6.27948079      15.64969299
Ni      -1.28307497       2.11206114       7.77555082
Ni      -1.49818949       2.13822684      23.43597419
Ni      -3.72134807       6.44923352       7.88101169
Ni      -3.86499712       6.38757886      23.53455061
Ni       3.59235913       2.14328853       7.72842153
Ni       3.45165356       2.10846435      23.32246189
Ni       1.15803864       6.44509598       7.86497618
Ni       1.01558363       6.39472514      23.42380906
