192
Lattice="9.68026614712593 0.13616327889536783 -0.0730188771291457 -5.003597933987113 8.456230828828463 -0.048744465068857705 -0.9091491304401476 -0.041389372713321916 32.541762363811394" Properties=species:S:1:pos:R:3 pbc="T T T"
Mg      -0.10336459       0.13157602       6.62557200
Mg      -0.71595104       0.01298865      22.90463002
Mg      -2.69041337       4.24684063       6.58013044
Mg      -3.14997778       4.20443473      22.92899925
Mg       4.63071692       0.08862156       6.59243244
Mg       4.29415416      -0.05783450      22.92673628
Mg       2.14607843       4.28368791       6.48822379
Mg       1.64311176       4.19646258      22.83823380
Mg      -0.48981371       0.02173996      14.78487970
Mg      -0.85752388       0.04350736      30.98514992
Mg      -2.94074537       4.19123518      14.74254202
Mg      -3.34006497       4.11352074      31.01723414
Mg       4.44561183       0.03260000      14.71488036
Mg       3.95216838       0.03847839      31.01850432
Mg       1.93067045       4.29700252      14.68161782
Mg       1.50345648       4.21702746      30.98095608
Mg      -0.27320370      -0.05423938       9.61450080
Mg      -0.74865550       0.02612667      25.86229371
Mg      -2.70256651       4.16932710       9.56096149
Mg      -3.17422900       4.17729013      25.86478184
Mg       4.61941751       0.11451951       9.63047217
Mg       4.13132871       0.11422133      25.82894266
Mg       2.09821625       4.26327182       9.51664467
Mg       1.53142499       4.25465782      25.88719476
Mg      -0.10026740       0.08819184       1.43865581
Mg      -0.45008915       0.03700899      17.82525635
Mg      -2.55229992       4.24044954       1.46557513
Mg      -2.98113980       4.19379632      17.84341175
Mg       4.81573996       0.06879779       1.44779523
Mg       4.29805761       0.03046957      17.66856618
Mg       2.23594891       4.27982001       1.45081881
Mg       1.86923600       4.31831424      17.71191394
Mg      -0.39048019       2.82370102      10.63630010
Mg      -0.87562028       2.84130569      26.94650809
Mg      -2.86116467       7.03612424      10.70080530
Mg      -3.33931005       6.98116712      26.80965384
Mg       4.44427811       2.93041091      10.51624151
Mg       4.04523736       2.79438763      26.83882706
Mg       1.96327609       7.12062223      10.67459210
Mg       1.54909188       7.18278768      26.82312961
Mg       2.37507886       1.41166491       2.50163936
Mg       1.85954549       1.46868459      18.80922027
Mg      -0.17097089       5.69370951       2.44406989
Mg      -0.57830735       5.67627281      18.76232904
Mg       7.08862729       1.48140866       2.51438721
Mg       6.71821610       1.44204191      18.69607147
Mg       4.68222117       5.81645164       2.45389035
Mg       4.17148352       5.75997028      18.73350833
Mg       2.20683306       1.31488250       5.57106715
Mg       1.75545815       1.45031221      21.78199838
Mg      -0.30123486       5.62665861       5.60748377
Mg      -0.68947037       5.64074844      21.85680715
Mg       7.05847225       1.52347705       5.54326514
Mg       6.60938104       1.52526636      21.80966529
Mg       4.51250457       5.66470081       5.55116101
Mg       4.13182687       5.73484546      21.75011887
Mg      -0.34606226       2.75636204      13.73281450
Mg      -0.90511013       2.74620168      29.90999194
Mg      -2.94550030       7.13164181      13.66340390
Mg      -3.47287870       7.07083169      29.82152168
Mg       4.36675327       2.91795853      13.69113626
Mg       3.90449130       2.82970918      29.93881242
Mg       1.80927355       7.05190366      13.55791114
Mg       1.39099671       7.04318031      29.96193413
Ni      -0.29255271       2.87977206       8.04258101
Ni      -0.70207760       2.83231900      24.35358328
Ni      -2.80147965       7.12047248       8.03364182
Ni      -3.30254135       7.06168369      24.33072121
Ni       4.58062868       2.96010204       8.09148625
Ni       4.15356843       2.91768957      24.41265823
Ni       2.11782427       7.12454663       7.98250114
Ni       1.60101387       6.99434197      24.28301281
Ni       2.36000621       1.43052530      -0.08742722
Ni       1.91057536       1.51531704      16.28360158
Ni      -0.09129402       5.65717559      -0.13344330
Ni      -0.51936385       5.68415686      16.28738995
Ni       7.29333661       1.55013278      -0.12611256
Ni       6.77572798       1.46449271      16.20207311
Ni       4.68620675       5.74876585      -0.03974052
Ni       4.25862939       5.68011059      16.10197988
Ni       2.13511258       1.46622480       8.06255741
Ni       1.70889381       1.50595126      24.45828963
Ni      -0.39373530       5.67101859       7.99089133
Ni      -0.70470151       5.66806461      24.36474524
Ni       7.01021024       1.47472292       8.04032410
Ni       6.59363437       1.49428188      24.37286991
Ni       4.53702486       5.70711121       8.02534796
Ni       4.11024747       5.74597186      24.34812322
Ni      -0.10250739       2.83295784       0.00375542
Ni      -0.52003304       2.76688092      16.28884542
Ni      -2.56106582       7.00774723      -0.01979608
Ni      -3.03320253       7.08182803      16.21323370
Ni       4.82418207       2.95664215      -0.11760351
Ni       4.27426143       2.92053731      16.22038346
Ni       2.39121355       7.10348639      -0.14424446
Ni       1.84558128       7.05214847      16.16737989
Ni      -0.19275444       1.49118426       4.01697970
Ni      -0.64180104       1.48980179      20.26553295
Ni      -2.56743962       5.63453512       4.01899253
Ni      -3.19536741       5.67371540      20.35509145
Ni       4.69569285       1.37711927       4.02872824
Ni       4.16356774       1.41572358      20.35970806
Ni       2.07186839       5.69537383       4.04365192
Ni       1.82112078       5.69930919      20.32765296
Ni       3.21897920       0.79526732      12.15921963
Ni       2.77967192       0.58729342      28.54271277
Ni       0.73544917       5.03999551      12.26155731
Ni       0.27058915       4.94559380      28.41758322
Ni       8.14950329       0.84630123      12.10156832
Ni       7.58375324       0.75872642      28.32036591
Ni       5.54140930       4.98485313      12.13426608
Ni       5.13523690       4.97431782      28.40424058
Ni       2.01652846       2.84437360      12.23455090
Ni       1.58921473       2.88209736      28.40799713
Ni      -0.43806063       7.04460250      12.16675980
Ni      -0.93408108       7.02869783      28.40084024
Ni       6.84270276       2.94492204      12.14944170
Ni       6.39348055       2.94458201      28.41475857
Ni       4.40972245       7.09546242      12.01019033
Ni       3.93535873       7.10726227      28.36690804
Ni      -1.47185633       3.55215102       4.00135065
Ni      -1.84620677       3.49857984      20.34107099
Ni      -3.87695221       7.74406092       4.04868345
Ni      -4.33371563       7.75776247      20.31320847
Ni       3.44370039       3.65649908       3.98664793
Ni       2.93342842       3.54333585      20.25052591
Ni       0.91577885       7.81438510       3.97393079
Ni       0.54926589       7.76399567      20.21546608
Ni       1.02089480       3.58248764       4.05428652
Ni       0.57390760       3.50645023      20.31022383
Ni      -1.49600410       7.84235175       3.99229767
Ni      -1.99998931       7.81522957      20.28577867
Ni       5.94674768       3.58848884       4.05618720
Ni       5.42305822       3.71211511      20.19647489
Ni       3.33974769       7.79922020       3.99743186
Ni       2.86105714       7.81399343      20.22293987
Ni       0.91993070       0.73808219      12.24479659
Ni       0.42503593       0.74125317      28.38741364
Ni      -1.68213883       5.10815161      12.21390128
Ni      -2.14419296       4.95762523      28.41536876
Ni       5.70728885       0.82720085      12.25671519
Ni       5.30459954       0.71919865      28.41563231
Ni       3.15747759       4.94544259      12.14724316
Ni       2.71510446       5.05940148      28.30152429
Ni       2.21589706       0.02257388       8.21371627
Ni       1.65481123       0.03837797      24.39619871
Ni      -0.31672748       4.30262884       8.05820211
Ni      -0.69738303       4.32844508      24.28804252
Ni       7.05245183       0.21656424       7.95661505
Ni       6.62874183      -0.00300186      24.34192353
Ni       4.55554730       4.41129575       8.00579738
Ni       4.11279709       4.33915914      24.26709569
Ni       1.19391611       2.16279636      -0.00335078
Ni       0.69939278       2.13506377      16.22123678
Ni      -1.39664718       6.38504399      -0.09134840
Ni      -1.75105958       6.33793343      16.26333030
Ni       6.01247530       2.26983881      -0.02815287
Ni       5.53330587       2.12981653      16.08822344
Ni       3.45293567       6.40872783      -0.11341995
Ni       3.03340243       6.44095650      16.17059174
Ni       2.39292943       0.04963789       0.02836074
Ni       2.00461285       0.01059546      16.26375842
Ni      -0.11322620       4.19552583      -0.03681769
Ni      -0.53946283       4.31692474      16.18750213
Ni       7.33854080       0.08851072      -0.06910318
Ni       6.83351091       0.11217031      16.13777089
Ni       4.75771827       4.35879282      -0.10750451
Ni       4.43324901       4.30516079      16.24944533
Ni       0.99776446       2.08937062       8.05744450
Ni       0.44362109       2.07101673      24.34948231
Ni      -1.58682971       6.35551526       8.05237902
Ni      -1.99884011       6.37780534      24.41106659
Ni       5.75381790       2.26476101       8.15209399
Ni       5.30537955       2.15853445      24.37051742
Ni       3.28499538       6.46321478       8.05835396
Ni       2.89761683       6.29916961      24.36947443
Ni      -1.29848920       2.06514079       0.06684704
Ni      -1.77279655       2.09503879      16.32922781
Ni      -3.74590309       6.35630161      -0.04309991
Ni      -4.13206968       6.26492962      16.26491007
Ni       3.48877997       2.10779820       0.03486771
Ni       3.03270278       2.07261635      16.24309825
Ni       1.08552687       6.42790261      -0.11228115
Ni       0.65620031       6.37554977      16.24199104
Ni      -1.48535896       2.04644137       8.20046622
Ni      -1.99180053       2.15175977      24.44026202
Ni      -3.98477694       6.36101564       8.08823421
Ni      -4.51787872       6.27811526      24.39181649
Ni       3.34695215       2.14928899       8.12037211
Ni       2.91530327       2.21609286      24.41446936
Ni       0.91952895       6.41122689       8.03075795
Ni       0.45020410       6.31463277      24.29456736
