192
Lattice="9.815159721675013 0.06618979487429866 -0.039946417295891004 -4.489889535149556 8.590760506789783 -0.255681032993867 -0.8042124679310065 0.5520139924628342 31.656639852057747" Properties=species:S:1:pos:R:3 pbc="T T T"
Mg      -0.19635291       0.14653869       6.53298965
Mg      -0.49307636       0.38912181      22.28284889
Mg      -2.44591654       4.35528748       6.29459062
Mg      -2.78046195       4.69248026      22.01919287
Mg       4.64511106       0.15162236       6.39352728
Mg       4.27160523       0.43651226      22.26831540
Mg       2.56324886       4.35908294       6.30861361
Mg       2.10056131       4.74720603      22.10605052
Mg      -0.42729058       0.19831297      14.35314499
Mg      -0.87377757       0.53563895      30.20799441
Mg      -2.42813136       4.68771045      14.18387631
Mg      -3.01175467       4.82020549      29.99792626
Mg       4.56197859       0.21291466      14.23831726
Mg       4.19285601       0.56025821      30.21365440
Mg       2.31200671       4.54220920      14.19132302
Mg       1.97467486       4.81832738      29.95101192
Mg      -0.28711212       0.17760709       9.35254524
Mg      -0.66529034       0.41966541      25.20433404
Mg      -2.47069183       4.39354291       9.27452370
Mg      -3.01486742       4.71615537      25.08585653
Mg       4.67164059       0.31431943       9.37562110
Mg       4.26490454       0.51152255      25.24652300
Mg       2.39099251       4.52614906       9.20968754
Mg       2.02482211       4.76033420      25.13437870
Mg      -0.08375775       0.06356748       1.47913130
Mg      -0.44488852       0.37145375      17.22046829
Mg      -2.20715648       4.30874654       1.39184070
Mg      -2.76787037       4.69416307      17.23902036
Mg       4.86379833       0.02275706       1.51772911
Mg       4.43243031       0.32189179      17.34280558
Mg       2.62401972       4.35363760       1.34560440
Mg       2.25505369       4.53253718      17.16745827
Mg      -0.13854702       2.97071124      10.27986886
Mg      -0.55868368       3.28000865      26.12503474
Mg      -2.32567155       7.35963101      10.15577357
Mg      -2.83317385       7.62865607      26.05013569
Mg       4.76481602       3.12339604      10.18248620
Mg       4.38740718       3.41515859      26.12176831
Mg       2.63051969       7.44555167      10.10988580
Mg       2.13577972       7.72014347      25.99146457
Mg       2.43526813       1.44634614       2.29694061
Mg       2.07432986       1.75012095      18.32952875
Mg       0.28972203       5.84629001       2.22537467
Mg      -0.15730319       6.19458301      18.09556267
Mg       7.28521020       1.40677730       2.45292967
Mg       6.91983075       1.81058385      18.20555837
Mg       5.07585533       5.77479069       2.28341094
Mg       4.71375120       6.11423963      18.15655870
Mg       2.36073288       1.65179699       5.42458561
Mg       1.98700098       1.81369237      21.29926982
Mg       0.18339384       5.90537574       5.25410383
Mg      -0.31240406       6.07749259      21.06138532
Mg       7.32162207       1.61331795       5.42866106
Mg       6.87019218       1.83326170      21.26006346
Mg       4.96785504       5.87976239       5.25653400
Mg       4.69917655       6.13506115      21.07666381
Mg      -0.22901066       3.11585548      13.31075577
Mg      -0.65282557       3.37803051      29.06528138
Mg      -2.48605051       7.34901054      13.13108996
Mg      -2.87833007       7.71318001      29.07547379
Mg       4.70588008       3.09851221      13.25128406
Mg       4.34499183       3.37021207      28.98186451
Mg       2.47564330       7.48166100      13.12064750
Mg       2.03389036       7.70692198      28.93140203
Ni      -0.07495926       3.06060924       7.78086584
Ni      -0.42914132       3.29842779      23.61213582
Ni      -2.33518889       7.30126582       7.72979328
Ni      -2.58061145       7.64668216      23.50417907
Ni       4.78589969       3.05264538       7.79034012
Ni       4.47080122       3.24051220      23.63964099
Ni       2.61481113       7.25802026       7.60209567
Ni       2.16707291       7.60740026      23.53727876
Ni       2.50436390       1.46772231      -0.01788818
Ni       2.17530875       1.77957085      15.76060096
Ni       0.18948224       5.70203701      -0.20458556
Ni      -0.14763249       5.97080392      15.70569331
Ni       7.43750397       1.39504033      -0.10456216
Ni       7.02805979       1.75802854      15.75351191
Ni       5.25498213       5.70861649      -0.19552424
Ni       4.79338370       6.01221309      15.57326168
Ni       2.35341207       1.56460762       7.69246835
Ni       1.96150585       1.84173897      23.71803883
Ni       0.10747534       5.89618376       7.70326952
Ni      -0.24491290       6.12340320      23.59568454
Ni       7.21380827       1.66758182       7.82553393
Ni       6.82439813       1.87154482      23.62566461
Ni       4.92126337       5.90411460       7.73961678
Ni       4.52873083       6.22519677      23.55884701
Ni       0.07948929       2.92960400      -0.12745729
Ni      -0.29984974       3.10391485      15.60915050
Ni      -2.13127628       7.19945147      -0.24848794
Ni      -2.43215528       7.45834347      15.58428064
Ni       5.08997099       2.89242746      -0.12152279
Ni       4.58008990       3.20765794      15.66405118
Ni       2.80049484       7.34092125      -0.19001275
Ni       2.43462768       7.49083437      15.58233753
Ni      -0.07403980       1.55107649       3.79112495
Ni      -0.41053332       1.71888063      19.69016164
Ni      -2.20453737       5.83384193       3.77482555
Ni      -2.73673432       6.05430738      19.63567391
Ni       4.88067518       1.50987319       3.88944275
Ni       4.44995595       1.84814150      19.75740308
Ni       2.65628098       6.00284828       3.79281744
Ni       2.23080648       6.01431557      19.73905408
Ni       3.50580325       0.91769748      11.77511820
Ni       2.99175604       1.21463612      27.70389414
Ni       1.17875631       5.17695878      11.69771424
Ni       0.71265201       5.58524781      27.51119270
Ni       8.28173964       0.96762853      11.82524912
Ni       7.92482149       1.25701885      27.61264511
Ni       6.13728111       5.29206088      11.65855359
Ni       5.67704740       5.55791422      27.47743097
Ni       2.35665783       3.04119828      11.72368922
Ni       1.87837745       3.37568673      27.64773662
Ni       0.05309129       7.38442574      11.70358848
Ni      -0.26246080       7.68320830      27.39252362
Ni       7.15270427       3.15883278      11.69721053
Ni       6.79133716       3.34529624      27.56197082
Ni       5.01660305       7.45281226      11.62664162
Ni       4.48094681       7.65457683      27.44028001
Ni      -1.15881037       3.63569406       3.86846912
Ni      -1.62614639       4.03115915      19.54446774
Ni      -3.38027638       7.99745439       3.76387186
Ni      -3.78974063       8.26190636      19.56742106
Ni       3.74337651       3.62140945       3.90798029
Ni       3.35585045       4.05348088      19.64398775
Ni       1.56166207       7.95173747       3.73297030
Ni       1.19838553       8.29533176      19.55132654
Ni       1.28531014       3.77484999       3.84809682
Ni       0.89845035       4.03067154      19.59912523
Ni      -1.06848438       8.00193443       3.73222391
Ni      -1.40736390       8.18419894      19.55318299
Ni       6.14647531       3.71251840       3.84620780
Ni       5.77183581       3.94356778      19.66401070
Ni       3.98508381       8.00063659       3.64645414
Ni       3.59025361       8.25259371      19.44371514
Ni       1.05797333       0.99950438      11.80519234
Ni       0.57888176       1.18970313      27.61120237
Ni      -1.39213035       5.36237261      11.73317452
Ni      -1.80662494       5.49270742      27.51144073
Ni       5.83733438       1.00041966      11.81744606
Ni       5.44330438       1.22415907      27.63419986
Ni       3.62439397       5.22947811      11.71969690
Ni       3.27452643       5.43787857      27.49491258
Ni       2.25301693       0.12305597       7.97236017
Ni       1.83561947       0.36769770      23.73527500
Ni       0.02548654       4.34960995       7.86299661
Ni      -0.44507869       4.72777790      23.60106516
Ni       7.29630862       0.27865443       7.80062641
Ni       6.71939742       0.42415076      23.70140376
Ni       4.93697773       4.39861432       7.76403638
Ni       4.56431087       4.77167921      23.65858160
Ni       1.29993052       2.10555001      -0.09064167
Ni       0.91168573       2.52932194      15.83254559
Ni      -0.92912360       6.49668679      -0.20279386
Ni      -1.32410929       6.67418864      15.61529128
Ni       6.32718227       2.21160861      -0.10424354
Ni       5.89574814       2.56433684      15.70511534
Ni       3.97386577       6.43335538      -0.35635338
Ni       3.53487907       6.84878105      15.64434660
Ni       2.57288020      -0.08205379      -0.07966444
Ni       2.07947637       0.26427000      15.84503266
Ni       0.27231335       4.28869235      -0.13633133
Ni      -0.25042873       4.56795222      15.68559693
Ni       7.34684460      -0.02734099      -0.05599241
Ni       6.91643674       0.38292678      15.84684099
Ni       5.10977627       4.35044804      -0.21867292
Ni       4.75337928       4.65873845      15.67882173
Ni       1.11049077       2.32129551       7.83876664
Ni       0.75478768       2.63237234      23.71236338
Ni      -1.16484072       6.59818595       7.75928624
Ni      -1.53620556       6.90397945      23.66311973
Ni       5.98667779       2.35639668       7.79650524
Ni       5.61549242       2.60509597      23.57662426
Ni       3.70613894       6.56463839       7.68720264
Ni       3.36348871       6.88014549      23.54881448
Ni      -1.10134489       2.08809767      -0.04310287
Ni      -1.51706593       2.41643400      15.78265750
Ni      -3.29576917       6.39534053      -0.20666509
Ni      -3.70542229       6.73798630      15.65497675
Ni       3.84770964       2.26258361      -0.05868009
Ni       3.34901273       2.44672621      15.71068460
Ni       1.45012317       6.46482340      -0.16986425
Ni       1.00764936       6.79619347      15.59680299
Ni      -1.36937689       2.26139632       7.83178264
Ni      -1.68587105       2.62811655      23.66172517
Ni      -3.65020062       6.58444207       7.64035221
Ni      -3.94530663       6.88076427      23.53854805
Ni       3.59455551       2.35845613       7.76420343
Ni       3.26015357       2.53882727      23.69638546
Ni       1.36049582       6.61531925       7.66665053
Ni       0.88665803       6.92664924      23.52695326
