192
Lattice="9.8361504071414 -0.008687524175320769 -0.06921849027562993 -4.988407625534753 8.423590434363042 0.49303162312661597 -0.9540984822685218 0.32866849123190417 32.45327148843301" Properties=species:S:1:pos:R:3 pbc="T T T"
Mg      -0.17944884       0.01785784       6.62621198
Mg      -0.72595672       0.24446237      22.82682898
Mg      -2.68917316       4.29291484       6.79550158
Mg      -3.20352425       4.35992800      23.01172531
Mg       4.75861019       0.12458261       6.58492778
Mg       4.32709365       0.30018016      22.73487205
Mg       2.22851553       4.34301634       6.86639190
Mg       1.70833769       4.47731992      23.06910231
Mg      -0.45712968       0.24576689      14.68454865
Mg      -0.92610342       0.37857508      30.95374178
Mg      -2.91814547       4.41348956      15.00197410
Mg      -3.42082246       4.58456103      31.15345390
Mg       4.52064185       0.18001932      14.65338926
Mg       4.06309187       0.25300331      30.93239059
Mg       1.92173321       4.36659841      14.90916710
Mg       1.46192569       4.54570618      31.19818741
Mg      -0.36783089       0.17152102       9.54023114
Mg      -0.78031962       0.20107217      25.96155771
Mg      -2.75044512       4.33398487       9.81765425
Mg      -3.20094757       4.50739558      26.10827652
Mg       4.57280702       0.11809790       9.57986818
Mg       4.13133382       0.26326825      25.82500755
Mg       2.26806589       4.29007678       9.88637106
Mg       1.70932687       4.45474327      26.04995792
Mg      -0.05414707       0.01757894       1.49396849
Mg      -0.44602495       0.13979455      17.81225306
Mg      -2.50283366       4.27207316       1.87029573
Mg      -3.08523097       4.31914896      18.05178258
Mg       4.87960015      -0.01119871       1.49325508
Mg       4.40399143       0.14718106      17.70126539
Mg       2.37760096       4.28796164       1.73047338
Mg       1.97777037       4.31824687      17.98758601
Mg      -0.30002803       2.97877614      10.74447366
Mg      -0.79513768       3.07288931      27.10272234
Mg      -2.87963273       7.12431317      11.14138229
Mg      -3.33598714       7.25892873      27.29224617
Mg       4.50626003       2.91497093      10.72067218
Mg       4.08712129       3.07148880      27.04099135
Mg       2.12251538       7.12817129      10.96976869
Mg       1.58075727       7.18450559      27.22955261
Mg       2.36510414       1.50553639       2.62038272
Mg       1.86457275       1.59477963      18.79111473
Mg      -0.16014997       5.55016163       2.84892310
Mg      -0.61128792       5.68419291      19.10500565
Mg       7.35853692       1.44348895       2.44038129
Mg       6.86211481       1.53539884      18.65042564
Mg       4.88551285       5.67822155       2.76037225
Mg       4.38149099       5.83872446      19.02806965
Mg       2.23328765       1.44631604       5.70127687
Mg       1.85431936       1.70675582      21.79166188
Mg      -0.23768568       5.59580909       5.96492751
Mg      -0.64188993       5.77945827      22.13075465
Mg       7.22266900       1.51256715       5.63613937
Mg       6.70082999       1.66760614      21.81252339
Mg       4.67231379       5.67560179       5.84459266
Mg       4.27049738       5.81180177      22.17425297
Mg      -0.42506815       2.94511710      13.80501487
Mg      -0.89425921       3.07857754      30.06844954
Mg      -2.98781103       7.13879004      14.08805377
Mg      -3.31753234       7.24463228      30.32371193
Mg       4.54407754       2.88893505      13.76347896
Mg       4.05985190       3.12034158      30.03630977
Mg       2.05348251       7.12002848      14.06564106
Mg       1.50924366       7.37652962      30.24956862
Ni      -0.18895608       2.84591389       8.20115248
Ni      -0.73960166       3.04881444      24.47378617
Ni      -2.83792835       7.09242842       8.48350508
Ni      -3.24541924       7.25240674      24.68414182
Ni       4.57042114       2.87919037       8.25874023
Ni       4.23986778       2.94303886      24.49694894
Ni       2.10182462       7.14401526       8.43244590
Ni       1.62359310       7.20655880      24.70445165
Ni       2.49753662       1.50779011      -0.01468166
Ni       1.94372506       1.58571230      16.36520119
Ni      -0.03248980       5.61166321       0.24675817
Ni      -0.53616908       5.74972957      16.44144887
Ni       7.41473130       1.43183415       0.04210928
Ni       6.82378962       1.60070907      16.26018803
Ni       4.89568492       5.57898528       0.25748803
Ni       4.36556446       5.82903873      16.48559874
Ni       2.17936539       1.46930523       8.17842087
Ni       1.69135412       1.65696263      24.44062548
Ni      -0.25943254       5.68882569       8.48107182
Ni      -0.72045083       5.83887072      24.73411932
Ni       7.09016393       1.42335998       8.12147423
Ni       6.75470019       1.69288415      24.38259308
Ni       4.62279727       5.67192451       8.31369596
Ni       4.06378152       5.88426881      24.58903767
Ni      -0.08883122       2.81229886       0.10332677
Ni      -0.44408411       2.91003868      16.46254314
Ni      -2.43215695       6.97351285       0.38006272
Ni      -2.92821454       7.07093242      16.70862483
Ni       4.84606329       2.86444461       0.17441640
Ni       4.47117168       2.99186915      16.46988365
Ni       2.45504243       7.09302419       0.34818498
Ni       1.86958604       7.20472991      16.55693803
Ni      -0.19571814       1.44082785       4.16327890
Ni      -0.55012742       1.69573874      20.35955241
Ni      -2.61205494       5.64624708       4.43140662
Ni      -3.06035143       5.80365617      20.57157950
Ni       4.71220101       1.42407646       4.17801557
Ni       4.38031632       1.61040714      20.44303244
Ni       2.25350649       5.60148193       4.29071371
Ni       1.76588002       5.71365387      20.58985942
Ni       3.36652169       0.79199371      12.20051354
Ni       2.89975914       1.00493871      28.28233929
Ni       0.88076303       5.12639249      12.35462385
Ni       0.36979472       5.11965848      28.61980997
Ni       8.24897976       0.77324705      12.16484911
Ni       7.70116683       0.98628340      28.35213529
Ni       5.73397547       4.95237318      12.39321714
Ni       5.26249918       5.24590527      28.58189610
Ni       2.02263813       2.91947456      12.35177887
Ni       1.62855360       3.15862729      28.50501785
Ni      -0.28217500       7.19704736      12.59486579
Ni      -0.99098942       7.33205805      28.87692713
Ni       7.00137899       2.97253874      12.27379261
Ni       6.52736150       3.14690377      28.43601391
Ni       4.54774528       7.10147628      12.44498427
Ni       4.00945226       7.28282163      28.80185898
Ni      -1.39005913       3.55701462       4.31671140
Ni      -1.81217089       3.77908494      20.46564760
Ni      -3.86152887       7.76345316       4.58946547
Ni      -4.33258559       7.92602551      20.81535834
Ni       3.52554293       3.53824319       4.20219959
Ni       3.03562471       3.67645296      20.41785790
Ni       1.01570512       7.78064762       4.43829278
Ni       0.62864618       8.03597845      20.72370664
Ni       1.15547600       3.51763364       4.25089755
Ni       0.65706179       3.72484204      20.40508328
Ni      -1.43530718       7.79444563       4.52155333
Ni      -1.92174762       7.84203571      20.68236228
Ni       6.01719743       3.65229843       4.24995498
Ni       5.59364500       3.72588410      20.37331152
Ni       3.47432309       7.77335409       4.40576506
Ni       3.01768130       7.99150629      20.69200916
Ni       0.99359820       0.80853034      12.11239387
Ni       0.45205302       1.01377874      28.41330199
Ni      -1.71076814       5.00679920      12.45271338
Ni      -2.16539069       5.16615107      28.71372810
Ni       5.82929827       0.84608713      12.13626581
Ni       5.26924972       0.97565294      28.50378452
Ni       3.28506742       5.07088821      12.39550719
Ni       2.74779982       5.14749500      28.68056999
Ni       2.20576786      -0.00333721       8.11070096
Ni       1.70713257       0.19184865      24.34660783
Ni      -0.36597843       4.32575302       8.39929978
Ni      -0.73729952       4.50567479      24.54975916
Ni       7.16799331       0.08017619       8.09435316
Ni       6.59589976       0.19084078      24.19925397
Ni       4.61608311       4.33490793       8.35510293
Ni       4.16697608       4.35148297      24.48233784
Ni       1.22382364       2.03771222       0.11359797
Ni       0.70411797       2.33390505      16.31260556
Ni      -1.22639864       6.29991665       0.35931186
Ni      -1.73111657       6.47185360      16.62219921
Ni       6.14420456       2.08731579       0.07143558
Ni       5.65434846       2.25872827      16.34870121
Ni       3.69619016       6.36414970       0.30169633
Ni       3.13463337       6.49544966      16.52460038
Ni       2.42226368      -0.01098352      -0.00172788
Ni       1.97545878       0.20415832      16.19898237
Ni       0.00554659       4.17070025       0.23663495
Ni      -0.55469806       4.28690793      16.46475095
Ni       7.32446945      -0.07842450      -0.05247650
Ni       6.88108338       0.14481566      16.30878399
Ni       4.89049199       4.18441337       0.25352434
Ni       4.37025359       4.45900854      16.42792963
Ni       0.94766520       2.23801777       8.26735682
Ni       0.55408615       2.36293669      24.39094830
Ni      -1.42806697       6.35023109       8.47376262
Ni      -2.00377285       6.65069305      24.64922362
Ni       5.91944572       2.13165742       8.15722379
Ni       5.41581105       2.38993440      24.30854340
Ni       3.32935782       6.38807941       8.43266906
Ni       2.96110532       6.49473787      24.56058658
Ni      -1.25561689       2.18047740       0.16899763
Ni      -1.76613353       2.30188462      16.34253206
Ni      -3.82716947       6.25679886       0.36456458
Ni      -4.20528475       6.53371405      16.62092963
Ni       3.65894449       2.15872247       0.08052842
Ni       3.19629663       2.21383465      16.21880273
Ni       1.19527096       6.22795082       0.24707236
Ni       0.71589633       6.57264184      16.55788362
Ni      -1.45808289       2.25958333       8.11277350
Ni      -2.04258088       2.39408636      24.41968263
Ni      -4.04967587       6.43599383       8.48587701
Ni      -4.54974381       6.58527952      24.62146340
Ni       3.38234429       2.17219077       8.16714779
Ni       2.96389267       2.38316111      24.37496780
Ni       0.90649475       6.45917089       8.42869343
Ni       0.53114912       6.57223478      24.64395109
