192
Lattice="10.126955326700354 0.23332646767370163 -0.24288187782839335 -4.888357022264522 8.161079630463524 0.02776152514020833 -0.2647679748584071 -0.44391992901181654 32.566069426540594" Properties=species:S:1:pos:R:3 pbc="T T T"
Mg       0.03608334      -0.07578388       6.65852060
Mg      -0.17054012      -0.34718828      22.88354691
Mg      -2.50575413       4.11526084       6.66791957
Mg      -2.65909084       3.86323199      22.86336603
Mg       4.99493676       0.03064392       6.31996447
Mg       4.89257764      -0.14914631      22.66550209
Mg       2.55409559       4.11187247       6.48889056
Mg       2.47756205       3.86837290      22.80511816
Mg      -0.11037975      -0.20378351      14.70203500
Mg      -0.22685792      -0.46021718      31.11193572
Mg      -2.60191287       3.91389046      14.80351924
Mg      -2.71740227       3.65976258      31.08780868
Mg       4.97461100      -0.05404273      14.65047477
Mg       4.79703289      -0.24176709      30.96742366
Mg       2.51661898       3.95517285      14.64315283
Mg       2.35018992       3.77829916      30.97432332
Mg      -0.02013466      -0.20863023       9.63373041
Mg      -0.12597126      -0.27604729      25.91044522
Mg      -2.50683411       3.96522318       9.65037252
Mg      -2.60189345       3.72418362      25.91760059
Mg       4.98922898      -0.05756701       9.56975993
Mg       4.70236026      -0.15302368      25.79996391
Mg       2.47786283       4.01521633       9.57194080
Mg       2.39535932       3.78130919      25.81248604
Mg      -0.01879104       0.00572902       1.49479078
Mg      -0.14047911      -0.23942332      17.67471820
Mg      -2.55966077       4.04797526       1.49812833
Mg      -2.64062264       3.78575189      17.82992924
Mg       5.14521318       0.04558789       1.43151853
Mg       4.84655015      -0.13991933      17.58553235
Mg       2.65859815       4.21471113       1.40138329
Mg       2.45219890       3.93486519      17.73151074
Mg      -0.09686096       2.64812016      10.71206371
Mg      -0.26377451       2.36510503      26.92688516
Mg      -2.46928510       6.76348365      10.60849711
Mg      -2.53085508       6.53671193      26.98862965
Mg       5.00006599       2.74352160      10.56893943
Mg       4.94172418       2.49089901      26.83927902
Mg       2.48208565       6.80208635      10.49660617
Mg       2.44662715       6.51394095      26.84127776
Mg       2.51315190       1.38950872       2.42896689
Mg       2.44015334       1.20683533      18.79531780
Mg       0.20532867       5.42369341       2.50145557
Mg       0.11037681       5.32594566      18.77311856
Mg       7.60598634       1.59208304       2.27291436
Mg       7.42301519       1.32081538      18.59818224
Mg       5.12375637       5.58881933       2.38303996
Mg       5.09437368       5.42359202      18.58349246
Mg       2.53023770       1.36212125       5.61018196
Mg       2.33058001       1.17239552      21.82601673
Mg       0.08735566       5.43140507       5.58673524
Mg      -0.07350524       5.29257998      21.84205991
Mg       7.62212217       1.50123397       5.39493609
Mg       7.39930358       1.26960940      21.77553014
Mg       5.21818880       5.61000361       5.35383654
Mg       5.01696513       5.32701693      21.72742004
Mg       0.00653705       2.55570787      13.69290039
Mg      -0.24936602       2.33321007      30.01412506
Mg      -2.51089295       6.67052707      13.69785644
Mg      -2.66801516       6.40717259      30.05125290
Mg       4.96197566       2.64675945      13.53350297
Mg       4.84445684       2.47294380      29.85633144
Mg       2.56032091       6.70819729      13.49162373
Mg       2.52274720       6.53958739      29.86195300
Ni       0.02071007       2.64305368       8.13983100
Ni      -0.09314270       2.34912521      24.35484767
Ni      -2.41677051       6.66796636       8.08664557
Ni      -2.51756431       6.50942993      24.39755424
Ni       5.08682731       2.79258413       7.98669393
Ni       4.93881235       2.55589124      24.34318630
Ni       2.59740015       6.81467605       7.99221225
Ni       2.48121002       6.68017145      24.33613973
Ni       2.53400790       1.41766960      -0.11859910
Ni       2.44029227       1.30347706      16.17787626
Ni       0.07068985       5.51610522      -0.00847593
Ni      -0.02317076       5.30479416      16.22833338
Ni       7.70355712       1.55668490      -0.27903986
Ni       7.42495770       1.29322988      16.06269078
Ni       5.20222700       5.65744777      -0.24742040
Ni       4.96005229       5.42891504      16.11546164
Ni       2.47913330       1.39782569       8.01310977
Ni       2.41173081       1.16548857      24.32235212
Ni       0.08299686       5.47271627       8.07956025
Ni      -0.12428832       5.10053581      24.31232948
Ni       7.53820817       1.45494733       7.89571473
Ni       7.48508529       1.29829172      24.23413663
Ni       5.20954920       5.52186704       7.90998602
Ni       4.95932147       5.26371230      24.34065182
Ni       0.00815315       2.72791259      -0.06088800
Ni      -0.12825703       2.49396316      16.26105153
Ni      -2.28118989       6.81290759      -0.08796916
Ni      -2.51216411       6.65795604      16.31392686
Ni       5.17810223       2.79285048      -0.14181486
Ni       4.92438432       2.72434534      16.20881366
Ni       2.66309737       6.91656127      -0.19237638
Ni       2.50794949       6.77087378      16.08443083
Ni      -0.00897333       1.31091143       4.03117486
Ni      -0.17131487       1.05909219      20.35045744
Ni      -2.43235325       5.39242934       4.09062432
Ni      -2.63918255       5.20146014      20.32833318
Ni       5.09978293       1.46158316       3.95548992
Ni       4.86048347       1.18246447      20.23680923
Ni       2.65400365       5.57970725       3.97827692
Ni       2.47586793       5.28641802      20.18501454
Ni       3.73219753       0.55765995      12.10168904
Ni       3.52644739       0.32187388      28.42749727
Ni       1.30754476       4.75859234      12.14946487
Ni       1.11714749       4.40737169      28.36107632
Ni       8.79602701       0.72682520      11.97530762
Ni       8.62958829       0.51901772      28.30426160
Ni       6.43834650       4.85240474      11.97005060
Ni       6.16796328       4.62139873      28.33171514
Ni       2.54535673       2.67084224      12.12867565
Ni       2.34027718       2.45861882      28.44862767
Ni      -0.02651541       6.74442590      12.18543298
Ni      -0.10548725       6.51850126      28.42282928
Ni       7.61389722       2.76543648      12.01559027
Ni       7.45037909       2.47572150      28.30727997
Ni       5.12808063       6.78179383      11.98807381
Ni       5.06020653       6.63984705      28.22967632
Ni      -1.19352193       3.39384840       3.97326746
Ni      -1.29419447       3.04552969      20.31702155
Ni      -3.57702415       7.43075509       4.03464845
Ni      -3.89018305       7.16653189      20.40797315
Ni       3.85707857       3.42973878       3.90295770
Ni       3.79593472       3.35000847      20.15744894
Ni       1.43435673       7.61254697       3.95480099
Ni       1.18556232       7.34378557      20.27263179
Ni       1.23172906       3.43314095       4.02844381
Ni       1.14238830       3.24686052      20.32258781
Ni      -1.17112632       7.46038582       4.00218954
Ni      -1.27377860       7.26677119      20.32662753
Ni       6.38019191       3.51612009       3.91299607
Ni       6.30267492       3.38939056      20.04524345
Ni       3.93252836       7.60861766       3.91905422
Ni       3.77252237       7.39977803      20.14904700
Ni       1.12684443       0.62298998      12.21074464
Ni       1.00249050       0.32949945      28.50934255
Ni      -1.20110143       4.70077640      12.20686309
Ni      -1.36322492       4.50811393      28.44824249
Ni       6.16205302       0.60823066      12.01753014
Ni       6.07725254       0.52188174      28.29004946
Ni       3.74590638       4.74662454      11.99329630
Ni       3.65690980       4.57072814      28.39032220
Ni       2.45633566      -0.01191026       8.02247202
Ni       2.33079899      -0.21309562      24.28002721
Ni       0.05018270       4.07890728       8.05228406
Ni      -0.16092254       3.82406212      24.39702771
Ni       7.56876573       0.05579124       8.00043320
Ni       7.45758268      -0.14617045      24.28421831
Ni       5.03813312       4.24188371       7.85735691
Ni       4.95339827       3.87703308      24.31894731
Ni       1.38174341       2.02592601      -0.03103725
Ni       1.25445667       1.96093017      16.21536240
Ni      -1.14455859       6.09673756      -0.04719952
Ni      -1.27028820       5.93639057      16.29193647
Ni       6.43838267       2.18642253      -0.13398383
Ni       6.21691177       2.03408168      16.07548846
Ni       3.93604562       6.32798811      -0.10727192
Ni       3.72385108       6.20291238      16.03840027
Ni       2.52876189      -0.02387659      -0.06005617
Ni       2.45670403      -0.16861860      16.20073642
Ni       0.01635859       4.14391088      -0.05505797
Ni      -0.07252930       3.86185152      16.18679589
Ni       7.59592599       0.20201460      -0.19791085
Ni       7.39938090       0.00353570      16.11415847
Ni       5.19612733       4.31729315      -0.13254756
Ni       4.98346232       4.07221949      16.12563551
Ni       1.20629735       2.04971768       8.01789767
Ni       1.10966359       1.81988821      24.30133825
Ni      -1.28133362       6.02461601       8.09081462
Ni      -1.26392945       5.82246081      24.34072093
Ni       6.29647771       2.11784059       7.90029786
Ni       6.17414330       1.90335709      24.40529420
Ni       3.81269993       6.19554331       8.00666093
Ni       3.70879753       5.88191550      24.18003263
Ni      -1.22976706       2.00090749      -0.00367683
Ni      -1.41956852       1.79290459      16.30885884
Ni      -3.59501042       6.11161265       0.00790112
Ni      -3.79320143       5.96192449      16.25588865
Ni       3.84206617       2.16868893      -0.06943902
Ni       3.70714332       1.90748741      16.20297477
Ni       1.44006833       6.18670147      -0.03323848
Ni       1.23334723       6.00424269      16.23500510
Ni      -1.24745580       1.93677533       8.10116048
Ni      -1.36012593       1.65864239      24.39947051
Ni      -3.74561829       5.90868353       8.03685090
Ni      -3.86331887       5.88677155      24.55201924
Ni       3.77712941       2.01887955       8.07541024
Ni       3.65497976       1.84608116      24.30955480
Ni       1.27471202       6.12038088       8.06219045
Ni       1.13060080       5.92870150      24.35680933
