192
Lattice="9.99536423541156 -0.0654939561074906 -0.2723133002545019 -4.773901157956311 8.201262029181681 0.035132628539136054 -1.1886038820384117 -0.09102590697197034 31.63247867933215" Properties=species:S:1:pos:R:3 pbc="T T T"
Mg      -0.30108341      -0.07201022       6.40314587
Mg      -0.79260997      -0.09585404      22.17216316
Mg      -2.62086120       4.04989670       6.39788658
Mg      -3.20389168       4.12616776      22.30233088
Mg       4.76821626      -0.06579341       6.28945778
Mg       4.19239388      -0.16108199      22.13242759
Mg       2.31119477       4.03010089       6.31033771
Mg       1.78332246       4.03788005      22.13421372
Mg      -0.57714965      -0.00686212      14.29909038
Mg      -1.11500885      -0.11237601      30.13434684
Mg      -2.86931341       4.07917515      14.35216775
Mg      -3.53264256       4.00443682      30.17772096
Mg       4.35662486      -0.12415026      14.25867088
Mg       3.84843453      -0.15017038      29.97912567
Mg       2.16702878       4.07680055      14.25242016
Mg       1.47481402       4.01328808      30.01746898
Mg      -0.36231140       0.05303885       9.32280151
Mg      -0.91083416      -0.04040569      25.17794902
Mg      -2.69995323       4.02479645       9.34401641
Mg      -3.41669177       4.01169126      25.37364604
Mg       4.74048289      -0.04818596       9.18101633
Mg       4.09227107      -0.06939555      25.15066883
Mg       2.21341902       3.99840167       9.31218232
Mg       1.60908477       3.94490541      25.18598638
Mg      -0.05452806      -0.08769434       1.46772484
Mg      -0.64315550      -0.08415957      17.24904464
Mg      -2.39896296       4.09569193       1.46613911
Mg      -3.06578349       4.02904144      17.35069719
Mg       4.95926694      -0.03847015       1.37357970
Mg       4.40356161      -0.07242069      17.19610937
Mg       2.56918920       4.08218993       1.40994715
Mg       1.93772728       4.04537470      17.16011848
Mg      -0.32567861       2.72668771      10.40798186
Mg      -0.93924403       2.73861489      26.19925627
Mg      -2.65469793       6.79108369      10.35957192
Mg      -3.26037259       6.78855678      26.11940834
Mg       4.58771872       2.65629581      10.17004999
Mg       4.02845190       2.60788022      26.08065878
Mg       2.26758217       6.77229591      10.22793796
Mg       1.75144710       6.63374075      26.06786864
Mg       2.42384195       1.23461287       2.37587622
Mg       1.90524164       1.22697578      18.18113557
Mg       0.01927573       5.38407032       2.42538759
Mg      -0.58774734       5.38629220      18.26465593
Mg       7.41834283       1.39385366       2.21987373
Mg       6.76677290       1.18747430      18.02605041
Mg       5.01770049       5.37374008       2.23116965
Mg       4.49071534       5.27033514      18.01567416
Mg       2.35061452       1.28022132       5.37742545
Mg       1.74847725       1.29166164      21.11846585
Mg      -0.11704354       5.41840719       5.42718289
Mg      -0.67637368       5.35592118      21.23581454
Mg       7.39894959       1.29086803       5.25807164
Mg       6.76851569       1.13676109      21.03453584
Mg       4.93001534       5.43077979       5.19036862
Mg       4.41302609       5.35411009      20.96451218
Mg      -0.44348210       2.73732398      13.30767240
Mg      -1.05638648       2.61182811      29.18015933
Mg      -2.83235724       6.72543747      13.37012666
Mg      -3.39740701       6.79032294      29.15132163
Mg       4.56480967       2.59696478      13.09710662
Mg       3.99425381       2.66186308      29.01206632
Mg       2.21187596       6.68715853      13.17786111
Mg       1.61397143       6.76174645      29.05575759
Ni      -0.18562703       2.59751111       7.86932316
Ni      -0.85506948       2.60619381      23.67128952
Ni      -2.63357217       6.78081508       7.87004319
Ni      -3.19828509       6.74248939      23.66097838
Ni       4.67537467       2.71596370       7.76281353
Ni       4.14950990       2.60846758      23.52474088
Ni       2.33570223       6.73175500       7.85387798
Ni       1.80620988       6.78958676      23.54980697
Ni       2.55039692       1.37070549      -0.12568994
Ni       1.95544866       1.35232068      15.72374004
Ni       0.08076723       5.35092389      -0.03448939
Ni      -0.41598231       5.36799093      15.75340341
Ni       7.56525481       1.32866537      -0.21305366
Ni       6.86539839       1.23806364      15.59304491
Ni       5.04101475       5.35387208      -0.19703251
Ni       4.61882542       5.32471022      15.67408684
Ni       2.29836013       1.28849292       7.81311813
Ni       1.67807461       1.30978616      23.63318704
Ni      -0.12187004       5.51616796       7.84151716
Ni      -0.73923470       5.34495789      23.61061508
Ni       7.18926730       1.30311531       7.61530432
Ni       6.63324605       1.25318774      23.46463640
Ni       4.90167484       5.34967175       7.74957707
Ni       4.28235487       5.43426703      23.58288977
Ni       0.04208621       2.68856508      -0.05548177
Ni      -0.57963287       2.69690902      15.83598237
Ni      -2.21631322       6.89548329      -0.03418807
Ni      -2.91057502       6.81089084      15.82159787
Ni       4.89923695       2.67166563      -0.11819061
Ni       4.57521908       2.62305761      15.58571409
Ni       2.74171601       6.82572794      -0.14647862
Ni       2.09785784       6.69688189      15.67097357
Ni      -0.05819480       1.33829259       4.03327938
Ni      -0.73817050       1.28194926      19.79970465
Ni      -2.47945903       5.48179108       4.03942448
Ni      -3.07807670       5.39677743      19.78740595
Ni       4.90998106       1.31266421       3.85108460
Ni       4.30639525       1.27523261      19.56947638
Ni       2.47935283       5.37270009       3.89951855
Ni       1.90329964       5.35567669      19.67001617
Ni       3.28011442       0.53192311      11.72179784
Ni       2.80960842       0.64355194      27.54004570
Ni       1.01352058       4.77416071      11.75376834
Ni       0.41798721       4.64855442      27.53494916
Ni       8.23894129       0.60325875      11.63827411
Ni       7.76824871       0.49509240      27.43702971
Ni       5.95044788       4.72077217      11.61848257
Ni       5.40542201       4.67022622      27.56247102
Ni       2.13091177       2.70280866      11.65990969
Ni       1.49538931       2.62376387      27.56746804
Ni      -0.22240493       6.72858551      11.83585887
Ni      -0.95026871       6.70577777      27.57726089
Ni       7.13204380       2.59367464      11.68535271
Ni       6.53915862       2.55691920      27.47082050
Ni       4.69986997       6.70331607      11.53264230
Ni       4.14082216       6.74276195      27.48500876
Ni      -1.29209816       3.35737335       3.90316679
Ni      -1.85646733       3.30071155      19.77299446
Ni      -3.71778604       7.48547494       3.96094355
Ni      -4.24420318       7.45811702      19.73032489
Ni       3.64867967       3.38639089       3.84429185
Ni       3.01414153       3.24516686      19.59976515
Ni       1.34452209       7.48826465       3.85175637
Ni       0.75401050       7.41027979      19.65208932
Ni       1.17518752       3.35825584       3.86923777
Ni       0.63098966       3.21847208      19.67632483
Ni      -1.15499307       7.54127026       3.89825207
Ni      -1.75124898       7.47454001      19.74084397
Ni       6.21841024       3.35263618       3.68835851
Ni       5.57714653       3.31991174      19.54909920
Ni       3.80692591       7.47071764       3.85194900
Ni       3.20939798       7.43903706      19.58650849
Ni       0.72230886       0.65527887      11.88783425
Ni       0.24356245       0.57868457      27.58542633
Ni      -1.55011377       4.72641462      11.78251666
Ni      -2.20206944       4.68883778      27.68869923
Ni       5.81759617       0.61952954      11.65848954
Ni       5.16958664       0.59153917      27.47888489
Ni       3.45884225       4.79476548      11.66656638
Ni       2.73681442       4.65280322      27.55044240
Ni       2.27668918      -0.08571694       7.84774516
Ni       1.62728601      -0.11212597      23.61345741
Ni      -0.12912868       4.03098430       7.84806736
Ni      -0.82479654       4.02314615      23.75053233
Ni       7.17269290      -0.08208149       7.60623401
Ni       6.63865090      -0.10308600      23.53278666
Ni       4.86497466       4.00380697       7.69420130
Ni       4.23387695       3.96476876      23.50044346
Ni       1.30275477       2.05315298      -0.02912118
Ni       0.75666053       2.08749373      15.76950549
Ni      -1.11920342       6.10575539      -0.07878899
Ni      -1.58492719       6.07037564      15.78893754
Ni       6.34711163       2.05441030      -0.20917414
Ni       5.70103254       1.98391923      15.64057249
Ni       3.89957223       6.09455952      -0.14884430
Ni       3.35266596       6.10846284      15.60868550
Ni       2.52045704       0.00904404      -0.13358215
Ni       1.93510580      -0.05233120      15.73165252
Ni       0.08306477       4.16409214      -0.12296436
Ni      -0.55596416       4.03884184      15.68497269
Ni       7.52893495      -0.08146746      -0.30461420
Ni       6.95088072      -0.11677851      15.59935225
Ni       5.03612262       4.02753493      -0.19159023
Ni       4.56224282       3.97402354      15.62746156
Ni       0.97660257       2.00023906       7.82271862
Ni       0.42505554       2.01801139      23.60693722
Ni      -1.33378579       6.13502892       7.95972842
Ni      -1.94520350       5.96198107      23.58084118
Ni       5.94753049       2.02186872       7.59494832
Ni       5.40742312       1.94037090      23.44593976
Ni       3.63853773       6.06532226       7.73954652
Ni       3.06350714       6.05696196      23.56240868
Ni      -1.22247706       1.92978725       0.03271650
Ni      -1.79431430       1.94743187      15.84034055
Ni      -3.55735593       6.14722151       0.05894456
Ni      -4.16727159       6.12517981      15.89032399
Ni       3.78778556       2.00843174      -0.21992019
Ni       3.20253355       2.03455485      15.56800726
Ni       1.43405994       6.12598188      -0.10524816
Ni       0.85837028       6.08965691      15.70532672
Ni      -1.55250989       2.05661975       7.95972785
Ni      -2.16366446       2.02594349      23.71178967
Ni      -4.03439779       6.04069536       7.98241765
Ni      -4.45880499       6.07818668      23.80198574
Ni       3.47701110       2.15992986       7.79023658
Ni       2.93583897       1.83647269      23.57455289
Ni       1.20108330       6.09168740       7.76679496
Ni       0.54877790       6.09936183      23.64008062
