192
Lattice="9.490739887086379 0.043297120595039436 0.10765191542072011 -4.597290679987187 8.326899928680055 -0.17478208026627476 0.6447760509008647 -1.334278521973848 32.68418080957695" Properties=species:S:1:pos:R:3 pbc="T T T"
Mg       0.13891229      -0.23530498       6.58730660
Mg       0.37496969      -0.94353033      22.99519425
Mg      -2.19605234       3.86714324       6.45326930
Mg      -1.84532471       3.27582949      22.93529869
Mg       4.86009887      -0.17863753       6.61810556
Mg       5.19800685      -0.91634989      23.04029277
Mg       2.60800353       3.86449229       6.64778703
Mg       2.85889703       3.25007776      22.92341275
Mg       0.29517079      -0.62591414      14.87430589
Mg       0.60674135      -1.21750190      31.15845875
Mg      -2.01162534       3.58360407      14.61133301
Mg      -1.62606599       2.98323609      31.10901481
Mg       5.11926332      -0.60253806      14.88110150
Mg       5.29429483      -1.20223097      31.14122607
Mg       2.66357083       3.64522894      14.69711789
Mg       3.08013619       2.90150687      31.11827463
Mg       0.18436203      -0.48344573       9.63177827
Mg       0.47767306      -1.04012431      25.97907042
Mg      -2.02591639       3.77792658       9.61305870
Mg      -1.78958220       3.13896857      26.00098774
Mg       4.87079280      -0.44078110       9.87880928
Mg       5.25892238      -0.97418781      26.15595507
Mg       2.64362017       3.82976103       9.61088783
Mg       2.99319038       3.11883401      26.04242756
Mg      -0.04139182      -0.12523533       1.55441313
Mg       0.34172259      -0.71802963      17.78929396
Mg      -2.31538559       4.11225421       1.46956977
Mg      -1.98129744       3.36180581      17.83894924
Mg       4.79217686      -0.04211806       1.69414858
Mg       5.12606319      -0.79678165      17.93851334
Mg       2.48092666       4.09318519       1.47346234
Mg       2.77150922       3.46084127      17.79713984
Mg       0.23070413       2.37197628      10.80878431
Mg       0.65222328       1.68459440      27.05583994
Mg      -2.04804133       6.51283506      10.59774384
Mg      -1.70679242       5.89341644      26.91918640
Mg       4.94625011       2.29424356      10.72215887
Mg       5.34567720       1.71686187      27.02708238
Mg       2.65618113       6.53435692      10.63403543
Mg       2.95525526       5.92703434      26.92159237
Mg       2.41190490       1.30134784       2.57161736
Mg       2.82350953       0.64676524      18.96423267
Mg       0.21504888       5.49643726       2.48032333
Mg       0.50452737       4.79004602      18.82436380
Mg       7.17463777       1.29198623       2.56895509
Mg       7.52750993       0.50979455      18.95842601
Mg       4.86555494       5.48756684       2.54812231
Mg       5.22031475       4.87296450      18.91300011
Mg       2.53192968       1.18353871       5.62426893
Mg       2.87110241       0.56278970      21.97407403
Mg       0.28404586       5.36690502       5.53823107
Mg       0.60294940       4.67888111      21.90603622
Mg       7.23687652       1.20975640       5.66120502
Mg       7.49754244       0.54046153      22.06524091
Mg       4.96434288       5.35170688       5.64059538
Mg       5.32075293       4.68051146      21.86986983
Mg       0.30259938       2.31996632      13.86825400
Mg       0.61704681       1.49950086      30.16215002
Mg      -1.97535087       6.41624612      13.61431217
Mg      -1.67216420       5.68058896      30.00307080
Mg       5.06111100       2.28505598      13.78455520
Mg       5.38085880       1.56869574      30.14954962
Mg       2.74756787       6.44853718      13.67875089
Mg       3.18958026       5.75103170      30.08725912
Ni       0.15388645       2.43702461       8.22587572
Ni       0.54361258       1.83633099      24.46797975
Ni      -2.04596118       6.57899496       8.06772844
Ni      -1.78548788       6.02842612      24.33572660
Ni       4.94412991       2.53767367       8.15589343
Ni       5.27521769       1.77894683      24.54642728
Ni       2.55691955       6.55207011       8.05513514
Ni       3.04538979       5.96125655      24.41941728
Ni       2.38808655       1.39273478       0.04884776
Ni       2.66927471       0.69439474      16.33989245
Ni       0.05405774       5.50792905      -0.09892567
Ni       0.49243349       4.96872858      16.27533865
Ni       7.18128473       1.42958534       0.09046532
Ni       7.45355644       0.76055712      16.40435931
Ni       4.90057742       5.53486289       0.00301174
Ni       5.13115761       4.96834738      16.28147516
Ni       2.55165614       1.09382929       8.13450380
Ni       2.86108604       0.41788048      24.50697567
Ni       0.13279425       5.16984111       8.08186440
Ni       0.55075666       4.59370493      24.37066903
Ni       7.26223430       1.12007455       8.21880393
Ni       7.65445192       0.39308780      24.55272505
Ni       5.02179158       5.22681918       8.13389576
Ni       5.34060826       4.52496424      24.51715482
Ni       0.09605113       2.85681980      -0.03925787
Ni       0.28921658       2.17756037      16.39730882
Ni      -2.32037186       6.93035108      -0.10941747
Ni      -1.88064285       6.30011726      16.16384155
Ni       4.74220765       2.78154048       0.01054577
Ni       5.06947547       2.19650308      16.44320161
Ni       2.48725682       7.01482653      -0.02867051
Ni       2.85774668       6.33578866      16.26433840
Ni       0.10091282       1.23089981       4.07030374
Ni       0.49057476       0.53817332      20.36813884
Ni      -2.21649793       5.34699666       4.04297823
Ni      -1.92947378       4.78018410      20.31956925
Ni       4.87357014       1.18179915       4.10269346
Ni       5.08849764       0.60083901      20.36729509
Ni       2.58054539       5.46163397       4.01497454
Ni       2.80235186       4.77124864      20.44858429
Ni       3.75117464       0.33269362      12.25941700
Ni       4.08489463      -0.48621389      28.67894206
Ni       1.52673588       4.41173372      12.11638847
Ni       1.90197420       3.68635263      28.54838143
Ni       8.65126316       0.20858707      12.23429948
Ni       8.84364399      -0.40008069      28.72535046
Ni       6.27574753       4.36511005      12.34195954
Ni       6.58912301       3.74785575      28.56785410
Ni       2.58851029       2.33950685      12.18529334
Ni       2.99556464       1.70497649      28.56492363
Ni       0.28656773       6.40059256      12.20229243
Ni       0.68541016       5.78712762      28.43561176
Ni       7.35923162       2.32397862      12.35547804
Ni       7.71153886       1.72703242      28.61147111
Ni       5.12184731       6.44811543      12.27786238
Ni       5.51719411       5.82759712      28.52892746
Ni      -1.03626288       3.32786302       3.94871229
Ni      -0.69730426       2.61070436      20.36716867
Ni      -3.29520534       7.45967813       3.90589888
Ni      -3.05060314       6.92185984      20.30412311
Ni       3.66792421       3.32620407       4.02242898
Ni       3.96946848       2.60294629      20.41303038
Ni       1.41100789       7.44512738       4.00582209
Ni       1.74927320       6.87037219      20.30473545
Ni       1.30594828       3.27284581       4.07168203
Ni       1.64325317       2.70282208      20.32921519
Ni      -0.90578047       7.51726955       4.02713940
Ni      -0.69162470       6.78569428      20.30320648
Ni       6.01936325       3.32662509       4.11073589
Ni       6.33616627       2.62431949      20.47842420
Ni       3.84428152       7.51972237       4.06025619
Ni       3.99045809       6.80467273      20.45969351
Ni       1.46722732       0.19851635      12.21375600
Ni       1.77526238      -0.46459550      28.51200681
Ni      -0.74366897       4.41058557      12.17156749
Ni      -0.51098397       3.61217906      28.42373919
Ni       6.22023172       0.22731751      12.30209262
Ni       6.53770587      -0.42813434      28.71939967
Ni       3.95587741       4.42193037      12.13621062
Ni       4.25317867       3.65390948      28.51876008
Ni       2.59350247      -0.32628183       8.27157346
Ni       2.90373261      -0.97627325      24.54457880
Ni       0.32219270       3.80797752       8.16571226
Ni       0.53563659       3.16326500      24.47452767
Ni       7.33621417      -0.29051001       8.24139321
Ni       7.62759354      -0.87321533      24.53555283
Ni       5.03872002       3.83922809       8.17924118
Ni       5.30763205       3.15096194      24.62844316
Ni       1.25729027       2.12615554      -0.02024562
Ni       1.56511251       1.37074040      16.37465187
Ni      -1.06281142       6.21444332      -0.00953401
Ni      -0.75574016       5.69373796      16.20409619
Ni       5.87218108       2.10436946       0.04489493
Ni       6.29752483       1.41803798      16.40500716
Ni       3.60106373       6.30191535      -0.11673465
Ni       3.99001715       5.69623522      16.28992115
Ni       2.42174097      -0.01775867       0.02250700
Ni       2.69104579      -0.64467354      16.32282376
Ni       0.13095394       4.27115769      -0.11709381
Ni       0.38988575       3.54089787      16.32803567
Ni       7.15270610       0.04237083       0.05082525
Ni       7.47121866      -0.68166012      16.41640188
Ni       4.88060472       4.13981169       0.00092102
Ni       5.11195291       3.47902043      16.34891793
Ni       1.37558820       1.75731369       8.17121045
Ni       1.67791554       1.11575336      24.55071104
Ni      -0.95010013       5.91081904       8.09676369
Ni      -0.54840530       5.21428290      24.39063547
Ni       6.03952948       1.81708753       8.22261153
Ni       6.42173056       1.03451909      24.52536071
Ni       3.81627062       5.99113717       8.10981651
Ni       4.27428229       5.28547996      24.52729546
Ni      -1.17643262       2.12849873      -0.06034724
Ni      -0.84804941       1.40304704      16.44144652
Ni      -3.44558169       6.24194767      -0.17922626
Ni      -3.08131068       5.59321326      16.23529192
Ni       3.60259324       2.12035802       0.06438398
Ni       3.88053982       1.50838060      16.33793055
Ni       1.31640597       6.33397922       0.02566822
Ni       1.57964751       5.59833448      16.19186590
Ni      -0.98834056       1.78784066       8.04322464
Ni      -0.61456718       1.14086454      24.50264250
Ni      -3.36776255       5.95603115       8.02260095
Ni      -3.02492953       5.27377293      24.41864759
Ni       3.79243002       1.81836116       8.16180609
Ni       4.13166985       1.07091606      24.59788178
Ni       1.42468572       5.98698553       8.07287899
Ni       1.75684144       5.28095372      24.46242511
