192
Lattice="9.521712914984137 0.08488807946976237 -0.48787216419840856 -4.642021081761936 8.400680634621873 -0.1010608403244758 0.12403505989785217 0.0472406860878143 31.411282677904495" Properties=species:S:1:pos:R:3 pbc="T T T"
Mg       0.04741959       0.05285284       6.43534460
Mg       0.13416388       0.02692439      22.00274115
Mg      -2.27354612       4.13041677       6.29062111
Mg      -2.30284442       4.24507995      22.06414325
Mg       4.80725089       0.09495648       6.15501678
Mg       4.91287105       0.11185988      21.85879939
Mg       2.46388171       4.22168132       6.09720485
Mg       2.52489314       4.23266181      21.78273173
Mg       0.07914313       0.04047433      14.24707511
Mg       0.07883184       0.01607495      29.93907273
Mg      -2.18633578       4.26213737      14.21288276
Mg      -2.16080321       4.29870381      29.90503716
Mg       4.82920298       0.10212647      13.95496022
Mg       4.87987740       0.12003831      29.62924723
Mg       2.44653484       4.24481317      13.98317881
Mg       2.48589955       4.19750323      29.66988106
Mg       0.08290735       0.01396505       9.30239609
Mg       0.11349996       0.02212360      25.11378373
Mg      -2.31411924       4.12846353       9.30185994
Mg      -2.14514466       4.27659716      24.99574038
Mg       4.82149117       0.02618208       9.08579761
Mg       4.85341354       0.06120731      24.90436764
Mg       2.45981804       4.29578733       9.03352969
Mg       2.47264114       4.31014909      24.80127627
Mg      -0.01089197      -0.03573611       1.47654993
Mg       0.06131044       0.01969377      17.18004243
Mg      -2.32982998       4.26114686       1.50038746
Mg      -2.26156116       4.22518688      17.03414460
Mg       4.78533675       0.06102096       1.24401308
Mg       4.80188098       0.10309552      16.98360508
Mg       2.40526293       4.23669716       1.21276898
Mg       2.50749053       4.30738964      16.83535653
Mg       0.16676946       2.86760104      10.22953756
Mg       0.15311126       2.87749619      25.85457962
Mg      -2.21399048       7.04312509      10.14879414
Mg      -2.11529748       6.97679476      25.89502794
Mg       4.81604751       2.88557529       9.99731958
Mg       4.86295747       2.91090147      25.58151003
Mg       2.57476429       7.09754028       9.88878931
Mg       2.54348571       7.07052743      25.55462624
Mg       2.32537729       1.44369267       2.22002630
Mg       2.45600884       1.40471565      17.99745188
Mg       0.16985453       5.68879827       2.15134614
Mg       0.16452621       5.62967186      17.92028217
Mg       7.14120862       1.48185140       2.05590585
Mg       7.29556975       1.47671093      17.69568870
Mg       4.82190340       5.65216599       2.01960242
Mg       4.90814752       5.63660728      17.67348340
Mg       2.34495793       1.40200614       5.31911479
Mg       2.46859497       1.53389613      20.98061018
Mg       0.13798673       5.58545373       5.17645139
Mg       0.18014345       5.55339013      20.91575556
Mg       7.14107590       1.49442453       4.95628152
Mg       7.23211080       1.58049478      20.65541748
Mg       4.85542785       5.67382376       4.83889988
Mg       4.98372268       5.73925221      20.56501363
Mg       0.02266678       2.80896983      13.12130173
Mg       0.13949770       2.76534899      28.83749438
Mg      -2.20234526       7.03779500      13.03763854
Mg      -2.22320881       7.07496578      28.83732182
Mg       4.83735775       2.94762773      12.87489707
Mg       4.87221962       2.87061327      28.66322866
Mg       2.47572488       7.07010994      12.85834721
Mg       2.62882464       7.10045574      28.57718219
Ni       0.04165830       2.87860981       7.75434366
Ni       0.09591504       2.79827051      23.51057216
Ni      -2.23521505       7.06311569       7.64579852
Ni      -2.20632654       7.05428026      23.33266340
Ni       4.83498383       2.87846147       7.58603840
Ni       4.90222025       2.87482185      23.23364064
Ni       2.56332846       7.07904209       7.38923975
Ni       2.62591240       7.05619584      23.13500509
Ni       2.42801884       1.45978121      -0.26937790
Ni       2.54048926       1.53709284      15.54342351
Ni       0.18121767       5.58855254      -0.23936185
Ni       0.10383816       5.69887348      15.58754129
Ni       7.18476896       1.46351709      -0.40808035
Ni       7.22718562       1.47939448      15.21439561
Ni       4.81647743       5.71633768      -0.41673101
Ni       4.94243489       5.68376912      15.25375310
Ni       2.52439426       1.46948284       7.63000779
Ni       2.59061046       1.42953103      23.33389759
Ni       0.06531110       5.65173891       7.57272357
Ni       0.19729082       5.57898414      23.25891717
Ni       7.17395893       1.48377268       7.43373640
Ni       7.15027145       1.51017072      23.20489850
Ni       4.83541266       5.72141616       7.37107314
Ni       5.01334375       5.69149912      23.05408591
Ni       0.06219901       2.77021651      -0.09520314
Ni       0.08662025       2.79930404      15.57486532
Ni      -2.19619251       6.88310226      -0.08898885
Ni      -2.21071288       7.02561571      15.51444917
Ni       4.82117402       2.78063284      -0.36310324
Ni       4.85874562       2.89645265      15.36708301
Ni       2.42866849       7.02567487      -0.34232837
Ni       2.52623098       7.10549707      15.30130616
Ni       0.01956759       1.48733151       3.85575678
Ni       0.08993854       1.37182764      19.56952397
Ni      -2.20485270       5.62751478       3.77853778
Ni      -2.24020056       5.61309476      19.58853359
Ni       4.82233392       1.38533466       3.68498303
Ni       4.95859765       1.45198561      19.35968755
Ni       2.47677568       5.70634911       3.58746615
Ni       2.50012010       5.65371804      19.35470360
Ni       3.68593544       0.82995032      11.50212419
Ni       3.65963199       0.77294826      27.27384882
Ni       1.31594616       4.97841839      11.51958355
Ni       1.30976373       4.94666321      27.26585482
Ni       8.39482757       0.76883962      11.27665526
Ni       8.45450451       0.80976539      26.92679538
Ni       6.00229710       5.00344212      11.28183880
Ni       6.06620903       4.98761372      26.92339918
Ni       2.48749134       2.86600984      11.55021296
Ni       2.54095362       2.80395050      27.37603522
Ni       0.21536468       7.03713283      11.51249599
Ni       0.13387783       7.08998921      27.27359807
Ni       7.20536594       2.93828797      11.35575769
Ni       7.26596804       2.84985929      27.09902676
Ni       4.91592650       7.04542862      11.24849567
Ni       4.89564019       7.05413799      26.97480467
Ni      -1.11560439       3.53188219       3.81077837
Ni      -1.04590879       3.48022002      19.49731523
Ni      -3.45992060       7.66475306       3.79612013
Ni      -3.37293847       7.70851101      19.55015741
Ni       3.70813360       3.57054500       3.63804222
Ni       3.70811353       3.60645768      19.31158085
Ni       1.21911029       7.76071552       3.59004517
Ni       1.29542024       7.76512098      19.39111525
Ni       1.22308606       3.60742553       3.68186563
Ni       1.22694916       3.55892198      19.42337317
Ni      -1.03080284       7.77339532       3.65855970
Ni      -1.02410237       7.82982386      19.48804004
Ni       6.04393165       3.53836344       3.50523876
Ni       6.13655693       3.54094515      19.19888090
Ni       3.64412237       7.79665943       3.49634834
Ni       3.77268883       7.73190587      19.12547275
Ni       1.25767801       0.62990213      11.65125647
Ni       1.33441662       0.75007991      27.33718245
Ni      -1.14146290       4.83871953      11.66312295
Ni      -1.02983427       4.97102634      27.29433618
Ni       5.99909636       0.80060880      11.44598532
Ni       6.06488217       0.80959971      27.15028105
Ni       3.67915517       5.03452906      11.44663648
Ni       3.67228003       5.09890224      27.06700418
Ni       2.43571034       0.05781295       7.72572043
Ni       2.49787558       0.03586612      23.50785294
Ni       0.02713144       4.33264913       7.61747410
Ni       0.17836086       4.27691542      23.38457300
Ni       7.21269831      -0.02161228       7.44776958
Ni       7.16202420       0.09251733      23.23076495
Ni       4.87625809       4.25493573       7.39736568
Ni       4.93321813       4.21337889      23.14930721
Ni       1.25487905       2.10650041      -0.19480400
Ni       1.25673292       2.15881267      15.47910650
Ni      -1.15438563       6.26278285      -0.11231313
Ni      -1.08287910       6.33743865      15.50927665
Ni       5.92804910       2.17955039      -0.34073575
Ni       5.96789420       2.18088561      15.35407275
Ni       3.65783320       6.36228249      -0.45810467
Ni       3.71646691       6.39683125      15.26606637
Ni       2.40964377       0.05351069      -0.14533602
Ni       2.44952996       0.00246802      15.63361866
Ni       0.13066564       4.27395184      -0.15175656
Ni       0.13534820       4.18100786      15.51345354
Ni       7.13217579       0.11938357      -0.41230125
Ni       7.23887897       0.08664777      15.26920051
Ni       4.82410204       4.20804769      -0.41511964
Ni       4.96471068       4.32430120      15.27893688
Ni       1.18817720       2.12489973       7.71948142
Ni       1.38619135       2.23435067      23.46364569
Ni      -1.09976369       6.39525590       7.64280017
Ni      -0.96172400       6.33899014      23.35384482
Ni       5.97323616       2.21233446       7.45191557
Ni       6.11673955       2.19813120      23.13649656
Ni       3.67554957       6.33140240       7.41958382
Ni       3.68904262       6.35928810      23.02848358
Ni      -1.14992724       2.05291610      -0.06798299
Ni      -1.11667569       2.14240799      15.74921717
Ni      -3.50498300       6.30982987      -0.08480934
Ni      -3.43640061       6.38136472      15.69987768
Ni       3.55875921       2.13378561      -0.28194572
Ni       3.69814509       2.15976620      15.43524237
Ni       1.32915703       6.23480821      -0.35592801
Ni       1.30340689       6.42584917      15.43117488
Ni      -1.09759798       2.05522793       7.81434827
Ni      -0.96441727       2.11037632      23.54524032
Ni      -3.44895303       6.36399905       7.75416371
Ni      -3.41028121       6.33348538      23.49083808
Ni       3.59549123       2.14771069       7.54816157
Ni       3.71104231       2.13484578      23.41382479
Ni       1.33023140       6.35235582       7.49666929
Ni       1.44705763       6.26665615      23.37237752
