192
Lattice="9.915966892976513 -0.2853648700617702 -0.04580739390873296 -5.067274088498701 8.668314443033715 0.1175915488937291 -0.10689452400458273 -0.8678562663027787 31.92378939520271" Properties=species:S:1:pos:R:3 pbc="T T T"
Mg      -0.08276379      -0.12996719       6.47431623
Mg      -0.12891958      -0.69797430      22.40750042
Mg      -2.56265934       4.14248682       6.49069978
Mg      -2.69038399       3.71166935      22.53022044
Mg       4.88555776      -0.27023911       6.56786605
Mg       4.87646941      -0.68750721      22.45697735
Mg       2.32716369       4.08243050       6.55584059
Mg       2.28093619       3.62572428      22.35820763
Mg       0.01009807      -0.41181352      14.39200021
Mg      -0.13089083      -0.84978202      30.36080814
Mg      -2.68539239       3.91493185      14.50195444
Mg      -2.57718338       3.49263690      30.47317229
Mg       4.91612154      -0.51731994      14.41728583
Mg       4.81936442      -0.96278070      30.41672411
Mg       2.35438616       3.79878566      14.41922041
Mg       2.33767061       3.31517776      30.46432046
Mg       0.00465584      -0.17913733       9.63993534
Mg      -0.07121128      -0.69910537      25.47244601
Mg      -2.58436016       4.08403709       9.46599806
Mg      -2.59667415       3.56021672      25.51761717
Mg       5.02961610      -0.38330323       9.49163142
Mg       4.82423065      -0.77424718      25.41226376
Mg       2.29403210       3.88084773       9.44349845
Mg       2.33983011       3.47687131      25.34157971
Mg       0.03248825      -0.11595579       1.52605343
Mg      -0.04467012      -0.56480174      17.50601166
Mg      -2.54582361       4.23600577       1.70886260
Mg      -2.61513169       3.82146785      17.50259233
Mg       5.03786771      -0.23788300       1.53967556
Mg       4.92446454      -0.61873350      17.49882365
Mg       2.42446091       4.04965961       1.51355980
Mg       2.39698494       3.64631484      17.47892027
Mg      -0.02006108       2.61095895      10.58482923
Mg      -0.14431624       2.12337511      26.55197318
Mg      -2.57478015       6.86030566      10.53064784
Mg      -2.69206270       6.47613601      26.58796984
Mg       4.86682933       2.31041693      10.47365410
Mg       4.84765776       1.96919255      26.34715032
Mg       2.33630907       6.71731768      10.53820907
Mg       2.33668782       6.35114067      26.52837514
Mg       2.47779160       1.21984806       2.47990999
Mg       2.37097368       0.91564564      18.45203786
Mg      -0.15520148       5.47522385       2.57406174
Mg      -0.10667363       5.10330226      18.41620073
Mg       7.39984039       1.14315934       2.48676862
Mg       7.32777139       0.70897685      18.43495958
Mg       4.91222288       5.41241331       2.57802649
Mg       4.87216367       5.05769057      18.58823659
Mg       2.42987057       1.30436683       5.38989135
Mg       2.42457106       0.70773844      21.45870370
Mg      -0.07247186       5.70516752       5.55596038
Mg      -0.11912678       5.09670355      21.55567478
Mg       7.34230180       1.07613022       5.42102025
Mg       7.34795578       0.64516580      21.60472087
Mg       4.90337955       5.35931941       5.54893228
Mg       4.81066610       5.01337546      21.59523716
Mg      -0.05297499       2.45072816      13.50323373
Mg      -0.10228342       2.08974553      29.57026993
Mg      -2.65044575       6.80319898      13.55238703
Mg      -2.67485335       6.45118945      29.50449994
Mg       4.85228534       2.20424813      13.52359969
Mg       4.86798223       1.87210897      29.35860596
Mg       2.41679701       6.60838210      13.54524122
Mg       2.35090406       6.30172907      29.54343835
Ni      -0.08296004       2.58221063       7.96010879
Ni      -0.04791377       2.22146677      24.08391750
Ni      -2.55368929       6.93965704       8.07461873
Ni      -2.71722697       6.38565337      24.03777170
Ni       4.95435491       2.51783540       7.92474419
Ni       4.80548225       1.94786806      23.89953617
Ni       2.35809602       6.81248796       7.94977741
Ni       2.32363137       6.38812330      24.02200798
Ni       2.47019698       1.30487366       0.06152904
Ni       2.39128631       0.93205851      15.96383761
Ni      -0.09026459       5.68394188       0.02342417
Ni      -0.07246729       5.25336417      16.15822829
Ni       7.35152245       1.29298264       0.05093455
Ni       7.38595578       0.71321592      15.97292238
Ni       4.79275052       5.47719499       0.02080799
Ni       4.89108068       5.15517494      16.01896720
Ni       2.40850518       1.17141184       7.98625087
Ni       2.36763082       0.70650665      23.99065306
Ni      -0.11501300       5.40286952       8.03646944
Ni      -0.15408478       5.14883696      23.98318848
Ni       7.36671866       1.05930857       8.00012544
Ni       7.28834383       0.54450573      23.93782891
Ni       4.98708971       5.38665488       8.01477720
Ni       4.78402140       4.91337377      24.04662071
Ni      -0.01518384       2.79729863       0.08055591
Ni       0.00608759       2.47002302      16.00913889
Ni      -2.47451850       7.08616096       0.06164770
Ni      -2.65888586       6.74380363      16.11690052
Ni       4.86806788       2.74205181      -0.09908452
Ni       4.86638974       2.20912456      15.89085615
Ni       2.37672776       6.99420646       0.04304447
Ni       2.30827261       6.54198885      16.08605912
Ni      -0.10570400       1.29335233       4.09860411
Ni      -0.03813873       0.96254789      20.00825169
Ni      -2.57165098       5.63310753       3.98033773
Ni      -2.62708609       5.20172964      19.93948746
Ni       4.86516171       1.26304124       4.00380006
Ni       4.86679659       0.71039951      19.86311726
Ni       2.40487995       5.50492270       4.00949930
Ni       2.30891672       4.98843834      20.07257186
Ni       3.61432719       0.31526742      11.89535974
Ni       3.68463758      -0.15136556      27.87999346
Ni       1.07299116       4.61545954      12.13008373
Ni       1.06718622       4.23155860      27.94859985
Ni       8.66170906       0.18304922      11.93312809
Ni       8.54398638      -0.34759724      27.95917537
Ni       6.11166273       4.45937429      11.89062270
Ni       6.00287497       4.07931740      27.98648228
Ni       2.41738869       2.48853608      11.99218349
Ni       2.31963159       1.93398203      27.94914906
Ni      -0.14258380       6.90407120      12.12008493
Ni      -0.22985526       6.35579531      28.00962355
Ni       7.40343087       2.31894370      11.91839414
Ni       7.28272252       1.86264956      28.00208182
Ni       4.88171693       6.67461453      11.94017727
Ni       4.78798526       6.22889277      28.03504820
Ni      -1.32573733       3.47538247       4.05366881
Ni      -1.33087790       3.15362154      19.99292276
Ni      -3.79480630       7.87389606       4.10888182
Ni      -3.93620222       7.43114339      19.94338865
Ni       3.62545985       3.35687131       4.01605972
Ni       3.61834456       2.91186469      19.91771906
Ni       1.12543775       7.66300732       3.99895724
Ni       1.05381398       7.17034818      20.07181759
Ni       1.09651050       3.35363066       4.00949193
Ni       1.15627245       2.99113759      19.91749047
Ni      -1.42730861       7.66830213       4.08724215
Ni      -1.37691684       7.32325840      19.99992879
Ni       6.02200645       3.19316144       4.01728742
Ni       6.08851220       2.85491754      19.96625203
Ni       3.66039945       7.54834808       4.05034445
Ni       3.60695454       7.15150959      19.98691621
Ni       1.21725190       0.28692682      11.95913923
Ni       1.05136301      -0.19518390      27.86756570
Ni      -1.31240155       4.68642168      12.07588576
Ni      -1.42201005       4.24031134      28.04745001
Ni       6.14330136       0.22985120      11.93673974
Ni       6.07083914      -0.19055434      27.87525864
Ni       3.68422030       4.53615198      11.99528459
Ni       3.52196550       4.04686945      27.83639450
Ni       2.44191485      -0.30477745       7.95565580
Ni       2.37716038      -0.74001011      23.95054800
Ni      -0.11133100       4.05244400       8.00157519
Ni      -0.11861619       3.56628099      24.10632431
Ni       7.41253400      -0.42479959       7.86194825
Ni       7.40682153      -0.89437209      23.87138502
Ni       4.90953625       3.93985712       7.93278928
Ni       4.76876748       3.52396027      24.00121660
Ni       1.23491554       2.06471708      -0.03336689
Ni       1.11614208       1.67457684      15.93987034
Ni      -1.28577708       6.45094077       0.09613637
Ni      -1.35878917       5.94870666      16.04380812
Ni       6.23716998       1.94801835       0.01275439
Ni       6.18659905       1.45608709      16.06909136
Ni       3.63892131       6.22013285       0.00556863
Ni       3.60289609       5.93552067      16.02845820
Ni       2.47922551      -0.02693632      -0.02476437
Ni       2.38188028      -0.44348855      15.91525279
Ni      -0.03964960       4.23434503       0.10260394
Ni      -0.04266297       3.83471828      16.06352345
Ni       7.49158972      -0.17992847       0.02171871
Ni       7.34546560      -0.61639749      16.05138102
Ni       4.94254627       4.03496326      -0.11219095
Ni       4.80922498       3.66226422      15.96257292
Ni       1.11944702       1.85349845       8.07385451
Ni       1.01071982       1.41098111      24.00894955
Ni      -1.32106718       6.23994414       8.12659468
Ni      -1.41975118       5.76490427      23.98512191
Ni       6.27335252       1.61252158       7.99694572
Ni       6.04610475       1.36020730      23.96165305
Ni       3.56437938       6.08615307       8.03030248
Ni       3.56690886       5.61534924      24.06759278
Ni      -1.30738307       2.10665904      -0.01854728
Ni      -1.25504749       1.70361543      15.95658031
Ni      -3.85088088       6.47456216       0.00922594
Ni      -3.78922641       5.99691717      16.04276353
Ni       3.57646461       2.03622839       0.00267092
Ni       3.64495747       1.54393385      15.88878075
Ni       1.16569817       6.34582211       0.10502942
Ni       1.11916443       5.89352815      15.87588114
Ni      -1.28317373       1.95292287       7.96356720
Ni      -1.40336817       1.49691923      23.94374156
Ni      -3.80311017       6.29451537       8.10927219
Ni      -3.97921537       5.84944731      24.05559316
Ni       3.59058894       1.79481385       7.98186621
Ni       3.64183766       1.35136142      24.02870207
Ni       1.12941591       6.22842246       8.06141619
Ni       1.04054075       5.79155639      23.95368577
