192
Lattice="9.693062739910367 -0.07499117693847197 0.0059032279601624995 -4.560446422826854 8.811589808014949 0.2659298651600631 0.028964582938937198 -0.47800479424873993 31.252462496129418" Properties=species:S:1:pos:R:3 pbc="T T T"
Mg       0.00222255      -0.00672768       6.37547748
Mg       0.03502281      -0.29286153      21.98154651
Mg      -2.27278387       4.24530083       6.40453887
Mg      -2.19593859       4.05614011      22.08300958
Mg       4.88035641      -0.14031178       6.43711337
Mg       4.90064309      -0.33251809      21.98275564
Mg       2.54123555       4.22321837       6.47531963
Mg       2.55212203       4.00280850      22.14379738
Mg       0.00598211      -0.28744535      14.14352223
Mg      -0.00944446      -0.47584355      29.74108285
Mg      -2.15574434       4.15536218      14.22085673
Mg      -2.36126193       3.92107209      29.95339821
Mg       4.84055746      -0.21369069      14.10534183
Mg       4.90412938      -0.44161429      29.83651716
Mg       2.60687207       4.16775050      14.32650470
Mg       2.60688001       4.00419219      30.01114008
Mg       0.09932489      -0.10777909       9.28008837
Mg       0.01677929      -0.36045541      24.86372569
Mg      -2.25699253       4.27789863       9.51700530
Mg      -2.18117727       3.96133805      24.96287422
Mg       4.75063529      -0.24752211       9.29117021
Mg       4.86940964      -0.38532014      24.97521925
Mg       2.63356807       4.20228001       9.37231401
Mg       2.55007436       4.03616370      25.05176110
Mg      -0.04018138       0.01986256       1.33114721
Mg       0.02679206      -0.22476034      17.14372437
Mg      -2.26804023       4.39616608       1.64851903
Mg      -2.24128845       4.18007620      17.20905411
Mg       4.80812496      -0.05271074       1.44370255
Mg       4.80275518      -0.38824505      17.06147470
Mg       2.60465931       4.38047782       1.59496817
Mg       2.58536058       4.14568947      17.22973584
Mg       0.11730752       2.76642936      10.30193960
Mg       0.08182408       2.38581158      25.97888336
Mg      -2.03810053       7.22654583      10.43558225
Mg      -2.20766228       6.92994575      26.06764591
Mg       4.93025650       2.75081708      10.34562127
Mg       5.01028687       2.54124170      25.97012239
Mg       2.79381147       7.13413783      10.43228402
Mg       2.65367873       6.93463878      26.05234863
Mg       2.48602837       1.51974873       2.35209207
Mg       2.51218141       1.17985143      18.07688998
Mg       0.19040364       5.80519549       2.61454385
Mg       0.26348377       5.56182715      18.24214804
Mg       7.32441254       1.38280274       2.48573490
Mg       7.30139854       1.13004325      18.12172729
Mg       4.98505392       5.90554335       2.61214121
Mg       5.12525352       5.45864334      18.30185847
Mg       2.49494644       1.38295598       5.42355760
Mg       2.46011448       0.97946384      20.95124548
Mg       0.21119194       5.69379875       5.56036880
Mg       0.10375920       5.58319625      21.24735536
Mg       7.33091370       1.32149594       5.41917156
Mg       7.32271403       1.17202351      21.05364943
Mg       5.02289739       5.75192870       5.52858945
Mg       5.07091949       5.47391465      21.19255020
Mg       0.11671021       2.74453709      13.26718321
Mg       0.13197027       2.46235045      28.92046310
Mg      -2.05495215       7.20702382      13.50877662
Mg      -2.23935743       6.94932441      29.10392793
Mg       5.02164309       2.64819148      13.30619946
Mg       4.92125214       2.51288272      28.91386683
Mg       2.63286772       7.08130089      13.47354090
Mg       2.63422950       6.83965434      29.05993223
Ni       0.04821292       2.73382997       7.91077699
Ni       0.15014065       2.50819316      23.59835765
Ni      -2.13501022       7.16374083       8.03477033
Ni      -2.22908274       6.91879082      23.71412595
Ni       4.91978236       2.79177437       8.01436336
Ni       4.89811709       2.49572033      23.43501376
Ni       2.71887339       7.14293683       8.07579905
Ni       2.68147411       6.91752194      23.62777019
Ni       2.41172468       1.43495733       0.04605542
Ni       2.40323144       1.20465129      15.61498856
Ni       0.15070223       5.90779178       0.20082945
Ni       0.18434834       5.63884670      15.80480005
Ni       7.28767758       1.41289749       0.03785837
Ni       7.28788016       1.13053991      15.63493907
Ni       5.00083637       5.87188750       0.24086209
Ni       4.99908042       5.56637602      15.86295630
Ni       2.42322726       1.38896006       8.00700042
Ni       2.52073480       1.15421511      23.42622176
Ni       0.26796996       5.71032882       8.01581659
Ni       0.18808627       5.49030415      23.60943712
Ni       7.34396391       1.26557389       7.93489314
Ni       7.32399215       0.95612212      23.41963601
Ni       5.07903208       5.64098337       8.01846982
Ni       5.07868964       5.46744390      23.61043568
Ni       0.13577684       2.97026348       0.04739364
Ni       0.12954926       2.69417431      15.62621052
Ni      -2.24996570       7.34188566       0.20788101
Ni      -2.11490664       7.16541183      15.83411750
Ni       4.91354956       2.89243831       0.15050805
Ni       4.89407809       2.68850659      15.73085402
Ni       2.63539375       7.32077116       0.27179909
Ni       2.61600323       7.04870984      15.91753813
Ni      -0.00385379       1.52350241       3.95274876
Ni       0.01452270       1.19899449      19.63416692
Ni      -2.20192081       5.76006491       4.12666495
Ni      -2.25564660       5.49535520      19.71897099
Ni       4.93020318       1.41229499       3.96247915
Ni       4.98324932       1.09192877      19.58972745
Ni       2.70129310       5.77987429       4.05103514
Ni       2.62341816       5.51030191      19.79837081
Ni       3.70150721       0.52309625      11.73339177
Ni       3.72656373       0.26143524      27.40628800
Ni       1.31417325       4.90425620      11.84358701
Ni       1.45128064       4.76609723      27.49615269
Ni       8.47421317       0.57788410      11.86166379
Ni       8.52262270       0.23428694      27.33391478
Ni       6.28050964       4.82290353      11.88801436
Ni       6.23826308       4.66434237      27.52639884
Ni       2.56892914       2.80226320      11.85995242
Ni       2.53489316       2.50130995      27.44412139
Ni       0.27295909       7.13282771      11.84355916
Ni       0.27548034       6.81122338      27.54356998
Ni       7.31885941       2.71328282      11.81112611
Ni       7.50022113       2.47645606      27.54801335
Ni       5.11668676       7.11234188      11.84995807
Ni       5.12183130       6.83079358      27.51151605
Ni      -1.10290399       3.55674987       3.98395664
Ni      -0.98704469       3.32391801      19.65394020
Ni      -3.42102379       7.99303517       4.17227627
Ni      -3.30521296       7.77134190      19.69255629
Ni       3.76341471       3.60866620       3.99853356
Ni       3.65853202       3.30239961      19.68326865
Ni       1.37740680       7.90346215       4.11838677
Ni       1.50202923       7.74515437      19.75530091
Ni       1.40772987       3.55703447       4.00907847
Ni       1.34637968       3.43188890      19.68876137
Ni      -0.90839894       8.10859226       4.12216457
Ni      -0.94192206       7.79298541      19.76829498
Ni       6.17467212       3.59170931       3.99241768
Ni       6.18670341       3.28949250      19.61026634
Ni       3.86200463       7.89217301       4.12819645
Ni       3.93451384       7.77606462      19.84399283
Ni       1.29587026       0.59077329      11.70357736
Ni       1.24933069       0.28912657      27.36167065
Ni      -1.03175839       5.04569522      11.93115169
Ni      -1.07971266       4.70309505      27.51189149
Ni       6.19478969       0.51010909      11.79526052
Ni       6.15755512       0.23968698      27.30808696
Ni       3.80083056       4.82701833      11.93518909
Ni       3.93167129       4.62744360      27.54344926
Ni       2.39935898      -0.19133646       7.76737005
Ni       2.39733105      -0.33187698      23.43390661
Ni       0.13037619       4.20696574       7.95661746
Ni       0.16215748       3.99602084      23.59080204
Ni       7.26171173      -0.19816337       7.75426916
Ni       7.35367795      -0.47508014      23.39314126
Ni       5.00986714       4.23534514       7.97332354
Ni       5.02107678       3.99216430      23.55466238
Ni       1.23468599       2.26068603       0.03876238
Ni       1.31881982       1.90176793      15.66102148
Ni      -1.08037835       6.51117994       0.12310193
Ni      -0.97285223       6.39286184      15.79357303
Ni       6.17037503       2.15929480       0.06819774
Ni       6.17129498       1.94586015      15.72537849
Ni       3.80149125       6.59852215       0.24308549
Ni       3.80110242       6.29430180      15.91666464
Ni       2.53355045      -0.09351934      -0.07219726
Ni       2.32434148      -0.29659155      15.68102325
Ni       0.19941093       4.40326266       0.13014027
Ni       0.16753598       4.10131949      15.77074725
Ni       7.32383419      -0.13344016      -0.03996351
Ni       7.39012667      -0.33616653      15.61401850
Ni       4.88778538       4.24884847       0.13252221
Ni       5.00445045       4.13816142      15.74857866
Ni       1.30842313       2.07788868       7.89118784
Ni       1.33822153       1.76071133      23.54883711
Ni      -1.07081869       6.52762511       7.98278749
Ni      -0.95494774       6.34714419      23.61766657
Ni       6.11640184       2.06982862       7.87843610
Ni       6.21523193       1.81472847      23.57071476
Ni       3.80777485       6.45554573       8.05177536
Ni       3.85736530       6.16519452      23.71511789
Ni      -1.14178499       2.13569871      -0.02584789
Ni      -1.13477274       1.91169850      15.72161760
Ni      -3.47254506       6.62702183       0.23498250
Ni      -3.45790413       6.37424225      15.86017459
Ni       3.69885314       2.18203607       0.17622164
Ni       3.76694460       1.96608537      15.73920105
Ni       1.46042198       6.57600806       0.10624792
Ni       1.45502787       6.29789777      15.86556679
Ni      -1.12331890       2.11698757       7.88121401
Ni      -1.12220309       1.85198169      23.52288458
Ni      -3.47462716       6.49466384       7.97529554
Ni      -3.35936278       6.27254484      23.56702378
Ni       3.73772044       2.06676135       7.88528194
Ni       3.77279602       1.84585574      23.52427457
Ni       1.41568579       6.40430338       8.10290281
Ni       1.53592166       6.25755766      23.68945191
