192
Lattice="10.114704470675946 0.27832049541424875 0.13155490262760658 -5.002197969406412 8.255265652909099 -0.13862020550611082 0.678188898443607 -0.0988092304750254 32.93207003267399" Properties=species:S:1:pos:R:3 pbc="T T T"
Mg       0.12724945       0.03212700       6.65887723
Mg       0.46298606       0.02397583      23.04078385
Mg      -2.42659412       4.09063645       6.61183636
Mg      -1.98761998       4.05179007      23.04310200
Mg       5.25504013       0.10151412       6.73665312
Mg       5.62303405       0.13741652      23.21896255
Mg       2.80467387       4.28069631       6.72843685
Mg       2.98031742       4.21007375      23.10370719
Mg       0.31114900      -0.14587767      14.97034476
Mg       0.61710569      -0.13305387      31.40578304
Mg      -2.13194741       4.05516616      14.86270598
Mg      -1.84361795       4.16647660      31.37222499
Mg       5.35329505       0.04576722      14.97316337
Mg       5.67932968       0.03801291      31.47124057
Mg       2.82256405       4.24699417      14.85931732
Mg       3.17358111       4.26013806      31.27218048
Mg       0.20393970      -0.01865273       9.78795873
Mg       0.55103260      -0.10800570      26.21793769
Mg      -2.32523825       4.13902064       9.73725752
Mg      -2.06181584       3.99606161      26.23825358
Mg       5.30438834       0.08057236       9.78679500
Mg       5.63747814       0.01134020      26.31664122
Mg       2.78543222       4.21618195       9.72164232
Mg       3.06431898       4.16807849      26.29581658
Mg      -0.05125412       0.04538204       1.57712721
Mg       0.37223166      -0.02931094      17.96533940
Mg      -2.44235449       4.17129864       1.37733081
Mg      -2.14331301       4.12800784      17.91949495
Mg       5.10687239       0.17499002       1.67256601
Mg       5.49351991       0.15874175      17.94806738
Mg       2.52467204       4.28558164       1.51486204
Mg       2.77631835       4.21366001      18.08791119
Mg       0.22056307       2.71174577      10.73467994
Mg       0.56543628       2.70887144      27.30746319
Mg      -2.22541366       6.88704398      10.61240020
Mg      -2.01613794       6.78937371      27.18787769
Mg       5.28152478       2.89374098      10.78829923
Mg       5.57808536       2.81851430      27.24834139
Mg       2.73265641       7.00956522      10.81452118
Mg       3.14916016       6.97905996      27.30365300
Mg       2.64618804       1.40021078       2.46418253
Mg       2.83835971       1.40233509      19.05164203
Mg       0.04967298       5.62798228       2.52745254
Mg       0.47069404       5.54717168      19.01901187
Mg       7.67905380       1.53157962       2.68222596
Mg       7.94012559       1.61496271      19.11004641
Mg       5.06924540       5.78886300       2.47366471
Mg       5.46257106       5.70630859      19.08573803
Mg       2.65256983       1.39363221       5.68822420
Mg       3.07414318       1.41465734      22.05417968
Mg       0.10639374       5.63814909       5.61321173
Mg       0.42932942       5.48528995      22.10428205
Mg       7.75558880       1.61917731       5.71219701
Mg       8.04232267       1.58395947      22.18075416
Mg       5.24924886       5.73635004       5.74436838
Mg       5.44240909       5.81606984      22.21645151
Mg       0.19129469       2.71512761      13.78820462
Mg       0.71615363       2.74730411      30.36820525
Mg      -2.24235189       6.86629321      13.65556880
Mg      -1.83309074       6.83752901      30.19757965
Mg       5.35533211       2.89738036      13.90685287
Mg       5.70012928       2.85440770      30.24479528
Mg       2.91824814       6.97872475      13.80552101
Mg       3.23388693       6.92797378      30.32479205
Ni       0.27664387       2.84065326       8.21449087
Ni       0.50337347       2.62887532      24.66310284
Ni      -2.28481767       6.89027361       8.15489035
Ni      -1.97559828       6.83877924      24.71597852
Ni       5.22416364       2.87704503       8.22998842
Ni       5.63067069       2.90244591      24.69586310
Ni       2.67739893       7.08024110       8.21367692
Ni       3.10133507       7.03594476      24.64287881
Ni       2.59229410       1.46540339       0.03255778
Ni       2.83922280       1.40876794      16.41651621
Ni       0.12517684       5.54001976      -0.11100964
Ni       0.39196155       5.61038369      16.47645345
Ni       7.59838517       1.54599505       0.15189532
Ni       7.95278946       1.58002730      16.62077040
Ni       5.06587540       5.71224071      -0.00483302
Ni       5.39792423       5.71541638      16.46709317
Ni       2.74257448       1.44258367       8.12820760
Ni       3.05239655       1.46828908      24.70204177
Ni       0.24044004       5.58941627       8.18303635
Ni       0.58803881       5.55005370      24.59345952
Ni       7.79402811       1.55397994       8.26190206
Ni       8.07243304       1.49357682      24.86412167
Ni       5.26514769       5.68471317       8.28776505
Ni       5.59618724       5.66473979      24.69646314
Ni      -0.01955991       2.88290198      -0.01541827
Ni       0.28151544       2.71396213      16.39808638
Ni      -2.41491199       6.98078182      -0.12537639
Ni      -2.12197887       6.89535124      16.34848002
Ni       5.07634841       2.88692016       0.00938169
Ni       5.40191766       2.89580253      16.49639022
Ni       2.51583562       7.12229337      -0.00901956
Ni       2.88267520       6.98121880      16.38779485
Ni       0.15881465       1.33051534       4.19627402
Ni       0.41210732       1.32443305      20.60500917
Ni      -2.39614870       5.51811110       3.96893627
Ni      -2.17856731       5.52407171      20.43376319
Ni       5.21030439       1.49007351       4.16713955
Ni       5.47178507       1.45431772      20.59489357
Ni       2.66342709       5.61887954       4.14877407
Ni       2.95157724       5.60862512      20.53717371
Ni       4.07627116       0.82696039      12.43556215
Ni       4.38873062       0.72433523      28.90958689
Ni       1.53009315       4.86916223      12.32415792
Ni       1.90579998       4.75430196      28.77050725
Ni       9.11848271       0.90811217      12.45408901
Ni       9.43825498       0.89514108      28.95088606
Ni       6.50345901       5.01786306      12.33939443
Ni       6.88026784       5.01780008      28.76344348
Ni       2.78042065       2.78641588      12.37811661
Ni       3.19019193       2.78045430      28.70892483
Ni       0.30538380       6.97451760      12.35641440
Ni       0.73480393       6.92398729      28.73199531
Ni       7.95323271       2.98668346      12.35434826
Ni       8.16506450       2.93601048      28.90259450
Ni       5.33588771       7.06834262      12.33854098
Ni       5.71578886       7.09697914      28.87259083
Ni      -1.19929505       3.47731365       4.03863655
Ni      -0.85986306       3.41124371      20.60130140
Ni      -3.60417837       7.55845584       4.09634620
Ni      -3.33550753       7.46906495      20.50346111
Ni       3.94852864       3.57841440       4.09200142
Ni       4.28675359       3.55983252      20.54838662
Ni       1.47812228       7.74156031       4.06875153
Ni       1.80588716       7.64277552      20.59668916
Ni       1.34591166       3.58291933       4.21779498
Ni       1.59732424       3.43250686      20.47571668
Ni      -1.10827407       7.66901750       4.03711276
Ni      -0.74161604       7.53891032      20.58077286
Ni       6.43073953       3.70015329       4.17404476
Ni       6.75907652       3.58139357      20.76110822
Ni       3.89155653       7.79222842       4.10340800
Ni       4.26341472       7.69449761      20.54919303
Ni       1.50504018       0.61226583      12.37545998
Ni       1.88275613       0.70180311      28.85239549
Ni      -0.99071733       4.84041450      12.29743881
Ni      -0.64696284       4.66224838      28.87155252
Ni       6.61414692       0.91131253      12.36240026
Ni       6.84401801       0.73341110      28.87694922
Ni       4.08723288       4.93534163      12.37003518
Ni       4.43361634       4.93736747      28.78862004
Ni       2.64577917       0.02350167       8.16001227
Ni       3.00511233       0.13731545      24.70641260
Ni       0.13702438       4.19081999       8.21778095
Ni       0.60587538       4.03959169      24.66863393
Ni       7.77035057       0.22631272       8.32320636
Ni       8.05386317       0.16743395      24.82824836
Ni       5.32580470       4.35481730       8.19820151
Ni       5.65000257       4.23056203      24.79995568
Ni       1.33843641       2.18754656      -0.01231132
Ni       1.62250974       2.08367572      16.48154561
Ni      -1.23513067       6.15250042      -0.15816541
Ni      -0.82756602       6.23920493      16.36558645
Ni       6.31954363       2.23786757       0.04265422
Ni       6.62580163       2.25694705      16.62146467
Ni       3.83347545       6.43471826       0.07067854
Ni       4.11165707       6.32315567      16.52861220
Ni       2.45753580       0.01310615       0.03454665
Ni       2.87562749      -0.04304746      16.49815417
Ni      -0.00555849       4.20469353       0.00930531
Ni       0.43977161       4.12745476      16.44677747
Ni       7.56082896       0.23247700       0.04313937
Ni       8.00245623       0.08439934      16.62254344
Ni       4.98897168       4.32201765       0.05927309
Ni       5.35243351       4.25160360      16.41932295
Ni       1.46547403       2.15752898       8.35019150
Ni       1.76897759       2.12435905      24.67139932
Ni      -1.09046576       6.26965987       8.22765753
Ni      -0.66163089       6.11556049      24.65744778
Ni       6.55383200       2.24895716       8.32561049
Ni       6.89066840       2.16718334      24.69030624
Ni       3.94765596       6.38790689       8.24496521
Ni       4.33074299       6.45284784      24.70154607
Ni      -1.29294027       1.98809019      -0.01293240
Ni      -0.86588285       2.02900848      16.40544687
Ni      -3.74589285       6.19307031      -0.07072359
Ni      -3.38456527       6.10800063      16.30055045
Ni       3.85439874       2.20590798       0.02922086
Ni       4.08669829       2.19365743      16.56883054
Ni       1.26207451       6.34805629      -0.05049056
Ni       1.57655129       6.23820347      16.34555567
Ni      -1.03550079       2.04004484       8.22678517
Ni      -0.62460341       2.09990315      24.70597889
Ni      -3.60734398       6.16612568       8.20610294
Ni      -3.20486283       6.10530351      24.57131479
Ni       3.82181585       2.20660746       8.31699010
Ni       4.29005090       2.10096594      24.66940876
Ni       1.39820485       6.29648008       8.22479292
Ni       1.77767392       6.22757365      24.67733358
