192
Lattice="9.84264238666847 0.22896192814333133 0.3240863774976388 -4.967627713935352 8.23649294294297 -0.38903212122565894 -0.19571665729497878 0.43464852424792993 31.782229462761602" Properties=species:S:1:pos:R:3 pbc="T T T"
Mg       0.08970982       0.08697944       6.47036657
Mg      -0.15205697       0.37692503      22.24933697
Mg      -2.57579559       4.16056262       6.29410909
Mg      -2.59344722       4.42413154      22.18794929
Mg       4.92605944       0.19823168       6.65574621
Mg       4.75701168       0.41353609      22.56316643
Mg       2.39163403       4.28273763       6.39855441
Mg       2.30673546       4.53103379      22.23939202
Mg      -0.08786873       0.22092853      14.39505325
Mg      -0.15137715       0.39145157      30.28989478
Mg      -2.59239863       4.30574425      14.18570221
Mg      -2.59759201       4.51876941      30.12625150
Mg       4.84980729       0.37481907      14.55963550
Mg       4.73694606       0.57824568      30.37764251
Mg       2.39429525       4.41292043      14.32298576
Mg       2.21519464       4.65231638      30.19979494
Mg       0.00402759       0.15539267       9.41587978
Mg      -0.30054995       0.37861602      25.39702868
Mg      -2.67681888       4.32003484       9.23945938
Mg      -2.69283622       4.45125569      25.10516004
Mg       4.92683824       0.29143528       9.68343982
Mg       4.68022992       0.45137622      25.49222334
Mg       2.40733566       4.36773263       9.46618363
Mg       2.28394037       4.55902317      25.19446567
Mg       0.00572355       0.02684103       1.50295209
Mg      -0.14789110       0.24150806      17.31944651
Mg      -2.53441355       4.09292740       1.34757422
Mg      -2.63126205       4.29705408      17.16821034
Mg       4.85814483       0.14766705       1.70183785
Mg       4.89923472       0.33271342      17.56827129
Mg       2.38710291       4.22710499       1.43815665
Mg       2.33909442       4.51643920      17.43951520
Mg      -0.05830373       2.99131132      10.31599114
Mg      -0.20026216       3.12451416      26.24859134
Mg      -2.53571236       7.03611177      10.16964291
Mg      -2.69133928       7.29096934      26.09408107
Mg       4.83330660       3.06573387      10.53391255
Mg       4.74348739       3.30788384      26.51585733
Mg       2.31603281       7.17453154      10.32609858
Mg       2.20628160       7.38415445      26.10393317
Mg       2.43007833       1.39710645       2.59470493
Mg       2.29342356       1.68804756      18.46386709
Mg      -0.01591002       5.64548417       2.34347986
Mg      -0.19816667       5.82376589      18.19240029
Mg       7.36492528       1.58830691       2.60142971
Mg       7.38602818       1.71822700      18.57973883
Mg       4.95215993       5.69224978       2.54593483
Mg       4.74107405       6.04319041      18.41990018
Mg       2.40414570       1.43588762       5.45734947
Mg       2.44614683       1.71784919      21.42401401
Mg      -0.10774983       5.64734489       5.38837208
Mg      -0.23392743       5.75084471      21.18351248
Mg       7.32763288       1.60634051       5.64062066
Mg       7.24981931       1.85050717      21.50949251
Mg       4.87227534       5.79412930       5.45016853
Mg       4.73858969       5.98156705      21.38093803
Mg      -0.03993795       2.93363698      13.34910208
Mg      -0.22544305       3.14144667      29.24474488
Mg      -2.54672538       7.04715763      13.13837200
Mg      -2.72408192       7.24192602      29.03750279
Mg       4.80191704       3.10325350      13.39988797
Mg       4.70732669       3.25376190      29.33677519
Mg       2.35141475       7.20651992      13.27294991
Mg       2.17338573       7.37636100      29.15259368
Ni      -0.06267300       2.83953928       7.87515638
Ni      -0.30718174       3.15145720      23.72564070
Ni      -2.57747698       7.07734294       7.79862446
Ni      -2.60527720       7.21384477      23.54839038
Ni       4.83866879       3.02960317       8.04765987
Ni       4.71140963       3.20510951      23.91074712
Ni       2.40089491       7.10465881       7.79332606
Ni       2.27428439       7.31594981      23.78752156
Ni       2.50521015       1.43433516       0.06034533
Ni       2.27773915       1.69194736      15.94198407
Ni      -0.07376730       5.55487088      -0.18913190
Ni      -0.04854268       5.84491716      15.71523728
Ni       7.43546921       1.64601421       0.13729652
Ni       7.31891614       1.77971779      16.11229717
Ni       4.85077625       5.69654138      -0.01394838
Ni       4.76702554       5.81309529      15.96201438
Ni       2.54609939       1.58326554       8.03315401
Ni       2.37037873       1.67704069      23.93166964
Ni      -0.05901332       5.61842812       7.82248867
Ni      -0.14704390       5.82503334      23.81274628
Ni       7.36607247       1.60214968       8.17093604
Ni       7.26936323       1.85691808      24.07075586
Ni       4.79516135       5.71135228       7.89457565
Ni       4.66963532       6.02754127      23.85893409
Ni      -0.13461293       2.78958662      -0.03624641
Ni      -0.09635035       2.96554221      15.75711152
Ni      -2.45285554       6.90987123      -0.24656785
Ni      -2.49000039       7.14208674      15.65259404
Ni       4.95952717       2.88221340       0.11419217
Ni       4.78578413       3.00427513      15.91929728
Ni       2.42164266       6.97350424      -0.12247698
Ni       2.26330314       7.22292214      15.70963134
Ni      -0.07543007       1.40730179       3.96830794
Ni      -0.13048508       1.62171352      19.76800735
Ni      -2.41734477       5.55801980       3.73438838
Ni      -2.63823123       5.73073892      19.63457071
Ni       4.84353445       1.51326728       4.02240730
Ni       4.79171557       1.74891306      19.96908710
Ni       2.36476441       5.77904877       3.85684926
Ni       2.33234832       5.90343744      19.78588619
Ni       3.57469820       0.86458927      11.95840765
Ni       3.49288407       1.14098807      27.98109014
Ni       1.15630308       5.17414073      11.87905022
Ni       0.91706769       5.24993928      27.71926850
Ni       8.55750805       1.00431071      12.19589310
Ni       8.42046462       1.25668143      28.11417482
Ni       6.00370272       5.15906049      11.98073670
Ni       5.95913697       5.41357475      27.87260302
Ni       2.44530362       3.04218991      11.90991458
Ni       2.29310248       3.17024009      27.76773185
Ni      -0.09889660       7.11653042      11.71213086
Ni      -0.20852081       7.40747253      27.68690182
Ni       7.33939959       3.09827602      12.10913612
Ni       7.15009475       3.27456775      28.00738773
Ni       4.87821583       7.35508833      11.92163903
Ni       4.72154328       7.44162880      27.82619478
Ni      -1.27503081       3.53303277       3.70264159
Ni      -1.37530397       3.67619488      19.75374380
Ni      -3.75447285       7.66973290       3.69157209
Ni      -3.81028127       7.80236828      19.51258438
Ni       3.62333465       3.59756339       4.05166148
Ni       3.60172231       3.70942540      19.86495630
Ni       1.22332350       7.67282534       3.78215210
Ni       0.91293870       7.94946003      19.62845182
Ni       1.19093923       3.58317844       3.80050781
Ni       0.96776863       3.77939567      19.75567367
Ni      -1.14178463       7.85297468       3.73419106
Ni      -1.37499581       7.89658957      19.64572056
Ni       6.08172544       3.63485358       4.14968648
Ni       6.05629620       3.89631832      19.88083434
Ni       3.71059767       7.74171282       3.89322042
Ni       3.59919598       7.98199764      19.76511928
Ni       0.99778230       0.87561693      12.02207700
Ni       1.06775699       1.09031606      27.84984798
Ni      -1.31354649       5.04115820      11.80210503
Ni      -1.38330854       5.25968139      27.63729450
Ni       6.14746182       1.03427713      12.13385296
Ni       5.94484181       1.20714824      27.97580891
Ni       3.63764089       5.20269138      12.01293968
Ni       3.51602947       5.34896416      27.78775434
Ni       2.33157883       0.22357257       8.06865950
Ni       2.33144774       0.35023387      23.94454939
Ni      -0.08380838       4.28685249       7.84845927
Ni      -0.10677968       4.51739451      23.66545098
Ni       7.31929878       0.28386072       8.19575621
Ni       7.28176398       0.48819042      24.11430393
Ni       4.87320214       4.47221394       8.05414665
Ni       4.85183891       4.60836497      23.91153404
Ni       1.29095788       2.03217893      -0.02745156
Ni       1.07021314       2.31110128      15.80158614
Ni      -1.19498140       6.30373451      -0.14778253
Ni      -1.42554554       6.43224469      15.69872068
Ni       6.15166122       2.29083001       0.09677108
Ni       6.05906690       2.46154110      16.02176593
Ni       3.65202155       6.32977067      -0.18731967
Ni       3.52296692       6.53951507      15.87072117
Ni       2.41692888       0.06808925       0.06436958
Ni       2.42367101       0.28265777      15.99412437
Ni      -0.05944632       4.22742080      -0.12190305
Ni      -0.08474362       4.35521772      15.69820895
Ni       7.29415704       0.11357274       0.28630965
Ni       7.20004533       0.44101783      16.14627191
Ni       4.92510810       4.36320105       0.04337728
Ni       4.85672414       4.49450141      15.89729603
Ni       1.21982023       2.25989078       7.87881293
Ni       1.10352806       2.48079618      23.73901714
Ni      -1.27066420       6.25670446       7.77044560
Ni      -1.47553189       6.61435693      23.64638267
Ni       6.08291894       2.39161361       8.06502479
Ni       6.00882814       2.61222784      23.86671268
Ni       3.63911784       6.45889970       7.84937096
Ni       3.51489938       6.62119436      23.81511580
Ni      -1.18707977       2.06096158      -0.09420430
Ni      -1.37318571       2.22090344      15.87861998
Ni      -3.68504657       6.09263839      -0.20336890
Ni      -3.88378713       6.31363085      15.58376537
Ni       3.75084892       2.13232631       0.03566982
Ni       3.53691387       2.40651735      15.96450174
Ni       1.18975960       6.20685095      -0.04687284
Ni       1.09728789       6.43866137      15.72088396
Ni      -1.26131219       2.21709146       7.85673750
Ni      -1.46457797       2.36456203      23.81656903
Ni      -3.84436171       6.25109777       7.56800400
Ni      -3.90214769       6.45529442      23.46442510
Ni       3.55109010       2.27988015       8.05397750
Ni       3.52509723       2.52770965      23.85280143
Ni       1.14122763       6.38695058       7.91207785
Ni       1.03118574       6.69351473      23.69241482
