192
Lattice="9.607376992814592 0.17424317527537558 -0.04001963644922767 -4.59197828995844 8.315119562211937 0.2993370026905821 0.7084710552037636 -0.6334805870163989 32.53924877868106" Properties=species:S:1:pos:R:3 pbc="T T T"
Mg       0.07220424      -0.06584858       6.57660016
Mg       0.49011772      -0.35767582      22.81684332
Mg      -2.22545850       4.04842567       6.76761598
Mg      -1.82202576       3.65852013      22.99664767
Mg       4.95725543      -0.02518480       6.59717318
Mg       5.30187269      -0.24705783      22.90382898
Mg       2.65290283       4.14488272       6.71113460
Mg       3.06069249       3.89133733      22.88952679
Mg       0.32356340      -0.23739802      14.71403039
Mg       0.65422194      -0.62640219      31.08846412
Mg      -1.85936485       3.89192391      14.88972202
Mg      -1.62922565       3.52376391      31.10074973
Mg       5.16846841      -0.09149869      14.69090421
Mg       5.53820316      -0.58789897      30.96611133
Mg       2.82209904       4.10330223      14.81038135
Mg       3.17981892       3.63404625      31.11406694
Mg       0.26686664      -0.13466468       9.63025264
Mg       0.58527880      -0.54074693      25.96675171
Mg      -2.10313326       3.95985498       9.81436380
Mg      -1.69359756       3.63587300      26.04308408
Mg       5.00983665      -0.08689139       9.73783313
Mg       5.33520354      -0.33460791      25.79693009
Mg       2.71083043       4.04582265       9.75944906
Mg       3.06514713       3.74823776      26.10286846
Mg      -0.00416883      -0.06168067       1.60201550
Mg       0.39174294      -0.27419401      17.73107176
Mg      -2.21509061       4.15004631       1.67618350
Mg      -1.90169408       3.86848282      17.93839045
Mg       4.78394240       0.08562127       1.59890825
Mg       5.23410608      -0.33238920      17.82794419
Mg       2.55996922       4.23738531       1.59921798
Mg       2.89549275       3.92734133      17.90482170
Mg       0.25866369       2.61741406      10.83869324
Mg       0.61393868       2.28418898      27.09855144
Mg      -2.04379021       6.66427398      10.91521717
Mg      -1.58697850       6.36977316      27.21682414
Mg       5.09579940       2.68158676      10.73958452
Mg       5.50042417       2.38004402      27.09275232
Mg       2.74271485       6.87680346      10.84931745
Mg       3.20560381       6.52712070      27.14558781
Mg       2.48675762       1.42251324       2.58311601
Mg       2.79653504       1.14477867      18.99805649
Mg       0.16933538       5.58283793       2.66845492
Mg       0.54231207       5.21749534      19.03967258
Mg       7.30022295       1.46996207       2.58789975
Mg       7.62681525       1.12952492      18.88184768
Mg       4.92713492       5.64212258       2.73548180
Mg       5.41179305       5.36107457      19.01500509
Mg       2.58362121       1.30625540       5.67939749
Mg       2.92824156       1.09302538      21.81961969
Mg       0.17351858       5.38989022       5.86077782
Mg       0.51002349       5.17377163      22.10291187
Mg       7.38375121       1.42239180       5.60846191
Mg       7.85618951       1.13222611      21.90715081
Mg       5.07917172       5.63068393       5.67350874
Mg       5.47847751       5.22153911      22.07661214
Mg       0.32013007       2.52893658      13.83828462
Mg       0.70664862       2.18611178      30.12571233
Mg      -1.93909510       6.60149032      13.84696165
Mg      -1.61850239       6.33392375      30.37635315
Mg       5.19502688       2.64448077      13.74636488
Mg       5.51174619       2.34320153      30.02066045
Mg       2.87700032       6.82458161      13.94746478
Mg       3.27384801       6.52818729      30.16259429
Ni       0.18153864       2.70103031       8.24783625
Ni       0.55248935       2.24903561      24.48057668
Ni      -2.14356592       6.83541254       8.28305769
Ni      -1.72351090       6.56617322      24.60147486
Ni       4.98809810       2.85322852       8.20633113
Ni       5.38506865       2.43514026      24.48256800
Ni       2.78128725       6.85641594       8.43566905
Ni       3.14570185       6.56765884      24.69691403
Ni       2.43975230       1.43186283       0.03180877
Ni       2.76984368       1.12522725      16.33402592
Ni       0.15749457       5.65843171       0.18262625
Ni       0.43929883       5.28506493      16.50106812
Ni       7.19416823       1.49061851       0.00697451
Ni       7.65923748       1.21231700      16.37881942
Ni       4.97437931       5.69401051       0.19990388
Ni       5.34319378       5.33963957      16.44789311
Ni       2.66108892       1.24096448       8.14097411
Ni       3.00114375       1.05196809      24.35080820
Ni       0.27666394       5.45641758       8.41922834
Ni       0.67922112       5.09697448      24.58899028
Ni       7.40671709       1.36710525       8.09236898
Ni       7.72342334       1.09845999      24.44740448
Ni       5.15038847       5.45364686       8.19559336
Ni       5.59985626       5.26099224      24.60348457
Ni       0.01620187       2.77710317       0.03390530
Ni       0.39216014       2.54592661      16.42171473
Ni      -2.20274140       6.96262506       0.30050928
Ni      -1.85492316       6.63885198      16.45900236
Ni       4.91453588       2.80224768       0.05113775
Ni       5.25282825       2.61281377      16.43474768
Ni       2.53959452       6.98916286       0.13962010
Ni       2.99346200       6.81637870      16.48321558
Ni       0.21560370       1.32453297       4.19185653
Ni       0.47713114       0.90694619      20.30005088
Ni      -2.14423244       5.47479692       4.28989310
Ni      -1.81153304       5.18245329      20.48440904
Ni       4.96190377       1.36150478       4.13669591
Ni       5.31872499       1.06176316      20.38311568
Ni       2.65491242       5.56096165       4.33138561
Ni       2.92899842       5.16274014      20.49961942
Ni       3.85466409       0.48905232      12.17949746
Ni       4.24175351       0.25984515      28.59011375
Ni       1.58505687       4.71558683      12.40072207
Ni       1.98186012       4.41987645      28.59114452
Ni       8.70781572       0.64332420      12.31093148
Ni       9.02163076       0.26659487      28.45827502
Ni       6.28792067       4.68961391      12.38805980
Ni       6.71571267       4.34845784      28.62666981
Ni       2.74442805       2.48829051      12.23792509
Ni       3.05380642       2.24993081      28.48123532
Ni       0.50893213       6.78418093      12.37394751
Ni       0.77658110       6.44592558      28.71123964
Ni       7.50257420       2.57075773      12.32072905
Ni       7.94636917       2.33401968      28.51700175
Ni       5.36280493       6.92640391      12.44542696
Ni       5.54042724       6.50724795      28.71602940
Ni      -0.97604695       3.37874223       4.24436448
Ni      -0.71164259       3.08814247      20.43654544
Ni      -3.24640572       7.59249614       4.39304566
Ni      -2.99964763       7.15801168      20.45599223
Ni       3.81966560       3.42909858       4.00296363
Ni       4.12627257       3.13800574      20.47117774
Ni       1.46778455       7.68732141       4.39300070
Ni       1.79817933       7.30487510      20.62095592
Ni       1.35226223       3.47339136       4.19239340
Ni       1.75491779       3.11275601      20.46455250
Ni      -0.89673659       7.67786367       4.35578490
Ni      -0.55678290       7.22783703      20.58027627
Ni       6.09958010       3.51213067       4.19622799
Ni       6.56186087       3.26432446      20.40427534
Ni       3.88350157       7.73807347       4.22687821
Ni       4.30687656       7.43883328      20.59111363
Ni       1.40816784       0.41643855      12.19474309
Ni       1.77945238       0.18470847      28.51553476
Ni      -0.89131419       4.67462718      12.39434164
Ni      -0.44266834       4.31356388      28.60342598
Ni       6.23256507       0.59128791      12.23074314
Ni       6.68957035       0.16928573      28.48370481
Ni       4.02009637       4.76083200      12.31812426
Ni       4.37615814       4.28971021      28.52446692
Ni       2.54609852      -0.14815871       8.08561621
Ni       2.91572684      -0.39183847      24.44811593
Ni       0.23980921       4.05280163       8.43032688
Ni       0.66390347       3.70408267      24.55537937
Ni       7.42862475      -0.03221191       8.11639147
Ni       7.79970390      -0.46319526      24.43689022
Ni       5.12912188       4.17357123       8.20274507
Ni       5.32588871       3.80026802      24.55891528
Ni       1.26059910       2.21917565       0.05081831
Ni       1.54418424       1.73279808      16.33586563
Ni      -1.02244307       6.18837062       0.21523257
Ni      -0.59350477       5.94861280      16.53488201
Ni       5.99187409       2.32388747       0.04287102
Ni       6.42693442       1.82230775      16.25174897
Ni       3.78484247       6.43352559       0.08228782
Ni       4.13564488       6.07941715      16.47161749
Ni       2.44249720       0.02054944      -0.03292908
Ni       2.69427991      -0.30033998      16.25908280
Ni       0.04205933       4.14145777       0.07981167
Ni       0.47233808       3.86791318      16.41915403
Ni       7.15437776       0.18456657      -0.04272951
Ni       7.58264672      -0.16530953      16.24487787
Ni       4.96290034       4.30459938       0.14049122
Ni       5.28349890       3.92149722      16.43660930
Ni       1.50530369       2.02341998       8.23176091
Ni       1.77772959       1.59460293      24.40949004
Ni      -0.79430319       6.09932803       8.28150095
Ni      -0.51444034       5.81703739      24.67128287
Ni       6.31960182       2.06089420       8.23650237
Ni       6.56087280       1.77398870      24.38944989
Ni       3.91162026       6.19250300       8.25853230
Ni       4.27241210       5.87502352      24.66715381
Ni      -1.18305599       2.09249829       0.12291826
Ni      -0.81035838       1.67968480      16.34976951
Ni      -3.43431719       6.24339525       0.23839504
Ni      -3.09291822       5.92751640      16.53654145
Ni       3.65480351       2.19396674       0.06001885
Ni       4.02107670       1.85719576      16.28249733
Ni       1.35313316       6.30167202       0.24580767
Ni       1.72064471       5.93946764      16.45060822
Ni      -0.98741594       1.96695047       8.21044014
Ni      -0.59400894       1.59343621      24.48615783
Ni      -3.27418158       6.13823423       8.31730468
Ni      -2.98004042       5.73241165      24.55119759
Ni       3.77005954       2.06448252       8.12566022
Ni       4.07815348       1.69674789      24.48158465
Ni       1.56233063       6.19378238       8.33827645
Ni       1.86451050       5.82455782      24.59790939
