192
Lattice="9.765220352635394 0.17717940103396507 -0.1501359084101124 -4.741933713427879 8.303596462075877 -0.022336194855783097 0.18099212650009214 -0.36845938638182085 32.03931356282098" Properties=species:S:1:pos:R:3 pbc="T T T"
Mg       0.08048309      -0.03515402       6.54142729
Mg       0.10565522      -0.31679330      22.60904679
Mg      -2.32092065       4.08956056       6.53587924
Mg      -2.28278038       3.95392733      22.48014172
Mg       4.88343168      -0.04463524       6.37026388
Mg       5.06786284      -0.20472523      22.41415171
Mg       2.49723852       4.17683833       6.40335219
Mg       2.49980644       3.97154184      22.46827850
Mg       0.02720311      -0.15798947      14.58351373
Mg       0.24721894      -0.42937522      30.53446866
Mg      -2.19758102       4.00600704      14.50996057
Mg      -2.14293042       3.73590738      30.50614554
Mg       4.99181358       0.01410446      14.41558537
Mg       5.02854377      -0.25872544      30.50589270
Mg       2.63198672       4.08228506      14.53125386
Mg       2.66525398       3.83672825      30.43967123
Mg       0.06190514      -0.07106848       9.61346205
Mg       0.13993085      -0.33204529      25.50953854
Mg      -2.31799966       3.95652436       9.55434654
Mg      -2.31257587       3.82615065      25.50087962
Mg       4.94274310      -0.04155057       9.42621977
Mg       4.94286026      -0.26133937      25.51668189
Mg       2.54975552       4.16017103       9.48422562
Mg       2.69751757       3.86779771      25.46457143
Mg       0.01377693      -0.08782156       1.44395777
Mg       0.08603819      -0.17063150      17.61194298
Mg      -2.25706868       4.14889144       1.41725394
Mg      -2.27168780       3.99039030      17.47829941
Mg       4.87057930       0.09153670       1.36661736
Mg       4.90386303      -0.15152970      17.34973619
Mg       2.50970539       4.25354658       1.38722254
Mg       2.49072986       4.06997396      17.46193472
Mg       0.11884028       2.66164646      10.49883049
Mg       0.11207464       2.30162448      26.48278135
Mg      -2.37808550       6.80863989      10.53773645
Mg      -2.21503060       6.70946381      26.49092756
Mg       5.04081075       2.73637535      10.44522934
Mg       5.07750250       2.61178704      26.41298083
Mg       2.56169820       6.91542133      10.39034697
Mg       2.70214831       6.73000165      26.44056353
Mg       2.45775427       1.42888062       2.42551086
Mg       2.63404950       1.28232935      18.44050652
Mg       0.12063438       5.56572906       2.38306493
Mg       0.18957166       5.42547464      18.41866804
Mg       7.40935873       1.48284194       2.48657179
Mg       7.51119438       1.34296844      18.37320897
Mg       5.03136364       5.60515225       2.36073871
Mg       5.04032880       5.58476285      18.31332206
Mg       2.41607315       1.36159761       5.41920902
Mg       2.58965205       1.25977357      21.42555847
Mg       0.17347131       5.54212251       5.43558823
Mg       0.17555784       5.26904332      21.46137734
Mg       7.38464864       1.46566644       5.37243533
Mg       7.41388747       1.35626301      21.35745237
Mg       5.00034914       5.57674136       5.34123227
Mg       5.11358774       5.44500549      21.37410979
Mg       0.11473760       2.55786474      13.38513653
Mg       0.23785476       2.40870935      29.56451972
Mg      -2.21788035       6.83973878      13.49809624
Mg      -2.21756409       6.59612446      29.52880339
Mg       5.10204662       2.68933276      13.53023332
Mg       5.07158140       2.51330941      29.43431305
Mg       2.65482941       6.81155618      13.41903791
Mg       2.70117211       6.64565505      29.40774895
Ni       0.04040044       2.65634315       7.96244569
Ni       0.21660624       2.58211613      23.99552558
Ni      -2.26490031       6.87694765       7.95969950
Ni      -2.18511840       6.68903551      24.04013335
Ni       4.96896778       2.82688060       7.96963579
Ni       5.11745803       2.59596494      23.91997193
Ni       2.59919142       6.88664905       7.88677468
Ni       2.72600468       6.86172051      23.85019733
Ni       2.44542239       1.45714154      -0.07347375
Ni       2.54721834       1.27494422      15.96854419
Ni       0.16225211       5.51701194      -0.02446174
Ni       0.14462538       5.49799512      16.06526677
Ni       7.30960499       1.57323954      -0.21617744
Ni       7.35245943       1.37975167      15.88689461
Ni       5.03745313       5.61793800      -0.02130461
Ni       5.07717351       5.51839798      15.97991529
Ni       2.52231999       1.33197826       7.88228261
Ni       2.60358951       1.12574283      23.94262342
Ni       0.20677765       5.48110693       7.95925578
Ni       0.16331620       5.29799355      24.04247615
Ni       7.39787620       1.42335504       7.82075908
Ni       7.51643398       1.23091044      23.90177782
Ni       4.93982019       5.58513275       7.83822121
Ni       5.12907520       5.34528349      23.92305425
Ni      -0.00074958       2.87179902      -0.06437903
Ni       0.21458428       2.69981317      15.91417362
Ni      -2.28215773       6.97966072      -0.05206777
Ni      -2.27179415       6.72122572      15.99790252
Ni       4.87470633       2.86910003      -0.09577036
Ni       5.05833687       2.67976276      15.93560979
Ni       2.58234794       7.06248395      -0.16295516
Ni       2.59155841       6.80689923      15.95279553
Ni       0.05697920       1.35790454       3.97499976
Ni       0.17621219       1.13025940      19.98738238
Ni      -2.27648984       5.49541739       4.01993624
Ni      -2.26760986       5.30355391      20.04757601
Ni       4.89938153       1.37605254       3.90706040
Ni       5.12106050       1.18776776      19.86489364
Ni       2.65036443       5.52036335       3.97309113
Ni       2.63302847       5.50311798      19.94804028
Ni       3.72820930       0.64340336      11.91857052
Ni       3.83160996       0.32042424      27.98555989
Ni       1.39381187       4.75990014      11.99494060
Ni       1.56801107       4.47437480      27.95671050
Ni       8.63994130       0.75509217      11.80696364
Ni       8.66575017       0.64723910      27.88919456
Ni       6.22096721       4.83485265      11.84693779
Ni       6.35303345       4.66146523      27.94359164
Ni       2.55704930       2.70620841      11.93554005
Ni       2.63663744       2.47812566      27.96803251
Ni       0.05443680       6.81718803      11.94054994
Ni       0.22388522       6.66307301      27.89675018
Ni       7.50755244       2.88256652      11.85373884
Ni       7.48543868       2.64093362      27.92756052
Ni       5.01970866       6.92086341      11.90796881
Ni       5.20525461       6.78919876      27.91279600
Ni      -1.11890312       3.37604089       3.97452846
Ni      -1.04893132       3.26377975      20.00396248
Ni      -3.51434564       7.50141147       4.01255193
Ni      -3.47338566       7.42873942      19.87424537
Ni       3.85607574       3.44241427       3.85032270
Ni       3.75133537       3.40125802      19.89322878
Ni       1.38758674       7.63133624       3.88624706
Ni       1.52129248       7.56374037      19.85919430
Ni       1.26547264       3.48592566       3.97892124
Ni       1.38013627       3.31818269      20.07979735
Ni      -1.06872369       7.69024702       3.80112457
Ni      -0.98849759       7.40371910      19.94115707
Ni       6.25676597       3.50038691       3.84213033
Ni       6.19850293       3.38715323      19.87703950
Ni       3.88664190       7.77859264       3.83666095
Ni       3.96857803       7.63175174      19.89780050
Ni       1.32642291       0.67434402      11.99816240
Ni       1.43510006       0.45863783      28.02098679
Ni      -1.02328729       4.82679200      11.88866415
Ni      -0.96358470       4.47200392      27.99030825
Ni       6.12436223       0.55887953      11.95565928
Ni       6.33635679       0.41996661      27.92169635
Ni       3.81842841       4.88191828      11.97864436
Ni       3.99606681       4.70777306      27.88459320
Ni       2.53741816       0.00029328       7.94436581
Ni       2.52543391      -0.21272537      24.04429146
Ni       0.12581866       4.12454652       8.02213053
Ni       0.23299828       3.91951907      23.90729840
Ni       7.38652457       0.11580907       7.84088258
Ni       7.46664614      -0.19616202      23.98083401
Ni       4.99685442       4.14575070       7.86863078
Ni       5.10388869       4.08876688      23.89304308
Ni       1.21926618       2.06905132      -0.06139061
Ni       1.41133607       1.95417609      16.03352085
Ni      -1.12632268       6.25593999      -0.14396976
Ni      -1.04668146       6.12929597      16.04276475
Ni       6.16857865       2.13723646      -0.06901912
Ni       6.22071486       2.05664949      15.91855765
Ni       3.74682213       6.36178291      -0.14713142
Ni       3.83397724       6.15314741      15.84805831
Ni       2.40425188      -0.02556417      -0.09288977
Ni       2.50199498      -0.21027539      15.87256998
Ni       0.07855070       4.21078873      -0.04110248
Ni       0.20980000       4.01915362      15.99501264
Ni       7.29154417       0.11641394      -0.16146088
Ni       7.47233280      -0.05817691      15.97621342
Ni       4.91364811       4.34603064      -0.11338043
Ni       5.05066920       4.06209007      15.96763950
Ni       1.22767460       2.09206228       7.92009890
Ni       1.49094711       1.83568208      24.13115427
Ni      -1.12382602       6.13956451       7.98278395
Ni      -1.12882002       5.93111363      23.98918269
Ni       6.18325898       2.14531101       7.92323945
Ni       6.20428520       1.94769268      23.84502733
Ni       3.71287385       6.19763367       7.82015439
Ni       3.98574310       6.08942806      23.80524418
Ni      -1.13359216       2.13506833       0.06271532
Ni      -1.11920030       1.85475017      16.09759018
Ni      -3.48990643       6.17843475       0.03466407
Ni      -3.45988753       6.09652662      16.02695399
Ni       3.68884968       2.23801656      -0.02084766
Ni       3.87768208       1.94196194      16.01560738
Ni       1.32436164       6.31752019      -0.03778195
Ni       1.42361027       6.10639502      15.90324759
Ni      -1.05617544       1.97223742       7.99886185
Ni      -0.99266771       1.75744599      24.05004229
Ni      -3.49605887       6.22469871       7.91254530
Ni      -3.40967026       6.01428914      23.98346670
Ni       3.71338026       2.05085106       7.99151414
Ni       3.82459578       1.93161288      23.99666680
Ni       1.44685833       6.26440673       7.96097643
Ni       1.49103495       5.96207274      23.96162466
