192
Lattice="9.510513787148918 -0.23748764102201458 0.22369035260337713 -4.9087089373291315 8.16349976129917 -0.22293205724851584 0.9297851412532044 0.6237082880915256 33.34141439372261" Properties=species:S:1:pos:R:3 pbc="T T T"
Mg       0.16252162       0.15428992       6.71781081
Mg       0.57685878       0.47694126      23.50020431
Mg      -2.30327558       4.18764988       6.70208572
Mg      -1.73435888       4.40640831      23.37754713
Mg       4.98376672      -0.05020529       6.89885510
Mg       5.41089268       0.34300334      23.59597719
Mg       2.47855609       4.17009711       6.83864001
Mg       2.90714052       4.40156206      23.39813078
Mg       0.36471699       0.28226945      15.18661885
Mg       0.89614983       0.57822519      31.76382462
Mg      -2.02982105       4.35362139      14.98706248
Mg      -1.52962207       4.61198830      31.77031212
Mg       5.19705892       0.21352664      15.13372777
Mg       5.59694435       0.44604905      31.93498332
Mg       2.79139975       4.22777313      15.12619226
Mg       3.22938593       4.51343084      31.77346606
Mg       0.35542192       0.21894331       9.90130822
Mg       0.75451823       0.44756334      26.57940439
Mg      -2.25488232       4.28816032       9.69877669
Mg      -1.67696449       4.57133020      26.46730813
Mg       4.88925982       0.01165631      10.00520714
Mg       5.52672908       0.39232901      26.63102242
Mg       2.68547113       4.07527548       9.96535482
Mg       3.05055687       4.41828650      26.61979129
Mg       0.12539144      -0.05723187       1.60851973
Mg       0.42384313       0.36818197      18.27634642
Mg      -2.43112851       4.07011695       1.44968630
Mg      -1.93276798       4.46893743      18.06065602
Mg       4.75527415      -0.09064878       1.62134893
Mg       5.26947864       0.19718284      18.28697924
Mg       2.34923060       3.98552097       1.63472596
Mg       2.79214227       4.37254120      18.19943471
Mg       0.24947684       2.90305185      10.94102884
Mg       0.77727503       3.18964082      27.45637912
Mg      -2.22283411       6.93379935      10.76372345
Mg      -1.74813035       7.31867481      27.47027674
Mg       5.07216403       2.78325910      11.01084756
Mg       5.53779609       3.09554055      27.70830534
Mg       2.57743220       6.78494636      10.92495358
Mg       2.98785625       7.19569471      27.56431367
Mg       2.41320039       1.33962063       2.61167425
Mg       2.92657571       1.71890740      19.39015799
Mg       0.07559950       5.41444346       2.46793427
Mg       0.41988763       5.76354619      19.15462456
Mg       7.09887096       1.17867275       2.68749026
Mg       7.62941084       1.50018323      19.41151320
Mg       4.76376606       5.35111018       2.63913710
Mg       5.25766293       5.54297522      19.27795930
Mg       2.49088046       1.35138224       5.79343379
Mg       3.00848703       1.73563939      22.34471506
Mg      -0.00360118       5.44451697       5.58474136
Mg       0.43238223       5.83584550      22.32017575
Mg       7.28511828       1.23525097       5.82430555
Mg       7.75120518       1.62296390      22.62475276
Mg       4.78392838       5.43391627       5.83527024
Mg       5.25203716       5.73846406      22.50631938
Mg       0.34867827       2.94802138      14.12126245
Mg       0.72149288       3.22668366      30.64824840
Mg      -2.13774300       7.12294948      13.89451385
Mg      -1.68132727       7.32284219      30.72514088
Mg       5.05691908       2.84045324      14.22334262
Mg       5.61969407       3.15652952      30.90480077
Mg       2.68811627       6.86432085      13.99562947
Mg       3.03709246       7.16764485      30.68149981
Ni       0.22974903       2.85773368       8.25194408
Ni       0.64118903       3.13124721      24.94780863
Ni      -2.19630317       6.93213546       8.17492734
Ni      -1.72079130       7.23287631      24.88673186
Ni       4.82915732       2.81513766       8.43236623
Ni       5.36641197       3.05631428      25.09037583
Ni       2.52432228       6.76866510       8.30268280
Ni       2.96376004       7.08782646      24.94682784
Ni       2.41778660       1.28346520       0.07579781
Ni       2.82496264       1.65634674      16.68584514
Ni      -0.07971519       5.35420375      -0.05918035
Ni       0.43112767       5.65307299      16.57977060
Ni       7.18579107       1.11727975       0.09014280
Ni       7.55856376       1.54468020      16.77303044
Ni       4.67595515       5.26812018       0.00188047
Ni       5.12596529       5.55997092      16.68876021
Ni       2.51660822       1.40557399       8.43601604
Ni       3.03719461       1.71539647      24.98168068
Ni       0.17314876       5.52460330       8.32254428
Ni       0.65046200       5.80487288      24.94304449
Ni       7.38541849       1.38348950       8.47232387
Ni       7.85052300       1.60811724      25.19990105
Ni       4.86530681       5.38447453       8.28492080
Ni       5.41003172       5.72916993      25.08613753
Ni      -0.03962035       2.69369706      -0.03961194
Ni       0.42187542       3.02840060      16.65594149
Ni      -2.50486423       6.80464334      -0.12162963
Ni      -2.12729900       7.09712343      16.45283065
Ni       4.59140336       2.61037385       0.09182865
Ni       5.12559867       2.85521757      16.73056543
Ni       2.28399398       6.60280500      -0.05737450
Ni       2.68365768       6.98843355      16.65847258
Ni       0.09215930       1.40941727       4.16863095
Ni       0.58841326       1.70011165      20.85028602
Ni      -2.34319972       5.66111662       4.02259088
Ni      -1.94680750       5.78106393      20.79629769
Ni       4.80463199       1.21822895       4.22167528
Ni       5.27630539       1.56155503      20.88801879
Ni       2.40919226       5.39754462       4.13170062
Ni       2.87186175       5.68907521      20.83049265
Ni       3.83841203       0.79552900      12.57007307
Ni       4.36410787       1.20048624      29.27135061
Ni       1.42009607       4.89941313      12.42041791
Ni       1.90611842       5.10434688      29.05836344
Ni       8.68103171       0.74455401      12.72675164
Ni       9.12935692       1.03695494      29.39848017
Ni       6.27218933       4.76292102      12.51663353
Ni       6.71284649       5.11673040      29.33910045
Ni       2.68287791       2.88751320      12.52521298
Ni       3.13710227       3.13720826      29.13155361
Ni       0.20337063       7.00444281      12.47427182
Ni       0.64597421       7.20097789      29.13636105
Ni       7.36418471       2.86704232      12.65304182
Ni       7.86790220       3.07787394      29.31407414
Ni       4.98037475       6.82727876      12.50794812
Ni       5.40914532       7.15703892      29.24223301
Ni      -1.09731979       3.33836542       4.09594204
Ni      -0.69195025       3.73108448      20.87874910
Ni      -3.65262564       7.52354313       3.93563074
Ni      -3.24024130       7.95478228      20.68460669
Ni       3.55064060       3.40764386       4.25656972
Ni       4.17204807       3.62097379      20.95043354
Ni       1.10361014       7.47750906       4.08952945
Ni       1.63586495       7.68817007      20.77549035
Ni       1.21157913       3.32082658       4.15087139
Ni       1.66746974       3.70176840      20.86954321
Ni      -1.19331730       7.40699117       4.04576567
Ni      -0.80673859       7.86834125      20.72102531
Ni       6.09919898       3.32583706       4.32219106
Ni       6.45319694       3.61511746      20.91634660
Ni       3.52868068       7.25979847       4.10445593
Ni       4.03696609       7.67520294      20.82334861
Ni       1.52759106       0.85871127      12.52736426
Ni       1.94425908       1.18474999      29.16667810
Ni      -0.96563280       4.99740390      12.35767062
Ni      -0.40746963       5.24361399      29.08309585
Ni       6.34587879       0.69407896      12.63529334
Ni       6.76924476       1.06119377      29.36827355
Ni       3.81297705       4.93644622      12.46171697
Ni       4.36448869       5.11855382      29.20689432
Ni       2.66416540       0.02262866       8.32636980
Ni       3.13195813       0.37906691      25.03521125
Ni       0.09617138       4.24392365       8.35134521
Ni       0.71052517       4.47190487      24.90064170
Ni       7.44972677      -0.09362536       8.46115553
Ni       7.78121363       0.32322022      25.19057647
Ni       4.92336404       4.02168391       8.37069215
Ni       5.36985503       4.42008738      25.09909105
Ni       1.15179185       2.04198753       0.00847772
Ni       1.62413453       2.29834129      16.57866096
Ni      -1.15298989       6.04986312      -0.12631492
Ni      -0.85935405       6.39274767      16.59474999
Ni       5.92634140       1.90757415       0.14418873
Ni       6.33092433       2.18454741      16.75598778
Ni       3.57648822       5.99981759      -0.00118952
Ni       3.85697360       6.27390605      16.61752026
Ni       2.40327254      -0.00277020       0.08246366
Ni       2.79080279       0.19776328      16.66907792
Ni      -0.09460717       3.95959462      -0.11646480
Ni       0.35596480       4.37597959      16.60374175
Ni       7.12580268      -0.19580612       0.14783921
Ni       7.63091302       0.14397625      16.85087799
Ni       4.71523256       3.88859489       0.03853964
Ni       5.22439094       4.10431865      16.78804929
Ni       1.52883918       2.15124639       8.22160640
Ni       1.75775973       2.35274751      25.02845015
Ni      -1.09469752       6.20416836       8.09191825
Ni      -0.60678197       6.56087955      24.87463806
Ni       6.15266397       2.01416709       8.40223216
Ni       6.59823319       2.35253814      25.08820628
Ni       3.68949695       6.20403178       8.36969899
Ni       4.10644315       6.41033473      24.96452244
Ni      -1.24898061       2.13597371      -0.10517175
Ni      -0.82476332       2.42178425      16.64322311
Ni      -3.65100785       6.07079271      -0.05254408
Ni      -3.28737046       6.47342552      16.47647659
Ni       3.56030466       1.88105003       0.01210116
Ni       3.97611579       2.31670262      16.63979135
Ni       1.05204065       5.91954667      -0.01549768
Ni       1.51009984       6.28336369      16.62778739
Ni      -1.04706288       2.15669608       8.22789951
Ni      -0.48605305       2.52509343      24.92916756
Ni      -3.51687162       6.27821833       8.17387050
Ni      -2.98430125       6.47812499      24.85296554
Ni       3.65838450       2.05752543       8.39520915
Ni       4.18434339       2.42380454      24.96977542
Ni       1.36599457       6.14605430       8.27400204
Ni       1.81114616       6.48603917      25.08128738
