192
Lattice="9.794350302567404 -0.3050454276782391 0.1370641132303832 -5.009112208738106 8.966855514658006 -0.02210285710519879 -0.6581609608708302 0.23413799156741166 31.016887965085903" Properties=species:S:1:pos:R:3 pbc="T T T"
Mg      -0.16004571       0.04145717       6.28803198
Mg      -0.42651630       0.16061978      21.86572754
Mg      -2.67685898       4.55673872       6.30012826
Mg      -3.01186066       4.66890291      21.91853200
Mg       4.74796866      -0.09473626       6.37329239
Mg       4.51522612       0.00123736      21.92452888
Mg       2.34190783       4.32730049       6.31090875
Mg       1.91207200       4.54230999      21.85992919
Mg      -0.25543807      -0.01657025      14.04477710
Mg      -0.67981968       0.21818939      29.60491958
Mg      -2.85821498       4.59688446      14.01593309
Mg      -3.15314602       4.68825908      29.61834118
Mg       4.68394151      -0.10346209      14.11822325
Mg       4.24834765       0.13585372      29.68648127
Mg       2.05967248       4.47295058      14.05690478
Mg       1.72988023       4.57137742      29.60920439
Mg      -0.23680969       0.00637285       9.19053450
Mg      -0.51245437       0.16975298      24.71299272
Mg      -2.65256585       4.58344268       9.18743582
Mg      -3.06808081       4.61245763      24.73302367
Mg       4.73540644      -0.10882243       9.30433500
Mg       4.42929187      -0.07134082      24.82662820
Mg       2.14456257       4.36783927       9.25097633
Mg       1.89064903       4.49862615      24.79198517
Mg      -0.03913851       0.07879219       1.39378814
Mg      -0.37385434       0.09379552      16.95286348
Mg      -2.42723085       4.52080517       1.44676784
Mg      -2.81623651       4.68207172      16.97022274
Mg       4.89650033      -0.16598694       1.52548191
Mg       4.51277168      -0.11868207      16.96318775
Mg       2.35148906       4.29835156       1.47994245
Mg       2.05480523       4.42237887      16.96621449
Mg      -0.15341097       3.09352022      10.14037929
Mg      -0.56846710       3.08950078      25.72608444
Mg      -2.68205264       7.51922044      10.17767287
Mg      -3.02320962       7.61335721      25.70245096
Mg       4.65632535       2.94543986      10.24942031
Mg       4.32691981       3.02462052      25.74171506
Mg       2.10022597       7.46981755      10.22178697
Mg       1.86101991       7.49103568      25.79698172
Mg       2.38394426       1.34950238       2.46644514
Mg       2.14818240       1.59758545      17.96424300
Mg      -0.16588125       5.90013704       2.44310660
Mg      -0.47133285       6.08192621      17.95202408
Mg       7.39434244       1.29535484       2.48920470
Mg       6.94047012       1.29487748      18.01087396
Mg       4.79079691       5.65065804       2.59746528
Mg       4.43300474       5.89141207      18.00208267
Mg       2.25171525       1.52887721       5.37937823
Mg       2.03901732       1.47848837      20.87539425
Mg      -0.19656861       5.94929360       5.40935070
Mg      -0.49715628       6.03784658      20.84852905
Mg       7.21606278       1.33052736       5.52491365
Mg       6.82612265       1.42933916      20.81346518
Mg       4.68750140       5.81468027       5.40169762
Mg       4.32853611       5.87041135      20.94658207
Mg      -0.32911861       3.00892023      13.07601046
Mg      -0.61518062       3.11305384      28.68329263
Mg      -2.90665012       7.51977783      13.06823240
Mg      -3.22362741       7.70271616      28.57752518
Mg       4.53640263       2.87008544      13.15941076
Mg       4.24117631       2.93944154      28.59416937
Mg       1.92325287       7.35421347      13.20396006
Mg       1.76267665       7.50405110      28.63855265
Ni      -0.26521001       2.98224988       7.81262235
Ni      -0.50722808       3.23089402      23.24639179
Ni      -2.71893361       7.42828909       7.74754418
Ni      -3.07485693       7.59874514      23.23483501
Ni       4.66543041       2.84908203       7.85439551
Ni       4.36281454       3.02327767      23.35674207
Ni       2.17487677       7.31763716       7.74746296
Ni       1.85989326       7.38609900      23.32790935
Ni       2.48665564       1.36855353       0.03885084
Ni       2.10437199       1.57006776      15.53877833
Ni      -0.09594917       5.83886653       0.12294807
Ni      -0.32319434       6.05927797      15.45806977
Ni       7.32682547       1.17173332       0.08297816
Ni       7.00802018       1.33881109      15.65982647
Ni       4.78648247       5.84472039       0.07158570
Ni       4.48034239       5.78728160      15.64540002
Ni       2.31390996       1.42948156       7.80472746
Ni       2.02465198       1.53875223      23.30826658
Ni      -0.22686657       5.97810057       7.80594764
Ni      -0.60472395       6.05951097      23.30019874
Ni       7.20601235       1.25858814       7.84447123
Ni       6.73854789       1.42328977      23.34333030
Ni       4.69940185       5.78812196       7.82609391
Ni       4.32889454       5.93111269      23.29652649
Ni       0.03046988       2.89961444      -0.02526514
Ni      -0.35382813       2.93546753      15.53481397
Ni      -2.43957630       7.43376240       0.07557387
Ni      -2.85877875       7.50462347      15.46527092
Ni       4.82177649       2.78044888       0.11100562
Ni       4.55270752       2.92104632      15.58092602
Ni       2.39724385       7.28883441       0.04753446
Ni       1.95941778       7.45551023      15.67719110
Ni      -0.17713048       1.49554565       3.88522534
Ni      -0.38934025       1.50951116      19.43677426
Ni      -2.52183655       6.07880055       3.81822960
Ni      -2.88903394       6.03388127      19.45957701
Ni       4.77093265       1.36413350       4.01505544
Ni       4.45784934       1.45095314      19.50250717
Ni       2.28054920       5.88795458       3.88929122
Ni       1.98070693       5.90630153      19.48814190
Ni       3.42738141       0.61940440      11.64138434
Ni       3.05982333       0.73571036      27.15083176
Ni       0.89772270       5.10943050      11.65840007
Ni       0.50686479       5.30758215      27.21844736
Ni       8.34034246       0.56524754      11.73635774
Ni       7.94359442       0.71391334      27.32725447
Ni       5.87482066       4.94127665      11.68234410
Ni       5.54276291       5.10091400      27.26137389
Ni       2.10162050       2.96750158      11.59336504
Ni       1.91448734       3.12251880      27.14116238
Ni      -0.32137990       7.50767442      11.67649115
Ni      -0.59903081       7.49652200      27.15940843
Ni       7.05864695       2.69903972      11.73511620
Ni       6.76629028       2.88745596      27.23457667
Ni       4.63222952       7.22245293      11.60799228
Ni       4.25512568       7.31412770      27.14711689
Ni      -1.30782002       3.67581705       3.84829893
Ni      -1.65141942       3.93495049      19.37819264
Ni      -3.86340213       8.21845351       3.81616550
Ni      -4.15546793       8.38132030      19.42667973
Ni       3.52798056       3.60639874       3.86439887
Ni       3.25823480       3.69972630      19.53797547
Ni       0.97730383       8.13142707       3.87041032
Ni       0.64853152       8.17456217      19.47987386
Ni       1.14706834       3.63518320       3.95515189
Ni       0.84798895       3.71462081      19.44108773
Ni      -1.38473993       8.10955096       3.90708765
Ni      -1.75531261       8.36767373      19.42802496
Ni       5.98687698       3.53598728       3.99225084
Ni       5.69844844       3.66860543      19.51634417
Ni       3.44914155       8.08965413       3.98713948
Ni       3.19469442       8.02425104      19.44362279
Ni       1.05597552       0.82055418      11.64218395
Ni       0.68518810       0.94268545      27.21534340
Ni      -1.52757099       5.24182222      11.64380810
Ni      -1.85279324       5.37976171      27.16317528
Ni       5.89859198       0.60985573      11.70476569
Ni       5.43007555       0.80754652      27.26509446
Ni       3.36848738       5.08952362      11.74631974
Ni       2.94008119       5.24660487      27.31727437
Ni       2.34029528      -0.07062528       7.77685627
Ni       1.93419968       0.11484377      23.42650775
Ni      -0.17079490       4.50189514       7.81835935
Ni      -0.49359266       4.53621144      23.31737956
Ni       7.19460568      -0.17739200       7.86163006
Ni       6.76473626      -0.02645128      23.36277347
Ni       4.59509135       4.39232992       7.86356182
Ni       4.33514434       4.52012923      23.36745049
Ni       1.17217802       2.13551657       0.02342781
Ni       0.87226373       2.31573117      15.66236233
Ni      -1.33534858       6.71274358       0.02178686
Ni      -1.51790499       6.79480647      15.53085317
Ni       6.07078191       2.03829426       0.16398790
Ni       5.72799501       2.06061993      15.57018496
Ni       3.55888374       6.49085710       0.03535368
Ni       3.30138975       6.67647428      15.55815847
Ni       2.42197060      -0.08795066       0.01870133
Ni       2.09003065       0.03203362      15.55655909
Ni       0.02470288       4.43403292       0.06536899
Ni      -0.41483275       4.50381172      15.48597405
Ni       7.34449160      -0.25552130       0.13062314
Ni       7.01870367      -0.08668397      15.64276567
Ni       4.88630250       4.30466059       0.10574465
Ni       4.50716915       4.35884447      15.58117466
Ni       1.03841361       2.18363220       7.74510550
Ni       0.73471295       2.36720318      23.28187158
Ni      -1.44491146       6.75787873       7.83193131
Ni      -1.69952090       6.88840535      23.33489008
Ni       5.91882587       2.05605757       7.94986818
Ni       5.60274237       2.16333399      23.36640025
Ni       3.43786463       6.57528879       7.88265644
Ni       3.06242009       6.57095916      23.40447557
Ni      -1.18609451       2.17083931       0.02944141
Ni      -1.64092631       2.36335182      15.46977693
Ni      -3.74206199       6.80338288      -0.09474517
Ni      -4.10765037       6.79510298      15.47495863
Ni       3.71141720       2.10297716       0.04444156
Ni       3.39938902       2.23730405      15.51817195
Ni       1.17942268       6.54551570       0.06659921
Ni       0.80749693       6.72739645      15.53442129
Ni      -1.40950583       2.34849766       7.68999801
Ni      -1.78040012       2.53398920      23.33094961
Ni      -4.01916427       6.75298127       7.72503922
Ni      -4.33701791       6.82998555      23.16410420
Ni       3.48447321       2.17917291       7.81501843
Ni       3.15959151       2.23536760      23.28639985
Ni       0.95072872       6.56936951       7.84611181
Ni       0.58704397       6.72678825      23.30236461
