192
Lattice="9.884061508696814 -0.0011216291884080687 0.026908286122652288 -4.676308063449265 8.355010094665497 -0.004167097102820837 -0.32308598606995786 0.11331456846339813 30.52914283935677" Properties=species:S:1:pos:R:3 pbc="T T T"
Mg      -0.10562130       0.01461667       6.19420095
Mg      -0.18465097       0.05696077      21.42648529
Mg      -2.38894021       4.21420477       6.26567587
Mg      -2.59022353       4.26229535      21.47067164
Mg       4.86040887       0.03988421       6.19016119
Mg       4.66530550       0.14966428      21.56330871
Mg       2.54418291       4.24853190       6.26818410
Mg       2.40006977       4.24659634      21.49536896
Mg      -0.12847346       0.10182261      13.81202813
Mg      -0.27593564       0.08575104      29.13813176
Mg      -2.45684733       4.18591683      13.81424865
Mg      -2.75306660       4.34766533      29.12167892
Mg       4.76865366       0.05787696      13.93534494
Mg       4.63154149       0.06194487      29.12130609
Mg       2.42281992       4.22619044      13.86904849
Mg       2.36935370       4.26531699      29.15047678
Mg      -0.12167965       0.04512527       9.05671524
Mg      -0.25318859       0.05574971      24.29080530
Mg      -2.46312382       4.24789112       9.08077417
Mg      -2.58570640       4.24610924      24.42043346
Mg       4.92797887      -0.03260273       8.97934159
Mg       4.73949037       0.11471107      24.36139691
Mg       2.50358922       4.24798487       9.12027142
Mg       2.51239028       4.30427872      24.31816677
Mg      -0.06985274      -0.00427948       1.48421749
Mg      -0.17354627       0.11603769      16.70163722
Mg      -2.34368798       4.16502820       1.37912173
Mg      -2.47117470       4.30751639      16.64729113
Mg       4.87503222      -0.05271615       1.51516798
Mg       4.79254368       0.06235994      16.61670988
Mg       2.56684754       4.27229203       1.46119826
Mg       2.43644680       4.26455266      16.71926616
Mg      -0.06607580       2.83329780       9.93558960
Mg      -0.13280737       2.88938925      25.27275288
Mg      -2.40932515       7.00775790      10.01689183
Mg      -2.52521928       7.07741731      25.31988394
Mg       4.90346118       2.77341938      10.08784489
Mg       4.76103377       2.91137861      25.26019084
Mg       2.62035749       7.03167880      10.00292511
Mg       2.42286788       7.10329141      25.28556647
Mg       2.57057947       1.36702151       2.37525481
Mg       2.29403971       1.42970004      17.64829929
Mg       0.07811926       5.54002992       2.31330202
Mg      -0.02280591       5.62140110      17.63456286
Mg       7.46497758       1.44072122       2.48372789
Mg       7.33832280       1.41455733      17.65870089
Mg       5.06434980       5.54080723       2.37423124
Mg       4.97169925       5.62071064      17.72164288
Mg       2.46043246       1.43051405       5.19872810
Mg       2.24750020       1.48423639      20.51021041
Mg       0.15285279       5.65813158       5.22656995
Mg      -0.00529493       5.55891269      20.51670985
Mg       7.38558687       1.39603661       5.32810584
Mg       7.21735527       1.41962174      20.57360371
Mg       5.05902412       5.43716502       5.33816165
Mg       4.98365483       5.69773573      20.55835057
Mg       0.05686763       2.83498912      12.82466817
Mg      -0.24588111       2.96191648      28.08244931
Mg      -2.39799189       6.91585849      12.88311864
Mg      -2.67726431       7.05177793      28.05172318
Mg       4.95539459       2.81822464      12.90918131
Mg       4.78408451       2.82560382      28.09229013
Mg       2.52917684       7.01829094      12.93541133
Mg       2.36305383       7.07100056      28.10382685
Ni      -0.02619273       2.83170652       7.70126978
Ni      -0.13614013       2.89453478      22.86697706
Ni      -2.43289102       6.95594022       7.58187689
Ni      -2.40450255       7.01689092      22.90822835
Ni       4.95699557       2.74863397       7.68319930
Ni       4.72643508       2.92410451      22.87773208
Ni       2.63656240       7.01132365       7.59584735
Ni       2.36364415       7.06845570      22.88621593
Ni       2.56093754       1.37060628      -0.01406418
Ni       2.29677781       1.45908043      15.19591579
Ni       0.12390303       5.58770903       0.06956457
Ni       0.00037575       5.62207011      15.32394543
Ni       7.47051250       1.41997399       0.05969612
Ni       7.28662521       1.43978642      15.31250134
Ni       5.13603730       5.60341652       0.04756917
Ni       5.00104634       5.67983761      15.31231884
Ni       2.41767521       1.45203554       7.65724009
Ni       2.21122334       1.43693741      22.91144400
Ni       0.17350893       5.45827820       7.70179432
Ni      -0.09663896       5.62888275      22.94454261
Ni       7.29532356       1.40375122       7.56086354
Ni       7.25231694       1.47118501      22.87584174
Ni       5.07537292       5.61129294       7.69892275
Ni       4.84432916       5.67291606      22.93933911
Ni       0.06376469       2.76171853       0.04965777
Ni      -0.04977650       2.86268609      15.18237894
Ni      -2.21240620       6.98069514       0.04169063
Ni      -2.39043703       7.01424166      15.30763131
Ni       4.99096938       2.76008628       0.08255056
Ni       4.92504195       2.92225738      15.25980395
Ni       2.63867607       6.99407890       0.01382521
Ni       2.51728539       7.14763652      15.30127284
Ni       0.00318404       1.44685941       3.85759335
Ni      -0.15890051       1.47298820      19.07483383
Ni      -2.37191209       5.63685704       3.89193539
Ni      -2.53546906       5.63428086      19.08838045
Ni       4.93705740       1.36047472       3.81154420
Ni       4.81170295       1.49874754      19.15192768
Ni       2.59298662       5.58070888       3.83728330
Ni       2.43370263       5.68556626      19.08037408
Ni       3.63768664       0.60840603      11.46277617
Ni       3.59923264       0.76298445      26.67254537
Ni       1.37176669       4.93673202      11.44565688
Ni       1.13860684       4.95289944      26.75639142
Ni       8.53725907       0.72061923      11.45270775
Ni       8.43870612       0.81799429      26.73366034
Ni       6.24958822       4.99564521      11.46703519
Ni       6.06866037       4.96286876      26.77274002
Ni       2.45339249       2.84261243      11.44737913
Ni       2.25677032       2.92205862      26.70275050
Ni       0.13055272       6.97555733      11.50473836
Ni      -0.10622205       7.08793032      26.71585172
Ni       7.28891130       2.86603888      11.48984105
Ni       7.28956288       2.90450214      26.72559899
Ni       5.00517536       7.00433432      11.52742210
Ni       4.88947336       7.06002157      26.71819576
Ni      -1.14539957       3.40525830       3.78236165
Ni      -1.29589766       3.62512193      19.08274258
Ni      -3.52380939       7.63228246       3.83358414
Ni      -3.63457763       7.78613895      19.08250872
Ni       3.73027397       3.45073478       3.81135785
Ni       3.47488441       3.64719657      19.13272411
Ni       1.36933777       7.66525303       3.88310494
Ni       1.24296519       7.70532553      19.14181951
Ni       1.31695930       3.55044892       3.87337968
Ni       1.06188266       3.53443489      19.15493080
Ni      -0.96027166       7.73693975       3.79199974
Ni      -1.34292945       7.63218329      19.04642619
Ni       6.31334847       3.39439387       3.77110311
Ni       6.10686726       3.58303892      19.08509059
Ni       3.98628406       7.66371365       3.90125132
Ni       3.83395658       7.64329354      19.19055157
Ni       1.09703628       0.80425201      11.41316984
Ni       0.88412510       0.86038603      26.60667859
Ni      -1.17335096       5.01505598      11.39226345
Ni      -1.34354408       5.00315290      26.70967129
Ni       6.12763681       0.78605449      11.49898827
Ni       5.95259756       0.85488654      26.67647733
Ni       3.73403719       4.85667902      11.47486175
Ni       3.67568577       4.99897351      26.63832695
Ni       2.39919695      -0.01733852       7.65947668
Ni       2.19658287       0.10470504      22.89355072
Ni       0.02007853       4.26984649       7.60703956
Ni      -0.13825676       4.26645234      22.82459905
Ni       7.33096749       0.02395620       7.66412836
Ni       7.31490126       0.04269694      22.84686404
Ni       4.86232324       4.21521076       7.67547325
Ni       4.86061889       4.28620812      22.92061161
Ni       1.24685238       2.09783496       0.01903869
Ni       1.20488946       2.17535489      15.25654315
Ni      -1.01612633       6.33078752       0.00265435
Ni      -1.19011761       6.29588369      15.30113582
Ni       6.19386723       2.06964862       0.01347918
Ni       6.05197002       2.21736942      15.31551725
Ni       3.98335023       6.27903249      -0.09099071
Ni       3.65449405       6.30920086      15.24176906
Ni       2.48884526      -0.03458548       0.01486875
Ni       2.33170612      -0.01344410      15.38498189
Ni       0.04582248       4.24794587       0.01983406
Ni      -0.05382527       4.28718028      15.29669904
Ni       7.40208947      -0.09472855       0.04373733
Ni       7.21758834       0.08063793      15.34844891
Ni       5.02929300       4.21786566      -0.01572470
Ni       4.84986288       4.20357676      15.35694386
Ni       1.15832627       2.03493266       7.66419532
Ni       1.08132336       2.07224485      22.90679887
Ni      -1.14757527       6.38097309       7.71149575
Ni      -1.27419482       6.33410745      22.94033646
Ni       6.13685247       2.18500469       7.58339749
Ni       5.93835824       2.27292401      22.82251833
Ni       3.83746139       6.36286823       7.63694400
Ni       3.65480725       6.36695917      22.86295836
Ni      -1.15339019       2.03489045       0.00277010
Ni      -1.25239327       2.08942317      15.28426832
Ni      -3.47249204       6.29226828       0.05842075
Ni      -3.66414782       6.30453654      15.30875927
Ni       3.75493626       2.13770472      -0.01246217
Ni       3.67054927       2.23813641      15.23004383
Ni       1.44446000       6.20431673      -0.00190023
Ni       1.32123980       6.34212598      15.19976004
Ni      -1.20417491       1.99011622       7.62225983
Ni      -1.37110387       2.14357897      22.89443782
Ni      -3.67903626       6.24252533       7.66213550
Ni      -3.79593023       6.34611698      22.79193674
Ni       3.63584189       2.13897814       7.64004351
Ni       3.56346400       2.21530226      22.93771559
Ni       1.32325368       6.30752149       7.65956738
Ni       1.17906276       6.40863698      22.87163559
