192
Lattice="10.032356179134087 0.270805469021856 -0.09208841529742688 -5.048038984196361 8.646431998323703 -0.3565814859799619 0.8562788036215042 -0.33877738719055667 31.764194751254795" Properties=species:S:1:pos:R:3 pbc="T T T"
Mg       0.20809832      -0.03718638       6.44874690
Mg       0.62476411      -0.30544098      22.40559088
Mg      -2.35867660       4.31889495       6.22938310
Mg      -1.91241213       4.13400455      22.13548493
Mg       5.23363293       0.11242991       6.41401234
Mg       5.59772438      -0.10716070      22.33845923
Mg       2.76216099       4.37154622       6.26951899
Mg       3.11837553       4.15991656      22.12290552
Mg       0.39112838      -0.22109722      14.29957245
Mg       0.96065539      -0.28174894      30.27155683
Mg      -2.07530166       4.13040597      14.29960076
Mg      -1.71181245       4.03651584      30.09152022
Mg       5.33701857       0.04373777      14.33902656
Mg       5.81736609      -0.16461864      30.22018072
Mg       2.89639917       4.25943868      14.08428499
Mg       3.26042706       4.11236280      29.98171243
Mg       0.28110896      -0.05968772       9.38508573
Mg       0.68235794      -0.30739095      25.31647829
Mg      -2.22617580       4.24628423       9.28497805
Mg      -1.80611614       4.04086211      25.24541154
Mg       5.24616106      -0.07272651       9.39066082
Mg       5.72011626      -0.09619265      25.22439731
Mg       2.69744697       4.28600684       9.23798639
Mg       3.11904699       4.19666743      25.08125557
Mg       0.04126755       0.04375715       1.44449413
Mg       0.49369514      -0.13256637      17.41529677
Mg      -2.50800167       4.35943602       1.39215483
Mg      -2.06594111       4.08838110      17.23655868
Mg       5.08496544       0.16531550       1.41184310
Mg       5.44924440       0.03790365      17.31238619
Mg       2.58763494       4.41487068       1.27671143
Mg       2.89339692       4.24810915      17.12972131
Mg       0.23585191       2.81106457      10.23148188
Mg       0.72213569       2.56459815      26.26426056
Mg      -2.23343733       7.14601149      10.02779751
Mg      -1.85718333       6.99944829      25.91426681
Mg       5.19382099       2.84318545      10.20118526
Mg       5.74602701       2.75040588      26.19392616
Mg       2.75936689       7.33232275      10.13119069
Mg       3.21922704       7.09013339      25.90634354
Mg       2.59846395       1.52363215       2.45067251
Mg       2.98189030       1.45474211      18.25821739
Mg       0.09513125       5.85439046       2.17222208
Mg       0.49119685       5.59112750      18.10586057
Mg       7.53015301       1.63832140       2.26617983
Mg       8.08459843       1.48133633      18.23638123
Mg       5.09028367       5.95481775       2.12346757
Mg       5.42890687       5.81715388      18.09891910
Mg       2.57721010       1.50955396       5.33483976
Mg       3.12515644       1.28595478      21.22386693
Mg       0.19997494       5.73425487       5.27776968
Mg       0.47550308       5.68146116      21.09709839
Mg       7.57614929       1.67878927       5.36957256
Mg       8.06949515       1.43066660      21.22811385
Mg       5.22056352       5.95811440       5.15915716
Mg       5.50651249       5.79997269      21.07657891
Mg       0.38420935       2.87203920      13.27066350
Mg       0.82972988       2.66259408      29.10325922
Mg      -2.23645218       7.01911889      13.01038089
Mg      -1.64967837       6.92769900      28.89361449
Mg       5.37789418       2.87117924      13.20223666
Mg       5.83998097       2.68648665      29.06678304
Mg       2.80073580       7.27000193      13.06157616
Mg       3.27976841       7.07939065      28.86072630
Ni       0.06724878       2.79142329       7.76943912
Ni       0.65404045       2.56237144      23.68134645
Ni      -2.35963004       7.12786156       7.63139715
Ni      -1.86552864       6.94064841      23.53731468
Ni       5.19541474       2.94856318       7.77654355
Ni       5.64805412       2.78743695      23.60671812
Ni       2.63662536       7.26961570       7.58670358
Ni       3.06521116       7.12945434      23.45620506
Ni       2.42944583       1.63924486      -0.08787513
Ni       2.91500132       1.38051595      15.82902353
Ni      -0.01046678       5.83831454      -0.30339885
Ni       0.41670419       5.70107568      15.59468896
Ni       7.44076877       1.53264504      -0.08964349
Ni       7.91734247       1.52446462      15.74732572
Ni       4.95628531       5.98064357      -0.27158684
Ni       5.42802708       5.80200505      15.58134577
Ni       2.67320068       1.49291516       7.89628691
Ni       3.13304294       1.32258270      23.70805523
Ni       0.15239232       5.78491668       7.68648212
Ni       0.60222856       5.59716846      23.52857004
Ni       7.74778066       1.53892145       7.84071876
Ni       8.08244005       1.42990176      23.67423738
Ni       5.19541935       5.86320742       7.62670352
Ni       5.75437275       5.80888644      23.46288105
Ni       0.02080306       2.92138337      -0.10792034
Ni       0.37942342       2.71856583      15.76552757
Ni      -2.55032880       7.23206948      -0.30324725
Ni      -2.11056219       7.12018994      15.60830247
Ni       5.06817049       3.09262584      -0.19230743
Ni       5.46006554       2.86821748      15.59307917
Ni       2.45861533       7.35832129      -0.33302248
Ni       2.90724338       7.24347283      15.57830220
Ni       0.08582427       1.43393024       3.84512170
Ni       0.57222957       1.23323163      19.85143619
Ni      -2.41531040       5.68908731       3.71263931
Ni      -1.96507348       5.60387828      19.62719892
Ni       5.06177175       1.45481087       3.81364773
Ni       5.60094768       1.45086970      19.67217442
Ni       2.58456738       5.89786890       3.71982965
Ni       2.92565480       5.65556850      19.65353728
Ni       4.11449688       0.65199102      11.82312244
Ni       4.51331581       0.54502421      27.70675545
Ni       1.56562782       5.12315022      11.62393695
Ni       2.04375615       4.89054076      27.54524194
Ni       9.09100806       0.81511820      11.69443340
Ni       9.68484909       0.75184286      27.78163222
Ni       6.62310829       5.08964159      11.64836782
Ni       6.96674618       4.95215474      27.54739312
Ni       2.82071850       2.85056045      11.72686747
Ni       3.29159144       2.74528966      27.60526825
Ni       0.32140361       7.14811071      11.54209728
Ni       0.76555018       7.11989798      27.43952243
Ni       7.81855249       3.09876269      11.76101162
Ni       8.22025461       2.82021206      27.51857207
Ni       5.34264873       7.47771242      11.45542707
Ni       5.76601472       7.05504139      27.36769321
Ni      -1.19144349       3.67712526       3.71004769
Ni      -0.75737528       3.45984954      19.61579706
Ni      -3.62930279       7.98599234       3.55885657
Ni      -3.16385872       7.70305765      19.51020872
Ni       3.87740977       3.74332173       3.76580545
Ni       4.32431974       3.52014253      19.69791975
Ni       1.32399609       8.09950465       3.61471904
Ni       1.67984171       7.84658120      19.42366008
Ni       1.35723019       3.60370169       3.89602590
Ni       1.80012092       3.53082470      19.72291437
Ni      -1.19940550       7.94200597       3.65080490
Ni      -0.72566602       7.80873019      19.42429726
Ni       6.35063989       3.82548003       3.60096308
Ni       6.80352745       3.57148604      19.64872461
Ni       3.94608927       8.14000808       3.52917909
Ni       4.28962967       7.89650256      19.39864980
Ni       1.67271448       0.57053873      11.81704205
Ni       2.05341616       0.44859161      27.81189294
Ni      -0.91512040       4.96648985      11.75991139
Ni      -0.56220298       4.72096943      27.62863589
Ni       6.58383028       0.75992736      11.84322006
Ni       6.95211480       0.54119397      27.66090506
Ni       4.06463723       5.08081693      11.68377067
Ni       4.49772080       4.98050504      27.48145859
Ni       2.67835947       0.00196540       7.89437821
Ni       3.17831314      -0.21200197      23.83359000
Ni       0.12643831       4.32584096       7.72341237
Ni       0.61318162       4.04284008      23.69965280
Ni       7.75371671       0.10169480       7.94991870
Ni       8.16931691      -0.01395701      23.69559859
Ni       5.21164466       4.34541003       7.72508632
Ni       5.74565750       4.23726977      23.56716018
Ni       1.26220199       2.23595542      -0.00382370
Ni       1.72225095       2.03034022      15.74325841
Ni      -1.21706642       6.56987285      -0.36614179
Ni      -0.77832171       6.40510147      15.59517628
Ni       6.25027656       2.39714899      -0.13103983
Ni       6.68126776       2.16258582      15.74114890
Ni       3.72235158       6.71369395      -0.33341382
Ni       4.19695502       6.52364492      15.59717068
Ni       2.47144027       0.14613650      -0.04263029
Ni       2.96101598      -0.12332338      15.78769087
Ni       0.05974811       4.29768683      -0.14685349
Ni       0.39648933       4.29371063      15.70479197
Ni       7.50414600       0.22861450      -0.02515220
Ni       8.00460428       0.06385623      15.80421800
Ni       4.95960383       4.55245836      -0.27465929
Ni       5.47634404       4.45574715      15.62228378
Ni       1.50491022       2.23359030       7.83338708
Ni       1.89214494       2.03440905      23.67968303
Ni      -1.09921367       6.48707990       7.64684090
Ni      -0.53135612       6.32330322      23.50598892
Ni       6.50180575       2.27960950       7.83160831
Ni       6.96083034       2.07820697      23.59874665
Ni       3.93794784       6.69409462       7.59445189
Ni       4.37135851       6.35250017      23.42159138
Ni      -1.17632453       2.07003695      -0.06808151
Ni      -0.83159644       2.01511311      15.77154264
Ni      -3.82253103       6.51603801      -0.25093702
Ni      -3.36670848       6.33914287      15.65847540
Ni       3.69678417       2.23462938      -0.12563457
Ni       4.11610588       2.14050950      15.81474152
Ni       1.12961481       6.63470405      -0.31091316
Ni       1.65699060       6.40531640      15.58872466
Ni      -1.06827847       2.11413851       7.80462232
Ni      -0.58439661       1.91737804      23.73726366
Ni      -3.56073159       6.43159313       7.61259360
Ni      -3.22800755       6.17934808      23.54289564
Ni       4.01166749       2.26855126       7.83411589
Ni       4.31819577       1.96725058      23.61554597
Ni       1.32874365       6.62100105       7.64441356
Ni       1.86371516       6.33709587      23.56592086
