192
Lattice="10.127531046925258 -0.16940325209240614 -0.2528067202687218 -5.054492426063982 8.365162098638695 0.08577862071578513 -0.1329672306170588 0.6207429215129883 32.01229405064787" Properties=species:S:1:pos:R:3 pbc="T T T"
Mg       0.00269491       0.13371108       6.43436372
Mg      -0.09186596       0.39994146      22.50970347
Mg      -2.60906804       4.27802289       6.55251790
Mg      -2.71043064       4.57806650      22.57458035
Mg       5.15210746       0.04689371       6.34469363
Mg       4.90727680       0.33119311      22.34668867
Mg       2.59208613       4.23530528       6.38097073
Mg       2.35825661       4.57858429      22.42729815
Mg      -0.13120145       0.30055271      14.51078146
Mg       0.00638790       0.59106594      30.44824269
Mg      -2.65172310       4.37978510      14.51088179
Mg      -2.73142675       4.78397429      30.63972371
Mg       4.99843676       0.22818556      14.37418568
Mg       4.92117495       0.51333491      30.33975092
Mg       2.45850132       4.37601673      14.39191423
Mg       2.46252431       4.71894238      30.51115586
Mg      -0.02553626       0.23762399       9.43270421
Mg      -0.21069154       0.49600341      25.48322333
Mg      -2.52516612       4.43388227       9.54297792
Mg      -2.61179608       4.57511559      25.53386107
Mg       5.02415506       0.12034909       9.38837332
Mg       5.01684008       0.43579178      25.37988537
Mg       2.49509608       4.33474978       9.41090295
Mg       2.43782054       4.48261044      25.49680137
Mg       0.07693501       0.05140193       1.43563637
Mg      -0.09505900       0.36340650      17.60579698
Mg      -2.59323302       4.24229408       1.59866746
Mg      -2.68904727       4.55022998      17.50629088
Mg       5.02461805      -0.17086852       1.37814683
Mg       4.95267178       0.30883690      17.48540089
Mg       2.57600946       4.09866531       1.35352442
Mg       2.42819596       4.41118625      17.39887238
Mg       0.00032656       2.96549891      10.40513709
Mg      -0.12580509       3.25452998      26.49246977
Mg      -2.54784719       7.18428793      10.51604986
Mg      -2.66887893       7.50494003      26.43969404
Mg       5.08674534       2.81624285      10.44944440
Mg       4.89835040       3.22030468      26.30669902
Mg       2.56401720       7.11512400      10.39552205
Mg       2.42077218       7.37239356      26.38001628
Mg       2.54288401       1.36566174       2.33045329
Mg       2.44945052       1.75014072      18.38718530
Mg       0.03535779       5.57120963       2.43733557
Mg      -0.06593119       5.92174913      18.45697689
Mg       7.55427456       1.33572093       2.22313630
Mg       7.51178863       1.64272991      18.27606355
Mg       5.12033106       5.49903428       2.37568704
Mg       4.99890357       5.80653682      18.40108005
Mg       2.53333232       1.42015926       5.51009945
Mg       2.48324360       1.75617884      21.33820156
Mg      -0.08955835       5.65171990       5.50162000
Mg       0.03075117       5.91846989      21.48868280
Mg       7.53989615       1.32951201       5.28169050
Mg       7.48570968       1.67126270      21.32907424
Mg       5.04914390       5.51000800       5.27934116
Mg       5.01911119       5.89856869      21.29149806
Mg      -0.02627978       2.97957345      13.50666528
Mg      -0.16207298       3.24725333      29.51800196
Mg      -2.52129610       7.22629305      13.49395077
Mg      -2.61256139       7.47566292      29.54407286
Mg       5.04946837       2.92230711      13.28820744
Mg       4.94689479       3.22115436      29.37697155
Mg       2.51738412       7.05250314      13.36686497
Mg       2.40186973       7.37107221      29.47792660
Ni       0.03551112       2.97623671       7.95293469
Ni      -0.03544731       3.17502535      24.03838685
Ni      -2.45614457       7.14478125       8.01911865
Ni      -2.70519078       7.33553316      24.03653814
Ni       5.07218595       2.74382737       7.82360060
Ni       4.86292726       3.23179314      23.76050728
Ni       2.43376436       7.00169629       7.85531492
Ni       2.53931586       7.28965966      23.98142574
Ni       2.56455523       1.33128463      -0.08651563
Ni       2.50160690       1.74467457      15.98128441
Ni      -0.02945880       5.46596646      -0.09848680
Ni      -0.00972687       5.83615997      15.89485657
Ni       7.58565800       1.22388209      -0.26432973
Ni       7.58809516       1.52076016      15.75055648
Ni       5.01239630       5.44452619      -0.17633209
Ni       5.06833108       5.74300600      15.76574934
Ni       2.48938092       1.48092063       7.94948742
Ni       2.46375629       1.73893274      23.90814623
Ni       0.00254827       5.72346288       8.02056676
Ni      -0.27036533       5.91773129      23.97437818
Ni       7.53022423       1.45958087       7.81513454
Ni       7.39937656       1.72922761      23.80186124
Ni       5.03217129       5.58210900       7.85346901
Ni       5.08335385       5.93181711      23.90530725
Ni      -0.03024240       2.76780332       0.01959855
Ni      -0.06362364       3.03915786      16.05256459
Ni      -2.60890236       6.90464796       0.00753021
Ni      -2.58834175       7.32922878      16.06824943
Ni       5.05569788       2.64489129      -0.17996970
Ni       5.08004218       2.90533619      15.82633762
Ni       2.45029271       6.94551412      -0.06519075
Ni       2.52469877       7.12212996      15.97716672
Ni      -0.02115133       1.49648231       3.97186717
Ni      -0.10100246       1.72564632      20.04820812
Ni      -2.55765602       5.52580715       4.02236766
Ni      -2.67797343       5.95484566      20.08664003
Ni       5.09581650       1.45108622       3.89628139
Ni       4.97705171       1.69754395      19.93659582
Ni       2.56512196       5.53231723       3.85002482
Ni       2.43550196       5.93083121      19.90845609
Ni       3.73829224       0.85718396      11.81042354
Ni       3.65311045       1.15070488      27.92918637
Ni       1.20351916       5.08324016      11.90969525
Ni       1.14702339       5.33716803      28.01073675
Ni       8.84724075       0.78565521      11.76376931
Ni       8.76268052       1.06290864      27.80393949
Ni       6.25644768       4.98244849      11.77347499
Ni       6.18536940       5.34553688      27.68357284
Ni       2.37545722       2.92520855      11.86363691
Ni       2.39811314       3.27525484      27.91483438
Ni      -0.12857627       7.12487509      11.89915306
Ni      -0.07273908       7.37726790      28.02326906
Ni       7.54276973       2.91778103      11.81969317
Ni       7.46032772       3.13933989      27.77135028
Ni       5.10338437       7.04621085      11.80617248
Ni       4.96415901       7.35966862      27.84652179
Ni      -1.23852461       3.60644647       3.95375577
Ni      -1.33866255       3.80859039      20.09273008
Ni      -3.89119219       7.74487158       4.10914666
Ni      -3.91550046       8.05715744      19.99559090
Ni       3.74714811       3.40453342       3.85105164
Ni       3.74591870       3.83618254      19.89258713
Ni       1.28607815       7.72364448       3.97989307
Ni       1.19468340       8.03414294      19.93184375
Ni       1.27708461       3.50321505       3.92587110
Ni       1.11513836       3.87562153      20.01120620
Ni      -1.30513101       7.68789368       3.86192838
Ni      -1.30713109       7.97497771      19.93163950
Ni       6.35152482       3.39235078       3.70273918
Ni       6.23519300       3.69455018      19.86553935
Ni       3.80275680       7.56425118       3.96467416
Ni       3.70966932       7.87752580      19.89714519
Ni       1.25025514       0.93251422      12.01725384
Ni       1.19698859       1.32228326      27.98417929
Ni      -1.27738739       5.09081990      11.97968169
Ni      -1.37978200       5.38819390      28.04718686
Ni       6.25953017       0.85098686      11.77846731
Ni       6.30419589       1.17109042      27.77328740
Ni       3.67436704       5.03643651      11.88529198
Ni       3.71376878       5.30989959      27.94673267
Ni       2.55987438       0.09084627       7.90591700
Ni       2.52747562       0.48808844      23.99367719
Ni      -0.04424298       4.29940030       7.99740304
Ni      -0.03283810       4.55032015      23.96085212
Ni       7.63527629       0.08168266       7.81567598
Ni       7.47829242       0.40178887      23.78009190
Ni       5.07386564       4.28546257       7.77716430
Ni       4.99191382       4.57509962      23.88652937
Ni       1.24251363       2.02795347      -0.04085110
Ni       1.15858001       2.35402721      15.92795182
Ni      -1.20613277       6.24006234       0.00424001
Ni      -1.34732563       6.50722167      15.96078949
Ni       6.36085502       1.96755906      -0.18607825
Ni       6.26159918       2.20769231      15.84693152
Ni       3.75579428       6.20363689      -0.18942903
Ni       3.79437048       6.51253564      16.01842066
Ni       2.56281705      -0.01520570       0.00527185
Ni       2.50832665       0.20590344      15.98319579
Ni       0.05979606       4.13994294      -0.04523040
Ni      -0.02384265       4.46563854      15.91058302
Ni       7.63355261      -0.17582914      -0.09598896
Ni       7.55415346       0.16757098      15.88410413
Ni       5.14260177       4.11211046      -0.16380074
Ni       5.01601103       4.42238145      15.91325669
Ni       1.25146203       2.20762509       7.88196986
Ni       1.35098444       2.50304372      23.91201379
Ni      -1.23631812       6.40214827       8.02385984
Ni      -1.36713945       6.66138183      24.02351819
Ni       6.27913615       2.15040100       7.75983093
Ni       6.24419525       2.41811516      23.84915442
Ni       3.72553336       6.29854063       7.90953964
Ni       3.73431293       6.54414107      23.95123234
Ni      -1.19276664       2.07833968      -0.01308388
Ni      -1.36906546       2.41895692      16.03462642
Ni      -3.71271688       6.27212726      -0.05195412
Ni      -3.92321366       6.59633081      16.13653689
Ni       3.77905974       2.03091580      -0.07599932
Ni       3.66533325       2.33197982      15.90268817
Ni       1.27011002       6.28659455      -0.07064978
Ni       1.17862685       6.48553132      15.89908744
Ni      -1.27488937       2.22196913       8.01505763
Ni      -1.41121394       2.53519174      24.08867162
Ni      -3.82770086       6.42728323       8.06224447
Ni      -3.92820458       6.70581923      24.14278107
Ni       3.72322321       2.15870686       7.89717045
Ni       3.67169653       2.54175176      24.04858948
Ni       1.21558783       6.31260236       7.96583162
Ni       1.14095341       6.64847771      23.93895357
