192
Lattice="9.74089064030141 0.08894631414399251 0.1172229237757867 -4.684020510946535 8.352654149199381 -0.09882007540309147 0.08341164805374714 0.3853689109561109 30.806693736683556" Properties=species:S:1:pos:R:3 pbc="T T T"
Mg       0.02234947       0.10509345       6.22660354
Mg       0.01883700       0.19691353      21.67147055
Mg      -2.35941531       4.28366934       6.13801247
Mg      -2.24827557       4.43613077      21.56277630
Mg       4.83715662       0.16663954       6.28679184
Mg       4.85638574       0.41046997      21.71095151
Mg       2.62404169       4.39871128       6.34501882
Mg       2.54248213       4.48062433      21.68400381
Mg      -0.04385062       0.12698313      13.94239544
Mg       0.10469045       0.36411802      29.30810311
Mg      -2.30854033       4.38476904      13.91055448
Mg      -2.21885718       4.47771785      29.25706629
Mg       4.92100933       0.21286248      14.08601088
Mg       4.94399385       0.34940070      29.42927270
Mg       2.56707272       4.40221276      14.01207328
Mg       2.58255941       4.61745135      29.35982844
Mg       0.03231329       0.09719247       9.20886250
Mg       0.05157933       0.29294700      24.53160863
Mg      -2.27889502       4.23043141       9.16490732
Mg      -2.38199523       4.45415798      24.52815032
Mg       4.87456063       0.05450087       9.19128424
Mg       4.98655163       0.33634560      24.58987016
Mg       2.62432130       4.37792176       9.16139966
Mg       2.62073309       4.51229188      24.47120904
Mg       0.00134290       0.02081948       1.35529355
Mg       0.04680533       0.15642966      16.90171760
Mg      -2.31377997       4.13703820       1.45239896
Mg      -2.24509727       4.40396760      16.74371232
Mg       4.79732555      -0.04212516       1.56414204
Mg       4.80759223       0.28502449      16.92888664
Mg       2.60531750       4.29064224       1.41279677
Mg       2.51372262       4.46429633      16.84033000
Mg       0.14918001       2.92203556      10.09189899
Mg       0.12866312       3.11739462      25.50386875
Mg      -2.17720182       6.98669554       9.98203584
Mg      -2.21162485       7.30790378      25.44828575
Mg       4.90478448       2.98935021      10.13441556
Mg       5.01611324       3.13091968      25.54724650
Mg       2.55395815       7.08227674      10.00743786
Mg       2.73403422       7.31639941      25.56726244
Mg       2.48335115       1.44558691       2.44375438
Mg       2.47749267       1.53835534      17.70968008
Mg       0.14706877       5.61355093       2.34629964
Mg       0.15610942       5.80169911      17.69020402
Mg       7.29503539       1.53447120       2.41853104
Mg       7.36764444       1.71684152      17.81979868
Mg       4.93995527       5.62019818       2.43573075
Mg       5.01623381       5.77459937      17.79782192
Mg       2.56914371       1.49163207       5.25014572
Mg       2.52341165       1.61370284      20.75015267
Mg       0.14461434       5.65675762       5.23272454
Mg       0.19902905       5.95261671      20.73225562
Mg       7.33245032       1.52383879       5.42038294
Mg       7.40515403       1.73956486      20.73678191
Mg       5.07116165       5.75981211       5.28205142
Mg       4.97862466       5.86040547      20.72879445
Mg       0.01313625       2.98038629      12.92182431
Mg       0.24094562       3.11881698      28.41901739
Mg      -2.17704392       7.15533339      13.02731503
Mg      -2.21825262       7.40915850      28.29858278
Mg       4.92521727       2.94672480      13.06323835
Mg       5.04118973       3.23870286      28.37460706
Mg       2.67863708       7.12312917      13.03715222
Mg       2.62923265       7.33765381      28.41552942
Ni       0.08316910       2.87825224       7.59545379
Ni       0.11013297       3.09408929      23.01652582
Ni      -2.26312207       7.05083185       7.73907831
Ni      -2.14206007       7.15546452      23.00717270
Ni       4.91033123       2.95516735       7.72562511
Ni       5.00128778       3.11140724      23.12338232
Ni       2.54862257       7.12133247       7.73933205
Ni       2.57042466       7.35087090      23.13436638
Ni       2.41878414       1.31133257      -0.00906352
Ni       2.57802419       1.55866693      15.40863864
Ni       0.10503989       5.55554897      -0.02719754
Ni       0.16684064       5.84753527      15.33517199
Ni       7.38212509       1.44715884       0.07957644
Ni       7.35257193       1.63771400      15.50892676
Ni       5.04076904       5.65531216       0.04976937
Ni       5.03297696       5.80458686      15.38028164
Ni       2.44564654       1.45539082       7.60094709
Ni       2.47508005       1.64384452      23.25213609
Ni       0.18923367       5.77783995       7.68862295
Ni       0.21137041       5.81093785      23.07652997
Ni       7.34476991       1.55598772       7.79659739
Ni       7.49390514       1.67140929      23.15259662
Ni       4.94955732       5.76291213       7.62042200
Ni       5.09812733       5.81343115      23.12475469
Ni       0.02886810       2.80824267       0.02906194
Ni       0.07211657       2.99480853      15.44612247
Ni      -2.20114273       6.93152104      -0.02573580
Ni      -2.21374057       7.18140353      15.39786394
Ni       4.94539785       2.83745658       0.22208709
Ni       5.05741869       3.01903687      15.47596463
Ni       2.64664590       6.98846335      -0.04058574
Ni       2.61447598       7.22182211      15.41656770
Ni      -0.00730991       1.43990844       3.91656737
Ni       0.09927910       1.64960452      19.27519018
Ni      -2.31923235       5.57979198       3.78296266
Ni      -2.28805679       5.84891869      19.15337793
Ni       4.87082028       1.53980534       3.89283440
Ni       4.99103036       1.62933520      19.26420684
Ni       2.58378948       5.70788173       3.91573481
Ni       2.56376394       5.88646734      19.22576872
Ni       3.63955450       0.89783075      11.54193647
Ni       3.70731235       1.02932949      27.02338875
Ni       1.27334672       5.02427750      11.51733498
Ni       1.43896113       5.33394797      26.94964715
Ni       8.55025227       0.96727200      11.54371111
Ni       8.62153379       1.11228422      27.08476669
Ni       6.24417790       5.16479796      11.58260603
Ni       6.26560520       5.35926548      27.02572835
Ni       2.57811406       3.03446245      11.56007570
Ni       2.58174487       3.07289578      27.00950377
Ni       0.28961689       7.12715030      11.52274092
Ni       0.17879412       7.32939033      26.92792045
Ni       7.36749279       2.94863935      11.64078734
Ni       7.50035579       3.22436974      27.04901822
Ni       5.05995926       7.28566820      11.64850950
Ni       5.06238024       7.41431611      26.90735927
Ni      -1.12246111       3.54695209       3.85799234
Ni      -1.05203282       3.76388924      19.18416417
Ni      -3.51570762       7.69552183       3.82748375
Ni      -3.41876301       7.97792997      19.09798679
Ni       3.69814489       3.63520413       3.95929445
Ni       3.73100156       3.77208417      19.39250366
Ni       1.44293296       7.75626359       3.82229121
Ni       1.45832009       7.97050125      19.23505671
Ni       1.29352475       3.54931693       3.87265321
Ni       1.33637248       3.72585740      19.24533703
Ni      -1.07852679       7.63241912       3.85415261
Ni      -1.03355041       7.97655740      19.22841492
Ni       6.17075886       3.61391327       3.93538431
Ni       6.22880092       3.76971051      19.33865757
Ni       3.77171927       7.76733693       3.87189320
Ni       3.90929694       7.99243140      19.29504121
Ni       1.30297591       0.79779421      11.52684586
Ni       1.26947103       1.06039574      26.90131519
Ni      -1.02286593       5.12523355      11.53371291
Ni      -1.04983384       5.23472446      26.92522813
Ni       6.14364190       0.87470449      11.64826972
Ni       6.24313141       1.09871332      27.05295132
Ni       3.79744351       5.04711731      11.59581756
Ni       3.76512608       5.29674795      27.00252842
Ni       2.54804763       0.15052448       7.78238258
Ni       2.45579008       0.30115550      23.11378558
Ni       0.04353655       4.27322640       7.67278093
Ni       0.16664221       4.35290418      23.03946378
Ni       7.37609562       0.22422713       7.87704543
Ni       7.39762755       0.42969259      23.24270696
Ni       5.03676345       4.28062130       7.80108030
Ni       5.02515496       4.43185537      23.20009019
Ni       1.28512940       2.07513331       0.00114832
Ni       1.39509034       2.26966116      15.44970553
Ni      -1.12463386       6.22663335      -0.08313262
Ni      -1.12834344       6.53804356      15.35477498
Ni       6.13864424       2.16170290       0.08743908
Ni       6.17528794       2.32523735      15.42069270
Ni       3.71454965       6.38431189       0.00010464
Ni       3.89968269       6.51515581      15.40656502
Ni       2.45460154      -0.02524968       0.02734539
Ni       2.51649001       0.24838981      15.43446825
Ni       0.01069122       4.20779123      -0.02029911
Ni       0.20683002       4.30155848      15.38809091
Ni       7.27549685       0.10432077       0.09081701
Ni       7.33876624       0.23367730      15.48774860
Ni       4.95013363       4.24256209       0.02646444
Ni       5.07717072       4.43629135      15.48427317
Ni       1.35776115       2.25852918       7.67333841
Ni       1.28458354       2.42408656      23.04506552
Ni      -1.08734227       6.35548223       7.63121817
Ni      -1.00151806       6.55681925      23.06160022
Ni       6.22558071       2.31445717       7.80527031
Ni       6.28723934       2.38044263      23.15956621
Ni       3.75270504       6.37021827       7.71596298
Ni       3.89714841       6.64745679      23.09980487
Ni      -1.08787174       2.15374346      -0.00533722
Ni      -1.12133068       2.29910843      15.45710882
Ni      -3.53957491       6.27877799      -0.10575649
Ni      -3.43483016       6.53712717      15.30015478
Ni       3.74461611       2.17595022       0.05039875
Ni       3.71236507       2.29656326      15.47278568
Ni       1.39997467       6.26108495       0.01542185
Ni       1.40855040       6.54290239      15.34949270
Ni      -1.09785669       2.13612451       7.69340796
Ni      -1.04379299       2.33142915      23.07561136
Ni      -3.43755048       6.35310686       7.57568410
Ni      -3.45944984       6.53344095      22.96161041
Ni       3.69804511       2.18683219       7.62868346
Ni       3.75188328       2.47394276      23.11048188
Ni       1.40412548       6.38150621       7.64074817
Ni       1.38482159       6.64941602      23.10125078
