192
Lattice="9.89893013324344 -0.2930784964509507 0.4330272885882917 -4.914000064772647 8.672707589063045 0.010346703751395783 -1.246913388884038 -0.3990378109722063 33.046332851901305" Properties=species:S:1:pos:R:3 pbc="T T T"
Mg      -0.29689754      -0.06383890       6.68111284
Mg      -0.80258705      -0.27212386      23.21911553
Mg      -2.61308913       4.25420643       6.62879723
Mg      -3.33823119       4.07356508      23.27139278
Mg       4.73253225      -0.25121183       6.97798075
Mg       4.07846842      -0.49433961      23.51152101
Mg       2.22740745       4.20601580       6.94393448
Mg       1.55226348       3.85348477      23.47474754
Mg      -0.65077954      -0.18168387      14.86247833
Mg      -1.15450274      -0.37682051      31.51683098
Mg      -3.03586523       4.11288966      14.99673607
Mg      -3.68741400       3.93967358      31.50993626
Mg       4.42624612      -0.35605255      15.10480642
Mg       3.71114195      -0.58062621      31.68185470
Mg       1.95550396       4.01689882      15.20997295
Mg       1.37383722       3.80257069      31.68509320
Mg      -0.29456449      -0.09293183       9.83054197
Mg      -1.04331003      -0.21537143      26.35065791
Mg      -2.81421137       4.26105672       9.75640340
Mg      -3.47084465       3.98893736      26.40626270
Mg       4.65605170      -0.29313634      10.08088818
Mg       3.93838894      -0.41266960      26.51210251
Mg       2.12917280       4.10251791      10.09628311
Mg       1.48600819       3.86136834      26.56290943
Mg      -0.07874946       0.00818073       1.49148658
Mg      -0.63045699      -0.14474673      18.10191099
Mg      -2.55521592       4.34198861       1.56037161
Mg      -3.18938442       4.14978002      18.06523854
Mg       4.93739807      -0.21320032       1.78687049
Mg       4.26818155      -0.35184939      18.30949912
Mg       2.41927134       4.12139755       1.72111218
Mg       1.93025453       3.94308425      18.25816991
Mg      -0.41805742       2.65620293      10.96577773
Mg      -1.08002604       2.48437048      27.46020103
Mg      -2.84100453       7.10308190      10.90906350
Mg      -3.53936496       6.94278558      27.44259621
Mg       4.59206712       2.48990162      11.08936020
Mg       3.98610487       2.24920345      27.71092238
Mg       2.16279856       6.90052795      11.01472431
Mg       1.57868014       6.70812123      27.61360398
Mg       2.40684985       1.36538348       2.73471454
Mg       1.79758566       1.10994850      19.21895839
Mg      -0.09615136       5.60824381       2.65368249
Mg      -0.64128775       5.51192788      19.27962621
Mg       7.31114882       1.15156520       2.95268339
Mg       6.81190104       0.89583914      19.44063505
Mg       4.87174168       5.50621968       3.03420870
Mg       4.18137461       5.27318564      19.49968628
Mg       2.27094219       1.39455059       5.90165288
Mg       1.61162959       1.08431847      22.36422647
Mg      -0.32480175       5.62350170       5.79906638
Mg      -0.75300396       5.45831091      22.35016423
Mg       7.24462450       1.14989473       6.03416727
Mg       6.50251163       0.81746292      22.62974132
Mg       4.80433722       5.40844903       6.09246107
Mg       4.06257503       5.25496964      22.57646844
Mg      -0.57859888       2.60249434      14.04470445
Mg      -1.08842350       2.50811042      30.60116726
Mg      -3.01705597       7.03388696      14.07095068
Mg      -3.57698141       6.78878734      30.50598810
Mg       4.44088017       2.52877117      14.21879888
Mg       3.86607006       2.24117141      30.81522303
Mg       1.94354199       6.94900307      14.22298279
Mg       1.38106048       6.59956749      30.74387298
Ni      -0.31314607       2.68751310       8.28072637
Ni      -1.05103572       2.58496375      24.88572463
Ni      -2.82616666       7.17550122       8.42066129
Ni      -3.24802664       6.77754656      24.81480803
Ni       4.55475663       2.59574825       8.60816040
Ni       4.01114531       2.36968824      25.03935713
Ni       2.24844996       6.94860286       8.52278090
Ni       1.58263909       6.74885263      25.09274110
Ni       2.46313667       1.34765837       0.16202770
Ni       1.86075446       1.20001584      16.66426046
Ni       0.07297507       5.68764438       0.06565790
Ni      -0.51909053       5.39990085      16.70510287
Ni       7.49757098       1.24706917       0.34123786
Ni       6.85515325       1.04211850      16.84920196
Ni       4.91814674       5.44495865       0.32587373
Ni       4.28047935       5.40845525      16.83353184
Ni       2.13719217       1.15979254       8.37243041
Ni       1.57085584       1.03089090      24.92205507
Ni      -0.28051432       5.60252246       8.37313861
Ni      -0.97803833       5.45278102      24.92741856
Ni       7.05483529       1.13706723       8.69676846
Ni       6.50342874       0.90230445      25.11509085
Ni       4.72606225       5.40853715       8.68378269
Ni       4.04158492       5.23092895      25.10160149
Ni       0.05265391       2.92535208       0.16065521
Ni      -0.47422609       2.58991401      16.54689813
Ni      -2.42176645       7.15453130       0.06521154
Ni      -3.06202470       6.98787137      16.71004033
Ni       4.86581638       2.71809783       0.32204128
Ni       4.28598526       2.57767735      16.73142686
Ni       2.46981439       6.99234762       0.31300690
Ni       1.86905441       6.88177561      16.78653496
Ni      -0.09548374       1.31956181       4.21685953
Ni      -0.70913277       1.14892888      20.68217851
Ni      -2.57862472       5.71237126       4.17917471
Ni      -3.21917366       5.48349694      20.66254326
Ni       4.90730289       1.15731830       4.38427523
Ni       4.21008281       1.03080632      20.84353550
Ni       2.35765025       5.50506629       4.38476195
Ni       1.64203092       5.28405586      20.95982549
Ni       3.22658670       0.48254556      12.51124397
Ni       2.60466197       0.21886349      29.05030512
Ni       0.84230279       4.78064337      12.51611791
Ni       0.13511386       4.52849986      29.08738274
Ni       8.21877780       0.36129124      12.81009567
Ni       7.60361195       0.16180134      29.37968920
Ni       5.76459684       4.60012759      12.80031141
Ni       5.11229727       4.48666454      29.32151026
Ni       2.04391902       2.58251346      12.52004780
Ni       1.33985436       2.46665682      29.12493575
Ni      -0.55206468       7.07512677      12.52157506
Ni      -1.01436684       6.64218154      29.04039840
Ni       6.88374233       2.41835507      12.81704163
Ni       6.29730419       2.23546852      29.30640240
Ni       4.42958089       6.81820035      12.80021681
Ni       3.83196254       6.50511223      29.36278188
Ni      -1.42386285       3.52328560       4.16257759
Ni      -2.08026819       3.32832418      20.65047561
Ni      -3.80284210       7.85353704       4.23132731
Ni      -4.53530276       7.72621800      20.71624889
Ni       3.53610668       3.37921139       4.40842526
Ni       3.06557805       3.17823904      20.96122751
Ni       1.11382735       7.79428335       4.30607445
Ni       0.52283487       7.51332827      20.93769369
Ni       1.04501789       3.37910237       4.38581600
Ni       0.44476830       3.25887595      20.80652139
Ni      -1.29606780       7.81029777       4.23228812
Ni      -2.00879984       7.52542224      20.80872802
Ni       6.07368211       3.34820311       4.56204692
Ni       5.54236966       3.03361345      20.90212109
Ni       3.64725640       7.70672192       4.53300463
Ni       2.86792120       7.49518747      20.97411110
Ni       0.83594205       0.50719628      12.45452017
Ni       0.12596953       0.32215343      29.05566187
Ni      -1.52522576       5.00140264      12.52690127
Ni      -2.33175610       4.67269188      28.96111442
Ni       5.65345733       0.38708319      12.71410242
Ni       5.18748204       0.17477852      29.30182333
Ni       3.27530297       4.79990568      12.66793591
Ni       2.61489277       4.53644891      29.20007604
Ni       2.20159551      -0.15538898       8.38008431
Ni       1.43372734      -0.37882617      24.85759847
Ni      -0.27758476       4.09938858       8.35610093
Ni      -0.89132734       3.97896230      24.91146201
Ni       7.14919586      -0.38926996       8.66518009
Ni       6.53234606      -0.46695595      25.10487435
Ni       4.72729895       4.16584061       8.56677461
Ni       4.04381407       3.86086727      25.06848060
Ni       1.23769258       2.04098522       0.02615289
Ni       0.62218693       1.87525151      16.59884669
Ni      -1.22362000       6.46084265       0.10674211
Ni      -1.79644505       6.28511094      16.66399676
Ni       6.17276179       1.89124963       0.31723809
Ni       5.54917288       1.71415069      16.84740229
Ni       3.72227958       6.28424402       0.34282783
Ni       3.11102060       6.09461849      16.89038316
Ni       2.54871278      -0.03174993       0.04047660
Ni       1.83989175      -0.27727501      16.63398244
Ni       0.04405816       4.22508740       0.07265804
Ni      -0.54421870       4.03452517      16.58228455
Ni       7.44911539      -0.22343703       0.27582890
Ni       6.83818810      -0.46922305      16.89648534
Ni       5.02635351       4.11158318       0.32498766
Ni       4.31418684       3.93869964      16.88421730
Ni       0.87296637       1.97113248       8.37770825
Ni       0.40029857       1.71911285      24.87057252
Ni      -1.52858653       6.34761642       8.35483402
Ni      -2.12605295       6.09701247      25.03206759
Ni       5.83867873       1.85966755       8.62490962
Ni       5.28712678       1.58607875      25.12604935
Ni       3.36100429       6.22005785       8.55458494
Ni       2.68693765       6.03041018      25.08849817
Ni      -1.21979292       2.22409936      -0.11151526
Ni      -1.85790652       1.90466981      16.56398093
Ni      -3.67472671       6.48684884       0.04111252
Ni      -4.24767527       6.22274837      16.52194162
Ni       3.80459990       1.99007551       0.25235736
Ni       3.13926575       1.81923811      16.71686884
Ni       1.25816796       6.30868286       0.30209900
Ni       0.64402604       6.20968248      16.81028895
Ni      -1.53522304       2.14902086       8.30627346
Ni      -2.18595265       1.80202550      24.81472867
Ni      -4.04954557       6.40573238       8.26696986
Ni      -4.59469601       6.13746334      24.75751679
Ni       3.39249475       1.95640012       8.48356908
Ni       2.80037959       1.69933492      25.06477691
Ni       0.91349193       6.22930336       8.51494398
Ni       0.19528303       6.14574734      24.92953847
