192
Lattice="9.861617771930163 0.2040401792572799 0.37633099131276526 -4.775161837625373 8.470210913341756 -0.14019282103867342 -0.21963354616835426 -0.42569466422267505 31.578257047388902" Properties=species:S:1:pos:R:3 pbc="T T T"
Mg       0.00028315      -0.17725522       6.37213458
Mg      -0.11225358      -0.24070926      22.19670605
Mg      -2.47148733       4.08676191       6.35976609
Mg      -2.52074410       3.93118214      22.13186522
Mg       4.95243938       0.06327094       6.63231993
Mg       4.82291628      -0.20439704      22.44843305
Mg       2.51254683       4.25380880       6.50952916
Mg       2.31136432       4.07874781      22.26904169
Mg      -0.12800123      -0.26511150      14.24896011
Mg      -0.27420889      -0.41604366      30.03386087
Mg      -2.48226987       4.02244512      14.26468270
Mg      -2.59719089       3.88153692      30.07089751
Mg       4.87465660      -0.10180600      14.46564355
Mg       4.72654105      -0.28396251      30.27592374
Mg       2.39306030       4.15128569      14.45990128
Mg       2.37612970       3.99392571      30.29925460
Mg      -0.08022472      -0.09430800       9.43049231
Mg      -0.12741476      -0.28210920      25.14546311
Mg      -2.45870527       4.07135871       9.33128983
Mg      -2.58187011       3.95660132      25.06431180
Mg       4.87382236       0.01894946       9.49149388
Mg       4.74922484      -0.23420169      25.39248104
Mg       2.54493124       4.28227079       9.44647234
Mg       2.24685609       3.97533685      25.25880218
Mg       0.02713011      -0.01056277       1.57848204
Mg      -0.05683794      -0.28504072      17.29184554
Mg      -2.34969712       4.18708268       1.40268023
Mg      -2.45203326       3.99687993      17.15591099
Mg       4.98842393       0.12615516       1.67714577
Mg       4.84981182      -0.17185960      17.47946383
Mg       2.56074957       4.29268355       1.70623758
Mg       2.42066259       4.11286242      17.40004662
Mg       0.03020121       2.70364356      10.43160666
Mg      -0.20349281       2.55945941      26.26325668
Mg      -2.48797750       6.90319539      10.21476639
Mg      -2.52068448       6.65350209      26.04946764
Mg       4.93758814       2.89014483      10.47326024
Mg       4.79149742       2.50867635      26.23940783
Mg       2.53530175       7.04771649      10.52774074
Mg       2.39006418       6.87721949      26.30133496
Mg       2.41508123       1.47076326       2.55782299
Mg       2.34851668       1.21929318      18.31470314
Mg       0.12510975       5.65850490       2.43062558
Mg      -0.06612681       5.47191485      18.25667839
Mg       7.38356837       1.42312574       2.86222537
Mg       7.39970691       1.29568291      18.59258923
Mg       5.05996449       5.70905203       2.71302124
Mg       4.90227559       5.51393561      18.46912956
Mg       2.42316849       1.39296932       5.53896113
Mg       2.39525585       1.14636918      21.28595255
Mg       0.12348484       5.67838635       5.53212680
Mg      -0.07339798       5.48931715      21.22723283
Mg       7.37069464       1.59022615       5.70087448
Mg       7.31496730       1.38080880      21.49476765
Mg       5.07960619       5.87230793       5.67709655
Mg       4.92670523       5.56684493      21.48166202
Mg      -0.02172811       2.68212778      13.31403495
Mg      -0.16119213       2.49273604      29.09133319
Mg      -2.52732312       6.92096863      13.26722633
Mg      -2.51433496       6.66943369      29.06423639
Mg       4.95054868       2.74540740      13.58459580
Mg       4.73112532       2.55058506      29.34190657
Mg       2.45398629       6.98628027      13.50196695
Mg       2.41403119       6.85707576      29.29355073
Ni       0.00656059       2.75142248       7.93712455
Ni      -0.09195744       2.60095568      23.65674338
Ni      -2.26866318       6.95967216       7.91825565
Ni      -2.44895600       6.72617334      23.54394778
Ni       4.93164134       2.85914816       8.18044532
Ni       4.82847257       2.67563161      23.89553028
Ni       2.54773696       7.05242431       8.06096080
Ni       2.46859299       6.88549171      23.78441933
Ni       2.43928604       1.52657469       0.10312239
Ni       2.36421025       1.29052955      15.88206908
Ni       0.09023958       5.71035300      -0.01633923
Ni       0.03696177       5.47890727      15.85729345
Ni       7.43493396       1.58139994       0.21796852
Ni       7.24883072       1.38799028      16.09506400
Ni       5.02307745       5.80695927       0.26158575
Ni       4.91069077       5.62038839      15.96447740
Ni       2.51240227       1.50052785       7.92262972
Ni       2.33819919       1.21277483      23.84853172
Ni       0.05370414       5.66846129       8.00133907
Ni      -0.02989088       5.41352900      23.71082057
Ni       7.39652327       1.50675662       8.12034763
Ni       7.27147844       1.24818585      23.97853194
Ni       4.91332672       5.76651931       8.10254422
Ni       4.89531156       5.48027977      23.77042474
Ni      -0.01972835       2.81460430       0.00092065
Ni      -0.01736554       2.64668575      15.79531176
Ni      -2.36481387       7.10788803      -0.03372984
Ni      -2.41829290       6.94887136      15.77490859
Ni       5.00079973       2.93493374       0.22854529
Ni       4.80973802       2.77834311      16.00912611
Ni       2.66324125       7.16504040       0.08789949
Ni       2.48065322       6.89595044      15.82847013
Ni      -0.00527998       1.38546944       3.98271094
Ni      -0.17021048       1.19554511      19.73062959
Ni      -2.35430465       5.58527491       3.93238559
Ni      -2.44973624       5.37994160      19.69981552
Ni       5.02029573       1.52656223       4.14454536
Ni       4.88368816       1.19479580      19.89113588
Ni       2.55174127       5.65495149       4.03680688
Ni       2.38793954       5.55046928      19.86556662
Ni       3.58935777       0.57322090      11.90820519
Ni       3.42390793       0.45954266      27.72827635
Ni       1.18530781       4.82949325      11.96615523
Ni       1.06038532       4.65919955      27.71354391
Ni       8.59068651       0.70839468      12.26494321
Ni       8.37531369       0.53319771      28.00125443
Ni       6.18217667       4.98676626      12.13533898
Ni       6.02292992       4.73118644      27.90860118
Ni       2.48858955       2.73389008      12.02906091
Ni       2.28105262       2.53618149      27.81540907
Ni       0.05303131       6.87577034      11.86635497
Ni      -0.04305044       6.79659522      27.71243369
Ni       7.38093305       2.84488586      12.12635298
Ni       7.19393656       2.58076382      27.91046397
Ni       4.99710471       7.17038686      11.97631596
Ni       4.89913780       6.91762269      27.89442142
Ni      -1.23411466       3.45306660       3.85643345
Ni      -1.28731591       3.26856352      19.65863417
Ni      -3.64253029       7.75658468       3.74290871
Ni      -3.72873338       7.52046728      19.66424942
Ni       3.75813580       3.59924420       4.17526796
Ni       3.60897855       3.45183712      19.97703375
Ni       1.33900552       7.90184579       4.09362013
Ni       1.23321171       7.59518879      19.85983153
Ni       1.37031083       3.51193585       4.09630263
Ni       1.16764503       3.32888603      19.82062296
Ni      -1.11276511       7.80773564       3.98489226
Ni      -1.16132782       7.56997104      19.73323617
Ni       6.18643883       3.65888676       4.16954911
Ni       6.03280064       3.40778576      20.02599349
Ni       3.74211528       7.90632948       4.14245916
Ni       3.74203545       7.81491693      19.90923285
Ni       1.07256276       0.63284193      11.82826511
Ni       1.04836707       0.29260177      27.65309901
Ni      -1.27808619       4.79648922      11.77346126
Ni      -1.37048633       4.63189416      27.51770113
Ni       6.05612207       0.65257380      12.03416055
Ni       5.92416350       0.46050825      27.84997469
Ni       3.72300935       4.90178737      12.05545707
Ni       3.58290948       4.63891928      27.72873807
Ni       2.43198268      -0.03961015       7.96432855
Ni       2.27133119      -0.17380117      23.81976479
Ni      -0.11766591       4.25317332       8.04516129
Ni      -0.03382917       3.97833580      23.65321312
Ni       7.28687797       0.03453341       8.24057575
Ni       7.15915035      -0.16069618      24.09201368
Ni       5.05495825       4.29225995       8.14469366
Ni       4.82538656       4.04256948      23.85152458
Ni       1.25970113       2.09452877      -0.02207296
Ni       1.22534643       1.99964126      15.89448342
Ni      -1.08058513       6.44457339      -0.04111809
Ni      -1.21706108       6.23597402      15.88486537
Ni       6.15991037       2.26281516       0.25811077
Ni       6.12168160       2.09878255      16.02512254
Ni       3.78048844       6.47240712       0.20197041
Ni       3.74213270       6.28154495      16.08188918
Ni       2.41072051      -0.00495417      -0.01905962
Ni       2.43639237      -0.18595074      15.96116366
Ni       0.04651778       4.26974030       0.05138601
Ni      -0.03135867       4.10028562      15.86187547
Ni       7.41301788       0.05517081       0.26023355
Ni       7.34359077      -0.01871485      16.07252638
Ni       5.03518543       4.37418555       0.23624584
Ni       4.84085849       4.23387330      16.05926804
Ni       1.24712996       2.05799599       7.87584058
Ni       1.13267325       1.80999689      23.75872649
Ni      -1.18901244       6.30527820       7.85962077
Ni      -1.25343272       6.14086739      23.73917238
Ni       6.20147792       2.10408796       8.19217005
Ni       5.95348446       1.93375198      23.91425899
Ni       3.77920519       6.45767806       8.07952051
Ni       3.61011065       6.14782126      23.81780663
Ni      -1.22032997       2.05800655      -0.01300592
Ni      -1.35638292       1.85889680      15.72373110
Ni      -3.61765577       6.35955947      -0.16894815
Ni      -3.64069734       6.11831001      15.69499371
Ni       3.77353721       2.26412742       0.19289198
Ni       3.64103195       1.98637735      15.88947150
Ni       1.32541434       6.38948496       0.05785899
Ni       1.19278988       6.25079283      15.84670057
Ni      -1.27618834       1.97597272       7.82097848
Ni      -1.46210619       1.78655533      23.58770787
Ni      -3.62363909       6.30786644       7.75460288
Ni      -3.76892407       5.98699771      23.69784898
Ni       3.70161677       2.06598439       8.09899811
Ni       3.57190711       1.91639108      23.82111326
Ni       1.17469259       6.31202347       7.97284930
Ni       1.24403855       6.15887300      23.80031975
