192
Lattice="9.834613455113818 0.05319598258515943 0.14923311491913355 -5.143070485129959 8.821930867203825 -0.03415110623493404 -0.6741229992156068 0.6455220833423684 32.6255736007706" Properties=species:S:1:pos:R:3 pbc="T T T"
Mg      -0.13152462       0.22438982       6.61413663
Mg      -0.47640957       0.41827725      22.95760206
Mg      -2.74667947       4.51596419       6.62110832
Mg      -3.04654811       4.85606652      22.89369481
Mg       4.78797893       0.14995195       6.63931668
Mg       4.42505111       0.49894115      23.00863337
Mg       2.21666058       4.51041289       6.64119678
Mg       1.85679740       5.00533795      23.01792038
Mg      -0.39520244       0.28185137      14.70335574
Mg      -0.70331735       0.64500110      31.10270751
Mg      -2.86934175       4.66939875      14.68297580
Mg      -3.23537489       5.06165467      31.07350024
Mg       4.65319344       0.30505844      14.80950733
Mg       4.25097580       0.63786207      31.23596103
Mg       2.05801504       4.82967454      14.85052449
Mg       1.66556775       5.03053423      31.14982132
Mg      -0.24516593       0.26035670       9.71716146
Mg      -0.49845610       0.52462387      25.98126516
Mg      -2.71207897       4.66905678       9.74890894
Mg      -3.15067231       4.94586206      26.03655858
Mg       4.69829377       0.29407271       9.76080969
Mg       4.38437171       0.50063222      26.04803060
Mg       2.09710500       4.49566716       9.74688298
Mg       1.78824124       4.91946751      26.04222305
Mg       0.03451376       0.01917132       1.54057381
Mg      -0.33683052       0.31410763      17.81734012
Mg      -2.62596701       4.48754370       1.51312293
Mg      -2.86052295       4.78507909      17.69377076
Mg       4.83614449       0.04906363       1.59229059
Mg       4.53314086       0.35763553      18.05407849
Mg       2.41014276       4.44259326       1.55048701
Mg       1.99888462       4.87084680      17.97193270
Mg      -0.32898872       3.05903251      10.69304113
Mg      -0.63481079       3.34336486      27.07676907
Mg      -2.95394585       7.59004249      10.59172601
Mg      -3.12307425       7.81724303      27.00915279
Mg       4.75195949       3.20138993      10.82812897
Mg       4.33945778       3.51071633      27.21719244
Mg       2.11497151       7.51474317      10.72670800
Mg       1.69699336       7.93797150      27.03418057
Mg       2.35616363       1.58424659       2.54645940
Mg       2.11432770       1.93716236      18.92302845
Mg      -0.11449278       5.95869176       2.54683807
Mg      -0.51828560       6.28439121      18.91855596
Mg       7.29265161       1.64258845       2.69532782
Mg       7.04575714       1.80990526      19.01179688
Mg       4.67250234       5.96498975       2.67621525
Mg       4.40824814       6.27569838      18.97908604
Mg       2.27301718       1.61602998       5.60062334
Mg       1.98760635       2.03205431      21.97520398
Mg      -0.25217953       6.00425022       5.62073879
Mg      -0.52368884       6.35298643      21.94667308
Mg       7.25591913       1.58618012       5.73625189
Mg       6.91173049       1.89413049      22.05226022
Mg       4.68692496       6.06251735       5.77193496
Mg       4.33986277       6.34900803      22.08506981
Mg      -0.42195809       3.18616200      13.61982891
Mg      -0.66706323       3.56008052      30.09537870
Mg      -2.95016754       7.68026006      13.83504780
Mg      -3.39029705       8.00418533      30.09322549
Mg       4.42147649       3.19955122      13.89174568
Mg       4.17754077       3.48372122      30.12041584
Mg       2.02584335       7.63154414      13.81864613
Mg       1.68561984       7.98224702      30.19433395
Ni      -0.13727130       3.11632116       8.09946109
Ni      -0.56849505       3.41292274      24.56407935
Ni      -2.85834998       7.45676709       8.14487799
Ni      -3.17605747       7.86298809      24.44015392
Ni       4.71008927       3.12051136       8.14771255
Ni       4.35336403       3.36274481      24.58680864
Ni       2.07611184       7.59302501       8.28236921
Ni       1.68212023       7.90346498      24.61672996
Ni       2.42835451       1.43284510       0.03632713
Ni       2.12308376       1.82102411      16.34941071
Ni      -0.15306242       5.95848410      -0.00303480
Ni      -0.44900028       6.20702059      16.32141929
Ni       7.33406958       1.55819028       0.08571533
Ni       6.91180499       1.91894543      16.42615991
Ni       4.77899122       5.90040972       0.05435248
Ni       4.45083349       6.27042617      16.41556953
Ni       2.31849001       1.62252844       8.19826266
Ni       1.86134031       2.04569345      24.46333916
Ni      -0.27336359       6.07434893       8.18291801
Ni      -0.64368125       6.36233794      24.50983043
Ni       7.24657420       1.72910522       8.28130585
Ni       6.81528169       1.93177610      24.59577393
Ni       4.64102952       6.05795596       8.29692065
Ni       4.25723328       6.42345306      24.56686184
Ni      -0.10291189       2.87228004       0.02794666
Ni      -0.37304491       3.30186063      16.36962408
Ni      -2.68041194       7.34713974       0.07756963
Ni      -2.96818193       7.71663839      16.18250473
Ni       4.74554279       2.85194595       0.05740508
Ni       4.53639211       3.30204328      16.44166200
Ni       2.25535901       7.33380444       0.09772484
Ni       2.08901954       7.65675766      16.40362808
Ni      -0.13596961       1.50858564       4.09101272
Ni      -0.42197572       1.90681464      20.34935991
Ni      -2.71658548       5.99181413       4.03506714
Ni      -3.03680409       6.29589835      20.39953856
Ni       4.83791766       1.55988773       4.13787753
Ni       4.52792361       1.92963582      20.45240545
Ni       2.23713068       5.94633958       4.11147233
Ni       1.92530844       6.33015906      20.49469023
Ni       3.38898229       1.01982451      12.31187857
Ni       3.04117274       1.33976430      28.62827156
Ni       0.81349669       5.44191234      12.26708907
Ni       0.42827414       5.81803971      28.57661011
Ni       8.31600220       1.06162443      12.38949112
Ni       7.93651091       1.26451139      28.68055998
Ni       5.72540763       5.40270767      12.30247155
Ni       5.39827034       5.78042803      28.63904093
Ni       2.12887459       3.19829174      12.21586186
Ni       1.78399394       3.49365452      28.64422456
Ni      -0.31178266       7.62540957      12.28983764
Ni      -0.74817290       7.86942958      28.59590992
Ni       6.98780880       3.23572908      12.39736947
Ni       6.72036686       3.60106935      28.79982927
Ni       4.50013911       7.63998014      12.43519988
Ni       4.20060602       7.95955337      28.54385323
Ni      -1.36920147       3.69381885       4.08242252
Ni      -1.65372344       4.00770530      20.37798602
Ni      -4.01489815       8.21605046       4.07034000
Ni      -4.37755383       8.55592135      20.36772831
Ni       3.59294166       3.73763434       4.13819165
Ni       3.20490249       4.12742212      20.44674074
Ni       0.94135491       8.08751128       4.14508161
Ni       0.62495549       8.51078175      20.30319230
Ni       0.98197007       3.63990752       4.05444074
Ni       0.71838705       4.13570209      20.39357676
Ni      -1.44768757       8.27083191       4.15716405
Ni      -1.85033336       8.44689667      20.45817375
Ni       5.98399285       3.83806120       4.18948510
Ni       5.59548006       4.07831275      20.51779862
Ni       3.49803649       8.17017152       4.16347557
Ni       3.02794168       8.45851563      20.43621668
Ni       1.00860006       1.06652416      12.22571485
Ni       0.67790598       1.35533495      28.61024966
Ni      -1.68690575       5.40701634      12.20491412
Ni      -1.95972130       5.72498348      28.56129325
Ni       5.81090206       1.01125423      12.34692221
Ni       5.44777353       1.32105805      28.65471145
Ni       3.30336755       5.47374840      12.34669298
Ni       2.97857770       5.63861136      28.63758823
Ni       2.30735875       0.13813145       8.14946359
Ni       1.96869436       0.55631586      24.54363999
Ni      -0.20194128       4.49302273       8.13361179
Ni      -0.67612160       4.88666510      24.58532301
Ni       7.19087034       0.21443386       8.20063042
Ni       6.90877290       0.53344370      24.56306051
Ni       4.59256783       4.56885737       8.25470992
Ni       4.37681099       4.85920971      24.55084915
Ni       1.13513024       2.21398005       0.03473396
Ni       0.85594865       2.52980190      16.36154592
Ni      -1.44539137       6.60507988      -0.03757032
Ni      -1.76205888       6.95133296      16.30360997
Ni       6.09567333       2.11930134       0.14005479
Ni       5.79422702       2.57356865      16.33886856
Ni       3.50941781       6.56873871      -0.03596505
Ni       3.14508288       6.99487417      16.34252266
Ni       2.40383789       0.06799429       0.03631999
Ni       2.16664070       0.33552881      16.39828232
Ni      -0.06164417       4.54719613       0.01567258
Ni      -0.45727039       4.75571782      16.37711854
Ni       7.35864327       0.08030641       0.07737276
Ni       7.06427979       0.29874940      16.41053480
Ni       4.85409848       4.44866793       0.06389143
Ni       4.40715604       4.81960435      16.38691768
Ni       1.05766105       2.40773564       8.19719810
Ni       0.59250888       2.63261086      24.44333948
Ni      -1.54848050       6.78884437       8.11222765
Ni      -1.89433198       7.15934937      24.51786950
Ni       5.90803613       2.42648253       8.31825426
Ni       5.55171921       2.68848180      24.51356320
Ni       3.43206438       6.83132636       8.25022702
Ni       2.92312874       7.15020049      24.56308909
Ni      -1.31274403       2.25378122       0.08712203
Ni      -1.63397502       2.56815986      16.28020142
Ni      -3.82506214       6.52017954      -0.05015163
Ni      -4.21017930       6.93758046      16.36006226
Ni       3.60653862       2.14347202       0.06000766
Ni       3.28819583       2.61658150      16.38580909
Ni       1.00362184       6.60684271       0.02434499
Ni       0.68796121       6.90372947      16.40309373
Ni      -1.49394771       2.28726470       8.19604010
Ni      -1.79858644       2.65092724      24.41655514
Ni      -4.06227136       6.75229539       8.04161294
Ni      -4.36690616       7.23996881      24.33965355
Ni       3.48789518       2.31722967       8.23244267
Ni       3.07391399       2.70164912      24.50819411
Ni       0.84477144       6.88401276       8.20820072
Ni       0.58776110       7.13949273      24.58736739
