192
Lattice="10.028029340722862 0.2973312143059441 0.22550071429703186 -5.031702146756258 8.407860673612172 -0.2620903155832264 -0.09523995192067083 0.25451841736905156 32.03385959055703" Properties=species:S:1:pos:R:3 pbc="T T T"
Mg       0.00725557       0.11063627       6.44672781
Mg      -0.09896782       0.13657098      22.54182153
Mg      -2.52436381       4.31201763       6.34580254
Mg      -2.56630425       4.40211720      22.41626118
Mg       4.95583676       0.22035680       6.70718270
Mg       4.95483431       0.31501787      22.57327422
Mg       2.56528858       4.37265640       6.47739673
Mg       2.42133522       4.56276932      22.53091284
Mg       0.01436623       0.16970079      14.44464524
Mg      -0.01573395       0.13759081      30.60871539
Mg      -2.49303125       4.29990913      14.27013049
Mg      -2.63413889       4.42759971      30.41028871
Mg       5.04727674       0.27791617      14.65740639
Mg       4.91063374       0.41073032      30.73657898
Mg       2.49294198       4.42619316      14.54991266
Mg       2.35733947       4.56833450      30.36257420
Mg      -0.03456780       0.05214339       9.58273292
Mg      -0.06841792       0.17111393      25.51073849
Mg      -2.63508145       4.32972013       9.38426797
Mg      -2.65758099       4.33198412      25.34243854
Mg       4.91182282       0.18666272       9.62408672
Mg       4.93392797       0.30063963      25.67964344
Mg       2.43567218       4.40093477       9.55793802
Mg       2.42428331       4.54573151      25.45130781
Mg       0.05730198      -0.16063679       1.46336053
Mg       0.01423755       0.11251251      17.52816390
Mg      -2.48090344       4.20336148       1.37303598
Mg      -2.55999980       4.38614878      17.43819385
Mg       4.89409921       0.16601580       1.55722513
Mg       5.00217937       0.29389102      17.57854030
Mg       2.46088370       4.34220182       1.54079518
Mg       2.55087680       4.45350586      17.55829494
Mg      -0.10897691       2.90557461      10.37997917
Mg      -0.18914326       3.14618965      26.53365233
Mg      -2.51108206       7.10430979      10.29167109
Mg      -2.64255282       7.29860105      26.33888752
Mg       4.97669003       3.17180380      10.62621459
Mg       4.88823348       3.12603389      26.66747362
Mg       2.58531329       7.29724275      10.47974050
Mg       2.41253984       7.40983206      26.39868783
Mg       2.59315266       1.57066285       2.54905476
Mg       2.38747650       1.64636975      18.54532602
Mg      -0.06341598       5.78725388       2.39514492
Mg      -0.11231518       5.81793705      18.35238975
Mg       7.52487490       1.64163678       2.61370279
Mg       7.47846710       1.91257411      18.66239236
Mg       5.02642987       5.81538615       2.52704452
Mg       4.94323669       6.04713725      18.59078810
Mg       2.43072155       1.49309252       5.56357382
Mg       2.39663279       1.63885367      21.47565682
Mg      -0.08409697       5.74678988       5.40269250
Mg       0.00682866       5.87362730      21.53192696
Mg       7.49632176       1.70019895       5.67879764
Mg       7.44588090       1.86258937      21.64403504
Mg       4.99473001       5.80183467       5.58776095
Mg       4.88798634       5.96045866      21.52976372
Mg       0.03893471       2.89170423      13.49340767
Mg      -0.11291576       3.08281903      29.53260364
Mg      -2.58390758       7.17148022      13.28798225
Mg      -2.60662182       7.24551237      29.34559060
Mg       4.97872639       3.06377373      13.60539838
Mg       4.96081045       3.26277554      29.63593427
Mg       2.46251608       7.24457229      13.46836601
Mg       2.38813165       7.50605989      29.50494497
Ni      -0.02101616       2.77736408       7.90600925
Ni      -0.15697266       3.04146368      23.99821373
Ni      -2.53342630       7.02464910       7.80303367
Ni      -2.61037920       7.27204773      23.91863026
Ni       5.01944296       3.05512234       8.08176696
Ni       4.93533804       3.21246617      24.05391883
Ni       2.54302654       7.30795121       7.96863709
Ni       2.40930039       7.39159464      23.92297776
Ni       2.45235476       1.51635530       0.05721639
Ni       2.36919026       1.54834363      16.08901152
Ni      -0.07056784       5.65021436      -0.06258262
Ni      -0.03559694       5.84541665      15.83286378
Ni       7.54071625       1.66427914       0.19796763
Ni       7.46732365       1.78250791      16.12458923
Ni       4.94137721       5.79024168       0.11353057
Ni       4.93949326       5.99899283      16.05515285
Ni       2.48954678       1.61039537       8.10883100
Ni       2.42393501       1.67486028      24.03716740
Ni       0.02481243       5.70644797       7.87851340
Ni      -0.12602199       5.89903381      23.94705533
Ni       7.43422463       1.67752796       8.14840075
Ni       7.40122861       1.85854327      24.16942068
Ni       5.01446060       5.87462434       7.95675443
Ni       4.89978690       6.04803002      24.06104036
Ni       0.04775217       2.84445070      -0.09138717
Ni       0.00653694       2.93772941      15.93496965
Ni      -2.54341792       7.03452234      -0.13816749
Ni      -2.60642510       7.17715197      15.83269886
Ni       5.02842366       2.97218271       0.06232222
Ni       4.89947507       3.12683649      16.14414935
Ni       2.53865712       7.09852609      -0.08917386
Ni       2.47349322       7.25320581      15.93890225
Ni      -0.00296210       1.45835782       4.03597871
Ni      -0.07925394       1.62424347      19.91562141
Ni      -2.54199755       5.74939771       3.79180280
Ni      -2.56857366       5.84108200      19.81415127
Ni       5.01722194       1.57423794       4.01378171
Ni       4.89091229       1.77642773      20.07210560
Ni       2.54410262       5.79487491       3.90586663
Ni       2.41422860       5.87861891      19.92197940
Ni       3.78295904       0.86723698      12.03026149
Ni       3.62038934       0.97323094      28.15300366
Ni       1.08825086       5.17384857      11.96358403
Ni       1.15977682       5.25970665      27.93773698
Ni       8.69531755       1.03784908      12.17049148
Ni       8.75271352       1.23256307      28.23810874
Ni       6.24581488       5.21428348      12.09924824
Ni       6.18928747       5.39528485      28.06096181
Ni       2.36144523       3.05163341      12.02523981
Ni       2.27383059       3.10870035      28.06091436
Ni       0.02305957       7.26285586      11.91257990
Ni      -0.11669050       7.39843190      27.87858739
Ni       7.49913638       3.13648200      12.02305473
Ni       7.42332995       3.30577048      28.12347955
Ni       4.93195907       7.28408339      12.06456904
Ni       4.91858594       7.43813137      27.98472829
Ni      -1.30301184       3.54907548       4.00838758
Ni      -1.34897827       3.72262407      19.96561053
Ni      -3.81429262       7.70207444       3.84246410
Ni      -3.93128749       7.91719904      19.68831343
Ni       3.69920598       3.77941936       4.12144976
Ni       3.75635839       3.78766790      19.95144710
Ni       1.21832694       7.92656614       3.90868689
Ni       1.16395428       8.04418227      19.90970558
Ni       1.28658500       3.68485485       3.92591321
Ni       1.22416084       3.78077195      20.04428407
Ni      -1.17740603       7.80121504       3.88154069
Ni      -1.33310866       7.95959241      19.78802072
Ni       6.19199396       3.79132258       4.03148596
Ni       6.13867111       3.85477152      20.04550265
Ni       3.70801087       7.94639264       4.05175195
Ni       3.73670888       8.15058732      19.92929904
Ni       1.19463930       0.88695779      12.10393211
Ni       1.06022744       1.00527762      28.07260811
Ni      -1.32925038       5.05581887      11.87305943
Ni      -1.34698951       5.20665728      28.00242718
Ni       6.25773991       0.92191323      12.12939734
Ni       6.21430265       1.15408311      28.15127663
Ni       3.76239015       5.21357379      11.98689604
Ni       3.70802512       5.30548547      28.06333187
Ni       2.53770830       0.19484730       8.00786235
Ni       2.52633416       0.33484536      24.06638246
Ni      -0.13453364       4.40317899       7.93496171
Ni      -0.12813655       4.33844175      24.02441014
Ni       7.49065456       0.30961640       8.22854449
Ni       7.41702204       0.41803182      24.35021228
Ni       5.05478739       4.52236025       8.01214270
Ni       4.91144795       4.65783304      24.00889286
Ni       1.22229684       2.22824163      -0.05824710
Ni       1.16357147       2.27290183      15.98600779
Ni      -1.22689553       6.42035365      -0.06013558
Ni      -1.36158463       6.52523383      15.88308060
Ni       6.30517754       2.34779929       0.18056823
Ni       6.27932961       2.46697803      16.22796509
Ni       3.78372884       6.49890793      -0.01115287
Ni       3.57231567       6.69411229      15.98563358
Ni       2.53408336       0.09790892       0.00753801
Ni       2.45031941       0.25609482      16.03252210
Ni      -0.00724974       4.29203122      -0.02515008
Ni      -0.09094991       4.41753139      16.06683067
Ni       7.51259415       0.20692238       0.20894441
Ni       7.49228210       0.39946507      16.22342114
Ni       5.00124354       4.37601618       0.08247685
Ni       5.04794840       4.58180638      16.02652439
Ni       1.13657339       2.22433728       7.99451199
Ni       1.19747418       2.35081528      24.07278819
Ni      -1.24580700       6.45891509       7.87755029
Ni      -1.34674455       6.58441489      23.93137680
Ni       6.30782090       2.29074998       8.13600864
Ni       6.21469486       2.64675997      24.13613883
Ni       3.71138210       6.61003478       8.05191578
Ni       3.64095457       6.77037272      24.05106368
Ni      -1.31510418       2.08262621      -0.08541986
Ni      -1.31006910       2.22143644      15.95066241
Ni      -3.72690426       6.31209363      -0.18273183
Ni      -3.93202298       6.55621779      15.78891481
Ni       3.77704462       2.25027275       0.09975503
Ni       3.73650918       2.39956152      16.07519607
Ni       1.33105712       6.41733831      -0.03578576
Ni       1.25360237       6.61396255      15.89436222
Ni      -1.32350929       2.18326608       7.93661825
Ni      -1.32996782       2.17794760      23.90840388
Ni      -3.77833870       6.31799658       7.75029478
Ni      -3.76596346       6.41509368      23.81535178
Ni       3.67481419       2.30312747       8.08644337
Ni       3.61738335       2.54825017      24.01726088
Ni       1.24110405       6.54597581       7.88948007
Ni       1.17187998       6.68345615      23.90632517
