192
Lattice="9.822957772688742 0.030103761559229048 -0.18296628089666556 -5.166661865756783 8.724697074686093 -0.02344199229121465 0.19249266195711445 -0.6469531185316055 31.373231863138667" Properties=species:S:1:pos:R:3 pbc="T T T"
Mg       0.00793625      -0.11711959       6.25699076
Mg       0.14852411      -0.50973366      22.07132170
Mg      -2.46072241       4.29719074       6.37609721
Mg      -2.46534146       3.87134277      22.05669512
Mg       4.97930024      -0.18051991       6.27646538
Mg       5.11476163      -0.42164843      22.03522539
Mg       2.35212447       4.24271792       6.28575893
Mg       2.47545595       3.95341850      21.94234519
Mg       0.00996629      -0.27947017      14.19649306
Mg       0.16815533      -0.61655486      29.88105184
Mg      -2.50560904       4.04147006      14.19514254
Mg      -2.39831929       3.74437799      29.86530358
Mg       5.01622597      -0.26437812      14.07754868
Mg       5.07261773      -0.66410541      29.81221748
Mg       2.38605134       4.02151358      14.13415068
Mg       2.49542318       3.83607234      29.88753131
Mg       0.07629973      -0.16509738       9.39860103
Mg       0.10494575      -0.48951373      25.01879200
Mg      -2.51999051       4.20090850       9.36279753
Mg      -2.39940871       3.91811163      24.95353445
Mg       5.00996802      -0.14500819       9.27531980
Mg       5.07181332      -0.43550611      24.91885183
Mg       2.43644652       4.25921187       9.22313731
Mg       2.48809948       3.82790912      24.93231624
Mg       0.03690156      -0.09274287       1.44426590
Mg       0.11239982      -0.41181721      17.20583753
Mg      -2.58009882       4.41269005       1.33445156
Mg      -2.51414901       3.97375446      17.16760365
Mg       4.85082724      -0.02004605       1.37837807
Mg       4.98287908      -0.26350098      17.08536168
Mg       2.34969218       4.33230032       1.32034501
Mg       2.41098400       4.04694204      17.00010201
Mg      -0.05634910       2.66364540      10.29308082
Mg       0.09830964       2.42099325      25.92176355
Mg      -2.59826343       7.04717377      10.30958524
Mg      -2.55076368       6.73744534      26.04868753
Mg       4.94295506       2.62389091      10.17802026
Mg       4.99093664       2.42388556      25.77940457
Mg       2.19287414       7.04277066      10.20204689
Mg       2.46611982       6.79186583      25.91859099
Mg       2.43409357       1.43487119       2.37705034
Mg       2.50585391       1.03390155      18.05949438
Mg      -0.15477654       5.68038134       2.41467098
Mg       0.03141347       5.38953728      18.07110715
Mg       7.20134703       1.45701589       2.23971636
Mg       7.45778804       1.09817430      17.95790697
Mg       4.76635131       5.76572112       2.30680190
Mg       4.93140943       5.37544213      17.97728082
Mg       2.46143315       1.33843021       5.37666066
Mg       2.47269930       1.05917152      20.98773455
Mg      -0.10812058       5.79289110       5.32332031
Mg      -0.02610210       5.35489918      20.97875599
Mg       7.39082930       1.42919640       5.32481741
Mg       7.43216114       0.99314175      20.88844223
Mg       4.76775923       5.74217269       5.22466251
Mg       4.87850446       5.39737819      20.92607411
Mg      -0.02626568       2.57599739      13.17176408
Mg       0.05505411       2.29873168      28.92378506
Mg      -2.66578086       6.97434341      13.17871713
Mg      -2.50710044       6.73435616      28.88271612
Mg       4.89150407       2.61633369      13.10616233
Mg       4.95789020       2.33094677      28.79631304
Mg       2.33090700       7.12052957      13.16510625
Mg       2.41289508       6.69250156      28.85157838
Ni      -0.07489754       2.78277315       7.70984210
Ni       0.09886442       2.45336671      23.54939095
Ni      -2.61988268       7.05506949       7.71358832
Ni      -2.58024111       6.74006131      23.31898734
Ni       4.93308641       2.81149722       7.74339641
Ni       4.99131729       2.39403008      23.31728956
Ni       2.34768672       7.14497958       7.62288510
Ni       2.40385293       6.74807232      23.40483784
Ni       2.41346393       1.49829969      -0.10047179
Ni       2.53513261       1.01168304      15.59050637
Ni      -0.20062338       5.79218682      -0.11659155
Ni       0.02148543       5.48520359      15.61826686
Ni       7.36459926       1.43602949      -0.15228368
Ni       7.51177157       1.18933715      15.46848478
Ni       4.80418125       5.84017985      -0.09045046
Ni       4.82687746       5.48988674      15.54201788
Ni       2.45512717       1.27553725       7.81652630
Ni       2.53646485       0.98498281      23.49753486
Ni      -0.06123475       5.64220403       7.79307778
Ni      -0.04157293       5.33178552      23.46597316
Ni       7.25815310       1.33008084       7.67290881
Ni       7.50946691       0.99358760      23.35914097
Ni       4.80872533       5.65973493       7.74502948
Ni       4.90213987       5.30561710      23.37924986
Ni      -0.10126257       2.87035255       0.00139995
Ni       0.04813773       2.63194221      15.67852817
Ni      -2.67508811       7.28868002       0.01511763
Ni      -2.54839250       7.05687391      15.68789500
Ni       4.86296470       2.96022337      -0.06701715
Ni       4.83160397       2.64423738      15.58272273
Ni       2.24182059       7.33222770      -0.15406343
Ni       2.34482502       6.90621412      15.64527566
Ni      -0.05193353       1.26742102       3.87761900
Ni       0.02938629       1.05200862      19.56816682
Ni      -2.52031218       5.72168746       3.87493084
Ni      -2.51648977       5.35519994      19.64218318
Ni       4.93991024       1.44105698       3.81631332
Ni       5.00116370       1.15410769      19.51007399
Ni       2.38768137       5.78788909       3.70875356
Ni       2.44185769       5.38556422      19.45372383
Ni       3.80167468       0.53456992      11.69620437
Ni       3.82104030       0.22102108      27.38492773
Ni       1.15501983       4.91243033      11.61198689
Ni       1.17013172       4.50437162      27.31941349
Ni       8.63195547       0.60419251      11.60621120
Ni       8.66050894       0.21728683      27.32613258
Ni       6.07073939       4.87115798      11.50965228
Ni       6.09813060       4.58821293      27.21032423
Ni       2.46058850       2.70609016      11.66772655
Ni       2.58334160       2.34115439      27.40521840
Ni      -0.11125952       7.00376646      11.68502626
Ni      -0.00184661       6.65271444      27.43967731
Ni       7.38965160       2.57786267      11.50694554
Ni       7.51448183       2.32012364      27.26669867
Ni       4.80333872       7.04660208      11.68251284
Ni       4.89264230       6.60858775      27.18697191
Ni      -1.35027029       3.53154331       3.84776154
Ni      -1.23782280       3.26461530      19.56585642
Ni      -3.85677472       7.89528853       3.86281511
Ni      -3.75887486       7.56397325      19.60122209
Ni       3.64837820       3.57689008       3.72712360
Ni       3.73553026       3.18914183      19.51778802
Ni       0.98813958       7.93616330       3.83097197
Ni       1.16609800       7.57586980      19.41462638
Ni       1.10908148       3.52536182       3.89445052
Ni       1.20206338       3.29661846      19.43456710
Ni      -1.39318083       7.92541894       3.79779426
Ni      -1.24635815       7.50664435      19.44880195
Ni       5.95799442       3.50063965       3.69753838
Ni       6.14731512       3.13967245      19.46732865
Ni       3.52278839       8.00950864       3.73931607
Ni       3.56991361       7.54453727      19.44277099
Ni       1.20229381       0.58937220      11.72643742
Ni       1.38159026       0.16758613      27.37294021
Ni      -1.33277969       4.78183943      11.82222061
Ni      -1.20351941       4.48009709      27.52159776
Ni       6.16736065       0.49050293      11.67298071
Ni       6.34469338       0.18976808      27.27857827
Ni       3.62172026       4.91810684      11.70368568
Ni       3.62150999       4.44483371      27.22099123
Ni       2.42790173      -0.08573148       7.73968692
Ni       2.63164263      -0.44346759      23.46155436
Ni      -0.13988452       4.26560793       7.71198902
Ni       0.01055898       3.94390562      23.44911039
Ni       7.30226001      -0.14112542       7.78134883
Ni       7.51735024      -0.44057700      23.45057300
Ni       4.79755384       4.18061392       7.72920355
Ni       4.76568700       3.89722328      23.35002886
Ni       1.14657701       2.17053568      -0.04982758
Ni       1.22008506       1.88981682      15.59491125
Ni      -1.31703271       6.55548203      -0.03910994
Ni      -1.30907170       6.22629984      15.61494941
Ni       6.08624340       2.22624151      -0.14046346
Ni       6.17298291       1.80656381      15.54603161
Ni       3.56615427       6.59142235      -0.10991867
Ni       3.61590603       6.25520184      15.45663931
Ni       2.39258819       0.00004964       0.00406053
Ni       2.50572312      -0.31700667      15.61334114
Ni      -0.16001400       4.38974463      -0.04518980
Ni       0.02052812       4.08316635      15.60152081
Ni       7.36677810       0.01043405      -0.16179187
Ni       7.45382441      -0.33264539      15.49948262
Ni       4.82842756       4.39001497      -0.16722690
Ni       4.86066406       4.00328212      15.50021113
Ni       1.20360768       2.05187781       7.73034627
Ni       1.26736303       1.67775497      23.49197692
Ni      -1.42856415       6.41857729       7.81168766
Ni      -1.28836685       6.02215405      23.44611036
Ni       6.19077459       2.02305385       7.68916760
Ni       6.26900167       1.69168408      23.34385520
Ni       3.55587546       6.39908429       7.74120296
Ni       3.57330559       6.15152446      23.32067079
Ni      -1.34782604       2.13535074       0.05509479
Ni      -1.18932005       1.84690278      15.64146887
Ni      -3.82865496       6.53078812      -0.05381749
Ni      -3.75427121       6.21480616      15.71329107
Ni       3.68567021       2.17691322      -0.13687642
Ni       3.75384471       1.77759114      15.54675577
Ni       0.95424249       6.53461220      -0.09377049
Ni       1.09190563       6.28161318      15.61246430
Ni      -1.24890577       2.03552280       7.86265082
Ni      -1.22678518       1.73624345      23.50559129
Ni      -3.86621452       6.34844255       7.84515295
Ni      -3.70030197       6.09875491      23.50663453
Ni       3.67432126       2.02847478       7.77102136
Ni       3.77253601       1.78844487      23.47034901
Ni       1.17752043       6.41005416       7.61748737
Ni       1.14880911       6.06844248      23.37428762
