192
Lattice="9.872326410450198 0.07775780071003363 0.19949368806644274 -4.929714400241423 8.59244963133013 -0.1591449741697159 -1.258125617608949 0.023496268010522743 31.39517473002957" Properties=species:S:1:pos:R:3 pbc="T T T"
Mg      -0.15632294       0.00365373       6.40843606
Mg      -0.85890108      -0.02103478      22.09419481
Mg      -2.69352505       4.25489802       6.26526387
Mg      -3.35940318       4.40280258      21.92075649
Mg       4.73479115       0.01382954       6.56328921
Mg       3.99025222       0.07719045      22.17551288
Mg       2.14378519       4.34732554       6.39093539
Mg       1.63927461       4.33813877      22.00364585
Mg      -0.63871278       0.02331019      14.23671626
Mg      -1.21370898       0.02712337      29.93154232
Mg      -3.06558050       4.36081524      14.06796090
Mg      -3.65826188       4.34698368      29.96639037
Mg       4.38774087       0.02988992      14.27797482
Mg       3.70059406       0.05344282      30.03730801
Mg       1.96485944       4.42178028      14.28720729
Mg       1.24286212       4.33680612      29.87232645
Mg      -0.40004090      -0.01862888       9.41640319
Mg      -0.95177713       0.00117966      25.05275975
Mg      -2.83696632       4.36136033       9.20597438
Mg      -3.44252448       4.30789499      25.03177648
Mg       4.64360243       0.00341332       9.32549731
Mg       4.01590877       0.12366789      25.14303237
Mg       2.11946226       4.43398314       9.36197347
Mg       1.43126186       4.32776306      25.01524488
Mg      -0.06925330      -0.04334283       1.46607312
Mg      -0.72665680       0.03190208      17.18571686
Mg      -2.51809523       4.23375832       1.37580099
Mg      -3.14438423       4.37367239      17.12435647
Mg       4.89978337       0.01458188       1.61059447
Mg       4.24992846       0.07847622      17.22454345
Mg       2.48285900       4.32390347       1.43670815
Mg       1.84898181       4.26380986      17.20595254
Mg      -0.46362015       2.94816463      10.22668786
Mg      -1.01427115       2.85623577      25.95735606
Mg      -2.87848956       7.16296619      10.26816929
Mg      -3.51783981       7.15122252      25.77758182
Mg       4.56439353       3.08113094      10.39594377
Mg       3.81670910       2.95422283      26.02131998
Mg       2.00761228       7.21926168      10.27124907
Mg       1.38293265       7.25109137      26.00291278
Mg       2.30093388       1.38882599       2.51252429
Mg       1.84808620       1.48980815      18.05522433
Mg      -0.13213254       5.79917864       2.45822918
Mg      -0.77527972       5.73280056      18.12584697
Mg       7.18846303       1.53921581       2.56027688
Mg       6.74047338       1.50256910      18.23001886
Mg       4.86863721       5.76719642       2.50613716
Mg       4.25619277       5.76690831      18.16417537
Mg       2.14160040       1.37900124       5.53545381
Mg       1.59635378       1.47577461      21.13820091
Mg      -0.23000753       5.84526897       5.38043230
Mg      -0.81590091       5.79560563      21.07334537
Mg       7.17017218       1.45376082       5.52351020
Mg       6.53559384       1.50129904      21.21103003
Mg       4.67179573       5.79559404       5.42120428
Mg       4.09523335       5.77060631      21.23964896
Mg      -0.49710230       2.87930674      13.28791831
Mg      -1.18510893       2.88454823      28.95268764
Mg      -2.92856799       7.22334704      13.19491229
Mg      -3.75841099       7.28109965      28.84631698
Mg       4.38278096       2.90629511      13.30894339
Mg       3.77435273       2.96204866      29.00675444
Mg       1.93113194       7.30128555      13.23128340
Mg       1.31844814       7.25558350      28.95899649
Ni      -0.34416463       2.87958409       7.73907896
Ni      -0.90078565       2.95533240      23.51337711
Ni      -2.70443822       7.17457592       7.85489916
Ni      -3.38114356       7.24116182      23.50078033
Ni       4.64266546       2.96649456       7.95925851
Ni       3.97781161       2.92056656      23.60498033
Ni       2.10506129       7.18546889       7.82647051
Ni       1.54309760       7.27946553      23.59510239
Ni       2.40529402       1.45514026       0.02135622
Ni       1.94446944       1.57893744      15.72524502
Ni      -0.02188074       5.73573084      -0.07371793
Ni      -0.67574771       5.78530197      15.67631521
Ni       7.41082486       1.53632154       0.16973862
Ni       6.78043966       1.46753400      15.89932045
Ni       4.95120812       5.81857929       0.11427461
Ni       4.30293217       5.81186008      15.80515577
Ni       2.08966808       1.48111449       7.85194411
Ni       1.46176420       1.44394231      23.63684085
Ni      -0.29547949       5.71755954       7.77767919
Ni      -0.91513442       5.76502105      23.55396495
Ni       7.07350190       1.36753399       7.94889416
Ni       6.42959436       1.62649470      23.68441247
Ni       4.58338332       5.86788119       7.93871792
Ni       4.09352358       5.77380001      23.66340608
Ni       0.03840458       2.79202936      -0.09842910
Ni      -0.65460543       2.92261339      15.62330902
Ni      -2.41139069       7.15359076      -0.03874440
Ni      -3.08922623       7.14337649      15.63203870
Ni       4.87855991       2.89655355       0.00080052
Ni       4.41657255       2.94656550      15.79908438
Ni       2.49966591       7.25897601       0.03601917
Ni       1.77037670       7.18534812      15.69174751
Ni      -0.16068165       1.36161866       3.92817158
Ni      -0.67785949       1.49049294      19.55698191
Ni      -2.67866251       5.78993088       3.76456813
Ni      -3.31525238       5.80582935      19.51410424
Ni       4.80631271       1.43808463       4.01648993
Ni       4.19892128       1.54556868      19.79779706
Ni       2.34153708       5.75401406       3.87290198
Ni       1.65857554       5.74953372      19.55047798
Ni       3.18605785       0.72968711      11.87351216
Ni       2.56165687       0.67696994      27.47645015
Ni       0.75542496       5.06874050      11.72142417
Ni       0.16381815       5.05316402      27.50834960
Ni       8.09594299       0.77261442      11.96990453
Ni       7.49531841       0.79818671      27.56594218
Ni       5.80095352       5.06548350      11.90107593
Ni       5.06564805       5.17926190      27.58944608
Ni       2.02376361       2.90952266      11.71508174
Ni       1.34107069       3.00748350      27.54433181
Ni      -0.51557314       7.17237336      11.70275510
Ni      -1.05206440       7.26050733      27.36463879
Ni       6.93655009       2.89352502      11.83682079
Ni       6.25621728       2.92588044      27.57310921
Ni       4.42479305       7.23966647      11.76341888
Ni       3.82033515       7.24532867      27.54563341
Ni      -1.38074304       3.59157325       3.89962486
Ni      -1.93954401       3.56561762      19.58249246
Ni      -3.87661053       7.92446362       3.73414217
Ni      -4.46530159       7.94072831      19.48374471
Ni       3.53704121       3.52323612       4.02322930
Ni       2.80377215       3.61967323      19.65007187
Ni       1.09728470       7.92884287       3.94359219
Ni       0.40890596       7.96832434      19.48543360
Ni       1.12359327       3.66655004       3.91432832
Ni       0.48727349       3.72760319      19.56715856
Ni      -1.31453665       7.98815696       3.83647113
Ni      -1.99697460       7.88623569      19.42778334
Ni       6.04161804       3.57059636       4.02516401
Ni       5.35662841       3.62568035      19.63865328
Ni       3.58533093       7.97240190       3.93135037
Ni       2.85886002       7.87123795      19.66498274
Ni       0.79975802       0.79207594      11.86340025
Ni       0.15249659       0.69561722      27.51650525
Ni      -1.77326942       4.98530853      11.67664049
Ni      -2.30281975       5.07596458      27.30215937
Ni       5.57909222       0.83322475      11.97611824
Ni       5.04981508       0.83770222      27.67013720
Ni       3.18016281       5.02433935      11.87194243
Ni       2.58931766       5.16629202      27.55661950
Ni       2.20043302       0.01782611       7.81792773
Ni       1.45071288       0.04038615      23.63157939
Ni      -0.37165071       4.27982654       7.77840385
Ni      -0.94729205       4.34445376      23.48646118
Ni       7.14124486       0.12273212       7.89890249
Ni       6.45584973       0.07205430      23.66127059
Ni       4.67135755       4.34847795       7.85016088
Ni       3.94507158       4.33194942      23.60281004
Ni       1.30097222       2.07812361       0.04313971
Ni       0.58094616       2.24148859      15.71382196
Ni      -1.24808485       6.40909213      -0.10032407
Ni      -1.83948974       6.45886346      15.71155598
Ni       6.15631821       2.13019694       0.06982138
Ni       5.55307004       2.26325023      15.83977602
Ni       3.69803827       6.53299045      -0.01554203
Ni       3.01705419       6.40822285      15.69822252
Ni       2.48498924      -0.01829234       0.04360154
Ni       1.79500897       0.12972921      15.78897910
Ni       0.01253028       4.29916070      -0.04027955
Ni      -0.60766687       4.32954296      15.65443890
Ni       7.46358896       0.07442610       0.14106845
Ni       6.77792891      -0.00429421      15.83469364
Ni       5.02762742       4.28764444       0.14828219
Ni       4.31509118       4.42616362      15.78689118
Ni       0.94272436       2.10482934       7.83426491
Ni       0.21047776       2.14874113      23.51984412
Ni      -1.50340260       6.49189304       7.72057855
Ni      -2.17596447       6.49264092      23.54736299
Ni       5.88878238       2.16609944       7.94020810
Ni       5.26094555       2.17509090      23.64608185
Ni       3.45197646       6.46409045       7.84361773
Ni       2.82468003       6.47910165      23.46426364
Ni      -1.28097521       2.15927998      -0.01010530
Ni      -1.84379649       2.20367849      15.68488070
Ni      -3.69353314       6.36922625      -0.09531689
Ni      -4.28869917       6.41092292      15.57301333
Ni       3.73097549       2.17988495       0.08984420
Ni       3.09944041       2.25248541      15.83411191
Ni       1.30438519       6.49845727      -0.05307062
Ni       0.68615385       6.46136787      15.70577298
Ni      -1.54449913       2.09664017       7.73598292
Ni      -2.19061898       2.15382384      23.51971802
Ni      -4.08654684       6.44816280       7.71230472
Ni      -4.62241686       6.49759018      23.43102212
Ni       3.38343527       2.14883398       7.84548015
Ni       2.75279306       2.18215305      23.59324636
Ni       0.92071254       6.43773970       7.91296942
Ni       0.33337124       6.46106103      23.55923733
