192
Lattice="9.878860245126516 -0.3210954893310946 -0.30600818555253934 -4.874760629048068 8.557119548310444 0.2192701886226141 -1.0652155524561429 -1.429128239975269 31.385438451385024" Properties=species:S:1:pos:R:3 pbc="T T T"
Mg      -0.19995493      -0.33318722       6.32741866
Mg      -0.82920570      -1.02846324      22.08922771
Mg      -2.63921554       3.96110236       6.42877919
Mg      -3.19686495       3.35419965      22.22931731
Mg       4.73425140      -0.47497754       6.22141738
Mg       4.17853063      -1.18301403      21.89371299
Mg       2.15813302       3.77188288       6.24915077
Mg       1.75738804       3.19374129      22.04031334
Mg      -0.42482860      -0.65720663      14.22790597
Mg      -1.04983742      -1.39491647      29.89419361
Mg      -2.83725116       3.58598000      14.31319376
Mg      -3.49789903       2.93996619      30.04012885
Mg       4.38634551      -0.84226549      14.11903128
Mg       3.94174272      -1.55545496      29.74551923
Mg       2.03958318       3.46644800      14.20457662
Mg       1.49455101       2.74696290      29.88042163
Mg      -0.20266965      -0.44207102       9.37650299
Mg      -0.86990366      -1.08279453      25.02306227
Mg      -2.75927482       3.84339086       9.51866689
Mg      -3.25678631       3.10396193      25.05124793
Mg       4.61785430      -0.59938311       9.14229848
Mg       3.99344467      -1.33281337      24.84889889
Mg       2.18324776       3.72817662       9.30243206
Mg       1.70418889       2.95446102      24.96519826
Mg      -0.10203640      -0.05216078       1.48401455
Mg      -0.55704258      -0.79000646      17.25132246
Mg      -2.48996599       4.26381207       1.54642491
Mg      -3.13228940       3.54308038      17.31488018
Mg       4.93032839      -0.21150596       1.36859802
Mg       4.31641357      -1.00638551      17.00320648
Mg       2.51057468       4.07274247       1.48291935
Mg       1.87680446       3.32411200      17.15121158
Mg      -0.34085030       2.33169086      10.25959057
Mg      -0.79797514       1.65221010      26.13385839
Mg      -2.79121140       6.61597766      10.47150254
Mg      -3.28399418       5.88812194      26.14503177
Mg       4.65801502       2.19073595      10.16734794
Mg       4.17693443       1.34381886      25.86094486
Mg       2.14029153       6.35145813      10.23459240
Mg       1.70899305       5.71198613      25.92683483
Mg       2.50161579       1.22401802       2.37371652
Mg       1.88472485       0.56365345      18.08198014
Mg      -0.00340510       5.37801985       2.46591046
Mg      -0.52080752       4.72290208      18.16214520
Mg       7.26797637       1.04980329       2.19900214
Mg       6.78141706       0.35228971      17.97656403
Mg       4.88584103       5.32734570       2.31982252
Mg       4.42032312       4.64392076      17.92169081
Mg       2.34136395       1.11491793       5.35300350
Mg       1.77363457       0.32635247      20.99996869
Mg      -0.14247754       5.36171850       5.50894331
Mg      -0.62014302       4.71559407      21.09016371
Mg       7.23561342       0.91618609       5.13727384
Mg       6.71438886       0.13185454      20.92678198
Mg       4.89763047       5.16430426       5.28572408
Mg       4.35505316       4.48687891      20.91786065
Mg      -0.45971931       2.17094860      13.28777702
Mg      -0.98873476       1.49553482      28.89028494
Mg      -2.81028156       6.55933146      13.44056455
Mg      -3.38486400       5.77475835      29.12005915
Mg       4.45502528       1.94588024      13.09700993
Mg       3.94912291       1.39591710      28.67694416
Mg       2.07566007       6.28772532      13.22843988
Mg       1.48063261       5.66626770      28.95240572
Ni      -0.25347457       2.42666397       7.81785895
Ni      -0.76892942       1.79416533      23.51906177
Ni      -2.74396787       6.73502778       8.00798126
Ni      -3.23106999       6.08058050      23.52682663
Ni       4.70891130       2.34283979       7.65988554
Ni       4.12157070       1.60873237      23.36730573
Ni       2.27345430       6.50788179       7.76004842
Ni       1.79516455       5.89864786      23.46712727
Ni       2.45077039       1.33626591      -0.09731846
Ni       1.92509888       0.63872176      15.66128510
Ni       0.10759827       5.57107819       0.01926087
Ni      -0.45934653       4.91282638      15.73592005
Ni       7.38004589       1.15305575      -0.09652722
Ni       6.79530842       0.49801104      15.49837107
Ni       5.03092945       5.44115171      -0.16032169
Ni       4.42461612       4.69186576      15.64946970
Ni       2.22311990       0.85543328       7.78434401
Ni       1.76376349       0.17297805      23.47458054
Ni      -0.21507024       5.25387346       7.90001198
Ni      -0.71275776       4.52850262      23.63135499
Ni       7.20004449       0.76036005       7.65928352
Ni       6.61081015       0.10847532      23.25542808
Ni       4.72527193       5.10040306       7.69486780
Ni       4.12782801       4.28639331      23.37579616
Ni       0.03509765       2.76385861      -0.00678241
Ni      -0.50070838       2.05050197      15.80782338
Ni      -2.37650920       7.04235500       0.19160006
Ni      -2.95890057       6.38194520      15.88792066
Ni       4.98987572       2.61695162      -0.12244229
Ni       4.39891365       1.85685286      15.61351760
Ni       2.53490254       6.93502719       0.06160247
Ni       1.87755168       6.16431611      15.75906083
Ni      -0.07768174       1.24068297       3.85829109
Ni      -0.61367449       0.44592432      19.58121630
Ni      -2.53400955       5.47976688       4.10499746
Ni      -3.06414234       4.77812260      19.74408238
Ni       4.77727842       1.06956649       3.73529196
Ni       4.25978672       0.31176159      19.40181442
Ni       2.41691414       5.37203951       3.90636617
Ni       1.82136945       4.64892081      19.56865835
Ni       3.27619418      -0.06834645      11.57084074
Ni       2.78748910      -0.58411198      27.29389660
Ni       0.82307919       4.25003448      11.74086789
Ni       0.33277624       3.54218612      27.46216525
Ni       8.20457717      -0.19880954      11.47078928
Ni       7.73855987      -0.91535033      27.17285993
Ni       5.80778680       4.25867414      11.61135332
Ni       5.27515146       3.45706396      27.20052891
Ni       2.03049743       2.25728506      11.68938364
Ni       1.60805833       1.41346991      27.36802136
Ni      -0.32567906       6.42760419      11.77256545
Ni      -0.89937770       5.78662717      27.56361653
Ni       7.04458898       1.99597822      11.66584031
Ni       6.50944494       1.38261036      27.30275865
Ni       4.63418419       6.34731410      11.74832427
Ni       3.97344916       5.55949845      27.30449887
Ni      -1.35925369       3.34445413       3.97734945
Ni      -1.89008611       2.64539683      19.54933103
Ni      -3.77377923       7.62240391       4.11596596
Ni      -4.32657162       6.89434323      19.84298786
Ni       3.60590561       3.19420173       3.80957066
Ni       3.16049121       2.49384803      19.61844860
Ni       1.09919645       7.55433307       3.98532362
Ni       0.58885088       6.83397842      19.66309023
Ni       1.04701013       3.30101268       3.91756287
Ni       0.59156366       2.49729580      19.51924756
Ni      -1.31511399       7.59241217       4.04516294
Ni      -1.75541907       6.82407794      19.69768781
Ni       6.07548985       3.11276511       3.87072554
Ni       5.48307823       2.34729730      19.50765329
Ni       3.64001660       7.27205224       3.88320199
Ni       3.14242611       6.57064359      19.49908347
Ni       0.76072320       0.03683261      11.67701616
Ni       0.28563291      -0.50627879      27.46647166
Ni      -1.64436212       4.42996806      11.82697915
Ni      -2.07492002       3.71462157      27.50447335
Ni       5.78136450       0.00503108      11.55288868
Ni       5.32324731      -0.86990511      27.26933775
Ni       3.28693496       4.23816147      11.75388561
Ni       2.77663929       3.45267484      27.42285152
Ni       2.26125291      -0.45081579       7.74420321
Ni       1.69533601      -1.19089060      23.42506633
Ni      -0.16236068       3.83695947       7.84706864
Ni      -0.79724921       3.11417976      23.58661106
Ni       7.19791490      -0.50127649       7.61738848
Ni       6.60478027      -1.29335009      23.25792273
Ni       4.70330560       3.66249177       7.73124320
Ni       4.15535834       3.04353324      23.47867017
Ni       1.24504469       2.07735334      -0.03388129
Ni       0.81801354       1.36527813      15.66703714
Ni      -1.20535690       6.34295826       0.06801329
Ni      -1.73963892       5.61765887      15.75168258
Ni       6.27147356       1.95965458      -0.18557190
Ni       5.61920465       1.24060322      15.61733176
Ni       3.67712487       6.21574775       0.03738865
Ni       3.27229610       5.46394900      15.66159715
Ni       2.41230183      -0.05820868      -0.06134741
Ni       1.87136123      -0.77432923      15.65697774
Ni       0.05424470       4.17275078       0.10724777
Ni      -0.53513728       3.45936081      15.75243001
Ni       7.44172267      -0.18326801      -0.16770043
Ni       6.85415235      -0.94003551      15.43083537
Ni       4.93789441       3.96970579      -0.16526845
Ni       4.48568895       3.29786166      15.61009334
Ni       1.00156042       1.64319773       7.74512986
Ni       0.48028297       1.01647604      23.55142388
Ni      -1.39136203       5.95023848       8.00905878
Ni      -2.00173426       5.22354054      23.58251747
Ni       5.88644108       1.56712619       7.67873776
Ni       5.39216486       0.77678316      23.32367050
Ni       3.49151532       5.86916610       7.80538997
Ni       2.94593549       5.12137804      23.49687685
Ni      -1.20589459       2.09360570      -0.06068806
Ni      -1.70567253       1.37986597      15.73191502
Ni      -3.66284260       6.36336349       0.10534699
Ni      -4.21382091       5.69303862      15.81956108
Ni       3.70346412       1.96981964      -0.10925289
Ni       3.11290672       1.26615246      15.55383623
Ni       1.26846346       6.20471861       0.08604584
Ni       0.76770617       5.49230042      15.73188792
Ni      -1.58739714       1.84884755       7.93852518
Ni      -2.00287849       1.12210268      23.65595314
Ni      -3.93029155       6.13712170       8.09483846
Ni      -4.50966973       5.38750634      23.63332522
Ni       3.46777681       1.63271348       7.62490960
Ni       2.92429564       0.88582473      23.46807837
Ni       0.99473972       5.88275785       7.91730523
Ni       0.50020152       5.13893792      23.57116212
