192
Lattice="10.026371424078878 0.11718935642142034 0.04275710618944246 -4.966061295034724 8.652719827471657 0.09832301871534625 0.7736204105956106 0.34872647664624934 31.394606951903757" Properties=species:S:1:pos:R:3 pbc="T T T"
Mg       0.17289542       0.02665736       6.30019978
Mg       0.54122285       0.20487915      22.12712627
Mg      -2.30173239       4.36084609       6.43962601
Mg      -1.99151391       4.61861558      22.16030341
Mg       5.22189183       0.16373058       6.38594285
Mg       5.53710499       0.38205390      22.00494224
Mg       2.61745366       4.42406377       6.49356016
Mg       3.15810966       4.61342823      22.10087033
Mg       0.35483937       0.07438384      14.29522387
Mg       0.68499316       0.29977270      29.87905721
Mg      -2.19346071       4.48257818      14.32552939
Mg      -1.72080685       4.70147179      30.02218640
Mg       5.34643086       0.25580437      14.23615497
Mg       5.76212249       0.41422565      29.96883741
Mg       2.98115695       4.48123708      14.30796967
Mg       3.26499930       4.78276495      30.07412009
Mg       0.22629653       0.08046382       9.26002129
Mg       0.54973150       0.27754404      25.02296390
Mg      -2.22990450       4.45555748       9.42302726
Mg      -1.87323032       4.50559727      25.01739746
Mg       5.26997267       0.22715540       9.38719389
Mg       5.62430103       0.35597784      25.07950325
Mg       2.75662288       4.52765651       9.38929499
Mg       3.09851598       4.71533780      25.03364658
Mg       0.03758225      -0.08963970       1.51532074
Mg       0.45077216       0.18950135      17.27072404
Mg      -2.46989669       4.36349889       1.57553419
Mg      -2.10823479       4.52149099      17.21358894
Mg       5.06830588       0.01210794       1.58250953
Mg       5.39755434       0.21031776      17.16006010
Mg       2.55303111       4.36010724       1.51315469
Mg       2.97351530       4.65331464      17.19575167
Mg       0.24042596       3.08012622      10.28638728
Mg       0.66641195       3.22438020      26.06684289
Mg      -2.26022508       7.27443130      10.38091194
Mg      -1.84106387       7.53131351      26.05501887
Mg       5.32367070       3.06218551      10.30708396
Mg       5.62626070       3.22252673      26.13632321
Mg       2.84739746       7.46087628      10.35612989
Mg       3.11597346       7.60697043      26.04052458
Mg       2.57262110       1.58736498       2.56228734
Mg       3.00273750       1.66229244      18.18237990
Mg       0.03359736       5.92681635       2.58984751
Mg       0.45614490       6.01093910      18.23778292
Mg       7.59091529       1.45505138       2.53149333
Mg       7.87995921       1.77441891      18.23447082
Mg       5.15643230       5.86300848       2.58015451
Mg       5.43321806       6.07972396      18.20984342
Mg       2.62069321       1.61131827       5.47844065
Mg       3.08637580       1.69690829      21.20502328
Mg       0.14352103       5.87167425       5.45228863
Mg       0.46021625       6.05114545      21.12858036
Mg       7.64945551       1.70746083       5.49599158
Mg       8.06264756       1.77023806      21.20157143
Mg       5.22450044       5.98289260       5.50830582
Mg       5.48872184       6.13912085      21.17988079
Mg       0.33831411       3.11749495      13.37367593
Mg       0.73431393       3.17037470      29.05701205
Mg      -2.21320227       7.37593158      13.32632817
Mg      -1.80978065       7.49902606      28.98240348
Mg       5.35660592       3.19321044      13.34924448
Mg       5.76904600       3.35829833      28.91947430
Mg       2.93602296       7.37434282      13.32109217
Mg       3.29449745       7.62847157      28.97787052
Ni       0.23930710       2.91671594       7.86139160
Ni       0.62032840       3.21504098      23.60506318
Ni      -2.24282071       7.27915564       7.99941496
Ni      -1.89779641       7.39739280      23.66007275
Ni       5.24760672       3.12015927       7.81178107
Ni       5.70325532       3.24929292      23.65450120
Ni       2.73458795       7.33759392       7.97514084
Ni       3.16617962       7.54789208      23.62732702
Ni       2.51693624       1.44623472       0.00481970
Ni       2.91319740       1.59884202      15.74685300
Ni       0.05921651       5.78315651       0.10942401
Ni       0.52789609       5.94708378      15.76808745
Ni       7.59555981       1.50957945       0.07695424
Ni       7.89821067       1.66393499      15.75086930
Ni       5.03552354       5.87072510       0.02909818
Ni       5.45669096       5.97777461      15.79847971
Ni       2.72814593       1.56448926       7.79826772
Ni       3.07701824       1.73886289      23.56504329
Ni       0.15924598       5.86281596       7.89817936
Ni       0.66722572       6.03949222      23.65087831
Ni       7.73854942       1.52939790       7.86856102
Ni       8.07442403       1.83066584      23.56642487
Ni       5.18574798       5.89347182       7.95159607
Ni       5.63629878       6.17619982      23.67884261
Ni       0.02764280       2.94298051       0.14552519
Ni       0.38775873       2.99932363      15.74066366
Ni      -2.51736197       7.26801870       0.05554392
Ni      -2.10363432       7.36967956      15.75144470
Ni       5.01813236       2.94211883       0.06889864
Ni       5.45961029       3.10661841      15.83472239
Ni       2.59379207       7.25517472       0.09978114
Ni       3.02547616       7.58292251      15.79887652
Ni       0.03622386       1.52634023       3.97462321
Ni       0.52144662       1.62721912      19.58732403
Ni      -2.39137182       5.86548002       4.10585670
Ni      -2.02221405       5.94322632      19.70477837
Ni       5.22898196       1.51652787       3.98332912
Ni       5.62059258       1.70043925      19.67519788
Ni       2.63801036       5.93003644       3.95281027
Ni       3.00474227       6.09552813      19.81900793
Ni       4.09782845       0.95700677      11.79909718
Ni       4.49673702       1.00521657      27.46175989
Ni       1.55315187       5.24279643      11.83920335
Ni       1.88347023       5.43795903      27.53722077
Ni       9.10019770       0.97424001      11.88394545
Ni       9.49685906       1.02923473      27.58935336
Ni       6.62064379       5.35780843      11.85436852
Ni       6.86507382       5.42478865      27.62591335
Ni       2.76065926       3.02852918      11.79174122
Ni       3.13262835       3.23883983      27.51520354
Ni       0.38159948       7.35674495      11.86514173
Ni       0.62466481       7.55382083      27.55459476
Ni       7.70907024       3.09552742      11.81594722
Ni       8.23026544       3.29282763      27.59611538
Ni       5.34618222       7.38085503      11.94411960
Ni       5.65077606       7.65899129      27.65935615
Ni      -1.04248374       3.71995931       3.94118993
Ni      -0.76433371       3.88665023      19.64007606
Ni      -3.66400644       8.01928666       4.00021184
Ni      -3.15782852       8.11870321      19.79243276
Ni       3.78349008       3.79327903       4.00790292
Ni       4.23272316       3.84651098      19.68858255
Ni       1.43409819       8.08360628       3.96030842
Ni       1.68535791       8.26320312      19.71926494
Ni       1.45503567       3.74908101       3.94968250
Ni       1.81281110       3.82766085      19.71681838
Ni      -1.08109091       8.06498221       4.04962084
Ni      -0.81650116       8.08392926      19.68551753
Ni       6.39544095       3.69651093       4.00247992
Ni       6.80779367       3.86989724      19.62287898
Ni       3.81026049       8.10086793       4.07502899
Ni       4.34419321       8.20690394      19.74810176
Ni       1.59847017       0.98421097      11.83485889
Ni       1.99696294       0.98426294      27.43355780
Ni      -0.98171896       5.09881934      11.88205858
Ni      -0.57897916       5.40465587      27.47777203
Ni       6.57729131       0.97938377      11.91683712
Ni       7.01262419       1.14341223      27.49638335
Ni       4.08256627       5.30923371      11.84999832
Ni       4.50992856       5.46566683      27.59000621
Ni       2.68514484       0.21022583       7.91597901
Ni       3.07142765       0.28693970      23.60170881
Ni       0.21939670       4.40753169       7.85429120
Ni       0.65121655       4.60508627      23.62309007
Ni       7.74800069       0.12924219       7.86823524
Ni       8.09197144       0.40320344      23.57181462
Ni       5.15456455       4.44403692       8.01980743
Ni       5.55062681       4.66752712      23.54986716
Ni       1.22223210       2.11121193       0.05375583
Ni       1.67503594       2.44069735      15.77170809
Ni      -1.21880741       6.52643097       0.14486211
Ni      -0.73924735       6.70770859      15.71780275
Ni       6.28311204       2.20850315       0.10116789
Ni       6.67871111       2.51260559      15.73542801
Ni       3.88573063       6.54470381       0.09744736
Ni       4.10235759       6.78841741      15.76877749
Ni       2.46372382       0.05479883       0.08415046
Ni       2.91919856       0.20054261      15.64897235
Ni      -0.01006110       4.25204204       0.07809081
Ni       0.41309451       4.59198403      15.76692065
Ni       7.60990883       0.01165246       0.06556326
Ni       7.98642944       0.21562537      15.73544468
Ni       4.98022883       4.45149184       0.15961277
Ni       5.46746923       4.62247509      15.76313680
Ni       1.50440488       2.28764440       7.89466457
Ni       1.83808429       2.47152389      23.60618190
Ni      -1.05985732       6.67401868       7.88602844
Ni      -0.63323026       6.75321546      23.60300030
Ni       6.39533610       2.30158401       7.96482092
Ni       6.77179875       2.52586253      23.63264314
Ni       3.97613944       6.68219871       7.92176086
Ni       4.41296784       6.89417469      23.57689085
Ni      -1.39848065       2.17862520       0.09515277
Ni      -0.86230122       2.41031522      15.76705976
Ni      -3.87019226       6.46343358       0.09799050
Ni      -3.31385630       6.56899779      15.84633557
Ni       3.74939848       2.20074032       0.11971946
Ni       4.14283298       2.39186820      15.70847963
Ni       1.34949143       6.55465049       0.13967947
Ni       1.68989490       6.71218855      15.73178373
Ni      -1.07530421       2.25796411       7.94276952
Ni      -0.68910206       2.38290714      23.60885279
Ni      -3.48370266       6.60818664       8.07183176
Ni      -3.08933677       6.73548141      23.55066695
Ni       3.99646362       2.30874340       7.95607907
Ni       4.32395059       2.45841508      23.64187382
Ni       1.46378332       6.64755758       7.92412169
Ni       1.92021576       6.78000624      23.67951866
