192
Lattice="9.790934622732893 -0.11494636867776703 0.03827420581861052 -4.998752855472286 8.466784415397516 0.007174973447382643 0.04890627878345929 0.087362477183546 31.36749509758948" Properties=species:S:1:pos:R:3 pbc="T T T"
Mg      -0.01806867      -0.00498344       6.37651044
Mg       0.06869296       0.04045150      22.05652858
Mg      -2.53591597       4.21594665       6.32437709
Mg      -2.58823636       4.30764042      22.05097966
Mg       4.95027253      -0.02377480       6.40581609
Mg       4.89765754      -0.00057796      22.10322559
Mg       2.42549463       4.22016821       6.28689078
Mg       2.48291098       4.28531794      22.00454293
Mg      -0.05283776       0.00971902      14.14933204
Mg       0.09343409       0.02774711      29.95777010
Mg      -2.41406819       4.29485308      14.26879872
Mg      -2.42087642       4.32869517      29.90288379
Mg       4.92964676      -0.02341891      14.25521430
Mg       4.98432333      -0.08308153      29.89796481
Mg       2.36379797       4.20342068      14.30174718
Mg       2.42877161       4.25504035      29.91872538
Mg      -0.02993157       0.02288460       9.25786799
Mg       0.02710002       0.03852268      24.91224243
Mg      -2.53481477       4.28604640       9.21973714
Mg      -2.45304335       4.30042179      24.94024008
Mg       4.80991513      -0.01093545       9.34358583
Mg       4.91455216       0.05986603      24.97355129
Mg       2.36509586       4.20369245       9.32415553
Mg       2.46945978       4.15435646      25.10547400
Mg      -0.02617520       0.03852594       1.53267383
Mg      -0.00525830       0.04215830      17.17094172
Mg      -2.45667029       4.16191475       1.50844033
Mg      -2.53433183       4.29432909      17.06425139
Mg       5.01393075      -0.08367505       1.54113991
Mg       4.88630905       0.02814999      17.07442905
Mg       2.42692286       4.15002314       1.55385693
Mg       2.52745928       4.29673368      17.12688869
Mg      -0.02418733       2.87277335      10.23285751
Mg       0.00207936       2.92700095      25.98397356
Mg      -2.44587583       7.01669448      10.26689200
Mg      -2.52351293       7.14275651      25.95739040
Mg       4.86725527       2.78414717      10.35326248
Mg       4.86186006       2.77365145      25.93689146
Mg       2.34750920       6.95289330      10.25232609
Mg       2.50484254       7.13985836      25.91943576
Mg       2.47705198       1.26203899       2.44235181
Mg       2.50201817       1.39234389      18.14280198
Mg      -0.06409262       5.57057121       2.40894781
Mg      -0.00378697       5.59685235      18.15128510
Mg       7.33525754       1.29136094       2.46424113
Mg       7.35914689       1.41210098      18.06295597
Mg       4.88900576       5.59831723       2.44306611
Mg       4.88135803       5.62084007      18.16361347
Mg       2.38873022       1.39148624       5.36892331
Mg       2.38271457       1.33912250      21.05410012
Mg      -0.04638223       5.60665544       5.40011723
Mg      -0.03487992       5.67113014      21.07383137
Mg       7.28944179       1.37834822       5.41161954
Mg       7.38755041       1.37276664      21.15864407
Mg       4.82741863       5.63414753       5.40662530
Mg       4.81157742       5.60959915      21.03169743
Mg      -0.00442896       2.80430031      13.25712394
Mg       0.08115314       2.89337840      28.95552240
Mg      -2.58613255       7.12838590      13.23497549
Mg      -2.54651511       7.14692141      28.89665354
Mg       4.80735918       2.74084990      13.25036872
Mg       4.83851948       2.90172051      29.00505217
Mg       2.40793961       7.03442909      13.22241226
Mg       2.41373096       7.07637580      28.91545284
Ni      -0.05215853       2.83689392       7.93529560
Ni       0.03983689       2.83137789      23.55296645
Ni      -2.53629963       7.04899127       7.95217531
Ni      -2.49665266       7.07310066      23.52241561
Ni       4.92215825       2.76581654       7.83863964
Ni       4.99966451       2.81916348      23.67111386
Ni       2.36993705       7.08840807       7.90414956
Ni       2.42451930       6.97877724      23.58751533
Ni       2.45931049       1.38618693      -0.06566082
Ni       2.47892444       1.43092115      15.71978671
Ni      -0.08967432       5.49540099       0.02658276
Ni       0.04706309       5.64595217      15.72402835
Ni       7.35909266       1.37048059      -0.06697636
Ni       7.31045453       1.26337778      15.74892159
Ni       4.79862018       5.42096868       0.00691194
Ni       4.91541284       5.68174527      15.63766645
Ni       2.50130767       1.39824384       7.89751774
Ni       2.40969478       1.41091333      23.57599225
Ni      -0.06242835       5.63285852       7.87676665
Ni      -0.04093268       5.65729383      23.56814813
Ni       7.43115246       1.40781573       7.83728120
Ni       7.31183328       1.42541808      23.53537818
Ni       4.81479876       5.54373782       7.88409746
Ni       4.83134320       5.61101311      23.62511333
Ni      -0.01177633       2.75526767      -0.10104743
Ni      -0.05320431       2.80809183      15.71140310
Ni      -2.56370721       7.09773040       0.05532410
Ni      -2.49978856       7.04284445      15.68106744
Ni       4.81017504       2.82157739      -0.02528065
Ni       4.88556346       2.80762450      15.73059511
Ni       2.28822871       7.00086606       0.10923148
Ni       2.35349393       7.04511263      15.69582635
Ni      -0.03454966       1.48233491       3.94824324
Ni      -0.00173742       1.46870582      19.60614125
Ni      -2.55058649       5.74345059       3.89729478
Ni      -2.45993482       5.69853975      19.66589749
Ni       4.83016435       1.29758285       4.00590793
Ni       4.94542360       1.33436041      19.56417269
Ni       2.41629896       5.62167569       3.91320923
Ni       2.46767961       5.61494284      19.68981524
Ni       3.68040377       0.73196167      11.70515329
Ni       3.76899987       0.86161766      27.41068401
Ni       1.23623000       5.04008262      11.77014447
Ni       1.16936982       5.02924687      27.44642809
Ni       8.58192278       0.61152879      11.82020580
Ni       8.53252947       0.64753130      27.48272447
Ni       6.11373409       4.89500495      11.85219148
Ni       6.05245154       4.96238755      27.48052683
Ni       2.29167264       2.74619478      11.71645971
Ni       2.44970865       2.88204810      27.51621442
Ni      -0.08863567       7.00827254      11.70368729
Ni       0.06533025       7.04759521      27.50304382
Ni       7.29547491       2.81473487      11.74445522
Ni       7.36234279       2.81838307      27.48603372
Ni       4.80872044       6.93301534      11.76433395
Ni       4.90633558       7.06783098      27.47738456
Ni      -1.35082591       3.59558349       3.87994692
Ni      -1.27007247       3.58673791      19.63088853
Ni      -3.79534536       7.76368856       3.91131757
Ni      -3.77607391       7.82930919      19.73734726
Ni       3.63276197       3.50638043       3.97843821
Ni       3.71272792       3.50182234      19.55237247
Ni       1.02559408       7.69991221       3.91472971
Ni       1.17073009       7.75780696      19.59272345
Ni       1.21289173       3.50543766       3.84233972
Ni       1.19046039       3.50081256      19.59232993
Ni      -1.37248768       7.69780285       4.00395030
Ni      -1.30659275       7.75373092      19.54430149
Ni       6.11417072       3.46733605       3.86832761
Ni       6.06591816       3.43054561      19.66487099
Ni       3.51181956       7.66606432       3.97529165
Ni       3.57017442       7.75688894      19.64817896
Ni       1.19186169       0.79591987      11.78476272
Ni       1.25002204       0.85861006      27.54424843
Ni      -1.31872969       4.91475358      11.74708243
Ni      -1.24520970       4.99468408      27.38653147
Ni       6.13344649       0.62986701      11.75542672
Ni       6.15803993       0.79807326      27.44340046
Ni       3.64207100       4.84023669      11.85134089
Ni       3.65525729       4.91088429      27.48584755
Ni       2.48202134      -0.03147231       7.91732940
Ni       2.52100954       0.04221704      23.59929770
Ni      -0.00594788       4.26254177       7.87140932
Ni       0.03083237       4.22859322      23.62357333
Ni       7.40884423      -0.06375550       7.86575546
Ni       7.40457355       0.06885308      23.54101506
Ni       4.89940799       4.17747768       7.87443593
Ni       4.79858066       4.22439978      23.52502619
Ni       1.16024147       2.10214714       0.03866379
Ni       1.14855519       2.23407752      15.71491606
Ni      -1.23796890       6.30746443       0.06245952
Ni      -1.32471403       6.41701615      15.67376301
Ni       6.10493058       2.02230782       0.06369710
Ni       6.19164345       2.02320481      15.75935016
Ni       3.59789707       6.16914343       0.08496534
Ni       3.56992411       6.26332830      15.74561677
Ni       2.40809615      -0.09510959       0.08062959
Ni       2.45785819       0.02665359      15.62257337
Ni      -0.09149093       4.22443583       0.05297443
Ni       0.06218856       4.25627501      15.74544284
Ni       7.37351027      -0.20407088       0.00607526
Ni       7.41139268      -0.03958564      15.73423987
Ni       4.83085331       4.17043390       0.10647718
Ni       4.81755104       4.19240635      15.69931471
Ni       1.20037786       2.15856669       7.80660344
Ni       1.23243464       2.17982488      23.53284646
Ni      -1.32734893       6.38473186       7.90201577
Ni      -1.28706692       6.37641041      23.54117534
Ni       5.94800700       2.07544552       7.79613244
Ni       6.11071180       2.06589680      23.52010013
Ni       3.71155434       6.29056228       7.89658393
Ni       3.58860505       6.32715490      23.55160680
Ni      -1.25880642       2.19818368       0.00308772
Ni      -1.14435277       2.14661017      15.69820438
Ni      -3.77218826       6.37309235      -0.02937451
Ni      -3.70722118       6.32619370      15.67763161
Ni       3.68382057       2.05945822      -0.08796000
Ni       3.64917787       2.13300462      15.87483870
Ni       1.18869083       6.28466337       0.02295235
Ni       1.23279873       6.37577702      15.74685863
Ni      -1.20664802       2.10704027       7.87386231
Ni      -1.25819289       2.24435331      23.48909927
Ni      -3.71753235       6.43171668       7.93104631
Ni      -3.62016310       6.50181940      23.57460954
Ni       3.64882354       2.05815492       7.93024193
Ni       3.72177851       2.15263829      23.47812469
Ni       1.29703388       6.30143020       7.86448499
Ni       1.23412600       6.29892458      23.46924334
