192
Lattice="9.940436727395687 -0.008485462075928605 -0.19999671861543522 -5.29308798233033 8.692602014947875 0.34846457970482364 0.8250429733974827 0.4102831887195138 31.59942372802923" Properties=species:S:1:pos:R:3 pbc="T T T"
Mg       0.20659465       0.09973984       6.42220664
Mg       0.61945469       0.25240092      22.21485805
Mg      -2.39479983       4.35369935       6.54852888
Mg      -2.08828361       4.64712818      22.42020075
Mg       5.26534206       0.02629639       6.28646406
Mg       5.54219198       0.27053940      22.20061994
Mg       2.46539015       4.50616496       6.45601514
Mg       2.99265311       4.68873766      22.26665556
Mg       0.38714040       0.18429862      14.18374268
Mg       0.79401573       0.43158267      30.22100833
Mg      -2.24971879       4.49550651      14.51395952
Mg      -1.86944835       4.68157243      30.31922064
Mg       5.40536466       0.18733765      14.20351562
Mg       5.66240221       0.43308320      29.95408892
Mg       2.57113909       4.47567980      14.27141919
Mg       2.95310695       4.73783973      30.15196546
Mg       0.30028754       0.14848051       9.32377927
Mg       0.63618772       0.29063654      25.21653192
Mg      -2.40978245       4.44309957       9.57397853
Mg      -1.94252970       4.61677706      25.33638847
Mg       5.19969753       0.14271856       9.25813001
Mg       5.56621343       0.33325968      25.13344876
Mg       2.57386009       4.51159390       9.38031973
Mg       3.01627586       4.61743483      25.20187030
Mg       0.02614034      -0.03264557       1.51628257
Mg       0.44032722       0.19097696      17.25945002
Mg      -2.57763319       4.35481622       1.73101554
Mg      -2.22396629       4.57884601      17.56348236
Mg       4.90213560       0.03980906       1.38017871
Mg       5.44482968       0.21695607      17.16757186
Mg       2.38337573       4.38107746       1.54090397
Mg       2.79505843       4.61320283      17.41094489
Mg       0.25335772       3.05397201      10.39591849
Mg       0.61628118       3.20992676      26.20328462
Mg      -2.58647132       7.38546375      10.64033887
Mg      -2.07308963       7.54585177      26.44451856
Mg       5.15519720       3.13130387      10.35406948
Mg       5.55876776       3.20799980      26.18606648
Mg       2.46694648       7.35236563      10.42432867
Mg       2.85797769       7.51799372      26.29351077
Mg       2.50106501       1.48424317       2.44998102
Mg       2.87671667       1.66372962      18.18738790
Mg      -0.09145751       5.88191840       2.57150258
Mg       0.24880332       5.99428144      18.46093140
Mg       7.47188554       1.53958518       2.23033195
Mg       7.95855270       1.69896682      18.06742753
Mg       4.82751574       5.89031783       2.52118969
Mg       5.19036231       6.02218196      18.36562800
Mg       2.57134897       1.53850409       5.40394045
Mg       2.90501114       1.75184539      21.19679368
Mg      -0.12366497       5.83264098       5.57613551
Mg       0.38798081       6.05510252      21.43626451
Mg       7.46797257       1.53991327       5.22421560
Mg       7.90431276       1.77657473      21.22457835
Mg       4.88023753       5.83232464       5.51596350
Mg       5.24679225       6.03384748      21.24212639
Mg       0.28395070       3.02398167      13.41939755
Mg       0.72334032       3.16427384      29.20447443
Mg      -2.40984772       7.45219878      13.56043655
Mg      -1.99892118       7.63487790      29.38119913
Mg       5.27157714       3.08846187      13.37954952
Mg       5.59272023       3.23656184      28.96850199
Mg       2.56969359       7.56983165      13.56450108
Mg       3.04420229       7.64350847      29.33411407
Ni       0.05593246       2.92168699       7.88627442
Ni       0.55533371       3.25452670      23.84662156
Ni      -2.48861370       7.30018309       8.17115126
Ni      -2.11537907       7.50402806      23.95411597
Ni       5.04211351       3.01485836       7.77476066
Ni       5.50190971       3.21842643      23.70859354
Ni       2.40394612       7.30857797       8.03702639
Ni       2.80405797       7.57237686      23.89398998
Ni       2.37479730       1.46898206       0.06263574
Ni       2.78821353       1.76113334      15.76429241
Ni      -0.20456183       5.84898017       0.15078992
Ni       0.09410822       5.95667788      15.94848851
Ni       7.38846752       1.38424068      -0.03440599
Ni       7.86004249       1.65824992      15.71763491
Ni       4.73242861       5.86696320       0.11595177
Ni       5.21768256       5.96382328      15.83946847
Ni       2.62705125       1.49275461       7.87388420
Ni       3.05852834       1.75656244      23.69055105
Ni      -0.15889138       5.93173192       8.08299040
Ni       0.34318826       6.12502892      23.81747749
Ni       7.62542612       1.50400161       7.79902804
Ni       7.96548357       1.72586128      23.59749099
Ni       4.96324026       5.90844536       7.92140440
Ni       5.37739931       6.17931493      23.79169050
Ni      -0.03404332       2.96561844       0.18453832
Ni       0.29388134       3.08636838      15.83202297
Ni      -2.75697686       7.25802774       0.30116908
Ni      -2.33752037       7.37655414      15.94204940
Ni       4.81959875       2.87958384      -0.04470749
Ni       5.25468700       3.03819248      15.84186652
Ni       2.19278066       7.28740400       0.09510694
Ni       2.60756364       7.42689034      15.95961907
Ni       0.17112831       1.52069376       3.99634310
Ni       0.39516264       1.77947579      19.75238661
Ni      -2.61208462       5.81274610       4.10290701
Ni      -2.20125733       6.05715954      19.91072647
Ni       5.00384254       1.49246832       3.87336903
Ni       5.41923100       1.79115991      19.73451021
Ni       2.38086236       5.81909450       4.07159732
Ni       2.73732621       6.09592756      19.79060883
Ni       4.09307605       0.92149167      11.72343144
Ni       4.43877847       1.09370126      27.66590947
Ni       1.36472292       5.20995508      11.99075380
Ni       1.77142953       5.35882232      27.78793518
Ni       8.92921139       0.89372263      11.66574785
Ni       9.40156785       0.96029482      27.49923301
Ni       6.28553274       5.25550925      11.95100525
Ni       6.75243351       5.34029888      27.61210433
Ni       2.78552661       3.10242237      11.79167331
Ni       3.01642903       3.33188475      27.62692683
Ni       0.09896704       7.43760251      12.09004930
Ni       0.39654535       7.63306066      27.89138495
Ni       7.67443742       2.98059922      11.80067912
Ni       8.09757318       3.29026866      27.52118989
Ni       4.93316714       7.41095364      11.91700123
Ni       5.46056657       7.57507736      27.81349531
Ni      -1.33194207       3.65127344       4.00838760
Ni      -0.87251086       3.97618486      19.85346535
Ni      -3.84415229       7.96463815       4.17792349
Ni      -3.43018072       8.11664061      20.06366153
Ni       3.60407800       3.68529975       3.97355079
Ni       4.20169999       3.87911524      19.71329453
Ni       1.04050578       8.02415224       4.13348132
Ni       1.42549184       8.14558909      19.88248570
Ni       1.35078571       3.72848819       4.09334593
Ni       1.69706755       3.89668733      19.81697807
Ni      -1.35177279       7.99076261       4.22462564
Ni      -0.91675754       8.29350648      19.96083337
Ni       6.15027087       3.71173569       3.97249786
Ni       6.55275876       3.86957903      19.73566494
Ni       3.51442524       8.05991927       4.12456131
Ni       3.95669619       8.12780011      19.96649537
Ni       1.52089100       0.84746305      11.79874909
Ni       2.03835989       1.07833156      27.61273784
Ni      -1.14375561       5.20214897      11.99444495
Ni      -0.66954508       5.49629336      27.82055201
Ni       6.51413681       0.90428056      11.74163226
Ni       6.95770137       1.13129573      27.48280156
Ni       3.75689340       5.19592726      11.93982052
Ni       4.35064970       5.43152135      27.77271411
Ni       2.68716120       0.16026379       7.85433259
Ni       3.12908127       0.27966295      23.63799919
Ni      -0.00021645       4.49670770       8.13097342
Ni       0.43572698       4.57954320      23.88264427
Ni       7.67843812       0.07549978       7.68137075
Ni       8.01813185       0.31833819      23.54330937
Ni       5.05327731       4.28127834       7.93967279
Ni       5.46725529       4.65853562      23.64541277
Ni       1.15646909       2.23402485       0.11062478
Ni       1.54287316       2.35190383      15.87892982
Ni      -1.49913776       6.54896952       0.15341953
Ni      -1.09822321       6.67982991      16.05993549
Ni       6.26610714       2.23521605       0.00104785
Ni       6.52112923       2.46177436      15.71867780
Ni       3.56289519       6.51238197       0.18625504
Ni       3.81303121       6.72736332      16.05248383
Ni       2.51636626      -0.01134255      -0.05285201
Ni       2.90492666       0.20613418      15.87009060
Ni      -0.15469306       4.28088268       0.15016473
Ni       0.22535103       4.50457908      15.91261940
Ni       7.60260098       0.03862274      -0.15861429
Ni       7.93053729       0.24473444      15.58324954
Ni       4.77033510       4.26252360      -0.01715241
Ni       5.20893338       4.49109857      15.75770452
Ni       1.31479322       2.22131793       7.88674934
Ni       1.82407898       2.45542741      23.75424507
Ni      -1.35233988       6.55982019       8.12170390
Ni      -0.94172591       6.74524227      23.95813882
Ni       6.33109298       2.23610173       7.89978894
Ni       6.75729608       2.45224723      23.61053923
Ni       3.62253173       6.55602104       8.06023000
Ni       4.03818858       6.87954992      23.85739577
Ni      -1.38262039       2.20199362       0.00522074
Ni      -0.91011536       2.36795605      15.88749100
Ni      -3.99173225       6.48177594       0.29430423
Ni      -3.58243417       6.72963267      16.07742696
Ni       3.59950721       2.11738982      -0.03041142
Ni       4.10336253       2.40819820      15.81164927
Ni       1.03476005       6.50070451       0.12893011
Ni       1.33789152       6.67537716      16.00803628
Ni      -1.08700975       2.20744627       8.10845007
Ni      -0.80205880       2.48088182      23.70261343
Ni      -3.75212058       6.61426257       8.22815568
Ni      -3.40144383       6.82627431      24.01765843
Ni       3.84670309       2.21231402       7.88058184
Ni       4.20033053       2.53916744      23.64726952
Ni       1.20473383       6.66809139       8.01457070
Ni       1.65134323       6.80314142      23.85796953
