192
Lattice="9.596088546782754 0.36814175512613495 -0.15330989611083057 -4.725320254879537 8.272722922941927 0.38437083849945025 -0.2313268588168912 -1.0156702100053157 31.967386311800478" Properties=species:S:1:pos:R:3 pbc="T T T"
Mg       0.00321746      -0.22695927       6.42936618
Mg      -0.18310090      -0.75071958      22.41404638
Mg      -2.42169455       3.86440681       6.77042964
Mg      -2.40781707       3.43511269      22.66669997
Mg       4.77334864      -0.05748658       6.44903474
Mg       4.59240298      -0.48982684      22.40868238
Mg       2.35411648       4.12899171       6.58994412
Mg       2.29293421       3.58277459      22.63399756
Mg      -0.20355380      -0.43912581      14.50495384
Mg      -0.11659668      -0.93560798      30.38715263
Mg      -2.51630847       3.63688864      14.69725992
Mg      -2.68567159       3.20296014      30.66504596
Mg       4.65875322      -0.28775496      14.41181717
Mg       4.51658498      -0.82566688      30.38799445
Mg       2.35864388       3.82697166      14.69111796
Mg       2.13418892       3.34552932      30.50583392
Mg      -0.05563831      -0.33892925       9.49851577
Mg      -0.19979994      -0.83603204      25.44762377
Mg      -2.42142887       3.86256877       9.74977257
Mg      -2.50972727       3.38639457      25.63463546
Mg       4.66761412      -0.09333151       9.35017199
Mg       4.67214095      -0.59952963      25.47128617
Mg       2.36181636       4.01170580       9.66371265
Mg       2.24330894       3.49631117      25.65559701
Mg       0.01716421      -0.04794948       1.45774657
Mg      -0.16891043      -0.59052864      17.45257867
Mg      -2.27128643       4.10534806       1.73638347
Mg      -2.39458402       3.58193848      17.78850086
Mg       4.82237254       0.08258577       1.35181082
Mg       4.73675744      -0.39770451      17.35490687
Mg       2.39742441       4.27398765       1.64051153
Mg       2.34027411       3.81064655      17.60284458
Mg      -0.04699453       2.35305151      10.49159518
Mg      -0.16969681       1.93713369      26.65529438
Mg      -2.48505612       6.57225582      10.72774664
Mg      -2.43668126       6.18385165      26.76167293
Mg       4.73839255       2.63934418      10.50880322
Mg       4.55083113       2.22079862      26.46197001
Mg       2.34702771       6.84430922      10.72911851
Mg       2.24243683       6.28611488      26.62172687
Mg       2.41190002       1.40977158       2.47230811
Mg       2.29842441       0.91823153      18.41495643
Mg       0.11273149       5.62979935       2.74081944
Mg      -0.10741001       5.04425199      18.68931207
Mg       7.23632141       1.61420105       2.40197874
Mg       7.05893305       1.12332025      18.31995481
Mg       4.85840991       5.72783321       2.65491556
Mg       4.70969760       5.17825776      18.54882257
Mg       2.35954172       1.34178013       5.57450387
Mg       2.30316336       0.86244006      21.41765823
Mg      -0.01049104       5.53188606       5.77585261
Mg      -0.09651707       4.92704148      21.65551167
Mg       7.11672106       1.45154873       5.42907113
Mg       7.09094958       0.91225948      21.41121955
Mg       4.74771221       5.63673326       5.61464790
Mg       4.67870052       5.14243975      21.64021787
Mg      -0.09030017       2.35972827      13.57751971
Mg      -0.20714773       1.86097451      29.64931890
Mg      -2.48366708       6.42892121      13.81572177
Mg      -2.50905874       5.99614206      29.82962552
Mg       4.79490113       2.57169654      13.53917353
Mg       4.64634853       2.13319290      29.47209542
Mg       2.31147821       6.68761715      13.66657396
Mg       2.20805471       6.12954521      29.66690098
Ni      -0.03290789       2.50833105       7.99958124
Ni      -0.20567279       2.05673258      24.15129139
Ni      -2.51993722       6.72727404       8.22201252
Ni      -2.47497441       6.14125104      24.34573639
Ni       4.73903533       2.79633044       8.08128268
Ni       4.64288837       2.33669945      24.02732536
Ni       2.42508087       6.93310552       8.24414781
Ni       2.23847384       6.34463875      24.27392166
Ni       2.43335685       1.58642004       0.01900441
Ni       2.23449683       1.04758774      15.99760431
Ni       0.09475675       5.62072435       0.16676844
Ni      -0.02501748       5.27431730      16.20103736
Ni       7.11857873       1.67502023       0.01924253
Ni       7.09278585       1.26951830      15.92215947
Ni       4.87488932       5.79952600       0.16507324
Ni       4.71461087       5.34310619      16.16124698
Ni       2.30944559       1.21782959       8.03086664
Ni       2.25834119       0.75945865      23.94381562
Ni      -0.01786865       5.49306716       8.16552495
Ni      -0.15296987       4.88146684      24.20320291
Ni       7.13416693       1.57585867       7.88885826
Ni       7.08162427       0.89927356      24.02036000
Ni       4.86173734       5.54635794       8.13759657
Ni       4.66318384       5.03342094      24.07894968
Ni       0.08041113       2.85982222       0.08810071
Ni      -0.05982132       2.32316433      16.06165750
Ni      -2.31029541       6.93702715       0.16496382
Ni      -2.46014269       6.46589361      16.24950707
Ni       4.79714526       3.04065304       0.03409941
Ni       4.74030379       2.40838451      16.10834307
Ni       2.42170859       7.17603259       0.16337559
Ni       2.38396816       6.64614575      16.21988901
Ni      -0.10010620       1.24808152       4.04885041
Ni      -0.15062769       0.73668733      20.01323235
Ni      -2.34211798       5.51243147       4.21110600
Ni      -2.58781125       4.84766989      20.22266147
Ni       4.78679586       1.49225600       3.98428015
Ni       4.58012645       0.94247561      20.03721371
Ni       2.42895450       5.63368026       4.12141746
Ni       2.35215539       5.06069014      20.12047540
Ni       3.45669478       0.47180734      12.01023111
Ni       3.38238724      -0.06249682      27.89780699
Ni       1.16915999       4.63304863      12.15959818
Ni       1.01125827       4.05926356      28.09370893
Ni       8.21453006       0.66719765      11.87478165
Ni       8.15020643       0.13373705      27.77317474
Ni       5.90633896       4.76441641      11.99349510
Ni       5.93846743       4.23872437      28.05811293
Ni       2.32974660       2.51473353      12.05218603
Ni       2.21822059       1.98775635      28.10073210
Ni       0.02792969       6.62194984      12.25670136
Ni      -0.13309093       6.10896092      28.23901327
Ni       7.15190472       2.75576316      11.99975035
Ni       7.02157936       2.25721557      27.90060836
Ni       4.79146270       6.88113020      12.14796814
Ni       4.63876462       6.27458461      28.24479659
Ni      -1.12770748       3.41041069       4.20435221
Ni      -1.26684658       2.93699957      20.13378200
Ni      -3.57094514       7.45259193       4.40693763
Ni      -3.68244509       6.94685210      20.37767704
Ni       3.59390481       3.51314460       4.05300990
Ni       3.47551881       3.07600574      20.05042772
Ni       1.33318799       7.77355342       4.25839505
Ni       1.12966147       7.10415800      20.22410729
Ni       1.13181524       3.39500756       4.04406876
Ni       1.05134860       2.94185907      20.12629871
Ni      -1.11045894       7.49891346       4.26850344
Ni      -1.26675866       7.08381241      20.26871373
Ni       5.99788315       3.64039216       4.00148333
Ni       5.97332170       3.17032970      19.98538401
Ni       3.67955837       7.76387231       4.23974075
Ni       3.58023162       7.35183651      20.17299763
Ni       1.08301503       0.29219723      11.97411756
Ni       0.96549069      -0.15596205      27.85260263
Ni      -1.24297386       4.56993314      12.06636518
Ni      -1.36192311       3.99785046      28.10444375
Ni       5.92604910       0.55717698      11.98099314
Ni       5.83788782       0.01733699      27.81010915
Ni       3.64641587       4.66537914      12.18671339
Ni       3.41222685       4.25491147      28.00747573
Ni       2.35711690      -0.21132128       7.97624349
Ni       2.24378774      -0.74084787      23.90982217
Ni      -0.03726014       4.00361088       8.04360111
Ni      -0.02151311       3.50855936      24.18213732
Ni       7.22860304      -0.06339499       7.82951430
Ni       7.03055115      -0.42185556      23.84732388
Ni       4.76245722       4.20026826       8.07909456
Ni       4.58537881       3.63706228      24.08616685
Ni       1.17799470       2.17489174       0.11929081
Ni       1.12508151       1.61792875      16.05408727
Ni      -1.13052665       6.35036969       0.21139485
Ni      -1.22371053       5.81035849      16.22910940
Ni       5.97070311       2.34620578      -0.02553237
Ni       5.82813880       1.81893401      15.93438101
Ni       3.68076958       6.53693505       0.24655622
Ni       3.56670071       5.95800834      16.11169435
Ni       2.36802724       0.14171303      -0.05455475
Ni       2.28486251      -0.37483626      15.94059359
Ni       0.07651161       4.22422631       0.15856140
Ni      -0.02096808       3.69809231      16.18567440
Ni       7.17142488       0.21648723      -0.07038376
Ni       7.01375238      -0.17314477      15.83372050
Ni       4.85479677       4.45130716       0.13936216
Ni       4.73705606       3.87225387      16.16493457
Ni       1.14201504       1.84906427       8.09756681
Ni       1.06673661       1.43030357      24.06442657
Ni      -1.22523451       6.02614835       8.12360679
Ni      -1.29943790       5.55841103      24.20918214
Ni       5.95698489       2.04869773       8.06258744
Ni       5.87924197       1.60939254      23.89372640
Ni       3.42468794       6.24668413       8.25136591
Ni       3.42848973       5.65800083      24.19183127
Ni      -1.21336117       2.11309125       0.11515704
Ni      -1.30697618       1.65595604      16.12504504
Ni      -3.58553446       6.26199113       0.33809366
Ni      -3.56985987       5.64432830      16.35245374
Ni       3.55437796       2.21439679       0.01489624
Ni       3.42448389       1.77004812      16.02543224
Ni       1.26044745       6.43923784       0.27872325
Ni       1.05971561       5.88139028      16.09615988
Ni      -1.09427502       1.75260929       8.11767917
Ni      -1.35425732       1.26855707      24.06432741
Ni      -3.61570639       5.92617518       8.31480838
Ni      -3.70726734       5.33585903      24.22186038
Ni       3.60733504       2.04276477       7.93644779
Ni       3.50546587       1.53348887      23.97181404
Ni       1.17031735       6.08405380       8.23820485
Ni       1.05784583       5.64304734      24.18194902
