192
Lattice="9.754919819432766 -0.07730309767869116 0.10078851163370377 -4.802469665658174 8.723510550216314 -0.15259043150087673 -0.29193606866396116 0.4303883438188743 31.979534029196948" Properties=species:S:1:pos:R:3 pbc="T T T"
Mg      -0.05959198      -0.02598467       6.47452957
Mg      -0.26786306       0.35499222      22.44668150
Mg      -2.49188062       4.39252092       6.42797542
Mg      -2.55197385       4.70817178      22.47740838
Mg       4.76539346       0.04524333       6.56331024
Mg       4.70605194       0.24287367      22.52390370
Mg       2.43622771       4.43217943       6.42249318
Mg       2.18971798       4.68131744      22.43707114
Mg      -0.24042986       0.14460560      14.48136169
Mg      -0.21002751       0.26417663      30.51973862
Mg      -2.49170096       4.53434065      14.29442498
Mg      -2.63951754       4.80280575      30.46375808
Mg       4.80413283       0.15785073      14.61833161
Mg       4.58328048       0.35843860      30.52363504
Mg       2.34633896       4.56185551      14.54637936
Mg       2.18214714       4.85747294      30.41402983
Mg      -0.11020656       0.17045972       9.50136257
Mg      -0.28311409       0.36821486      25.50339843
Mg      -2.54118387       4.46441176       9.36273951
Mg      -2.61715373       4.63353888      25.37294597
Mg       4.81701076       0.13626849       9.56668251
Mg       4.65748798       0.21587432      25.43433176
Mg       2.41007645       4.42724942       9.52247691
Mg       2.26908479       4.74497477      25.52214466
Mg      -0.05168912       0.10601040       1.52790653
Mg      -0.13193154       0.16096569      17.50719050
Mg      -2.50991946       4.35244679       1.50446418
Mg      -2.49577943       4.57633922      17.31746730
Mg       4.76938071      -0.02187947       1.52218888
Mg       4.71855890       0.20409707      17.64552006
Mg       2.41494592       4.38832035       1.46829536
Mg       2.30001009       4.54477298      17.49348934
Mg      -0.07873503       3.06032425      10.40101490
Mg      -0.13982277       3.34705765      26.43508636
Mg      -2.52186579       7.39826034      10.35688058
Mg      -2.69549394       7.58997732      26.37381890
Mg       4.80261307       3.00850891      10.45667881
Mg       4.62761880       3.18777286      26.47637576
Mg       2.51160805       7.41877714      10.45830226
Mg       2.21633171       7.55981460      26.45112126
Mg       2.43312998       1.44822880       2.49269504
Mg       2.32790353       1.68493891      18.40166457
Mg       0.02861317       5.90116550       2.46628667
Mg      -0.10799374       6.03489800      18.45957945
Mg       7.26691231       1.43255468       2.45955569
Mg       7.08393388       1.69378669      18.49778987
Mg       4.90153924       5.78607845       2.48122026
Mg       4.76289335       6.06896777      18.51767725
Mg       2.38494074       1.49398091       5.46702980
Mg       2.29788551       1.75214169      21.47140119
Mg      -0.07415033       5.88054379       5.41241031
Mg      -0.04430055       6.12326753      21.41966373
Mg       7.28844224       1.46420689       5.60035667
Mg       7.12274505       1.63889975      21.59049304
Mg       4.94131340       5.75731518       5.49654194
Mg       4.76748403       6.00498154      21.45553092
Mg      -0.17636085       3.06151050      13.35338690
Mg      -0.19748107       3.31710333      29.50417283
Mg      -2.45382309       7.45685379      13.32122439
Mg      -2.60457243       7.58195609      29.38990417
Mg       4.80026736       3.10608142      13.43652292
Mg       4.62656184       3.20502912      29.54711844
Mg       2.39853827       7.31751308      13.46443104
Mg       2.21857208       7.66560086      29.38379328
Ni      -0.03995661       2.96929517       7.89429918
Ni      -0.17776833       3.16647759      24.00006479
Ni      -2.45894745       7.29989586       7.93096592
Ni      -2.64953246       7.57837840      23.83867150
Ni       4.83026052       2.98365865       8.06449923
Ni       4.62619916       3.16232267      23.98481994
Ni       2.47348209       7.26062011       7.84030188
Ni       2.29385383       7.45297476      23.91864030
Ni       2.41376613       1.27885027      -0.04670952
Ni       2.34449293       1.63498776      15.93551304
Ni       0.04306346       5.76519660      -0.07759510
Ni      -0.13262645       5.97442682      15.82958270
Ni       7.28937177       1.35970075       0.01767781
Ni       7.21101261       1.62733931      16.08196853
Ni       4.89442414       5.71541797       0.00779062
Ni       4.82719355       5.88690963      15.96374691
Ni       2.35985595       1.60578741       7.98076131
Ni       2.29428594       1.67935363      24.00052527
Ni      -0.03944873       5.93835409       7.92578758
Ni      -0.19248523       6.16824383      23.95159347
Ni       7.29137458       1.43039720       7.98923242
Ni       7.04839726       1.68330600      24.01585374
Ni       4.86385083       5.83742197       7.90284903
Ni       4.64997591       6.13873815      23.99431976
Ni      -0.04443305       2.83790751      -0.02838565
Ni      -0.04696295       3.16237046      15.86232602
Ni      -2.43584091       7.25456215      -0.11215744
Ni      -2.48476766       7.43405209      16.00561986
Ni       4.89215749       2.81376994       0.00674274
Ni       4.71043842       3.10759460      15.91543652
Ni       2.57464325       7.18992236      -0.07082905
Ni       2.30589872       7.34344527      15.99602921
Ni      -0.03838181       1.37303518       3.96211883
Ni      -0.14482957       1.74187462      19.98876321
Ni      -2.47426711       5.91173197       3.89261217
Ni      -2.61735417       6.16115945      19.91763841
Ni       4.78858855       1.46571458       3.96897537
Ni       4.57973627       1.60433640      20.05134578
Ni       2.43107716       5.90124066       3.87856545
Ni       2.19685589       6.04449986      19.92751178
Ni       3.54145775       0.89061254      12.05757495
Ni       3.51815697       1.00773095      27.91021570
Ni       1.21412542       5.23967440      11.89453213
Ni       1.00839180       5.37737576      27.87081628
Ni       8.42032404       0.73973502      12.13085525
Ni       8.24633139       1.06825157      28.06070583
Ni       6.08981031       5.22430975      11.94603921
Ni       5.88786661       5.39929586      27.99503321
Ni       2.32513644       3.04979101      12.04500809
Ni       2.10733762       3.22291345      28.00143424
Ni      -0.06548294       7.40604082      11.90453811
Ni      -0.16619392       7.71628049      27.86461283
Ni       7.21697267       2.99229634      12.04453365
Ni       7.09886483       3.22298095      28.01872065
Ni       4.77805107       7.33908687      12.09323458
Ni       4.65241994       7.62398350      27.96184189
Ni      -1.19978416       3.74385308       3.83673836
Ni      -1.41539555       3.92260584      19.89112910
Ni      -3.61775856       8.08409151       3.87731681
Ni      -3.77821059       8.17589042      19.87598359
Ni       3.67820609       3.61377352       4.05650640
Ni       3.56414584       3.87516515      20.08612806
Ni       1.23545352       8.02775418       3.92316653
Ni       1.09983977       8.23218259      19.91340615
Ni       1.18110576       3.64390201       3.99891385
Ni       1.01688570       3.95980799      20.00064739
Ni      -1.14331319       7.94557921       3.86997018
Ni      -1.29200934       8.30076727      19.88608832
Ni       6.02802280       3.63610368       4.02002119
Ni       6.00258084       3.92873195      20.01026312
Ni       3.67531208       8.00249879       3.87723065
Ni       3.57633302       8.20704346      19.94802345
Ni       1.21830368       0.79783586      11.98519863
Ni       0.95513028       1.12715056      27.92442955
Ni      -1.24057058       5.20336954      11.97202265
Ni      -1.42528406       5.53696003      27.90076197
Ni       6.08078209       0.82053160      12.08409457
Ni       5.88880836       1.00571063      28.05426493
Ni       3.55993277       5.19072553      11.89361045
Ni       3.50643691       5.38652687      27.87579238
Ni       2.44071410       0.13146180       7.93332830
Ni       2.20018178       0.29914200      24.03964039
Ni      -0.06217959       4.43527186       7.93931940
Ni      -0.23108639       4.62930349      23.97409545
Ni       7.25082154       0.08333639       8.14899955
Ni       7.01955288       0.16124337      24.11897667
Ni       4.83859286       4.43957569       8.07516304
Ni       4.65096694       4.65137494      23.98191977
Ni       1.18861692       2.12325371      -0.05307267
Ni       1.11629237       2.35386001      15.96844800
Ni      -1.18120428       6.50771923      -0.03968850
Ni      -1.27444067       6.71061994      15.81987244
Ni       6.09250123       2.11992112       0.04979121
Ni       5.99258016       2.34591455      15.94025607
Ni       3.69561195       6.40115474       0.05060358
Ni       3.65293430       6.67561920      16.03358457
Ni       2.41031826       0.06037352       0.07615867
Ni       2.29136654       0.15002915      15.98640834
Ni       0.07049767       4.37753948      -0.12424005
Ni      -0.11142451       4.57461210      16.05103843
Ni       7.26577027      -0.09850935       0.11389370
Ni       7.23147576       0.10679249      16.06839411
Ni       4.89735815       4.27973003      -0.02920069
Ni       4.77207605       4.60638480      16.10852325
Ni       1.19728629       2.24489693       7.94334774
Ni       1.03672216       2.51332624      24.02375056
Ni      -1.35215405       6.51863329       7.88809951
Ni      -1.42900061       6.94881435      23.89824760
Ni       5.95707941       2.23091979       8.03327622
Ni       5.87554422       2.40502359      23.98976400
Ni       3.69207880       6.54191617       7.89950413
Ni       3.53732807       6.82253579      23.98527674
Ni      -1.27895498       2.19825396      -0.04332988
Ni      -1.39468687       2.41208741      15.92529245
Ni      -3.72009191       6.43951280      -0.21788627
Ni      -3.75464131       6.74205054      15.86979355
Ni       3.64106363       2.11560374      -0.11887595
Ni       3.56097972       2.36685725      15.95454365
Ni       1.27242566       6.54838571      -0.02484688
Ni       1.13224019       6.63772308      15.90405415
Ni      -1.39795847       2.32493109       7.97845495
Ni      -1.44730613       2.53003558      24.02547660
Ni      -3.63401810       6.58501938       7.90708168
Ni      -3.79261565       6.88750069      23.93696874
Ni       3.50410791       2.23173927       7.95752538
Ni       3.46284267       2.45021280      24.03214223
Ni       1.19986283       6.69706057       7.96363192
Ni       1.05174963       6.90265886      23.80298164
