192
Lattice="9.512633218281339 -0.031217723400607574 -0.2687552831823648 -4.873361021483525 8.625746608834701 0.08996301433032113 -0.5426110468619616 0.07273128257599415 32.637729642421604" Properties=species:S:1:pos:R:3 pbc="T T T"
Mg      -0.20662279      -0.04263917       6.59356455
Mg      -0.40914735       0.09714344      22.84242416
Mg      -2.55869647       4.32291790       6.71496130
Mg      -2.90615607       4.39384743      23.05814942
Mg       4.61658901       0.08299178       6.58823589
Mg       4.28185479       0.00539213      22.82870693
Mg       2.18607106       4.36769471       6.56493320
Mg       1.96059131       4.35720833      22.85025670
Mg      -0.19157796       0.05496633      14.74702716
Mg      -0.57862036       0.07112986      31.03278834
Mg      -2.63430026       4.39887935      14.81753626
Mg      -2.93045121       4.25084146      31.09532014
Mg       4.52033494       0.02822529      14.67906873
Mg       4.19756853       0.11456247      30.95881459
Mg       2.04023521       4.31485837      14.62812666
Mg       1.80426993       4.38725421      31.03157155
Mg      -0.15551204      -0.01282720       9.67158413
Mg      -0.41728993       0.08464433      26.01306849
Mg      -2.64532656       4.34362014       9.73774605
Mg      -2.79300656       4.47108629      26.05851941
Mg       4.66808908       0.16986046       9.58697378
Mg       4.31048512       0.01210130      25.85713060
Mg       2.22179428       4.19292291       9.60670840
Mg       1.96642753       4.32496412      25.94047718
Mg      -0.01890931       0.02962123       1.51889898
Mg      -0.35567293       0.00629373      17.91034978
Mg      -2.42054655       4.34576782       1.62379411
Mg      -2.73086848       4.40505740      17.95934368
Mg       4.57542934       0.03432752       1.37561356
Mg       4.41129617       0.00372823      17.82347542
Mg       2.23460535       4.27709985       1.36939531
Mg       2.02268729       4.27873769      17.76676059
Mg      -0.22861496       2.88241101      10.66023028
Mg      -0.44909795       2.97370288      26.96095242
Mg      -2.61745683       7.18917272      10.75073441
Mg      -2.90306875       7.19223715      27.09981344
Mg       4.52815290       2.88049921      10.51257826
Mg       4.27265279       2.87947389      26.82964536
Mg       2.10067777       7.19898199      10.56603755
Mg       1.80090225       7.33727646      26.89456477
Mg       2.26433690       1.40189429       2.47205740
Mg       2.07605057       1.57524854      18.73245886
Mg      -0.19889109       5.76283862       2.45141933
Mg      -0.40541429       5.77470933      18.87816765
Mg       7.13752227       1.37679079       2.28493430
Mg       6.82128129       1.47741602      18.73187014
Mg       4.60236613       5.59146116       2.35113236
Mg       4.34014968       5.83794834      18.77104842
Mg       2.25499788       1.47324698       5.57599748
Mg       2.02461244       1.51788636      21.77015442
Mg      -0.22828014       5.70167677       5.57560502
Mg      -0.43229700       5.83646138      21.86661534
Mg       7.05426713       1.42992252       5.44868625
Mg       6.69930201       1.41405386      21.82089059
Mg       4.63384881       5.73360114       5.40302177
Mg       4.37486867       5.75800321      21.85161420
Mg      -0.28801066       2.85346071      13.70633495
Mg      -0.52300490       2.98751743      30.04465913
Mg      -2.71713281       7.22787635      13.78547788
Mg      -3.02674264       7.26662387      30.14814354
Mg       4.44001551       2.92093254      13.66048122
Mg       4.21249527       2.87807086      29.92270229
Mg       2.01788090       7.26352886      13.71641667
Mg       1.78930210       7.24549749      30.02222092
Ni      -0.20953286       2.88599286       8.10844069
Ni      -0.38851899       2.92300184      24.47618694
Ni      -2.60160722       7.11061471       8.18609207
Ni      -2.86262651       7.18687450      24.48831132
Ni       4.64515777       2.87925517       7.86228747
Ni       4.25171093       2.90280771      24.33790483
Ni       2.10702625       7.11815228       8.07107365
Ni       1.92800732       7.21944400      24.40862387
Ni       2.40075935       1.38582782      -0.12997572
Ni       2.03346488       1.53579424      16.18111695
Ni      -0.07840023       5.73331722       0.00144668
Ni      -0.38612842       5.79123652      16.22383213
Ni       7.12307574       1.36143366      -0.20420110
Ni       6.74302698       1.51798563      16.02114378
Ni       4.74157402       5.77341108      -0.19415210
Ni       4.43542847       5.75174047      16.10773840
Ni       2.30422458       1.45308442       8.03619874
Ni       1.87967147       1.47565454      24.43554608
Ni      -0.13844867       5.73794628       8.10650820
Ni      -0.44966663       5.82106220      24.41711428
Ni       7.06610647       1.40055842       7.97340196
Ni       6.69589549       1.48860373      24.32406252
Ni       4.55259411       5.68265242       7.93597380
Ni       4.17936488       5.86012855      24.33537616
Ni       0.01809123       2.86826913      -0.04620056
Ni      -0.29200410       2.88265627      16.34942120
Ni      -2.45849497       7.25141103      -0.03346780
Ni      -2.66599352       7.23829947      16.33185032
Ni       4.71440774       2.83479535      -0.16305152
Ni       4.44439703       2.83278629      16.17137548
Ni       2.22249174       7.24476393      -0.11481072
Ni       1.97030042       7.27186479      16.29993550
Ni      -0.06809573       1.33303650       4.08757556
Ni      -0.34260722       1.47495853      20.36403575
Ni      -2.42805284       5.81245577       4.11571166
Ni      -2.75947194       5.74802341      20.35574770
Ni       4.60431595       1.46538527       3.98829570
Ni       4.31702136       1.47498763      20.28175869
Ni       2.16938016       5.76565992       3.95481645
Ni       1.91214063       5.75732029      20.31024910
Ni       3.43855926       0.77573562      12.13813332
Ni       3.02244082       0.75145576      28.49063436
Ni       0.93817634       5.00268402      12.11806831
Ni       0.68276811       5.03222875      28.48862214
Ni       8.08348979       0.79088891      11.93138990
Ni       7.90655629       0.83204103      28.31900248
Ni       5.60610028       5.08513452      12.08738392
Ni       5.37606377       5.02192846      28.36902311
Ni       2.13461744       2.86387276      12.16999144
Ni       1.82806185       2.91263028      28.46535584
Ni      -0.27754934       7.10171505      12.25705784
Ni      -0.54632218       7.23026002      28.53968757
Ni       6.95668130       2.86361782      11.99606290
Ni       6.65114509       2.82907372      28.40990180
Ni       4.44828949       7.22772550      12.09056628
Ni       4.21074801       7.23111703      28.42739936
Ni      -1.34765409       3.66128582       4.09902317
Ni      -1.56402617       3.55023360      20.34786926
Ni      -3.68987220       7.93809742       4.16033575
Ni      -3.98180825       7.99942774      20.45519776
Ni       3.43194229       3.57569804       3.96044753
Ni       3.19944973       3.63446672      20.26386806
Ni       0.98527214       7.82265526       3.98541738
Ni       0.73971137       7.85789255      20.29671191
Ni       1.08010923       3.62248630       3.99988010
Ni       0.73804739       3.56442420      20.37190138
Ni      -1.35051336       7.93151085       4.06277194
Ni      -1.72467109       8.03419635      20.43385645
Ni       5.85470052       3.51381378       3.89845893
Ni       5.61242536       3.55319635      20.17452693
Ni       3.39685782       7.87933835       3.97294454
Ni       3.20683906       7.92673119      20.24350492
Ni       0.95777530       0.75022860      12.15146300
Ni       0.64174517       0.71215420      28.62610411
Ni      -1.49155856       5.03072478      12.16839838
Ni      -1.68194961       5.09714767      28.58958959
Ni       5.83669008       0.76116426      12.09343920
Ni       5.48600055       0.68097413      28.37182526
Ni       3.30329000       5.08678784      12.10255373
Ni       3.04035458       5.08320394      28.44274701
Ni       2.26406888       0.03754800       8.11260545
Ni       2.02470866       0.08206272      24.39789595
Ni      -0.19285652       4.33206200       8.10101593
Ni      -0.48115734       4.45741034      24.45560607
Ni       7.03529125       0.00049616       7.95463150
Ni       6.70135960       0.02537208      24.26819646
Ni       4.53133377       4.31318245       7.98912686
Ni       4.19630010       4.36009864      24.31194855
Ni       1.11958450       2.15518998      -0.02406870
Ni       0.88572880       2.18277544      16.24204916
Ni      -1.23971623       6.45631518       0.04285772
Ni      -1.57470310       6.46856167      16.37110576
Ni       5.89364360       2.10432043      -0.12301615
Ni       5.64225159       2.20344497      16.20324533
Ni       3.56940478       6.41724078      -0.08304859
Ni       3.14803725       6.53663855      16.14055653
Ni       2.36920288       0.05896355      -0.00662231
Ni       2.14738719       0.07266229      16.32512499
Ni      -0.10883850       4.31182060      -0.02837489
Ni      -0.27147303       4.45785104      16.26298030
Ni       7.13200235       0.04524538      -0.22522370
Ni       6.77652109       0.04437507      16.11819587
Ni       4.65345747       4.31839993      -0.10729225
Ni       4.43860134       4.33078841      16.16801453
Ni       0.98171780       2.15149001       8.12705129
Ni       0.74144747       2.26688502      24.55934492
Ni      -1.51307163       6.41769400       8.17797357
Ni      -1.67525373       6.49703092      24.49332765
Ni       5.80116532       2.16671000       8.06382329
Ni       5.54600542       2.19394880      24.24005418
Ni       3.38058380       6.47694528       8.02303987
Ni       3.02394151       6.51310235      24.36240620
Ni      -1.16409765       2.17773059      -0.04760970
Ni      -1.43540024       2.16782803      16.44401782
Ni      -3.66900037       6.55041026       0.06536643
Ni      -3.88827953       6.51191189      16.41074390
Ni       3.51476734       2.17898029      -0.12325426
Ni       3.25905993       2.21118619      16.21162723
Ni       1.05744115       6.44366546      -0.09941381
Ni       0.87285668       6.62344302      16.28654356
Ni      -1.42162068       2.22590432       8.17289190
Ni      -1.62275170       2.23616493      24.53639439
Ni      -3.76499287       6.53067606       8.21669779
Ni      -4.05925414       6.60792767      24.48850113
Ni       3.44979268       2.17981050       8.14754501
Ni       3.19733822       2.19872404      24.30781979
Ni       0.93081372       6.46957535       8.02646989
Ni       0.64743416       6.43832787      24.35970507
