
     Program PWSCF v.7.2 starts on 28Mar2026 at 17:20:17 

     This program is part of the open-source Quantum ESPRESSO suite
     for quantum simulation of materials; please cite
         "P. Giannozzi et al., J. Phys.:Condens. Matter 21 395502 (2009);
         "P. Giannozzi et al., J. Phys.:Condens. Matter 29 465901 (2017);
         "P. Giannozzi et al., J. Chem. Phys. 152 154105 (2020);
          URL http://www.quantum-espresso.org", 
     in publications or presentations arising from this work. More details at
     http://www.quantum-espresso.org/quote

     Parallel version (MPI), running on     1 processors

     MPI processes distributed on     1 nodes
     6585 MiB available memory on the printing compute node when the environment starts
 
     Reading input from C36/in/laves_000.in

     Current dimensions of program PWSCF are:
     Max number of different atomic species (ntypx) = 10
     Max number of k-points (npk) =  40000
     Max angular momentum in pseudopotentials (lmaxx) =  4
     file Mg.rel-pbesol-spnl-kjpaw_psl.1.0.0.UPF: wavefunction(s)  2P 2P renormalized
     file Ni.rel-pbesol-spn-kjpaw_psl.1.0.0.UPF: wavefunction(s)  3P 3P 3D 3D renormalized
     Message from routine setup:
     using ibrav=0 with symmetry is DISCOURAGED, use correct ibrav instead
 
     Subspace diagonalization in iterative solution of the eigenvalue problem:
     a serial algorithm will be used

 
     G-vector sticks info
     --------------------
     sticks:   dense  smooth     PW     G-vecs:    dense   smooth      PW
     Sum        2221    1111    313               275299    97159   14759
 
     Using Slab Decomposition
 

     Title: 
     Optimisation A C for MgNi2                                                 


     bravais-lattice index     =            0
     lattice parameter (alat)  =       8.9479  a.u.
     unit-cell volume          =    2035.4693 (a.u.)^3
     number of atoms/cell      =           24
     number of atomic types    =            2
     number of electrons       =       368.00
     number of Kohn-Sham states=          442
     kinetic-energy cutoff     =      50.0000  Ry
     charge density cutoff     =     400.0000  Ry
     scf convergence threshold =      1.0E-08
     mixing beta               =       0.1000
     number of iterations used =           20  local-TF  mixing
     energy convergence thresh.=      1.0E-05
     force convergence thresh. =      1.0E-03
     press convergence thresh. =      1.0E-02
     Exchange-correlation= SLA  PW   PSX  PSC
                           (   1   4  10   8   0   0   0)
     nstep                     =           50

     Non magnetic calculation with spin-orbit


     GPU acceleration is ACTIVE.


     celldm(1)=   8.947946  celldm(2)=   0.000000  celldm(3)=   0.000000
     celldm(4)=   0.000000  celldm(5)=   0.000000  celldm(6)=   0.000000

     crystal axes: (cart. coord. in units of alat)
               a(1) = (   1.000000   0.000000   0.000000 )  
               a(2) = (  -0.500000   0.866025   0.000000 )  
               a(3) = (   0.000000   0.000000   3.280680 )  

     reciprocal axes: (cart. coord. in units 2 pi/alat)
               b(1) = (  1.000000  0.577350 -0.000000 )  
               b(2) = (  0.000000  1.154700  0.000000 )  
               b(3) = (  0.000000 -0.000000  0.304815 )  


     PseudoPot. # 1 for Mg read from file:
     ./pseudo/Mg.rel-pbesol-spnl-kjpaw_psl.1.0.0.UPF
     MD5 check sum: e6ee56211aa1e9c295d50625d03707fa
     Pseudo is Projector augmented-wave + core cor, Zval = 10.0
     Generated using &quot;atomic&quot; code by A. Dal Corso  v.6.3
     Shape of augmentation charge: PSQ
     Using radial grid of 1129 points,  6 beta functions with: 
                l(1) =   0
                l(2) =   0
                l(3) =   1
                l(4) =   1
                l(5) =   1
                l(6) =   1
     Q(r) pseudized with 0 coefficients 


     PseudoPot. # 2 for Ni read from file:
     ./pseudo/Ni.rel-pbesol-spn-kjpaw_psl.1.0.0.UPF
     MD5 check sum: 1fa4c2409eb3b84dc9841cc3f54c2f43
     Pseudo is Projector augmented-wave + core cor, Zval = 18.0
     Generated using &quot;atomic&quot; code by A. Dal Corso  v.6.3
     Shape of augmentation charge: PSQ
     Using radial grid of 1195 points, 10 beta functions with: 
                l(1) =   0
                l(2) =   0
                l(3) =   1
                l(4) =   1
                l(5) =   1
                l(6) =   1
                l(7) =   2
                l(8) =   2
                l(9) =   2
               l(10) =   2
     Q(r) pseudized with 0 coefficients 


     atomic species   valence    mass     pseudopotential
        Mg            10.00    24.30500     Mg( 1.00)
        Ni            18.00    58.69340     Ni( 1.00)

     24 Sym. Ops., with inversion, found (12 have fractional translation)



   Cartesian axes

     site n.     atom                  positions (alat units)
         1           Mg  tau(   1) = (   0.0000000   0.0000000   1.3319560  )
         2           Mg  tau(   2) = (   0.0000000   0.0000000   2.9722960  )
         3           Mg  tau(   3) = (   0.0000000   0.0000000   1.9487239  )
         4           Mg  tau(   4) = (   0.0000000   0.0000000   0.3083839  )
         5           Mg  tau(   5) = (  -0.0000006   0.5773506   2.1514699  )
         6           Mg  tau(   6) = (   0.5000005   0.2886749   0.5111299  )
         7           Mg  tau(   7) = (   0.5000005   0.2886749   1.1292100  )
         8           Mg  tau(   8) = (  -0.0000006   0.5773506   2.7695500  )
         9           Ni  tau(   9) = (  -0.0000006   0.5773506   1.2297957  )
        10           Ni  tau(  10) = (   0.5000005   0.2886749   2.8701356  )
        11           Ni  tau(  11) = (   0.5000005   0.2886749   2.0508842  )
        12           Ni  tau(  12) = (  -0.0000006   0.5773506   0.4105443  )
        13           Ni  tau(  13) = (   0.0000005   0.2886749   0.8201700  )
        14           Ni  tau(  14) = (   0.7499995   0.1443379   2.4605099  )
        15           Ni  tau(  15) = (   0.4999994   0.5773506   2.4605099  )
        16           Ni  tau(  16) = (  -0.2499996   0.7216876   0.8201700  )
        17           Ni  tau(  17) = (   0.2500004   0.7216876   0.8201700  )
        18           Ni  tau(  18) = (   0.2499995   0.1443379   2.4605099  )
        19           Ni  tau(  19) = (   0.5000000   0.0000000   1.6403399  )
        20           Ni  tau(  20) = (   0.2499999   0.4330127   0.0000000  )
        21           Ni  tau(  21) = (   0.5000000   0.0000000   0.0000000  )
        22           Ni  tau(  22) = (   0.2499999   0.4330127   1.6403399  )
        23           Ni  tau(  23) = (  -0.2500001   0.4330127   0.0000000  )
        24           Ni  tau(  24) = (  -0.2500001   0.4330127   1.6403399  )

     number of k points=     3  Marzari-Vanderbilt smearing, width (Ry)=  0.0300
                       cart. coord. in units 2pi/alat
        k(    1) = (   0.0000000   0.0000000   0.0000000), wk =   0.1111111
        k(    2) = (   0.0000000   0.3849002   0.0000000), wk =   0.6666667
        k(    3) = (   0.3333333   0.5773503   0.0000000), wk =   0.2222222

     Dense  grid:   275299 G-vectors     FFT dimensions: (  60,  60, 192)

     Smooth grid:    97159 G-vectors     FFT dimensions: (  45,  45, 144)

     Estimated max dynamical RAM per process >       4.35 GB

     Check: negative core charge=   -0.000016

     Initial potential from superposition of free atoms

     starting charge     367.9890, renormalised to     368.0000
     Starting wfcs are  400 randomized atomic wfcs +   42 random wfcs
     Checking if some PAW data can be deallocated... 

     total cpu time spent up to now is       14.1 secs

     Self-consistent Calculation

     iteration #  1     ecut=    50.00 Ry     beta= 0.10
     Davidson diagonalization with overlap
     ethr =  1.00E-02,  avg # of iterations =  4.7

     total cpu time spent up to now is       41.6 secs

     total energy              =   -7950.75353028 Ry
     estimated scf accuracy    <       6.55496586 Ry

     iteration #  2     ecut=    50.00 Ry     beta= 0.10
     Davidson diagonalization with overlap
     ethr =  1.78E-03,  avg # of iterations =  1.3

     total cpu time spent up to now is       60.7 secs

     total energy              =   -7950.10130530 Ry
     estimated scf accuracy    <       3.96182949 Ry

     iteration #  3     ecut=    50.00 Ry     beta= 0.10
     Davidson diagonalization with overlap
     ethr =  1.08E-03,  avg # of iterations =  2.0

     total cpu time spent up to now is       82.4 secs

     total energy              =   -7950.17308263 Ry
     estimated scf accuracy    <       0.71072777 Ry

     iteration #  4     ecut=    50.00 Ry     beta= 0.10
     Davidson diagonalization with overlap
     ethr =  1.93E-04,  avg # of iterations =  2.0

     total cpu time spent up to now is      104.4 secs

     total energy              =   -7950.14382655 Ry
     estimated scf accuracy    <       0.39008673 Ry

     iteration #  5     ecut=    50.00 Ry     beta= 0.10
     Davidson diagonalization with overlap
     ethr =  1.06E-04,  avg # of iterations =  2.3

     total cpu time spent up to now is      125.1 secs

     total energy              =   -7950.15328740 Ry
     estimated scf accuracy    <       0.28332592 Ry

     iteration #  6     ecut=    50.00 Ry     beta= 0.10
     Davidson diagonalization with overlap
     ethr =  7.70E-05,  avg # of iterations =  1.0

     total cpu time spent up to now is      143.5 secs

     total energy              =   -7950.13228821 Ry
     estimated scf accuracy    <       0.27527541 Ry

     iteration #  7     ecut=    50.00 Ry     beta= 0.10
     Davidson diagonalization with overlap
     ethr =  7.48E-05,  avg # of iterations =  2.0

     total cpu time spent up to now is      166.2 secs

     total energy              =   -7950.07208806 Ry
     estimated scf accuracy    <       0.20259686 Ry

     iteration #  8     ecut=    50.00 Ry     beta= 0.10
     Davidson diagonalization with overlap
     ethr =  5.51E-05,  avg # of iterations =  6.7

     total cpu time spent up to now is      192.3 secs

     total energy              =   -7950.07719288 Ry
     estimated scf accuracy    <       0.02410224 Ry

     iteration #  9     ecut=    50.00 Ry     beta= 0.10
     Davidson diagonalization with overlap
     ethr =  6.55E-06,  avg # of iterations = 10.3

     total cpu time spent up to now is      219.0 secs

     total energy              =   -7950.08712350 Ry
     estimated scf accuracy    <       0.07082254 Ry

     iteration # 10     ecut=    50.00 Ry     beta= 0.10
     Davidson diagonalization with overlap
     ethr =  6.55E-06,  avg # of iterations =  1.0

     total cpu time spent up to now is      238.4 secs

     total energy              =   -7950.10186762 Ry
     estimated scf accuracy    <       0.02999914 Ry

     iteration # 11     ecut=    50.00 Ry     beta= 0.10
     Davidson diagonalization with overlap
     ethr =  6.55E-06,  avg # of iterations =  2.0

     total cpu time spent up to now is      261.9 secs

     total energy              =   -7950.11289316 Ry
     estimated scf accuracy    <       0.09462361 Ry

     iteration # 12     ecut=    50.00 Ry     beta= 0.10
     Davidson diagonalization with overlap
     ethr =  6.55E-06,  avg # of iterations =  2.0

     total cpu time spent up to now is      283.9 secs

     total energy              =   -7950.11623251 Ry
     estimated scf accuracy    <       0.01915213 Ry

     iteration # 13     ecut=    50.00 Ry     beta= 0.10
     Davidson diagonalization with overlap
     ethr =  5.20E-06,  avg # of iterations =  1.0

     total cpu time spent up to now is      302.2 secs

     total energy              =   -7950.11835162 Ry
     estimated scf accuracy    <       0.02101059 Ry

     iteration # 14     ecut=    50.00 Ry     beta= 0.10
     Davidson diagonalization with overlap
     ethr =  5.20E-06,  avg # of iterations =  2.0

     total cpu time spent up to now is      324.9 secs

     total energy              =   -7950.12006068 Ry
     estimated scf accuracy    <       0.00836491 Ry

     iteration # 15     ecut=    50.00 Ry     beta= 0.10
     Davidson diagonalization with overlap
     ethr =  2.27E-06,  avg # of iterations =  2.0

     total cpu time spent up to now is      344.9 secs

     total energy              =   -7950.12056881 Ry
     estimated scf accuracy    <       0.00549701 Ry

     iteration # 16     ecut=    50.00 Ry     beta= 0.10
     Davidson diagonalization with overlap
     ethr =  1.49E-06,  avg # of iterations =  2.0

     total cpu time spent up to now is      365.6 secs

     total energy              =   -7950.12084899 Ry
     estimated scf accuracy    <       0.00798415 Ry

     iteration # 17     ecut=    50.00 Ry     beta= 0.10
     Davidson diagonalization with overlap
     ethr =  1.49E-06,  avg # of iterations =  1.3

     total cpu time spent up to now is      384.8 secs

     total energy              =   -7950.12083615 Ry
     estimated scf accuracy    <       0.00335696 Ry

     iteration # 18     ecut=    50.00 Ry     beta= 0.10
     Davidson diagonalization with overlap
     ethr =  9.12E-07,  avg # of iterations =  1.7

     total cpu time spent up to now is      404.6 secs

     total energy              =   -7950.12049098 Ry
     estimated scf accuracy    <       0.00148707 Ry

     iteration # 19     ecut=    50.00 Ry     beta= 0.10
     Davidson diagonalization with overlap
     ethr =  4.04E-07,  avg # of iterations =  2.0

     total cpu time spent up to now is      427.5 secs

     total energy              =   -7950.12069075 Ry
     estimated scf accuracy    <       0.00542516 Ry

     iteration # 20     ecut=    50.00 Ry     beta= 0.10
     Davidson diagonalization with overlap
     ethr =  4.04E-07,  avg # of iterations =  1.3

     total cpu time spent up to now is      448.5 secs

     total energy              =   -7950.12069503 Ry
     estimated scf accuracy    <       0.00339197 Ry

     iteration # 21     ecut=    50.00 Ry     beta= 0.10
     Davidson diagonalization with overlap
     ethr =  4.04E-07,  avg # of iterations =  1.3

     total cpu time spent up to now is      467.8 secs

     total energy              =   -7950.12074263 Ry
     estimated scf accuracy    <       0.00002165 Ry

     iteration # 22     ecut=    50.00 Ry     beta= 0.10
     Davidson diagonalization with overlap
     ethr =  5.88E-09,  avg # of iterations =  2.0

     total cpu time spent up to now is      492.1 secs

     total energy              =   -7950.12075051 Ry
     estimated scf accuracy    <       0.00010196 Ry

     iteration # 23     ecut=    50.00 Ry     beta= 0.10
     Davidson diagonalization with overlap
     ethr =  5.88E-09,  avg # of iterations =  2.0

     total cpu time spent up to now is      513.5 secs

     total energy              =   -7950.12075167 Ry
     estimated scf accuracy    <       0.00004543 Ry

     iteration # 24     ecut=    50.00 Ry     beta= 0.10
     Davidson diagonalization with overlap
     ethr =  5.88E-09,  avg # of iterations =  1.3

     total cpu time spent up to now is      535.7 secs

     total energy              =   -7950.12075264 Ry
     estimated scf accuracy    <       0.00000020 Ry

     iteration # 25     ecut=    50.00 Ry     beta= 0.10
     Davidson diagonalization with overlap
     ethr =  5.33E-11,  avg # of iterations =  3.7

     total cpu time spent up to now is      562.1 secs

     total energy              =   -7950.12075316 Ry
     estimated scf accuracy    <       0.00000002 Ry

     iteration # 26     ecut=    50.00 Ry     beta= 0.10
     Davidson diagonalization with overlap
     ethr =  4.67E-12,  avg # of iterations =  5.0

     total cpu time spent up to now is      590.5 secs

     total energy              =   -7950.12075345 Ry
     estimated scf accuracy    <       0.00000005 Ry

     iteration # 27     ecut=    50.00 Ry     beta= 0.10
     Davidson diagonalization with overlap
     ethr =  4.67E-12,  avg # of iterations =  2.0

     total cpu time spent up to now is      614.6 secs

     End of self-consistent calculation

          k = 0.0000 0.0000 0.0000 ( 12121 PWs)   bands (ev):

   -89.1106 -89.1106 -89.1085 -89.1085 -89.1080 -89.1080 -89.1058 -89.1058
   -89.0427 -89.0427 -89.0422 -89.0422 -89.0293 -89.0293 -89.0290 -89.0290
   -89.0116 -89.0116 -89.0116 -89.0116 -89.0115 -89.0115 -89.0115 -89.0115
   -88.9983 -88.9983 -88.9982 -88.9982 -88.9982 -88.9982 -88.9982 -88.9982
   -61.1345 -61.1345 -61.1344 -61.1344 -61.1327 -61.1327 -61.1326 -61.1326
   -61.0783 -61.0783 -61.0782 -61.0782 -61.0765 -61.0765 -61.0764 -61.0764
   -51.1020 -51.1020 -51.0976 -51.0976 -51.0888 -51.0888 -51.0861 -51.0861
   -51.0412 -51.0412 -51.0383 -51.0383 -51.0298 -51.0298 -51.0287 -51.0287
   -51.0258 -51.0258 -51.0247 -51.0247 -51.0158 -51.0158 -51.0112 -51.0112
   -50.9406 -50.9406 -50.9358 -50.9358 -50.9194 -50.9194 -50.9176 -50.9176
   -48.9929 -48.9929 -48.9914 -48.9914 -48.9693 -48.9693 -48.9607 -48.9607
   -48.9375 -48.9375 -48.9343 -48.9343 -48.9221 -48.9221 -48.9177 -48.9177
   -48.8720 -48.8720 -48.8597 -48.8597 -48.8588 -48.8588 -48.8531 -48.8531
   -48.8499 -48.8499 -48.8403 -48.8403 -48.8401 -48.8401 -48.8139 -48.8139
   -48.8000 -48.8000 -48.7679 -48.7679 -48.7634 -48.7634 -48.7615 -48.7615
   -48.7510 -48.7510 -48.7498 -48.7498 -48.7341 -48.7341 -48.7255 -48.7255
   -48.7058 -48.7058 -48.7054 -48.7054 -48.7039 -48.7039 -48.7010 -48.7010
   -48.6740 -48.6740 -48.6728 -48.6728 -48.6712 -48.6712 -48.6675 -48.6675
   -28.2695 -28.2695 -28.2695 -28.2695 -28.2639 -28.2639 -28.2639 -28.2639
   -28.2106 -28.2106 -28.2104 -28.2104 -28.2047 -28.2047 -28.2045 -28.2045
   -27.9850 -27.9850 -27.9849 -27.9849 -27.9837 -27.9837 -27.9835 -27.9835
   -27.9815 -27.9815 -27.9813 -27.9813 -27.9704 -27.9704 -27.9703 -27.9703
   -27.9284 -27.9284 -27.9283 -27.9283 -27.9206 -27.9206 -27.9203 -27.9203
   -27.9183 -27.9183 -27.9180 -27.9180 -27.9135 -27.9135 -27.9135 -27.9135
     5.0359   5.0359   5.6609   5.6609   5.6886   5.6886   7.1625   7.1625
     7.8279   7.8279   9.1119   9.1119   9.1217   9.1217   9.1997   9.1997
     9.7898   9.7898   9.7947   9.7947   9.9111   9.9111  10.0187  10.0187
    10.1430  10.1430  10.1598  10.1598  10.1782  10.1782  10.1978  10.1978
    10.2177  10.2177  10.2208  10.2208  10.3369  10.3369  10.3577  10.3577
    10.4099  10.4099  10.4777  10.4777  10.4822  10.4822  10.4876  10.4876
    10.5022  10.5022  10.5582  10.5582  10.5992  10.5992  10.6436  10.6436
    10.6486  10.6486  10.7086  10.7086  11.0231  11.0231  11.0256  11.0256
    11.0256  11.0256  11.0592  11.0592  11.0642  11.0642  11.0894  11.0894
    11.2863  11.2863  11.3429  11.3429  11.4546  11.4546  11.4673  11.4673
    11.5028  11.5028  11.5559  11.5559  11.5844  11.5844  11.5931  11.5931
    11.7578  11.7578  11.7761  11.7761  12.0559  12.0559  12.2231  12.2231
    12.2749  12.2749  12.2935  12.2935  12.2982  12.2982  12.3370  12.3370
    12.4533  12.4533  12.5080  12.5080  12.6215  12.6215  12.6354  12.6354
    12.7605  12.7605  12.7732  12.7732  12.8707  12.8707  12.8772  12.8772
    12.8884  12.8884  12.8942  12.8942  12.9005  12.9005  12.9066  12.9066
    12.9092  12.9092  12.9225  12.9225  12.9401  12.9401  12.9481  12.9481
    12.9507  12.9507  12.9698  12.9698  12.9882  12.9882  13.0084  13.0084
    13.0295  13.0295  13.0657  13.0657  13.0673  13.0673  13.0842  13.0842
    13.1007  13.1007  13.1554  13.1554  13.2294  13.2294  13.4797  13.4797
    13.5328  13.5328  13.7876  13.7876  13.7884  13.7884  14.0379  14.0379
    14.0400  14.0400  14.0579  14.0579  14.0582  14.0582  14.2843  14.2843
    14.4664  14.4664  14.6718  14.6718  14.6978  14.6978  14.7148  14.7148
    14.7312  14.7312  14.7337  14.7337  14.7375  14.7375  14.8891  14.8891
    15.0854  15.0854  15.1161  15.1161  15.1415  15.1415  15.1956  15.1956
    16.5142  16.5142  16.5261  16.5261  16.5412  16.5412  16.5971  16.5971
    17.0876  17.0876  17.1368  17.1368  17.4696  17.4696  17.4911  17.4911
    18.1862  18.1862  18.2047  18.2047  18.2220  18.2220  18.4798  18.4798
    18.5564  18.5564  18.7518  18.7518  19.1320  19.1320  19.1424  19.1424
    19.5292  19.5292  19.5505  19.5505  19.9813  19.9813  20.1925  20.1925
    20.1997  20.1997  20.5153  20.5153  20.7424  20.7424  22.0966  22.0967
    22.4472  22.4494

          k = 0.0000 0.3849 0.0000 ( 12162 PWs)   bands (ev):

   -89.1096 -89.1096 -89.1085 -89.1085 -89.1074 -89.1074 -89.1061 -89.1061
   -89.0362 -89.0362 -89.0360 -89.0360 -89.0229 -89.0229 -89.0229 -89.0229
   -89.0181 -89.0181 -89.0180 -89.0180 -89.0116 -89.0116 -89.0116 -89.0116
   -89.0049 -89.0049 -89.0049 -89.0049 -88.9982 -88.9982 -88.9982 -88.9982
   -61.1343 -61.1343 -61.1343 -61.1343 -61.1326 -61.1326 -61.1326 -61.1326
   -61.0783 -61.0783 -61.0783 -61.0783 -61.0766 -61.0766 -61.0766 -61.0766
   -51.1016 -51.1016 -51.0988 -51.0988 -51.0961 -51.0961 -51.0909 -51.0909
   -51.0359 -51.0359 -51.0332 -51.0332 -51.0249 -51.0249 -51.0198 -51.0198
   -51.0112 -51.0112 -51.0083 -51.0083 -50.9975 -50.9975 -50.9971 -50.9971
   -50.9606 -50.9606 -50.9559 -50.9559 -50.9449 -50.9449 -50.9422 -50.9422
   -48.9881 -48.9881 -48.9807 -48.9807 -48.9760 -48.9760 -48.9677 -48.9677
   -48.9171 -48.9171 -48.9072 -48.9072 -48.9027 -48.9027 -48.8985 -48.8985
   -48.8675 -48.8675 -48.8608 -48.8608 -48.8528 -48.8528 -48.8510 -48.8510
   -48.8383 -48.8383 -48.8342 -48.8342 -48.8303 -48.8303 -48.8171 -48.8171
   -48.8027 -48.8027 -48.7783 -48.7783 -48.7760 -48.7760 -48.7690 -48.7690
   -48.7586 -48.7586 -48.7521 -48.7521 -48.7392 -48.7392 -48.7360 -48.7360
   -48.7351 -48.7351 -48.7309 -48.7309 -48.7148 -48.7148 -48.7110 -48.7110
   -48.7023 -48.7023 -48.7007 -48.7007 -48.6808 -48.6808 -48.6786 -48.6786
   -28.2688 -28.2688 -28.2688 -28.2688 -28.2631 -28.2631 -28.2629 -28.2629
   -28.2123 -28.2123 -28.2121 -28.2121 -28.2062 -28.2062 -28.2061 -28.2061
   -27.9859 -27.9859 -27.9857 -27.9857 -27.9821 -27.9821 -27.9818 -27.9818
   -27.9799 -27.9799 -27.9796 -27.9796 -27.9711 -27.9711 -27.9709 -27.9709
   -27.9278 -27.9278 -27.9277 -27.9277 -27.9220 -27.9220 -27.9217 -27.9217
   -27.9197 -27.9197 -27.9195 -27.9195 -27.9128 -27.9128 -27.9128 -27.9128
     6.0401   6.0401   6.6331   6.6331   6.6635   6.6635   8.0916   8.0916
     8.5608   8.5608   8.7482   8.7482   9.0364   9.0364   9.0775   9.0775
     9.6059   9.6059   9.6392   9.6392   9.7869   9.7869   9.8946   9.8946
     9.9896   9.9896  10.0852  10.0852  10.1608  10.1608  10.2575  10.2575
    10.3039  10.3039  10.3785  10.3785  10.4160  10.4160  10.4450  10.4450
    10.4575  10.4575  10.4913  10.4913  10.6276  10.6276  10.7043  10.7043
    10.7478  10.7478  10.7938  10.7938  10.8459  10.8459  10.9006  10.9006
    10.9186  10.9186  10.9493  10.9493  10.9530  10.9530  11.0641  11.0641
    11.0681  11.0681  11.1076  11.1076  11.1146  11.1146  11.1728  11.1728
    11.2199  11.2199  11.2267  11.2267  11.3001  11.3001  11.3433  11.3433
    11.4223  11.4223  11.4740  11.4740  11.4914  11.4914  11.5222  11.5222
    11.6019  11.6019  11.6689  11.6689  11.7134  11.7134  11.7602  11.7602
    11.7778  11.7778  11.8986  11.8986  11.9081  11.9081  11.9576  11.9576
    11.9762  11.9762  12.0436  12.0436  12.1129  12.1129  12.1298  12.1298
    12.1512  12.1512  12.2088  12.2088  12.2959  12.2959  12.3101  12.3101
    12.3806  12.3806  12.4343  12.4343  12.4595  12.4595  12.4891  12.4891
    12.5570  12.5570  12.5772  12.5772  12.5876  12.5876  12.6539  12.6539
    12.6593  12.6593  12.7156  12.7156  12.7701  12.7701  12.8235  12.8235
    12.8374  12.8374  12.9257  12.9257  12.9354  12.9354  12.9441  12.9441
    12.9989  12.9989  13.0089  13.0089  13.0136  13.0136  13.0419  13.0419
    13.1132  13.1132  13.1433  13.1433  13.1570  13.1570  13.2686  13.2686
    13.2920  13.2920  13.3636  13.3636  13.4495  13.4495  13.5783  13.5783
    13.8688  13.8688  13.9172  13.9172  14.2961  14.2961  14.3083  14.3083
    14.5245  14.5245  14.6231  14.6231  14.7100  14.7100  14.9046  14.9046
    14.9637  14.9637  14.9955  14.9955  15.0542  15.0542  15.2378  15.2378
    15.8788  15.8788  16.3615  16.3615  16.6731  16.6731  16.7117  16.7117
    18.0925  18.0925  18.4583  18.4583  18.5059  18.5059  18.7262  18.7262
    19.4799  19.4799  19.5875  19.5875  19.7151  19.7151  19.8019  19.8019
    19.8369  19.8369  19.9827  19.9827  20.4858  20.4858  20.9201  20.9201
    20.9664  20.9664  21.0835  21.0835  21.5101  21.5101  21.7231  21.7231
    21.8814  21.8814  22.4418  22.4418  22.7929  22.7929  23.0307  23.0307
    23.0945  23.0959

          k = 0.3333 0.5774 0.0000 ( 12162 PWs)   bands (ev):

   -89.1088 -89.1088 -89.1088 -89.1088 -89.1067 -89.1067 -89.1067 -89.1067
   -89.0282 -89.0282 -89.0282 -89.0282 -89.0263 -89.0263 -89.0263 -89.0263
   -89.0140 -89.0140 -89.0140 -89.0140 -89.0139 -89.0139 -89.0138 -89.0138
   -89.0115 -89.0115 -89.0115 -89.0115 -88.9982 -88.9982 -88.9982 -88.9982
   -61.1343 -61.1343 -61.1343 -61.1343 -61.1326 -61.1326 -61.1326 -61.1326
   -61.0784 -61.0784 -61.0784 -61.0784 -61.0767 -61.0767 -61.0766 -61.0766
   -51.1029 -51.1029 -51.1026 -51.1026 -51.0922 -51.0922 -51.0918 -51.0918
   -51.0324 -51.0324 -51.0318 -51.0318 -51.0217 -51.0217 -51.0185 -51.0185
   -50.9910 -50.9910 -50.9865 -50.9865 -50.9807 -50.9807 -50.9792 -50.9792
   -50.9750 -50.9750 -50.9708 -50.9708 -50.9676 -50.9676 -50.9646 -50.9646
   -48.9861 -48.9861 -48.9846 -48.9846 -48.9739 -48.9739 -48.9709 -48.9709
   -48.8901 -48.8901 -48.8847 -48.8847 -48.8802 -48.8802 -48.8771 -48.8771
   -48.8762 -48.8762 -48.8749 -48.8749 -48.8693 -48.8693 -48.8451 -48.8451
   -48.8370 -48.8370 -48.8330 -48.8330 -48.8182 -48.8182 -48.8098 -48.8098
   -48.7893 -48.7893 -48.7887 -48.7887 -48.7828 -48.7828 -48.7808 -48.7808
   -48.7612 -48.7612 -48.7538 -48.7538 -48.7470 -48.7470 -48.7376 -48.7376
   -48.7316 -48.7316 -48.7290 -48.7290 -48.7265 -48.7265 -48.7196 -48.7196
   -48.7160 -48.7160 -48.7128 -48.7128 -48.6876 -48.6876 -48.6873 -48.6873
   -28.2686 -28.2686 -28.2681 -28.2681 -28.2628 -28.2628 -28.2622 -28.2622
   -28.2130 -28.2130 -28.2129 -28.2129 -28.2070 -28.2070 -28.2069 -28.2069
   -27.9874 -27.9874 -27.9842 -27.9842 -27.9822 -27.9822 -27.9821 -27.9821
   -27.9779 -27.9779 -27.9778 -27.9778 -27.9733 -27.9733 -27.9695 -27.9695
   -27.9274 -27.9274 -27.9273 -27.9273 -27.9233 -27.9233 -27.9232 -27.9232
   -27.9198 -27.9198 -27.9192 -27.9192 -27.9124 -27.9124 -27.9124 -27.9124
     7.6869   7.6869   7.6876   7.6876   8.1444   8.1444   8.2570   8.2570
     8.2630   8.2630   8.4483   8.4483   8.5668   8.5668   8.5724   8.5724
     8.7862   8.7862   9.5905   9.5905   9.5907   9.5907   9.6435   9.6435
     9.6515   9.6515   9.6802   9.6802   9.7160   9.7160  10.3245  10.3245
    10.3294  10.3294  10.3580  10.3580  10.4952  10.4952  10.5045  10.5045
    10.6566  10.6566  10.6805  10.6805  10.8220  10.8220  10.8385  10.8385
    10.9072  10.9072  10.9089  10.9089  10.9599  10.9599  10.9696  10.9696
    10.9913  10.9913  10.9980  10.9980  11.0798  11.0798  11.1216  11.1216
    11.1475  11.1475  11.1569  11.1569  11.1586  11.1586  11.1780  11.1780
    11.1961  11.1961  11.2420  11.2420  11.2571  11.2571  11.2745  11.2745
    11.2929  11.2929  11.2946  11.2946  11.3363  11.3363  11.3434  11.3434
    11.4195  11.4195  11.4239  11.4239  11.4515  11.4515  11.4682  11.4682
    11.5011  11.5011  11.6717  11.6717  11.6796  11.6796  11.6928  11.6928
    11.8100  11.8100  11.9622  11.9622  11.9803  11.9803  11.9834  11.9834
    12.0184  12.0184  12.0564  12.0564  12.2292  12.2292  12.2346  12.2346
    12.3165  12.3165  12.3553  12.3553  12.3735  12.3735  12.3833  12.3833
    12.4454  12.4454  12.4458  12.4458  12.4660  12.4660  12.5646  12.5646
    12.6133  12.6133  12.6451  12.6451  12.6589  12.6589  12.6666  12.6666
    12.6938  12.6938  12.7136  12.7136  12.7204  12.7204  12.7596  12.7596
    12.7813  12.7813  12.7842  12.7842  12.8503  12.8503  12.9068  12.9068
    13.0764  13.0764  13.1040  13.1040  13.2004  13.2004  13.2045  13.2045
    13.2291  13.2291  13.3060  13.3060  13.3164  13.3164  13.4290  13.4290
    13.4916  13.4916  13.5501  13.5501  13.5508  13.5508  13.7856  13.7856
    13.9218  13.9218  13.9340  13.9340  14.0142  14.0142  15.4094  15.4094
    15.4314  15.4314  15.4833  15.4833  15.6785  15.6785  15.6854  15.6854
    16.3038  16.3038  18.1372  18.1372  18.1397  18.1397  18.3086  18.3086
    18.5521  18.5521  18.5528  18.5528  19.2030  19.2030  19.2636  19.2636
    19.2646  19.2646  19.3395  19.3395  19.3480  19.3480  19.5868  19.5868
    19.8449  19.8449  20.2689  20.2689  20.3216  20.3216  20.3370  20.3370
    21.1496  21.1496  21.1526  21.1526  21.5293  21.5293  21.5447  21.5447
    21.6293  21.6293  22.3649  22.3649  23.6262  23.6264  23.6359  23.6359
    23.8231  23.8660

     the Fermi energy is    13.6305 ev

!    total energy              =   -7950.12075523 Ry
     total all-electron energy =    -51823.972839 Ry
     estimated scf accuracy    <          9.7E-09 Ry
     smearing contrib. (-TS)   =       0.09791629 Ry
     internal energy E=F+TS    =   -7950.21867152 Ry

     The total energy is F=E-TS. E is the sum of the following terms:
     one-electron contribution =   -4413.61827822 Ry
     hartree contribution      =    2370.18687573 Ry
     xc contribution           =    -682.36035158 Ry
     ewald contribution        =   -3686.20334826 Ry
     one-center paw contrib.   =   -1538.22356919 Ry

     convergence has been achieved in  27 iterations

     Forces acting on atoms (cartesian axes, Ry/au):

     atom    1 type  1   force =     0.00000000    0.00000000    0.00502633
     atom    2 type  1   force =     0.00000000    0.00000000    0.00502633
     atom    3 type  1   force =     0.00000000    0.00000000   -0.00502633
     atom    4 type  1   force =     0.00000000    0.00000000   -0.00502633
     atom    5 type  1   force =    -0.00000000   -0.00000000    0.00121361
     atom    6 type  1   force =     0.00000000    0.00000000    0.00121361
     atom    7 type  1   force =    -0.00000000   -0.00000000   -0.00121361
     atom    8 type  1   force =     0.00000000    0.00000000   -0.00121361
     atom    9 type  2   force =     0.00000000    0.00000000    0.00531457
     atom   10 type  2   force =     0.00000000    0.00000000    0.00531457
     atom   11 type  2   force =     0.00000000    0.00000000   -0.00531457
     atom   12 type  2   force =    -0.00000000   -0.00000000   -0.00531457
     atom   13 type  2   force =     0.00000000   -0.01212578    0.00000000
     atom   14 type  2   force =     0.01050123   -0.00606289    0.00000000
     atom   15 type  2   force =     0.00000000    0.01212578    0.00000000
     atom   16 type  2   force =    -0.01050123    0.00606289   -0.00000000
     atom   17 type  2   force =     0.01050123    0.00606289    0.00000000
     atom   18 type  2   force =    -0.01050123   -0.00606289    0.00000000
     atom   19 type  2   force =     0.00000000    0.00000000    0.00000000
     atom   20 type  2   force =    -0.00000000   -0.00000000   -0.00000000
     atom   21 type  2   force =     0.00000000   -0.00000000    0.00000000
     atom   22 type  2   force =    -0.00000000   -0.00000000    0.00000000
     atom   23 type  2   force =    -0.00000000    0.00000000   -0.00000000
     atom   24 type  2   force =     0.00000000   -0.00000000   -0.00000000
     The non-local contrib.  to forces
     atom    1 type  1   force =     0.00000000    0.00000000    0.02661676
     atom    2 type  1   force =     0.00000000    0.00000000    0.02661676
     atom    3 type  1   force =     0.00000000    0.00000000   -0.02661676
     atom    4 type  1   force =     0.00000000   -0.00000000   -0.02661676
     atom    5 type  1   force =     0.00000000    0.00000000   -0.00012399
     atom    6 type  1   force =     0.00000000   -0.00000000   -0.00012399
     atom    7 type  1   force =     0.00000000    0.00000000    0.00012399
     atom    8 type  1   force =     0.00000000    0.00000000    0.00012399
     atom    9 type  2   force =     0.00000000    0.00000000    0.00280015
     atom   10 type  2   force =     0.00000000    0.00000000    0.00280015
     atom   11 type  2   force =     0.00000000    0.00000000   -0.00280015
     atom   12 type  2   force =    -0.00000000   -0.00000000   -0.00280015
     atom   13 type  2   force =     0.00000000   -0.08244045    0.00000000
     atom   14 type  2   force =     0.07139553   -0.04122022    0.00000000
     atom   15 type  2   force =     0.00000000    0.08244045   -0.00000000
     atom   16 type  2   force =    -0.07139553    0.04122022    0.00000000
     atom   17 type  2   force =     0.07139553    0.04122023    0.00000000
     atom   18 type  2   force =    -0.07139553   -0.04122023    0.00000000
     atom   19 type  2   force =    -0.00000000   -0.00000000    0.00000000
     atom   20 type  2   force =    -0.00000000   -0.00000000    0.00000000
     atom   21 type  2   force =     0.00000000    0.00000000    0.00000000
     atom   22 type  2   force =     0.00000000    0.00000000    0.00000000
     atom   23 type  2   force =    -0.00000000    0.00000000   -0.00000000
     atom   24 type  2   force =     0.00000000   -0.00000000   -0.00000000
     The ionic contribution  to forces
     atom    1 type  1   force =    -0.00001349    0.00001026   -0.26759008
     atom    2 type  1   force =     0.00001349   -0.00001026   -0.26759008
     atom    3 type  1   force =     0.00001349   -0.00001026    0.26759008
     atom    4 type  1   force =    -0.00001349    0.00001026    0.26759008
     atom    5 type  1   force =     0.00005922   -0.00003145    0.07071277
     atom    6 type  1   force =    -0.00005922    0.00003145    0.07071277
     atom    7 type  1   force =    -0.00005922    0.00003145   -0.07071277
     atom    8 type  1   force =     0.00005922   -0.00003145   -0.07071277
     atom    9 type  2   force =     0.00005883   -0.00003383    1.29033496
     atom   10 type  2   force =    -0.00005883    0.00003383    1.29033496
     atom   11 type  2   force =    -0.00005883    0.00003383   -1.29033496
     atom   12 type  2   force =     0.00005883   -0.00003383   -1.29033496
     atom   13 type  2   force =     0.00007813  -16.11278204    0.00000000
     atom   14 type  2   force =    13.95416432   -8.05644185    0.00000000
     atom   15 type  2   force =    -0.00007813   16.11278204    0.00000000
     atom   16 type  2   force =   -13.95416432    8.05644185    0.00000000
     atom   17 type  2   force =    13.95411613    8.05632721    0.00000000
     atom   18 type  2   force =   -13.95411613   -8.05632721    0.00000000
     atom   19 type  2   force =    -0.00000000    0.00000000    0.00000000
     atom   20 type  2   force =     0.00000000   -0.00000000   -0.00000000
     atom   21 type  2   force =     0.00000000    0.00000000   -0.00000000
     atom   22 type  2   force =     0.00000000   -0.00000000    0.00000000
     atom   23 type  2   force =    -0.00000000   -0.00000000   -0.00000000
     atom   24 type  2   force =     0.00000000   -0.00000000    0.00000000
     The local contribution  to forces
     atom    1 type  1   force =    -0.00000203   -0.00000113    0.24617871
     atom    2 type  1   force =     0.00000203    0.00000113    0.24617871
     atom    3 type  1   force =     0.00000203    0.00000113   -0.24617871
     atom    4 type  1   force =    -0.00000203   -0.00000113   -0.24617871
     atom    5 type  1   force =     0.00143690   -0.00083214   -0.06940546
     atom    6 type  1   force =    -0.00143690    0.00083214   -0.06940546
     atom    7 type  1   force =    -0.00143690    0.00083214    0.06940546
     atom    8 type  1   force =     0.00143690   -0.00083214    0.06940546
     atom    9 type  2   force =     0.00191205   -0.00110406   -1.28540826
     atom   10 type  2   force =    -0.00191205    0.00110406   -1.28540826
     atom   11 type  2   force =    -0.00191205    0.00110406    1.28540826
     atom   12 type  2   force =     0.00191205   -0.00110406    1.28540826
     atom   13 type  2   force =    -0.00191366   16.18336301    0.00000000
     atom   14 type  2   force =   -14.01257601    8.09016557    0.00000000
     atom   15 type  2   force =     0.00191366  -16.18336301    0.00000000
     atom   16 type  2   force =    14.01257601   -8.09016557    0.00000000
     atom   17 type  2   force =   -14.01615891   -8.09002787    0.00000000
     atom   18 type  2   force =    14.01615891    8.09002787    0.00000000
     atom   19 type  2   force =     0.00000000   -0.00000000    0.00000000
     atom   20 type  2   force =    -0.00000000   -0.00000000   -0.00000000
     atom   21 type  2   force =     0.00000000    0.00000000   -0.00000000
     atom   22 type  2   force =    -0.00000000    0.00000000    0.00000000
     atom   23 type  2   force =    -0.00000000    0.00000000   -0.00000000
     atom   24 type  2   force =    -0.00000000    0.00000000    0.00000000
     The core correction contribution to forces
     atom    1 type  1   force =    -0.00000000    0.00000000   -0.00012576
     atom    2 type  1   force =     0.00000000   -0.00000000   -0.00012576
     atom    3 type  1   force =     0.00000000   -0.00000000    0.00012576
     atom    4 type  1   force =    -0.00000000    0.00000000    0.00012576
     atom    5 type  1   force =     0.00000313   -0.00000181   -0.00000929
     atom    6 type  1   force =    -0.00000313    0.00000181   -0.00000929
     atom    7 type  1   force =    -0.00000313    0.00000181    0.00000929
     atom    8 type  1   force =     0.00000313   -0.00000181    0.00000929
     atom    9 type  2   force =     0.00000118   -0.00000068   -0.00226160
     atom   10 type  2   force =    -0.00000118    0.00000068   -0.00226160
     atom   11 type  2   force =    -0.00000118    0.00000068    0.00226160
     atom   12 type  2   force =     0.00000118   -0.00000068    0.00226160
     atom   13 type  2   force =    -0.00000117    0.00066224    0.00000000
     atom   14 type  2   force =    -0.00057170    0.00033007    0.00000000
     atom   15 type  2   force =     0.00000117   -0.00066224    0.00000000
     atom   16 type  2   force =     0.00057170   -0.00033007    0.00000000
     atom   17 type  2   force =    -0.00057410   -0.00033011    0.00000000
     atom   18 type  2   force =     0.00057410    0.00033011    0.00000000
     atom   19 type  2   force =     0.00000000    0.00000000    0.00000000
     atom   20 type  2   force =     0.00000000   -0.00000000    0.00000000
     atom   21 type  2   force =     0.00000000    0.00000000    0.00000000
     atom   22 type  2   force =     0.00000000    0.00000000    0.00000000
     atom   23 type  2   force =     0.00000000    0.00000000    0.00000000
     atom   24 type  2   force =    -0.00000000    0.00000000    0.00000000
     The Hubbard contrib.    to forces
     atom    1 type  1   force =     0.00000000    0.00000000    0.00000000
     atom    2 type  1   force =     0.00000000    0.00000000    0.00000000
     atom    3 type  1   force =     0.00000000    0.00000000    0.00000000
     atom    4 type  1   force =     0.00000000    0.00000000    0.00000000
     atom    5 type  1   force =     0.00000000    0.00000000    0.00000000
     atom    6 type  1   force =     0.00000000    0.00000000    0.00000000
     atom    7 type  1   force =     0.00000000    0.00000000    0.00000000
     atom    8 type  1   force =     0.00000000    0.00000000    0.00000000
     atom    9 type  2   force =     0.00000000    0.00000000    0.00000000
     atom   10 type  2   force =     0.00000000    0.00000000    0.00000000
     atom   11 type  2   force =     0.00000000    0.00000000    0.00000000
     atom   12 type  2   force =     0.00000000    0.00000000    0.00000000
     atom   13 type  2   force =     0.00000000    0.00000000    0.00000000
     atom   14 type  2   force =     0.00000000    0.00000000    0.00000000
     atom   15 type  2   force =     0.00000000    0.00000000    0.00000000
     atom   16 type  2   force =     0.00000000    0.00000000    0.00000000
     atom   17 type  2   force =     0.00000000    0.00000000    0.00000000
     atom   18 type  2   force =     0.00000000    0.00000000    0.00000000
     atom   19 type  2   force =     0.00000000    0.00000000    0.00000000
     atom   20 type  2   force =     0.00000000    0.00000000    0.00000000
     atom   21 type  2   force =     0.00000000    0.00000000    0.00000000
     atom   22 type  2   force =     0.00000000    0.00000000    0.00000000
     atom   23 type  2   force =     0.00000000    0.00000000    0.00000000
     atom   24 type  2   force =     0.00000000    0.00000000    0.00000000
     The SCF correction term to forces
     atom    1 type  1   force =     0.00000067   -0.00000039   -0.00005329
     atom    2 type  1   force =    -0.00000067    0.00000039   -0.00005329
     atom    3 type  1   force =    -0.00000067    0.00000039    0.00005329
     atom    4 type  1   force =     0.00000067   -0.00000039    0.00005329
     atom    5 type  1   force =    -0.00000070    0.00000040    0.00003958
     atom    6 type  1   force =     0.00000070   -0.00000040    0.00003958
     atom    7 type  1   force =     0.00000070   -0.00000040   -0.00003958
     atom    8 type  1   force =    -0.00000070    0.00000040   -0.00003958
     atom    9 type  2   force =    -0.00000461    0.00000266   -0.00015067
     atom   10 type  2   force =     0.00000461   -0.00000266   -0.00015067
     atom   11 type  2   force =     0.00000461   -0.00000266    0.00015067
     atom   12 type  2   force =    -0.00000461    0.00000266    0.00015067
     atom   13 type  2   force =    -0.00000062    0.00011639    0.00000000
     atom   14 type  2   force =    -0.00010118    0.00005843   -0.00000000
     atom   15 type  2   force =     0.00000062   -0.00011639   -0.00000000
     atom   16 type  2   force =     0.00010118   -0.00005843    0.00000000
     atom   17 type  2   force =    -0.00010110   -0.00005766    0.00000000
     atom   18 type  2   force =     0.00010110    0.00005766   -0.00000000
     atom   19 type  2   force =     0.00000000    0.00000000   -0.00000000
     atom   20 type  2   force =    -0.00000000    0.00000000    0.00000000
     atom   21 type  2   force =     0.00000000   -0.00000000    0.00000000
     atom   22 type  2   force =     0.00000000   -0.00000000    0.00000000
     atom   23 type  2   force =     0.00000000    0.00000000    0.00000000
     atom   24 type  2   force =    -0.00000000   -0.00000000    0.00000000

     Total force =     0.033198     Total SCF correction =     0.000436


     Computing stress (Cartesian axis) and pressure

          total   stress  (Ry/bohr**3)                   (kbar)     P=     -453.68
  -0.00309186  -0.00000000   0.00000000         -454.83       -0.00        0.00
  -0.00000000  -0.00309186   0.00000000           -0.00     -454.83        0.00
   0.00000000   0.00000000  -0.00306849            0.00        0.00     -451.39


     BFGS Geometry Optimization
     Energy error            =      0.0E+00 Ry
     Gradient error          =      1.2E-02 Ry/Bohr
     Cell gradient error     =      4.5E+02 kbar

     number of scf cycles    =   1
     number of bfgs steps    =   0

     enthalpy           new  =   -7950.1207552318 Ry

     new trust radius        =       0.5000000000 bohr
     new conv_thr            =       0.0000000100 Ry

     new unit-cell volume =   1716.26252 a.u.^3 (   254.32387 Ang^3 )
     density =      7.40111 g/cm^3

CELL_PARAMETERS (angstrom)
   4.472668104  -0.000000032   0.000000000
  -2.236334552   3.873444510   0.000000000
   0.000000000   0.000000000  14.679900390

ATOMIC_POSITIONS (crystal)
Mg            0.0000000000        0.0000000000        0.4061227472
Mg            0.0000000000        0.0000000000        0.9061227472
Mg            0.0000000000        0.0000000000        0.5938772528
Mg            0.0000000000        0.0000000000        0.0938772528
Mg            0.3333330000        0.6666670000        0.6558296373
Mg            0.6666670000        0.3333330000        0.1558296373
Mg            0.6666670000        0.3333330000        0.3441703627
Mg            0.3333330000        0.6666670000        0.8441703627
Ni            0.3333330000        0.6666670000        0.3749897863
Ni            0.6666670000        0.3333330000        0.8749897863
Ni            0.6666670000        0.3333330000        0.6250102137
Ni            0.3333330000        0.6666670000        0.1250102137
Ni            0.1661061156        0.3322112314        0.2500000000
Ni            0.8338938844        0.1661061158        0.7500000000
Ni            0.8338938844        0.6677887686        0.7500000000
Ni            0.1661061156        0.8338938842        0.2500000000
Ni            0.6677887689        0.8338938844        0.2500000000
Ni            0.3322112311        0.1661061156        0.7500000000
Ni            0.5000000000        0.0000000000        0.5000000000
Ni            0.5000000000        0.5000000000       -0.0000000000
Ni            0.5000000000        0.0000000000        0.0000000000
Ni            0.5000000000        0.5000000000        0.5000000000
Ni           -0.0000000000        0.5000000000       -0.0000000000
Ni           -0.0000000000        0.5000000000        0.5000000000



     Writing config-only to output data dir ./C36_out/laves_C36.save/
     NEW-OLD atomic charge density approx. for the potential

     Check: negative core charge=   -0.000014
     extrapolated charge  299.55792, renormalised to  368.00000

     total cpu time spent up to now is      663.8 secs

     Self-consistent Calculation

     iteration #  1     ecut=    50.00 Ry     beta= 0.10
     Davidson diagonalization with overlap
     c_bands:  2 eigenvalues not converged
     ethr =  1.00E-06,  avg # of iterations = 17.0

     total cpu time spent up to now is      751.2 secs

     total energy              =   -7846.92236597 Ry
     estimated scf accuracy    <     349.14604301 Ry

     iteration #  2     ecut=    50.00 Ry     beta= 0.10
     Davidson diagonalization with overlap
     ethr =  1.00E-02,  avg # of iterations =  4.3

     total cpu time spent up to now is      784.2 secs

     total energy              =   -7948.09443712 Ry
     estimated scf accuracy    <       2.36880926 Ry

     iteration #  3     ecut=    50.00 Ry     beta= 0.10
     Davidson diagonalization with overlap
     ethr =  6.44E-04,  avg # of iterations =  8.3

     total cpu time spent up to now is      811.0 secs

     total energy              =   -7949.29441828 Ry
     estimated scf accuracy    <       1.91394744 Ry

     iteration #  4     ecut=    50.00 Ry     beta= 0.10
     Davidson diagonalization with overlap
     ethr =  5.20E-04,  avg # of iterations =  1.7

     total cpu time spent up to now is      831.2 secs

     total energy              =   -7949.92960361 Ry
     estimated scf accuracy    <       0.10096355 Ry

     iteration #  5     ecut=    50.00 Ry     beta= 0.10
     Davidson diagonalization with overlap
     ethr =  2.74E-05,  avg # of iterations =  4.3

     total cpu time spent up to now is      857.8 secs

     total energy              =   -7950.13829669 Ry
     estimated scf accuracy    <       0.12193333 Ry

     iteration #  6     ecut=    50.00 Ry     beta= 0.10
     Davidson diagonalization with overlap
     ethr =  2.74E-05,  avg # of iterations =  2.0

     total cpu time spent up to now is      879.5 secs

     total energy              =   -7950.30220556 Ry
     estimated scf accuracy    <       0.03234781 Ry

     iteration #  7     ecut=    50.00 Ry     beta= 0.10
     Davidson diagonalization with overlap
     ethr =  8.79E-06,  avg # of iterations =  5.7

     total cpu time spent up to now is      909.4 secs

     total energy              =   -7950.30906512 Ry
     estimated scf accuracy    <       0.01247033 Ry

     iteration #  8     ecut=    50.00 Ry     beta= 0.10
     Davidson diagonalization with overlap
     ethr =  3.39E-06,  avg # of iterations =  1.7

     total cpu time spent up to now is      930.0 secs

     total energy              =   -7950.31206434 Ry
     estimated scf accuracy    <       0.01069099 Ry

     iteration #  9     ecut=    50.00 Ry     beta= 0.10
     Davidson diagonalization with overlap
     ethr =  2.91E-06,  avg # of iterations =  2.0

     total cpu time spent up to now is      957.3 secs

     total energy              =   -7950.31649376 Ry
     estimated scf accuracy    <       0.04324332 Ry

     iteration # 10     ecut=    50.00 Ry     beta= 0.10
     Davidson diagonalization with overlap
     ethr =  2.91E-06,  avg # of iterations =  2.0

     total cpu time spent up to now is      978.8 secs

     total energy              =   -7950.31443394 Ry
     estimated scf accuracy    <       0.02043305 Ry

     iteration # 11     ecut=    50.00 Ry     beta= 0.10
     Davidson diagonalization with overlap
     ethr =  2.91E-06,  avg # of iterations =  2.0

     total cpu time spent up to now is     1001.6 secs

     total energy              =   -7950.31430186 Ry
     estimated scf accuracy    <       0.00627123 Ry

     iteration # 12     ecut=    50.00 Ry     beta= 0.10
     Davidson diagonalization with overlap
     ethr =  1.70E-06,  avg # of iterations =  1.0

     total cpu time spent up to now is     1020.8 secs

     total energy              =   -7950.31479622 Ry
     estimated scf accuracy    <       0.00115665 Ry

     iteration # 13     ecut=    50.00 Ry     beta= 0.10
     Davidson diagonalization with overlap
     ethr =  3.14E-07,  avg # of iterations =  2.0

     total cpu time spent up to now is     1046.3 secs

     total energy              =   -7950.31521361 Ry
     estimated scf accuracy    <       0.00316007 Ry

     iteration # 14     ecut=    50.00 Ry     beta= 0.10
     Davidson diagonalization with overlap
     ethr =  3.14E-07,  avg # of iterations =  1.0

     total cpu time spent up to now is     1065.7 secs

     total energy              =   -7950.31529285 Ry
     estimated scf accuracy    <       0.00289533 Ry

     iteration # 15     ecut=    50.00 Ry     beta= 0.10
     Davidson diagonalization with overlap
     ethr =  3.14E-07,  avg # of iterations =  1.0

     total cpu time spent up to now is     1084.5 secs

     total energy              =   -7950.31523545 Ry
     estimated scf accuracy    <       0.00092698 Ry

     iteration # 16     ecut=    50.00 Ry     beta= 0.10
     Davidson diagonalization with overlap
     ethr =  2.52E-07,  avg # of iterations =  2.0

     total cpu time spent up to now is     1107.8 secs

     total energy              =   -7950.31527795 Ry
     estimated scf accuracy    <       0.00078307 Ry

     iteration # 17     ecut=    50.00 Ry     beta= 0.10
     Davidson diagonalization with overlap
     ethr =  2.13E-07,  avg # of iterations =  1.0

     total cpu time spent up to now is     1127.2 secs

     total energy              =   -7950.31533986 Ry
     estimated scf accuracy    <       0.00020589 Ry

     iteration # 18     ecut=    50.00 Ry     beta= 0.10
     Davidson diagonalization with overlap
     ethr =  5.59E-08,  avg # of iterations =  2.0

     total cpu time spent up to now is     1150.3 secs

     total energy              =   -7950.31535885 Ry
     estimated scf accuracy    <       0.00005346 Ry

     iteration # 19     ecut=    50.00 Ry     beta= 0.10
     Davidson diagonalization with overlap
     ethr =  1.45E-08,  avg # of iterations =  1.0

     total cpu time spent up to now is     1169.6 secs

     total energy              =   -7950.31535976 Ry
     estimated scf accuracy    <       0.00002607 Ry

     iteration # 20     ecut=    50.00 Ry     beta= 0.10
     Davidson diagonalization with overlap
     ethr =  7.08E-09,  avg # of iterations =  1.0

     total cpu time spent up to now is     1188.9 secs

     total energy              =   -7950.31535804 Ry
     estimated scf accuracy    <       0.00001623 Ry

     iteration # 21     ecut=    50.00 Ry     beta= 0.10
     Davidson diagonalization with overlap
     ethr =  4.41E-09,  avg # of iterations =  2.0

     total cpu time spent up to now is     1212.9 secs

     total energy              =   -7950.31535973 Ry
     estimated scf accuracy    <       0.00001143 Ry

     iteration # 22     ecut=    50.00 Ry     beta= 0.10
     Davidson diagonalization with overlap
     ethr =  3.11E-09,  avg # of iterations =  2.0

     total cpu time spent up to now is     1236.8 secs

     total energy              =   -7950.31536164 Ry
     estimated scf accuracy    <       0.00000624 Ry

     iteration # 23     ecut=    50.00 Ry     beta= 0.10
     Davidson diagonalization with overlap
     ethr =  1.70E-09,  avg # of iterations =  2.0

     total cpu time spent up to now is     1260.8 secs

     total energy              =   -7950.31536290 Ry
     estimated scf accuracy    <       0.00000044 Ry

     iteration # 24     ecut=    50.00 Ry     beta= 0.10
     Davidson diagonalization with overlap
     ethr =  1.20E-10,  avg # of iterations =  2.0

     total cpu time spent up to now is     1285.5 secs

     total energy              =   -7950.31536352 Ry
     estimated scf accuracy    <       0.00000045 Ry

     iteration # 25     ecut=    50.00 Ry     beta= 0.10
     Davidson diagonalization with overlap
     ethr =  1.20E-10,  avg # of iterations =  2.0

     total cpu time spent up to now is     1309.6 secs

     total energy              =   -7950.31536406 Ry
     estimated scf accuracy    <       0.00000040 Ry

     iteration # 26     ecut=    50.00 Ry     beta= 0.10
     Davidson diagonalization with overlap
     ethr =  1.09E-10,  avg # of iterations =  2.0

     total cpu time spent up to now is     1331.6 secs

     total energy              =   -7950.31536446 Ry
     estimated scf accuracy    <       0.00000005 Ry

     iteration # 27     ecut=    50.00 Ry     beta= 0.10
     Davidson diagonalization with overlap
     ethr =  1.35E-11,  avg # of iterations =  1.3

     total cpu time spent up to now is     1351.4 secs

     End of self-consistent calculation

          k = 0.0000 0.0000 0.0000 ( 12121 PWs)   bands (ev):

   -86.2105 -86.2105 -86.2027 -86.2027 -86.2010 -86.2010 -86.1904 -86.1904
   -86.1408 -86.1408 -86.1334 -86.1334 -86.1220 -86.1220 -86.1177 -86.1177
   -86.0771 -86.0771 -86.0770 -86.0770 -86.0770 -86.0770 -86.0769 -86.0769
   -86.0641 -86.0641 -86.0640 -86.0640 -86.0640 -86.0640 -86.0639 -86.0639
   -57.6824 -57.6824 -57.6824 -57.6824 -57.6786 -57.6786 -57.6786 -57.6786
   -57.6177 -57.6177 -57.6176 -57.6176 -57.6137 -57.6137 -57.6137 -57.6137
   -48.2635 -48.2635 -48.2552 -48.2552 -48.2406 -48.2406 -48.2318 -48.2318
   -48.2023 -48.2023 -48.2003 -48.2003 -48.1923 -48.1923 -48.1909 -48.1909
   -48.1797 -48.1797 -48.1792 -48.1792 -48.1666 -48.1666 -48.1657 -48.1657
   -48.0414 -48.0414 -48.0311 -48.0311 -48.0179 -48.0179 -48.0098 -48.0098
   -46.1802 -46.1802 -46.1796 -46.1796 -46.1551 -46.1551 -46.1341 -46.1341
   -46.1214 -46.1214 -46.1084 -46.1084 -46.0794 -46.0794 -46.0605 -46.0605
   -46.0524 -46.0524 -46.0387 -46.0387 -46.0381 -46.0381 -46.0242 -46.0242
   -46.0231 -46.0231 -46.0067 -46.0067 -46.0033 -46.0033 -45.9676 -45.9676
   -45.9361 -45.9361 -45.8864 -45.8864 -45.8808 -45.8808 -45.8792 -45.8792
   -45.8516 -45.8516 -45.8461 -45.8461 -45.8458 -45.8458 -45.8110 -45.8110
   -45.8088 -45.8088 -45.8063 -45.8063 -45.7812 -45.7812 -45.7810 -45.7810
   -45.7806 -45.7806 -45.7798 -45.7798 -45.7541 -45.7541 -45.7532 -45.7532
   -24.8282 -24.8282 -24.8277 -24.8277 -24.8184 -24.8184 -24.8178 -24.8178
   -24.7566 -24.7566 -24.7550 -24.7550 -24.7454 -24.7454 -24.7440 -24.7440
   -24.5452 -24.5452 -24.5449 -24.5449 -24.5444 -24.5444 -24.5441 -24.5441
   -24.5411 -24.5411 -24.5407 -24.5407 -24.5187 -24.5187 -24.5170 -24.5170
   -24.4793 -24.4793 -24.4784 -24.4784 -24.4614 -24.4614 -24.4608 -24.4608
   -24.4575 -24.4575 -24.4569 -24.4569 -24.4517 -24.4517 -24.4513 -24.4513
     7.1687   7.1687   7.8794   7.8794   7.9027   7.9027   9.5179   9.5179
    10.3047  10.3047  11.2311  11.2311  11.2706  11.2706  11.4251  11.4251
    12.0322  12.0322  12.1786  12.1786  12.2113  12.2113  12.4432  12.4432
    12.4974  12.4974  12.5206  12.5206  12.5322  12.5322  12.5465  12.5465
    12.5551  12.5551  12.5601  12.5601  12.7515  12.7515  12.7698  12.7698
    12.8031  12.8031  12.9016  12.9016  12.9196  12.9196  12.9204  12.9204
    12.9459  12.9459  12.9863  12.9863  13.0303  13.0303  13.0733  13.0733
    13.1056  13.1056  13.1610  13.1610  13.5368  13.5368  13.5369  13.5369
    13.5800  13.5800  13.5866  13.5866  13.5918  13.5918  13.6413  13.6413
    13.8651  13.8651  13.9167  13.9167  14.1330  14.1330  14.1839  14.1839
    14.1848  14.1848  14.2326  14.2326  14.2564  14.2564  14.3016  14.3016
    14.5063  14.5063  14.5270  14.5270  14.9074  14.9074  15.1244  15.1244
    15.1396  15.1396  15.1678  15.1678  15.1987  15.1987  15.2514  15.2514
    15.3457  15.3457  15.4018  15.4018  15.5761  15.5761  15.5902  15.5902
    15.7525  15.7525  15.7701  15.7701  15.8888  15.8888  15.9049  15.9049
    15.9081  15.9081  15.9183  15.9183  15.9416  15.9416  15.9465  15.9465
    15.9586  15.9586  15.9656  15.9656  15.9719  15.9719  15.9825  15.9825
    15.9967  15.9967  16.0296  16.0296  16.0314  16.0314  16.0529  16.0529
    16.0666  16.0666  16.1156  16.1156  16.1279  16.1279  16.1444  16.1444
    16.1808  16.1808  16.2927  16.2927  16.3658  16.3658  16.7042  16.7042
    16.7584  16.7584  17.0852  17.0852  17.0882  17.0882  17.4126  17.4126
    17.4135  17.4135  17.4250  17.4250  17.4367  17.4367  17.4371  17.4371
    17.8219  17.8219  17.9179  17.9179  17.9515  17.9515  17.9575  17.9575
    17.9764  17.9764  18.1040  18.1040  18.1788  18.1788  18.3792  18.3792
    18.4327  18.4327  18.4662  18.4662  18.5072  18.5072  18.5702  18.5702
    19.8838  19.8838  19.8978  19.8978  20.1150  20.1150  20.1780  20.1780
    20.8600  20.8600  20.9188  20.9188  21.0466  21.0466  21.0743  21.0743
    22.0580  22.0580  22.0709  22.0709  22.0863  22.0863  22.6531  22.6531
    22.6700  22.6700  22.8633  22.8633  23.0921  23.0921  23.1001  23.1001
    23.2883  23.2883  23.3114  23.3114  24.1223  24.1223  24.1284  24.1284
    24.6445  24.6445  25.1183  25.1183  25.4501  25.4501  26.6109  26.6109
    26.9696  26.9696

          k = 0.0000 0.4075 0.0000 ( 12162 PWs)   bands (ev):

   -86.2056 -86.2056 -86.2010 -86.2010 -86.1977 -86.1977 -86.1918 -86.1918
   -86.1273 -86.1273 -86.1242 -86.1242 -86.1111 -86.1111 -86.1096 -86.1096
   -86.0899 -86.0899 -86.0892 -86.0892 -86.0773 -86.0773 -86.0771 -86.0771
   -86.0771 -86.0771 -86.0770 -86.0770 -86.0642 -86.0642 -86.0640 -86.0640
   -57.6820 -57.6820 -57.6820 -57.6820 -57.6782 -57.6782 -57.6782 -57.6782
   -57.6181 -57.6181 -57.6181 -57.6181 -57.6142 -57.6142 -57.6141 -57.6141
   -48.2631 -48.2631 -48.2532 -48.2532 -48.2491 -48.2491 -48.2377 -48.2377
   -48.1895 -48.1895 -48.1891 -48.1891 -48.1781 -48.1781 -48.1773 -48.1773
   -48.1514 -48.1514 -48.1500 -48.1500 -48.1356 -48.1356 -48.1354 -48.1354
   -48.0695 -48.0695 -48.0596 -48.0596 -48.0482 -48.0482 -48.0406 -48.0406
   -46.1752 -46.1752 -46.1620 -46.1620 -46.1557 -46.1557 -46.1401 -46.1401
   -46.0878 -46.0878 -46.0764 -46.0764 -46.0650 -46.0650 -46.0625 -46.0625
   -46.0338 -46.0338 -46.0184 -46.0184 -46.0100 -46.0100 -45.9998 -45.9998
   -45.9933 -45.9933 -45.9747 -45.9747 -45.9718 -45.9718 -45.9627 -45.9627
   -45.9239 -45.9239 -45.9045 -45.9045 -45.8864 -45.8864 -45.8795 -45.8795
   -45.8734 -45.8734 -45.8679 -45.8679 -45.8596 -45.8596 -45.8499 -45.8499
   -45.8413 -45.8413 -45.8338 -45.8338 -45.8214 -45.8214 -45.8204 -45.8204
   -45.8103 -45.8103 -45.8039 -45.8039 -45.7813 -45.7813 -45.7802 -45.7802
   -24.8259 -24.8259 -24.8257 -24.8257 -24.8158 -24.8158 -24.8156 -24.8156
   -24.7605 -24.7605 -24.7600 -24.7600 -24.7497 -24.7497 -24.7493 -24.7493
   -24.5475 -24.5475 -24.5472 -24.5472 -24.5406 -24.5406 -24.5392 -24.5392
   -24.5362 -24.5362 -24.5346 -24.5346 -24.5200 -24.5200 -24.5192 -24.5192
   -24.4770 -24.4770 -24.4767 -24.4767 -24.4649 -24.4649 -24.4640 -24.4640
   -24.4604 -24.4604 -24.4594 -24.4594 -24.4497 -24.4497 -24.4496 -24.4496
     8.3056   8.3056   8.9718   8.9718   8.9979   8.9979  10.5510  10.5510
    11.0759  11.0759  11.2164  11.2164  11.4478  11.4478  11.4736  11.4736
    11.9399  11.9399  11.9788  11.9788  12.1524  12.1524  12.2563  12.2563
    12.4153  12.4153  12.4888  12.4888  12.5858  12.5858  12.6996  12.6996
    12.7339  12.7339  12.8234  12.8234  12.8390  12.8390  12.8800  12.8800
    12.8966  12.8966  13.0200  13.0200  13.1723  13.1723  13.2378  13.2378
    13.2544  13.2544  13.2959  13.2959  13.3405  13.3405  13.4093  13.4093
    13.4255  13.4255  13.4638  13.4638  13.4663  13.4663  13.6108  13.6108
    13.6237  13.6237  13.6774  13.6774  13.6959  13.6959  13.7394  13.7394
    13.8079  13.8079  13.8421  13.8421  13.9215  13.9215  13.9659  13.9659
    14.0636  14.0636  14.1202  14.1202  14.1623  14.1623  14.2129  14.2129
    14.3412  14.3412  14.3675  14.3675  14.4504  14.4504  14.4834  14.4834
    14.5180  14.5180  14.6665  14.6665  14.7091  14.7091  14.7345  14.7345
    14.7554  14.7554  14.8312  14.8312  14.9315  14.9315  14.9570  14.9570
    15.0158  15.0158  15.0829  15.0829  15.1500  15.1500  15.1599  15.1599
    15.2310  15.2310  15.3337  15.3337  15.3655  15.3655  15.4012  15.4012
    15.4612  15.4612  15.5043  15.5043  15.5165  15.5165  15.5967  15.5967
    15.6358  15.6358  15.6785  15.6785  15.7795  15.7795  15.8179  15.8179
    15.8854  15.8854  15.9652  15.9652  15.9765  15.9765  15.9885  15.9885
    16.0541  16.0541  16.0689  16.0689  16.0844  16.0844  16.1262  16.1262
    16.2013  16.2013  16.2442  16.2442  16.2593  16.2593  16.4277  16.4277
    16.4491  16.4491  16.5420  16.5420  16.6637  16.6637  16.8254  16.8254
    17.1786  17.1786  17.2024  17.2024  17.6799  17.6799  17.6990  17.6990
    17.9330  17.9330  18.0378  18.0378  18.1116  18.1116  18.4085  18.4085
    18.4156  18.4156  18.4757  18.4757  18.4983  18.4983  18.6390  18.6390
    19.3995  19.3995  19.9667  19.9667  20.3182  20.3182  20.3689  20.3689
    22.0565  22.0565  22.1844  22.1844  22.2442  22.2442  22.6220  22.6220
    23.3806  23.3806  23.5752  23.5752  23.7248  23.7248  23.8703  23.8703
    23.9209  23.9209  23.9987  23.9987  24.6402  24.6402  24.8553  24.8553
    25.2110  25.2110  25.3441  25.3441  25.5037  25.5037  26.0638  26.0638
    26.2601  26.2601  27.0247  27.0247  27.3333  27.3333  27.3452  27.3452
    27.6609  27.6609

          k = 0.3529 0.6112 0.0000 ( 12162 PWs)   bands (ev):

   -86.2017 -86.2017 -86.2017 -86.2017 -86.1942 -86.1942 -86.1942 -86.1942
   -86.1128 -86.1128 -86.1128 -86.1128 -86.1052 -86.1052 -86.1052 -86.1052
   -86.0949 -86.0949 -86.0948 -86.0948 -86.0923 -86.0923 -86.0922 -86.0922
   -86.0770 -86.0770 -86.0770 -86.0770 -86.0641 -86.0641 -86.0640 -86.0640
   -57.6818 -57.6818 -57.6818 -57.6818 -57.6780 -57.6780 -57.6780 -57.6780
   -57.6184 -57.6184 -57.6184 -57.6184 -57.6144 -57.6144 -57.6144 -57.6144
   -48.2606 -48.2606 -48.2595 -48.2595 -48.2436 -48.2436 -48.2422 -48.2422
   -48.1853 -48.1853 -48.1848 -48.1848 -48.1736 -48.1736 -48.1731 -48.1731
   -48.1163 -48.1163 -48.1098 -48.1098 -48.1078 -48.1078 -48.1067 -48.1067
   -48.0940 -48.0940 -48.0879 -48.0879 -48.0801 -48.0801 -48.0782 -48.0782
   -46.1698 -46.1698 -46.1664 -46.1664 -46.1511 -46.1511 -46.1473 -46.1473
   -46.0552 -46.0552 -46.0513 -46.0513 -46.0378 -46.0378 -46.0358 -46.0358
   -46.0298 -46.0298 -46.0246 -46.0246 -46.0227 -46.0227 -45.9871 -45.9871
   -45.9705 -45.9705 -45.9688 -45.9688 -45.9477 -45.9477 -45.9400 -45.9400
   -45.9214 -45.9214 -45.9196 -45.9196 -45.8886 -45.8886 -45.8872 -45.8872
   -45.8811 -45.8811 -45.8792 -45.8792 -45.8685 -45.8685 -45.8619 -45.8619
   -45.8536 -45.8536 -45.8530 -45.8530 -45.8418 -45.8418 -45.8327 -45.8327
   -45.8299 -45.8299 -45.8260 -45.8260 -45.8023 -45.8023 -45.8018 -45.8018
   -24.8256 -24.8256 -24.8238 -24.8238 -24.8154 -24.8154 -24.8135 -24.8135
   -24.7627 -24.7627 -24.7626 -24.7626 -24.7518 -24.7518 -24.7518 -24.7518
   -24.5516 -24.5516 -24.5425 -24.5425 -24.5411 -24.5411 -24.5409 -24.5409
   -24.5297 -24.5297 -24.5295 -24.5295 -24.5268 -24.5268 -24.5156 -24.5156
   -24.4758 -24.4758 -24.4757 -24.4757 -24.4689 -24.4689 -24.4684 -24.4684
   -24.4602 -24.4602 -24.4582 -24.4582 -24.4489 -24.4489 -24.4489 -24.4489
    10.1360  10.1360  10.1369  10.1369  10.6260  10.6260  10.7337  10.7337
    10.7420  10.7420  10.9328  10.9328  11.0784  11.0784  11.0851  11.0851
    11.2818  11.2818  12.0307  12.0307  12.0313  12.0313  12.1336  12.1336
    12.1932  12.1932  12.2075  12.2075  12.2172  12.2172  12.7307  12.7307
    12.7363  12.7363  12.7681  12.7681  12.9969  12.9969  12.9991  12.9991
    13.1461  13.1461  13.1555  13.1555  13.3709  13.3709  13.3847  13.3847
    13.4261  13.4261  13.4394  13.4394  13.4902  13.4902  13.5250  13.5250
    13.5441  13.5441  13.5447  13.5447  13.6567  13.6567  13.6885  13.6885
    13.7144  13.7144  13.7531  13.7531  13.7565  13.7565  13.7629  13.7629
    13.8036  13.8036  13.8339  13.8339  13.8355  13.8355  13.8732  13.8732
    13.8867  13.8867  13.8882  13.8882  13.9354  13.9354  13.9546  13.9546
    14.0372  14.0372  14.0575  14.0575  14.0690  14.0690  14.1081  14.1081
    14.1328  14.1328  14.3613  14.3613  14.3699  14.3699  14.3736  14.3736
    14.5299  14.5299  14.7295  14.7295  14.7336  14.7336  14.7629  14.7629
    14.7720  14.7720  14.8373  14.8373  15.0483  15.0483  15.0555  15.0555
    15.1692  15.1692  15.2441  15.2441  15.2587  15.2587  15.2595  15.2595
    15.3313  15.3313  15.3516  15.3516  15.3886  15.3886  15.4903  15.4903
    15.5544  15.5544  15.5871  15.5871  15.5985  15.5985  15.6147  15.6147
    15.6673  15.6673  15.6971  15.6971  15.7335  15.7335  15.7533  15.7533
    15.7887  15.7887  15.7930  15.7930  15.8624  15.8624  15.9409  15.9409
    16.1572  16.1572  16.2015  16.2015  16.3257  16.3257  16.3415  16.3415
    16.3672  16.3672  16.4810  16.4810  16.4890  16.4890  16.6307  16.6307
    16.7108  16.7108  16.7835  16.7835  16.7837  16.7837  17.0328  17.0328
    17.2372  17.2372  17.2510  17.2510  17.3640  17.3640  18.9342  18.9342
    18.9574  18.9574  19.0157  19.0157  19.2619  19.2619  19.2687  19.2687
    19.9651  19.9651  21.8746  21.8746  21.8781  21.8781  22.0874  22.0874
    22.3366  22.3366  22.3369  22.3369  23.1758  23.1758  23.1777  23.1777
    23.2355  23.2355  23.3382  23.3382  23.3470  23.3470  23.5254  23.5254
    23.8561  23.8561  24.3770  24.3770  24.3916  24.3916  24.4104  24.4104
    25.3548  25.3548  25.3584  25.3584  25.9770  25.9770  25.9949  25.9949
    26.0679  26.0679  27.1178  27.1178  28.0825  28.0825  28.0949  28.0949
    28.4365  28.4366

     the Fermi energy is    16.9152 ev

!    total energy              =   -7950.31536611 Ry
     total all-electron energy =    -51824.167449 Ry
     estimated scf accuracy    <          8.1E-09 Ry
     smearing contrib. (-TS)   =       0.05571338 Ry
     internal energy E=F+TS    =   -7950.37107949 Ry

     The total energy is F=E-TS. E is the sum of the following terms:
     one-electron contribution =   -4057.28482894 Ry
     hartree contribution      =    2233.41757171 Ry
     xc contribution           =    -685.06126750 Ry
     ewald contribution        =   -3902.75252123 Ry
     one-center paw contrib.   =   -1538.69003352 Ry

     convergence has been achieved in  27 iterations

     Forces acting on atoms (cartesian axes, Ry/au):

     atom    1 type  1   force =    -0.00000000   -0.00000000    0.00579774
     atom    2 type  1   force =    -0.00000000   -0.00000000    0.00579774
     atom    3 type  1   force =    -0.00000000   -0.00000000   -0.00579774
     atom    4 type  1   force =     0.00000000    0.00000000   -0.00579774
     atom    5 type  1   force =     0.00000000    0.00000000    0.00102273
     atom    6 type  1   force =     0.00000000    0.00000000    0.00102273
     atom    7 type  1   force =    -0.00000000   -0.00000000   -0.00102273
     atom    8 type  1   force =    -0.00000000   -0.00000000   -0.00102273
     atom    9 type  2   force =     0.00000000    0.00000000    0.00120497
     atom   10 type  2   force =    -0.00000000   -0.00000000    0.00120497
     atom   11 type  2   force =     0.00000000    0.00000000   -0.00120497
     atom   12 type  2   force =    -0.00000000   -0.00000000   -0.00120497
     atom   13 type  2   force =    -0.00000000   -0.03009636    0.00000000
     atom   14 type  2   force =     0.02606421   -0.01504818   -0.00000000
     atom   15 type  2   force =     0.00000000    0.03009636    0.00000000
     atom   16 type  2   force =    -0.02606421    0.01504818   -0.00000000
     atom   17 type  2   force =     0.02606421    0.01504818    0.00000000
     atom   18 type  2   force =    -0.02606421   -0.01504818    0.00000000
     atom   19 type  2   force =    -0.00000000   -0.00000000   -0.00000000
     atom   20 type  2   force =    -0.00000000   -0.00000000   -0.00000000
     atom   21 type  2   force =     0.00000000    0.00000000    0.00000000
     atom   22 type  2   force =     0.00000000    0.00000000    0.00000000
     atom   23 type  2   force =    -0.00000000    0.00000000    0.00000000
     atom   24 type  2   force =     0.00000000    0.00000000    0.00000000
     The non-local contrib.  to forces
     atom    1 type  1   force =     0.00000000    0.00000000    0.03365541
     atom    2 type  1   force =    -0.00000000   -0.00000000    0.03365541
     atom    3 type  1   force =     0.00000000    0.00000000   -0.03365541
     atom    4 type  1   force =    -0.00000000   -0.00000000   -0.03365541
     atom    5 type  1   force =    -0.00000000   -0.00000000   -0.00280848
     atom    6 type  1   force =    -0.00000000   -0.00000000   -0.00280848
     atom    7 type  1   force =    -0.00000000   -0.00000000    0.00280848
     atom    8 type  1   force =    -0.00000000   -0.00000000    0.00280848
     atom    9 type  2   force =     0.00000000    0.00000000    0.03133139
     atom   10 type  2   force =     0.00000000    0.00000000    0.03133139
     atom   11 type  2   force =     0.00000000    0.00000000   -0.03133139
     atom   12 type  2   force =     0.00000000    0.00000000   -0.03133139
     atom   13 type  2   force =    -0.00000000   -0.05982821    0.00000000
     atom   14 type  2   force =     0.05181275   -0.02991410   -0.00000000
     atom   15 type  2   force =     0.00000000    0.05982821    0.00000000
     atom   16 type  2   force =    -0.05181275    0.02991410    0.00000000
     atom   17 type  2   force =     0.05181275    0.02991411   -0.00000000
     atom   18 type  2   force =    -0.05181275   -0.02991411    0.00000000
     atom   19 type  2   force =    -0.00000000   -0.00000000    0.00000000
     atom   20 type  2   force =    -0.00000000    0.00000000    0.00000000
     atom   21 type  2   force =     0.00000000    0.00000000   -0.00000000
     atom   22 type  2   force =    -0.00000000   -0.00000000   -0.00000000
     atom   23 type  2   force =     0.00000000    0.00000000    0.00000000
     atom   24 type  2   force =    -0.00000000   -0.00000000    0.00000000
     The ionic contribution  to forces
     atom    1 type  1   force =    -0.00001496    0.00001173   -0.36346693
     atom    2 type  1   force =     0.00001496   -0.00001173   -0.36346693
     atom    3 type  1   force =     0.00001496   -0.00001173    0.36346693
     atom    4 type  1   force =    -0.00001496    0.00001173    0.36346693
     atom    5 type  1   force =     0.00006658   -0.00003504    0.10927807
     atom    6 type  1   force =    -0.00006658    0.00003504    0.10927807
     atom    7 type  1   force =    -0.00006658    0.00003504   -0.10927807
     atom    8 type  1   force =     0.00006658   -0.00003504   -0.10927807
     atom    9 type  2   force =     0.00006670   -0.00003832    0.89349423
     atom   10 type  2   force =    -0.00006670    0.00003832    0.89349423
     atom   11 type  2   force =    -0.00006670    0.00003832   -0.89349423
     atom   12 type  2   force =     0.00006670   -0.00003832   -0.89349423
     atom   13 type  2   force =     0.00008700  -17.07680367   -0.00000000
     atom   14 type  2   force =    14.78904185   -8.53845923   -0.00000000
     atom   15 type  2   force =    -0.00008700   17.07680367   -0.00000000
     atom   16 type  2   force =   -14.78904185    8.53845923   -0.00000000
     atom   17 type  2   force =    14.78898745    8.53833097   -0.00000000
     atom   18 type  2   force =   -14.78898745   -8.53833097   -0.00000000
     atom   19 type  2   force =     0.00000000   -0.00000000   -0.00000000
     atom   20 type  2   force =    -0.00000000    0.00000000   -0.00000000
     atom   21 type  2   force =     0.00000000   -0.00000000   -0.00000000
     atom   22 type  2   force =    -0.00000000   -0.00000000   -0.00000000
     atom   23 type  2   force =     0.00000000   -0.00000000   -0.00000000
     atom   24 type  2   force =    -0.00000000   -0.00000000   -0.00000000
     The local contribution  to forces
     atom    1 type  1   force =    -0.00000250   -0.00000139    0.33578719
     atom    2 type  1   force =     0.00000250    0.00000139    0.33578719
     atom    3 type  1   force =     0.00000250    0.00000139   -0.33578719
     atom    4 type  1   force =    -0.00000250   -0.00000139   -0.33578719
     atom    5 type  1   force =     0.00134645   -0.00078049   -0.10545440
     atom    6 type  1   force =    -0.00134645    0.00078049   -0.10545440
     atom    7 type  1   force =    -0.00134645    0.00078049    0.10545440
     atom    8 type  1   force =     0.00134645   -0.00078049    0.10545440
     atom    9 type  2   force =     0.00179695   -0.00103763   -0.92018408
     atom   10 type  2   force =    -0.00179695    0.00103763   -0.92018408
     atom   11 type  2   force =    -0.00179695    0.00103763    0.92018408
     atom   12 type  2   force =     0.00179695   -0.00103763    0.92018408
     atom   13 type  2   force =    -0.00179878   17.10693788    0.00000000
     atom   14 type  2   force =   -14.81261771    8.55206982    0.00000000
     atom   15 type  2   force =     0.00179878  -17.10693788    0.00000000
     atom   16 type  2   force =    14.81261771   -8.55206982    0.00000000
     atom   17 type  2   force =   -14.81594136   -8.55191529    0.00000000
     atom   18 type  2   force =    14.81594136    8.55191529    0.00000000
     atom   19 type  2   force =     0.00000000    0.00000000    0.00000000
     atom   20 type  2   force =    -0.00000000   -0.00000000   -0.00000000
     atom   21 type  2   force =    -0.00000000    0.00000000    0.00000000
     atom   22 type  2   force =    -0.00000000   -0.00000000    0.00000000
     atom   23 type  2   force =    -0.00000000    0.00000000   -0.00000000
     atom   24 type  2   force =    -0.00000000    0.00000000    0.00000000
     The core correction contribution to forces
     atom    1 type  1   force =    -0.00000000    0.00000000   -0.00016103
     atom    2 type  1   force =     0.00000000   -0.00000000   -0.00016103
     atom    3 type  1   force =     0.00000000   -0.00000000    0.00016103
     atom    4 type  1   force =    -0.00000000    0.00000000    0.00016103
     atom    5 type  1   force =     0.00000297   -0.00000171    0.00000250
     atom    6 type  1   force =    -0.00000297    0.00000171    0.00000250
     atom    7 type  1   force =    -0.00000297    0.00000171   -0.00000250
     atom    8 type  1   force =     0.00000297   -0.00000171   -0.00000250
     atom    9 type  2   force =     0.00000115   -0.00000067   -0.00349411
     atom   10 type  2   force =    -0.00000115    0.00000067   -0.00349411
     atom   11 type  2   force =    -0.00000115    0.00000067    0.00349411
     atom   12 type  2   force =     0.00000115   -0.00000067    0.00349411
     atom   13 type  2   force =    -0.00000115    0.00060930    0.00000000
     atom   14 type  2   force =    -0.00052590    0.00030363    0.00000000
     atom   15 type  2   force =     0.00000115   -0.00060930    0.00000000
     atom   16 type  2   force =     0.00052590   -0.00030363    0.00000000
     atom   17 type  2   force =    -0.00052824   -0.00030365    0.00000000
     atom   18 type  2   force =     0.00052824    0.00030365    0.00000000
     atom   19 type  2   force =     0.00000000    0.00000000    0.00000000
     atom   20 type  2   force =    -0.00000000   -0.00000000    0.00000000
     atom   21 type  2   force =     0.00000000    0.00000000    0.00000000
     atom   22 type  2   force =    -0.00000000   -0.00000000    0.00000000
     atom   23 type  2   force =    -0.00000000    0.00000000    0.00000000
     atom   24 type  2   force =    -0.00000000    0.00000000    0.00000000
     The Hubbard contrib.    to forces
     atom    1 type  1   force =     0.00000000    0.00000000    0.00000000
     atom    2 type  1   force =     0.00000000    0.00000000    0.00000000
     atom    3 type  1   force =     0.00000000    0.00000000    0.00000000
     atom    4 type  1   force =     0.00000000    0.00000000    0.00000000
     atom    5 type  1   force =     0.00000000    0.00000000    0.00000000
     atom    6 type  1   force =     0.00000000    0.00000000    0.00000000
     atom    7 type  1   force =     0.00000000    0.00000000    0.00000000
     atom    8 type  1   force =     0.00000000    0.00000000    0.00000000
     atom    9 type  2   force =     0.00000000    0.00000000    0.00000000
     atom   10 type  2   force =     0.00000000    0.00000000    0.00000000
     atom   11 type  2   force =     0.00000000    0.00000000    0.00000000
     atom   12 type  2   force =     0.00000000    0.00000000    0.00000000
     atom   13 type  2   force =     0.00000000    0.00000000    0.00000000
     atom   14 type  2   force =     0.00000000    0.00000000    0.00000000
     atom   15 type  2   force =     0.00000000    0.00000000    0.00000000
     atom   16 type  2   force =     0.00000000    0.00000000    0.00000000
     atom   17 type  2   force =     0.00000000    0.00000000    0.00000000
     atom   18 type  2   force =     0.00000000    0.00000000    0.00000000
     atom   19 type  2   force =     0.00000000    0.00000000    0.00000000
     atom   20 type  2   force =     0.00000000    0.00000000    0.00000000
     atom   21 type  2   force =     0.00000000    0.00000000    0.00000000
     atom   22 type  2   force =     0.00000000    0.00000000    0.00000000
     atom   23 type  2   force =     0.00000000    0.00000000    0.00000000
     atom   24 type  2   force =     0.00000000    0.00000000    0.00000000
     The SCF correction term to forces
     atom    1 type  1   force =    -0.00000021    0.00000012   -0.00001688
     atom    2 type  1   force =     0.00000021   -0.00000012   -0.00001688
     atom    3 type  1   force =     0.00000021   -0.00000012    0.00001688
     atom    4 type  1   force =    -0.00000021    0.00000012    0.00001688
     atom    5 type  1   force =     0.00000020   -0.00000011    0.00000505
     atom    6 type  1   force =    -0.00000020    0.00000011    0.00000505
     atom    7 type  1   force =    -0.00000020    0.00000011   -0.00000505
     atom    8 type  1   force =     0.00000020   -0.00000011   -0.00000505
     atom    9 type  2   force =     0.00000146   -0.00000085    0.00005754
     atom   10 type  2   force =    -0.00000146    0.00000085    0.00005754
     atom   11 type  2   force =    -0.00000146    0.00000085   -0.00005754
     atom   12 type  2   force =     0.00000146   -0.00000085   -0.00005754
     atom   13 type  2   force =     0.00000008   -0.00004062   -0.00000000
     atom   14 type  2   force =     0.00003533   -0.00002039    0.00000000
     atom   15 type  2   force =    -0.00000008    0.00004062    0.00000000
     atom   16 type  2   force =    -0.00003533    0.00002039   -0.00000000
     atom   17 type  2   force =     0.00003522    0.00002024   -0.00000000
     atom   18 type  2   force =    -0.00003522   -0.00002024    0.00000000
     atom   19 type  2   force =     0.00000000   -0.00000000    0.00000000
     atom   20 type  2   force =     0.00000000   -0.00000000   -0.00000000
     atom   21 type  2   force =    -0.00000000    0.00000000   -0.00000000
     atom   22 type  2   force =    -0.00000000   -0.00000000    0.00000000
     atom   23 type  2   force =    -0.00000000   -0.00000000   -0.00000000
     atom   24 type  2   force =    -0.00000000   -0.00000000    0.00000000

     Total force =     0.074694     Total SCF correction =     0.000156


     Computing stress (Cartesian axis) and pressure

          total   stress  (Ry/bohr**3)                   (kbar)     P=      274.60
   0.00186159   0.00000000   0.00000000          273.85        0.00        0.00
   0.00000000   0.00186159   0.00000000            0.00      273.85        0.00
   0.00000000   0.00000000   0.00187681            0.00        0.00      276.09

     Energy error            =      1.9E-01 Ry
     Gradient error          =      3.0E-02 Ry/Bohr
     Cell gradient error     =      2.8E+02 kbar

     number of scf cycles    =   2
     number of bfgs steps    =   1

     enthalpy           old  =   -7950.1207552318 Ry
     enthalpy           new  =   -7950.3153661071 Ry

     CASE: enthalpy          _new < enthalpy          _old

     new trust radius        =       0.0500000000 bohr
     new conv_thr            =       0.0000000050 Ry

     new unit-cell volume =   1747.24158 a.u.^3 (   258.91449 Ang^3 )
     density =      7.26988 g/cm^3

CELL_PARAMETERS (angstrom)
   4.499298782  -0.000000028   0.000000000
  -2.249649890   3.896507349   0.000000000
   0.000000000   0.000000000  14.768487648

ATOMIC_POSITIONS (crystal)
Mg           -0.0000000000       -0.0000000000        0.4061634203
Mg           -0.0000000000       -0.0000000000        0.9061634203
Mg           -0.0000000000       -0.0000000000        0.5938365797
Mg            0.0000000000        0.0000000000        0.0938365797
Mg            0.3333330000        0.6666670000        0.6558371431
Mg            0.6666670000        0.3333330000        0.1558371431
Mg            0.6666670000        0.3333330000        0.3441628569
Mg            0.3333330000        0.6666670000        0.8441628569
Ni            0.3333330000        0.6666670000        0.3750025614
Ni            0.6666670000        0.3333330000        0.8750025614
Ni            0.6666670000        0.3333330000        0.6249974386
Ni            0.3333330000        0.6666670000        0.1249974386
Ni            0.1657331328        0.3314652659        0.2500000000
Ni            0.8342668672        0.1657331332        0.7500000000
Ni            0.8342668672        0.6685347341        0.7500000000
Ni            0.1657331328        0.8342668668        0.2500000000
Ni            0.6685347344        0.8342668672        0.2500000000
Ni            0.3314652656        0.1657331328        0.7500000000
Ni            0.5000000000        0.0000000000        0.5000000000
Ni            0.5000000000        0.5000000000       -0.0000000000
Ni            0.5000000000        0.0000000000        0.0000000000
Ni            0.5000000000        0.5000000000        0.5000000000
Ni           -0.0000000000        0.5000000000       -0.0000000000
Ni           -0.0000000000        0.5000000000        0.5000000000



     Writing config-only to output data dir ./C36_out/laves_C36.save/
     NEW-OLD atomic charge density approx. for the potential

     Check: negative core charge=   -0.000015
     extrapolated charge  374.52454, renormalised to  368.00000

     total cpu time spent up to now is     1395.5 secs

     Self-consistent Calculation

     iteration #  1     ecut=    50.00 Ry     beta= 0.10
     Davidson diagonalization with overlap
     c_bands:  2 eigenvalues not converged
     c_bands:  2 eigenvalues not converged
     ethr =  1.00E-06,  avg # of iterations = 18.3

     total cpu time spent up to now is     1466.4 secs

     total energy              =   -7945.11558198 Ry
     estimated scf accuracy    <      22.29343370 Ry

     iteration #  2     ecut=    50.00 Ry     beta= 0.10
     Davidson diagonalization with overlap
     ethr =  6.06E-03,  avg # of iterations =  2.0

     total cpu time spent up to now is     1490.4 secs

     total energy              =   -7950.49304660 Ry
     estimated scf accuracy    <       1.07358739 Ry

     iteration #  3     ecut=    50.00 Ry     beta= 0.10
     Davidson diagonalization with overlap
     ethr =  2.92E-04,  avg # of iterations =  3.7

     total cpu time spent up to now is     1512.5 secs

     total energy              =   -7950.53996969 Ry
     estimated scf accuracy    <       1.11915502 Ry

     iteration #  4     ecut=    50.00 Ry     beta= 0.10
     Davidson diagonalization with overlap
     ethr =  2.92E-04,  avg # of iterations =  1.0

     total cpu time spent up to now is     1531.6 secs

     total energy              =   -7950.53125268 Ry
     estimated scf accuracy    <       1.15963037 Ry

     iteration #  5     ecut=    50.00 Ry     beta= 0.10
     Davidson diagonalization with overlap
     ethr =  2.92E-04,  avg # of iterations =  1.0

     total cpu time spent up to now is     1550.7 secs

     total energy              =   -7950.40973486 Ry
     estimated scf accuracy    <       1.09761115 Ry

     iteration #  6     ecut=    50.00 Ry     beta= 0.10
     Davidson diagonalization with overlap
     ethr =  2.92E-04,  avg # of iterations =  1.0

     total cpu time spent up to now is     1569.7 secs

     total energy              =   -7950.34045443 Ry
     estimated scf accuracy    <       0.42801113 Ry

     iteration #  7     ecut=    50.00 Ry     beta= 0.10
     Davidson diagonalization with overlap
     ethr =  1.16E-04,  avg # of iterations =  1.3

     total cpu time spent up to now is     1589.5 secs

     total energy              =   -7950.37663950 Ry
     estimated scf accuracy    <       0.02770403 Ry

     iteration #  8     ecut=    50.00 Ry     beta= 0.10
     Davidson diagonalization with overlap
     ethr =  7.53E-06,  avg # of iterations =  9.0

     total cpu time spent up to now is     1615.1 secs

     total energy              =   -7950.37027328 Ry
     estimated scf accuracy    <       0.07420889 Ry

     iteration #  9     ecut=    50.00 Ry     beta= 0.10
     Davidson diagonalization with overlap
     ethr =  7.53E-06,  avg # of iterations =  1.0

     total cpu time spent up to now is     1634.2 secs

     total energy              =   -7950.37334393 Ry
     estimated scf accuracy    <       0.02860869 Ry

     iteration # 10     ecut=    50.00 Ry     beta= 0.10
     Davidson diagonalization with overlap
     ethr =  7.53E-06,  avg # of iterations =  1.0

     total cpu time spent up to now is     1653.4 secs

     total energy              =   -7950.37173651 Ry
     estimated scf accuracy    <       0.04693932 Ry

     iteration # 11     ecut=    50.00 Ry     beta= 0.10
     Davidson diagonalization with overlap
     ethr =  7.53E-06,  avg # of iterations =  1.0

     total cpu time spent up to now is     1672.5 secs

     total energy              =   -7950.36587107 Ry
     estimated scf accuracy    <       0.03407063 Ry

     iteration # 12     ecut=    50.00 Ry     beta= 0.10
     Davidson diagonalization with overlap
     ethr =  7.53E-06,  avg # of iterations =  1.0

     total cpu time spent up to now is     1691.6 secs

     total energy              =   -7950.36719181 Ry
     estimated scf accuracy    <       0.00507597 Ry

     iteration # 13     ecut=    50.00 Ry     beta= 0.10
     Davidson diagonalization with overlap
     ethr =  1.38E-06,  avg # of iterations =  1.0

     total cpu time spent up to now is     1710.6 secs

     total energy              =   -7950.36714838 Ry
     estimated scf accuracy    <       0.00482017 Ry

     iteration # 14     ecut=    50.00 Ry     beta= 0.10
     Davidson diagonalization with overlap
     ethr =  1.31E-06,  avg # of iterations =  1.0

     total cpu time spent up to now is     1732.3 secs

     total energy              =   -7950.36710890 Ry
     estimated scf accuracy    <       0.00410138 Ry

     iteration # 15     ecut=    50.00 Ry     beta= 0.10
     Davidson diagonalization with overlap
     ethr =  1.11E-06,  avg # of iterations =  1.0

     total cpu time spent up to now is     1753.8 secs

     total energy              =   -7950.36730587 Ry
     estimated scf accuracy    <       0.00360835 Ry

     iteration # 16     ecut=    50.00 Ry     beta= 0.10
     Davidson diagonalization with overlap
     ethr =  9.81E-07,  avg # of iterations =  1.0

     total cpu time spent up to now is     1777.7 secs

     total energy              =   -7950.36746472 Ry
     estimated scf accuracy    <       0.00488417 Ry

     iteration # 17     ecut=    50.00 Ry     beta= 0.10
     Davidson diagonalization with overlap
     ethr =  9.81E-07,  avg # of iterations =  1.0

     total cpu time spent up to now is     1801.8 secs

     total energy              =   -7950.36745198 Ry
     estimated scf accuracy    <       0.00596174 Ry

     iteration # 18     ecut=    50.00 Ry     beta= 0.10
     Davidson diagonalization with overlap
     ethr =  9.81E-07,  avg # of iterations =  1.0

     total cpu time spent up to now is     1825.9 secs

     total energy              =   -7950.36739020 Ry
     estimated scf accuracy    <       0.00579646 Ry

     iteration # 19     ecut=    50.00 Ry     beta= 0.10
     Davidson diagonalization with overlap
     ethr =  9.81E-07,  avg # of iterations =  1.0

     total cpu time spent up to now is     1850.0 secs

     total energy              =   -7950.36701485 Ry
     estimated scf accuracy    <       0.00533119 Ry

     iteration # 20     ecut=    50.00 Ry     beta= 0.10
     Davidson diagonalization with overlap
     ethr =  9.81E-07,  avg # of iterations =  1.0

     total cpu time spent up to now is     1874.1 secs

     total energy              =   -7950.36707946 Ry
     estimated scf accuracy    <       0.00290258 Ry

     iteration # 21     ecut=    50.00 Ry     beta= 0.10
     Davidson diagonalization with overlap
     ethr =  7.89E-07,  avg # of iterations =  1.0

     total cpu time spent up to now is     1898.1 secs

     total energy              =   -7950.36708298 Ry
     estimated scf accuracy    <       0.00269499 Ry

     iteration # 22     ecut=    50.00 Ry     beta= 0.10
     Davidson diagonalization with overlap
     ethr =  7.32E-07,  avg # of iterations =  1.0

     total cpu time spent up to now is     1922.3 secs

     total energy              =   -7950.36706757 Ry
     estimated scf accuracy    <       0.00265997 Ry

     iteration # 23     ecut=    50.00 Ry     beta= 0.10
     Davidson diagonalization with overlap
     ethr =  7.23E-07,  avg # of iterations =  1.0

     total cpu time spent up to now is     1946.3 secs

     total energy              =   -7950.36709769 Ry
     estimated scf accuracy    <       0.00263565 Ry

     iteration # 24     ecut=    50.00 Ry     beta= 0.10
     Davidson diagonalization with overlap
     ethr =  7.16E-07,  avg # of iterations =  1.0

     total cpu time spent up to now is     1970.3 secs

     total energy              =   -7950.36588059 Ry
     estimated scf accuracy    <       0.00283633 Ry

     iteration # 25     ecut=    50.00 Ry     beta= 0.10
     Davidson diagonalization with overlap
     ethr =  7.16E-07,  avg # of iterations =  2.0

     total cpu time spent up to now is     2000.6 secs

     total energy              =   -7950.36688624 Ry
     estimated scf accuracy    <       0.00230112 Ry

     iteration # 26     ecut=    50.00 Ry     beta= 0.10
     Davidson diagonalization with overlap
     ethr =  6.25E-07,  avg # of iterations =  1.0

     total cpu time spent up to now is     2024.7 secs

     total energy              =   -7950.36697091 Ry
     estimated scf accuracy    <       0.00237852 Ry

     iteration # 27     ecut=    50.00 Ry     beta= 0.10
     Davidson diagonalization with overlap
     ethr =  6.25E-07,  avg # of iterations =  1.0

     total cpu time spent up to now is     2048.0 secs

     total energy              =   -7950.36707599 Ry
     estimated scf accuracy    <       0.00316615 Ry

     iteration # 28     ecut=    50.00 Ry     beta= 0.10
     Davidson diagonalization with overlap
     ethr =  6.25E-07,  avg # of iterations =  1.0

     total cpu time spent up to now is     2071.9 secs

     total energy              =   -7950.36718128 Ry
     estimated scf accuracy    <       0.00378441 Ry

     iteration # 29     ecut=    50.00 Ry     beta= 0.10
     Davidson diagonalization with overlap
     ethr =  6.25E-07,  avg # of iterations =  1.0

     total cpu time spent up to now is     2096.0 secs

     total energy              =   -7950.36712353 Ry
     estimated scf accuracy    <       0.00455286 Ry

     iteration # 30     ecut=    50.00 Ry     beta= 0.10
     Davidson diagonalization with overlap
     ethr =  6.25E-07,  avg # of iterations =  1.0

     total cpu time spent up to now is     2120.2 secs

     total energy              =   -7950.36726458 Ry
     estimated scf accuracy    <       0.00412567 Ry

     iteration # 31     ecut=    50.00 Ry     beta= 0.10
     Davidson diagonalization with overlap
     ethr =  6.25E-07,  avg # of iterations =  1.0

     total cpu time spent up to now is     2143.5 secs

     total energy              =   -7950.36744417 Ry
     estimated scf accuracy    <       0.00506510 Ry

     iteration # 32     ecut=    50.00 Ry     beta= 0.10
     Davidson diagonalization with overlap
     ethr =  6.25E-07,  avg # of iterations =  1.0

     total cpu time spent up to now is     2167.4 secs

     total energy              =   -7950.36767084 Ry
     estimated scf accuracy    <       0.00635162 Ry

     iteration # 33     ecut=    50.00 Ry     beta= 0.10
     Davidson diagonalization with overlap
     ethr =  6.25E-07,  avg # of iterations =  1.0

     total cpu time spent up to now is     2191.1 secs

     total energy              =   -7950.36741327 Ry
     estimated scf accuracy    <       0.00785379 Ry

     iteration # 34     ecut=    50.00 Ry     beta= 0.10
     Davidson diagonalization with overlap
     ethr =  6.25E-07,  avg # of iterations =  1.0

     total cpu time spent up to now is     2214.5 secs

     total energy              =   -7950.36725274 Ry
     estimated scf accuracy    <       0.00616217 Ry

     iteration # 35     ecut=    50.00 Ry     beta= 0.10
     Davidson diagonalization with overlap
     ethr =  6.25E-07,  avg # of iterations =  1.0

     total cpu time spent up to now is     2238.2 secs

     total energy              =   -7950.36718985 Ry
     estimated scf accuracy    <       0.00498452 Ry

     iteration # 36     ecut=    50.00 Ry     beta= 0.10
     Davidson diagonalization with overlap
     ethr =  6.25E-07,  avg # of iterations =  1.0

     total cpu time spent up to now is     2258.0 secs

     total energy              =   -7950.36718891 Ry
     estimated scf accuracy    <       0.00453224 Ry

     iteration # 37     ecut=    50.00 Ry     beta= 0.10
     Davidson diagonalization with overlap
     ethr =  6.25E-07,  avg # of iterations =  1.0

     total cpu time spent up to now is     2277.5 secs

     total energy              =   -7950.36737128 Ry
     estimated scf accuracy    <       0.00442809 Ry

     iteration # 38     ecut=    50.00 Ry     beta= 0.10
     Davidson diagonalization with overlap
     ethr =  6.25E-07,  avg # of iterations =  1.0

     total cpu time spent up to now is     2297.0 secs

     total energy              =   -7950.36696305 Ry
     estimated scf accuracy    <       0.00566963 Ry

     iteration # 39     ecut=    50.00 Ry     beta= 0.10
     Davidson diagonalization with overlap
     ethr =  6.25E-07,  avg # of iterations =  1.0

     total cpu time spent up to now is     2316.2 secs

     total energy              =   -7950.36670471 Ry
     estimated scf accuracy    <       0.00331956 Ry

     iteration # 40     ecut=    50.00 Ry     beta= 0.10
     Davidson diagonalization with overlap
     ethr =  6.25E-07,  avg # of iterations =  1.0

     total cpu time spent up to now is     2335.7 secs

     total energy              =   -7950.36607553 Ry
     estimated scf accuracy    <       0.00162404 Ry

     iteration # 41     ecut=    50.00 Ry     beta= 0.10
     Davidson diagonalization with overlap
     ethr =  4.41E-07,  avg # of iterations =  2.3

     total cpu time spent up to now is     2362.2 secs

     total energy              =   -7950.36642654 Ry
     estimated scf accuracy    <       0.00092736 Ry

     iteration # 42     ecut=    50.00 Ry     beta= 0.10
     Davidson diagonalization with overlap
     ethr =  2.52E-07,  avg # of iterations =  1.3

     total cpu time spent up to now is     2383.0 secs

     total energy              =   -7950.36649584 Ry
     estimated scf accuracy    <       0.00002877 Ry

     iteration # 43     ecut=    50.00 Ry     beta= 0.10
     Davidson diagonalization with overlap
     ethr =  7.82E-09,  avg # of iterations =  2.0

     total cpu time spent up to now is     2408.1 secs

     total energy              =   -7950.36650234 Ry
     estimated scf accuracy    <       0.00002744 Ry

     iteration # 44     ecut=    50.00 Ry     beta= 0.10
     Davidson diagonalization with overlap
     ethr =  7.46E-09,  avg # of iterations =  1.0

     total cpu time spent up to now is     2427.5 secs

     total energy              =   -7950.36651356 Ry
     estimated scf accuracy    <       0.00004721 Ry

     iteration # 45     ecut=    50.00 Ry     beta= 0.10
     Davidson diagonalization with overlap
     ethr =  7.46E-09,  avg # of iterations =  2.0

     total cpu time spent up to now is     2449.0 secs

     total energy              =   -7950.36650908 Ry
     estimated scf accuracy    <       0.00010333 Ry

     iteration # 46     ecut=    50.00 Ry     beta= 0.10
     Davidson diagonalization with overlap
     ethr =  7.46E-09,  avg # of iterations =  1.0

     total cpu time spent up to now is     2468.1 secs

     total energy              =   -7950.36649558 Ry
     estimated scf accuracy    <       0.00007785 Ry

     iteration # 47     ecut=    50.00 Ry     beta= 0.10
     Davidson diagonalization with overlap
     ethr =  7.46E-09,  avg # of iterations =  2.0

     total cpu time spent up to now is     2491.3 secs

     total energy              =   -7950.36649612 Ry
     estimated scf accuracy    <       0.00002386 Ry

     iteration # 48     ecut=    50.00 Ry     beta= 0.10
     Davidson diagonalization with overlap
     ethr =  6.48E-09,  avg # of iterations =  1.0

     total cpu time spent up to now is     2510.4 secs

     total energy              =   -7950.36649447 Ry
     estimated scf accuracy    <       0.00001288 Ry

     iteration # 49     ecut=    50.00 Ry     beta= 0.10
     Davidson diagonalization with overlap
     ethr =  3.50E-09,  avg # of iterations =  1.0

     total cpu time spent up to now is     2529.5 secs

     total energy              =   -7950.36649508 Ry
     estimated scf accuracy    <       0.00000531 Ry

     iteration # 50     ecut=    50.00 Ry     beta= 0.10
     Davidson diagonalization with overlap
     ethr =  1.44E-09,  avg # of iterations =  1.0

     total cpu time spent up to now is     2548.6 secs

     total energy              =   -7950.36649455 Ry
     estimated scf accuracy    <       0.00000772 Ry

     iteration # 51     ecut=    50.00 Ry     beta= 0.10
     Davidson diagonalization with overlap
     ethr =  1.44E-09,  avg # of iterations =  1.0

     total cpu time spent up to now is     2567.7 secs

     total energy              =   -7950.36649402 Ry
     estimated scf accuracy    <       0.00000378 Ry

     iteration # 52     ecut=    50.00 Ry     beta= 0.10
     Davidson diagonalization with overlap
     ethr =  1.03E-09,  avg # of iterations =  1.3

     total cpu time spent up to now is     2587.6 secs

     total energy              =   -7950.36649406 Ry
     estimated scf accuracy    <       0.00000071 Ry

     iteration # 53     ecut=    50.00 Ry     beta= 0.10
     Davidson diagonalization with overlap
     ethr =  1.94E-10,  avg # of iterations =  2.0

     total cpu time spent up to now is     2609.1 secs

     total energy              =   -7950.36649405 Ry
     estimated scf accuracy    <       0.00000012 Ry

     iteration # 54     ecut=    50.00 Ry     beta= 0.10
     Davidson diagonalization with overlap
     ethr =  3.31E-11,  avg # of iterations =  2.0

     total cpu time spent up to now is     2631.2 secs

     total energy              =   -7950.36649408 Ry
     estimated scf accuracy    <       0.00000006 Ry

     iteration # 55     ecut=    50.00 Ry     beta= 0.10
     Davidson diagonalization with overlap
     ethr =  1.69E-11,  avg # of iterations =  2.0

     total cpu time spent up to now is     2653.5 secs

     total energy              =   -7950.36649407 Ry
     estimated scf accuracy    <       0.00000016 Ry

     iteration # 56     ecut=    50.00 Ry     beta= 0.10
     Davidson diagonalization with overlap
     ethr =  1.69E-11,  avg # of iterations =  2.0

     total cpu time spent up to now is     2675.8 secs

     total energy              =   -7950.36649407 Ry
     estimated scf accuracy    <       0.00000003 Ry

     iteration # 57     ecut=    50.00 Ry     beta= 0.10
     Davidson diagonalization with overlap
     ethr =  9.15E-12,  avg # of iterations =  1.3

     total cpu time spent up to now is     2695.7 secs

     total energy              =   -7950.36649406 Ry
     estimated scf accuracy    <       0.00000001 Ry

     iteration # 58     ecut=    50.00 Ry     beta= 0.10
     Davidson diagonalization with overlap
     ethr =  2.91E-12,  avg # of iterations =  2.0

     total cpu time spent up to now is     2719.4 secs

     End of self-consistent calculation

          k = 0.0000 0.0000 0.0000 ( 12121 PWs)   bands (ev):

   -86.5345 -86.5345 -86.5275 -86.5275 -86.5264 -86.5264 -86.5173 -86.5173
   -86.4655 -86.4655 -86.4596 -86.4596 -86.4487 -86.4487 -86.4451 -86.4451
   -86.4060 -86.4060 -86.4060 -86.4060 -86.4059 -86.4059 -86.4059 -86.4059
   -86.3942 -86.3942 -86.3941 -86.3941 -86.3941 -86.3941 -86.3940 -86.3940
   -58.0625 -58.0625 -58.0624 -58.0624 -58.0590 -58.0590 -58.0590 -58.0590
   -57.9985 -57.9985 -57.9985 -57.9985 -57.9949 -57.9949 -57.9948 -57.9948
   -48.5833 -48.5833 -48.5754 -48.5754 -48.5621 -48.5621 -48.5537 -48.5537
   -48.5221 -48.5221 -48.5205 -48.5205 -48.5130 -48.5130 -48.5116 -48.5116
   -48.5010 -48.5010 -48.5004 -48.5004 -48.4892 -48.4892 -48.4881 -48.4881
   -48.3703 -48.3703 -48.3607 -48.3607 -48.3483 -48.3483 -48.3408 -48.3408
   -46.4966 -46.4966 -46.4962 -46.4962 -46.4711 -46.4711 -46.4504 -46.4504
   -46.4408 -46.4408 -46.4276 -46.4276 -46.4007 -46.4007 -46.3836 -46.3836
   -46.3702 -46.3702 -46.3566 -46.3566 -46.3560 -46.3560 -46.3443 -46.3443
   -46.3417 -46.3417 -46.3259 -46.3259 -46.3227 -46.3227 -46.2904 -46.2904
   -46.2598 -46.2598 -46.2130 -46.2130 -46.2076 -46.2076 -46.2072 -46.2072
   -46.1807 -46.1807 -46.1764 -46.1764 -46.1753 -46.1753 -46.1419 -46.1419
   -46.1393 -46.1393 -46.1358 -46.1358 -46.1144 -46.1144 -46.1129 -46.1129
   -46.1102 -46.1102 -46.1096 -46.1096 -46.0873 -46.0873 -46.0861 -46.0861
   -25.2066 -25.2066 -25.2062 -25.2062 -25.1973 -25.1973 -25.1968 -25.1968
   -25.1365 -25.1365 -25.1351 -25.1351 -25.1259 -25.1259 -25.1247 -25.1247
   -24.9236 -24.9236 -24.9229 -24.9229 -24.9226 -24.9226 -24.9225 -24.9225
   -24.9194 -24.9194 -24.9190 -24.9190 -24.8986 -24.8986 -24.8972 -24.8972
   -24.8586 -24.8586 -24.8578 -24.8578 -24.8420 -24.8420 -24.8415 -24.8415
   -24.8383 -24.8383 -24.8378 -24.8378 -24.8325 -24.8325 -24.8322 -24.8322
     6.9221   6.9221   7.6239   7.6239   7.6459   7.6459   9.2460   9.2460
    10.0208  10.0208  10.9964  10.9964  11.0290  11.0290  11.1791  11.1791
    11.7796  11.7796  11.9151  11.9151  11.9606  11.9606  12.1680  12.1680
    12.2296  12.2296  12.2555  12.2555  12.2684  12.2684  12.2824  12.2824
    12.2933  12.2933  12.2977  12.2977  12.4818  12.4818  12.5003  12.5003
    12.5336  12.5336  12.6273  12.6273  12.6449  12.6449  12.6453  12.6453
    12.6708  12.6708  12.7127  12.7127  12.7613  12.7613  12.8046  12.8046
    12.8289  12.8289  12.8848  12.8848  13.2549  13.2549  13.2550  13.2550
    13.2943  13.2943  13.3015  13.3015  13.3066  13.3066  13.3568  13.3568
    13.5759  13.5759  13.6279  13.6279  13.8318  13.8318  13.8791  13.8791
    13.8822  13.8822  13.9297  13.9297  13.9558  13.9558  13.9949  13.9949
    14.1986  14.1986  14.2191  14.2191  14.5795  14.5795  14.7947  14.7947
    14.8152  14.8152  14.8431  14.8431  14.8698  14.8698  14.9159  14.9159
    15.0191  15.0191  15.0746  15.0746  15.2413  15.2413  15.2549  15.2549
    15.4132  15.4132  15.4302  15.4302  15.5490  15.5490  15.5610  15.5610
    15.5684  15.5684  15.5757  15.5757  15.5981  15.5981  15.6033  15.6033
    15.6139  15.6139  15.6180  15.6180  15.6288  15.6288  15.6388  15.6388
    15.6519  15.6519  15.6850  15.6850  15.6859  15.6859  15.7092  15.7092
    15.7233  15.7233  15.7708  15.7708  15.7817  15.7817  15.7981  15.7981
    15.8336  15.8336  15.9413  15.9413  16.0146  16.0146  16.3439  16.3439
    16.3979  16.3979  16.7091  16.7091  16.7118  16.7118  17.0319  17.0319
    17.0329  17.0329  17.0546  17.0546  17.0550  17.0550  17.0664  17.0664
    17.4383  17.4383  17.5516  17.5516  17.5834  17.5834  17.5905  17.5905
    17.6083  17.6083  17.7112  17.7112  17.7861  17.7861  17.9817  17.9817
    18.0534  18.0534  18.0864  18.0864  18.1257  18.1257  18.1877  18.1877
    19.5041  19.5041  19.5179  19.5179  19.7110  19.7110  19.7732  19.7732
    20.4343  20.4343  20.4923  20.4923  20.6427  20.6427  20.6701  20.6701
    21.6245  21.6245  21.6359  21.6359  21.6473  21.6473  22.1838  22.1838
    22.2086  22.2086  22.4015  22.4015  22.6483  22.6483  22.6563  22.6563
    22.8649  22.8649  22.8878  22.8878  23.6823  23.6823  23.6880  23.6880
    24.1186  24.1186  24.6017  24.6017  24.9178  24.9178  26.1013  26.1013
    26.4417  26.4417

          k = 0.0000 0.4051 0.0000 ( 12162 PWs)   bands (ev):

   -86.5304 -86.5304 -86.5262 -86.5262 -86.5236 -86.5236 -86.5185 -86.5185
   -86.4531 -86.4531 -86.4506 -86.4506 -86.4383 -86.4383 -86.4371 -86.4371
   -86.4179 -86.4179 -86.4173 -86.4173 -86.4065 -86.4065 -86.4063 -86.4063
   -86.4061 -86.4061 -86.4060 -86.4060 -86.3943 -86.3943 -86.3941 -86.3941
   -58.0621 -58.0621 -58.0621 -58.0621 -58.0586 -58.0586 -58.0586 -58.0586
   -57.9989 -57.9989 -57.9989 -57.9989 -57.9952 -57.9952 -57.9952 -57.9952
   -48.5831 -48.5831 -48.5741 -48.5741 -48.5702 -48.5702 -48.5597 -48.5597
   -48.5103 -48.5103 -48.5098 -48.5098 -48.5001 -48.5001 -48.4991 -48.4991
   -48.4742 -48.4742 -48.4728 -48.4728 -48.4600 -48.4600 -48.4597 -48.4597
   -48.3970 -48.3970 -48.3881 -48.3881 -48.3775 -48.3775 -48.3705 -48.3705
   -46.4916 -46.4916 -46.4793 -46.4793 -46.4726 -46.4726 -46.4579 -46.4579
   -46.4066 -46.4066 -46.3957 -46.3957 -46.3855 -46.3855 -46.3826 -46.3826
   -46.3535 -46.3535 -46.3388 -46.3388 -46.3313 -46.3313 -46.3218 -46.3218
   -46.3143 -46.3143 -46.2972 -46.2972 -46.2950 -46.2950 -46.2853 -46.2853
   -46.2491 -46.2491 -46.2291 -46.2291 -46.2139 -46.2139 -46.2078 -46.2078
   -46.2006 -46.2006 -46.1963 -46.1963 -46.1874 -46.1874 -46.1779 -46.1779
   -46.1705 -46.1705 -46.1638 -46.1638 -46.1490 -46.1490 -46.1481 -46.1481
   -46.1406 -46.1406 -46.1350 -46.1350 -46.1116 -46.1116 -46.1108 -46.1108
   -25.2046 -25.2046 -25.2044 -25.2044 -25.1950 -25.1950 -25.1948 -25.1948
   -25.1400 -25.1400 -25.1395 -25.1395 -25.1298 -25.1298 -25.1294 -25.1294
   -24.9256 -24.9256 -24.9253 -24.9253 -24.9190 -24.9190 -24.9178 -24.9178
   -24.9149 -24.9149 -24.9136 -24.9136 -24.8998 -24.8998 -24.8991 -24.8991
   -24.8566 -24.8566 -24.8563 -24.8563 -24.8452 -24.8452 -24.8444 -24.8444
   -24.8410 -24.8410 -24.8401 -24.8401 -24.8308 -24.8308 -24.8307 -24.8307
     8.0445   8.0445   8.7035   8.7035   8.7282   8.7282  10.2681  10.2681
    10.7892  10.7892  10.9391  10.9391  11.1784  11.1784  11.2049  11.2049
    11.6768  11.6768  11.7161  11.7161  11.8879  11.8879  11.9927  11.9927
    12.1435  12.1435  12.2214  12.2214  12.3157  12.3157  12.4298  12.4298
    12.4553  12.4553  12.5509  12.5509  12.5697  12.5697  12.6069  12.6069
    12.6221  12.6221  12.7392  12.7392  12.8881  12.8881  12.9477  12.9477
    12.9713  12.9713  13.0145  13.0145  13.0595  13.0595  13.1287  13.1287
    13.1443  13.1443  13.1820  13.1820  13.1858  13.1858  13.3250  13.3250
    13.3367  13.3367  13.3877  13.3877  13.4049  13.4049  13.4522  13.4522
    13.5163  13.5163  13.5430  13.5430  13.6235  13.6235  13.6719  13.6719
    13.7654  13.7654  13.8237  13.8237  13.8621  13.8621  13.9081  13.9081
    14.0308  14.0308  14.0624  14.0624  14.1415  14.1415  14.1738  14.1738
    14.2044  14.2044  14.3506  14.3506  14.3929  14.3929  14.4196  14.4196
    14.4404  14.4404  14.5158  14.5158  14.6111  14.6111  14.6358  14.6358
    14.6943  14.6943  14.7589  14.7589  14.8276  14.8276  14.8352  14.8352
    14.9082  14.9082  15.0066  15.0066  15.0372  15.0372  15.0707  15.0707
    15.1330  15.1330  15.1719  15.1719  15.1852  15.1852  15.2639  15.2639
    15.2980  15.2980  15.3456  15.3456  15.4403  15.4403  15.4806  15.4806
    15.5437  15.5437  15.6219  15.6219  15.6305  15.6305  15.6433  15.6433
    15.7093  15.7093  15.7227  15.7227  15.7379  15.7379  15.7775  15.7775
    15.8529  15.8529  15.8948  15.8948  15.9095  15.9095  16.0717  16.0717
    16.0935  16.0935  16.1806  16.1806  16.2993  16.2993  16.4617  16.4617
    16.8044  16.8044  16.8230  16.8230  17.2958  17.2958  17.3170  17.3170
    17.5466  17.5466  17.6488  17.6488  17.7269  17.7269  18.0187  18.0187
    18.0214  18.0214  18.0870  18.0870  18.1023  18.1023  18.2521  18.2521
    19.0040  19.0040  19.5581  19.5581  19.9045  19.9045  19.9545  19.9545
    21.6119  21.6119  21.7615  21.7615  21.8217  21.8217  22.1842  22.1842
    22.9417  22.9417  23.1270  23.1270  23.2860  23.2860  23.4023  23.4023
    23.4799  23.4799  23.5309  23.5309  24.1729  24.1729  24.4150  24.4150
    24.7415  24.7415  24.8676  24.8676  25.0585  25.0585  25.5870  25.5870
    25.7534  25.7534  26.5061  26.5061  26.8315  26.8315  26.8502  26.8502
    27.1451  27.1451

          k = 0.3508 0.6076 0.0000 ( 12162 PWs)   bands (ev):

   -86.5270 -86.5270 -86.5270 -86.5270 -86.5206 -86.5206 -86.5206 -86.5206
   -86.4402 -86.4402 -86.4401 -86.4401 -86.4318 -86.4318 -86.4318 -86.4318
   -86.4230 -86.4230 -86.4229 -86.4229 -86.4207 -86.4207 -86.4206 -86.4206
   -86.4060 -86.4060 -86.4060 -86.4060 -86.3942 -86.3942 -86.3941 -86.3941
   -58.0620 -58.0620 -58.0620 -58.0620 -58.0584 -58.0584 -58.0584 -58.0584
   -57.9991 -57.9991 -57.9991 -57.9991 -57.9954 -57.9954 -57.9954 -57.9954
   -48.5810 -48.5810 -48.5800 -48.5800 -48.5651 -48.5651 -48.5640 -48.5640
   -48.5062 -48.5062 -48.5061 -48.5061 -48.4959 -48.4959 -48.4953 -48.4953
   -48.4394 -48.4394 -48.4338 -48.4338 -48.4335 -48.4335 -48.4332 -48.4332
   -48.4210 -48.4210 -48.4151 -48.4151 -48.4085 -48.4085 -48.4065 -48.4065
   -46.4863 -46.4863 -46.4831 -46.4831 -46.4688 -46.4688 -46.4646 -46.4646
   -46.3748 -46.3748 -46.3708 -46.3708 -46.3592 -46.3592 -46.3558 -46.3558
   -46.3515 -46.3515 -46.3463 -46.3463 -46.3445 -46.3445 -46.3098 -46.3098
   -46.2932 -46.2932 -46.2928 -46.2928 -46.2742 -46.2742 -46.2657 -46.2657
   -46.2463 -46.2463 -46.2426 -46.2426 -46.2157 -46.2157 -46.2134 -46.2134
   -46.2061 -46.2061 -46.2034 -46.2034 -46.1961 -46.1961 -46.1917 -46.1917
   -46.1829 -46.1829 -46.1794 -46.1794 -46.1695 -46.1695 -46.1610 -46.1610
   -46.1597 -46.1597 -46.1556 -46.1556 -46.1302 -46.1302 -46.1298 -46.1298
   -25.2042 -25.2042 -25.2027 -25.2027 -25.1946 -25.1946 -25.1929 -25.1929
   -25.1419 -25.1419 -25.1419 -25.1419 -25.1317 -25.1317 -25.1316 -25.1316
   -24.9293 -24.9293 -24.9211 -24.9211 -24.9195 -24.9195 -24.9193 -24.9193
   -24.9092 -24.9092 -24.9090 -24.9090 -24.9059 -24.9059 -24.8958 -24.8958
   -24.8555 -24.8555 -24.8554 -24.8554 -24.8488 -24.8488 -24.8483 -24.8483
   -24.8409 -24.8409 -24.8391 -24.8391 -24.8301 -24.8301 -24.8301 -24.8301
     9.8581   9.8581   9.8590   9.8590  10.3393  10.3393  10.4508  10.4508
    10.4589  10.4589  10.6460  10.6460  10.7941  10.7941  10.8005  10.8005
    10.9957  10.9957  11.7590  11.7590  11.7595  11.7595  11.8581  11.8581
    11.9072  11.9072  11.9182  11.9182  11.9275  11.9275  12.4684  12.4684
    12.4735  12.4735  12.4969  12.4969  12.7231  12.7231  12.7237  12.7237
    12.8652  12.8652  12.8777  12.8777  13.0867  13.0867  13.1011  13.1011
    13.1402  13.1402  13.1559  13.1559  13.2073  13.2073  13.2351  13.2351
    13.2500  13.2500  13.2554  13.2554  13.3631  13.3631  13.3960  13.3960
    13.4278  13.4278  13.4541  13.4541  13.4641  13.4641  13.4694  13.4694
    13.5145  13.5145  13.5385  13.5385  13.5406  13.5406  13.5833  13.5833
    13.5962  13.5962  13.5967  13.5967  13.6410  13.6410  13.6625  13.6625
    13.7423  13.7423  13.7616  13.7616  13.7740  13.7740  13.8117  13.8117
    13.8377  13.8377  14.0589  14.0589  14.0642  14.0642  14.0713  14.0713
    14.2256  14.2256  14.4188  14.4188  14.4223  14.4223  14.4510  14.4510
    14.4608  14.4608  14.5194  14.5194  14.7243  14.7243  14.7315  14.7315
    14.8444  14.8444  14.9145  14.9145  14.9289  14.9289  14.9332  14.9332
    15.0063  15.0063  15.0253  15.0253  15.0603  15.0603  15.1568  15.1568
    15.2221  15.2221  15.2526  15.2526  15.2660  15.2660  15.2833  15.2833
    15.3344  15.3344  15.3604  15.3604  15.3944  15.3944  15.4164  15.4164
    15.4516  15.4516  15.4543  15.4543  15.5224  15.5224  15.6021  15.6021
    15.8093  15.8093  15.8530  15.8530  15.9719  15.9719  15.9836  15.9836
    16.0090  16.0090  16.1243  16.1243  16.1319  16.1319  16.2685  16.2685
    16.3462  16.3462  16.4189  16.4189  16.4190  16.4190  16.6592  16.6592
    16.8646  16.8646  16.8777  16.8777  16.9813  16.9813  18.5334  18.5334
    18.5561  18.5561  18.6106  18.6106  18.8603  18.8603  18.8674  18.8674
    19.5493  19.5493  21.4530  21.4530  21.4564  21.4564  21.6604  21.6604
    21.9113  21.9113  21.9115  21.9115  22.7342  22.7342  22.7358  22.7358
    22.7863  22.7863  22.8888  22.8888  22.8976  22.8976  23.0762  23.0762
    23.4106  23.4106  23.9206  23.9206  23.9337  23.9337  23.9468  23.9468
    24.8849  24.8849  24.8884  24.8884  25.4768  25.4768  25.4945  25.4945
    25.5704  25.5704  26.5835  26.5835  27.5691  27.5691  27.5827  27.5827
    27.5947  27.5947

     the Fermi energy is    16.5430 ev

!    total energy              =   -7950.36649406 Ry
     total all-electron energy =    -51824.218577 Ry
     estimated scf accuracy    <          7.1E-10 Ry
     smearing contrib. (-TS)   =       0.05977133 Ry
     internal energy E=F+TS    =   -7950.42626539 Ry

     The total energy is F=E-TS. E is the sum of the following terms:
     one-electron contribution =   -4094.12757981 Ry
     hartree contribution      =    2247.19182610 Ry
     xc contribution           =    -684.74384171 Ry
     ewald contribution        =   -3880.09550839 Ry
     one-center paw contrib.   =   -1538.65116158 Ry

     convergence has been achieved in  58 iterations

     Forces acting on atoms (cartesian axes, Ry/au):

     atom    1 type  1   force =     0.00000000    0.00000000    0.00571798
     atom    2 type  1   force =     0.00000000    0.00000000    0.00571798
     atom    3 type  1   force =    -0.00000000   -0.00000000   -0.00571798
     atom    4 type  1   force =    -0.00000000   -0.00000000   -0.00571798
     atom    5 type  1   force =     0.00000000    0.00000000    0.00098941
     atom    6 type  1   force =     0.00000000    0.00000000    0.00098941
     atom    7 type  1   force =     0.00000000    0.00000000   -0.00098941
     atom    8 type  1   force =     0.00000000    0.00000000   -0.00098941
     atom    9 type  2   force =    -0.00000000   -0.00000000    0.00020741
     atom   10 type  2   force =     0.00000000    0.00000000    0.00020741
     atom   11 type  2   force =    -0.00000000   -0.00000000   -0.00020741
     atom   12 type  2   force =     0.00000000    0.00000000   -0.00020741
     atom   13 type  2   force =    -0.00000000   -0.02209052    0.00000000
     atom   14 type  2   force =     0.01913095   -0.01104526   -0.00000000
     atom   15 type  2   force =     0.00000000    0.02209052    0.00000000
     atom   16 type  2   force =    -0.01913095    0.01104526    0.00000000
     atom   17 type  2   force =     0.01913095    0.01104526    0.00000000
     atom   18 type  2   force =    -0.01913095   -0.01104526    0.00000000
     atom   19 type  2   force =    -0.00000000    0.00000000    0.00000000
     atom   20 type  2   force =    -0.00000000   -0.00000000    0.00000000
     atom   21 type  2   force =    -0.00000000   -0.00000000   -0.00000000
     atom   22 type  2   force =    -0.00000000   -0.00000000    0.00000000
     atom   23 type  2   force =     0.00000000   -0.00000000   -0.00000000
     atom   24 type  2   force =     0.00000000    0.00000000    0.00000000
     The non-local contrib.  to forces
     atom    1 type  1   force =    -0.00000000   -0.00000000    0.03319122
     atom    2 type  1   force =     0.00000000    0.00000000    0.03319122
     atom    3 type  1   force =    -0.00000000   -0.00000000   -0.03319122
     atom    4 type  1   force =     0.00000000    0.00000000   -0.03319122
     atom    5 type  1   force =     0.00000000    0.00000000   -0.00273911
     atom    6 type  1   force =     0.00000000    0.00000000   -0.00273911
     atom    7 type  1   force =     0.00000000    0.00000000    0.00273911
     atom    8 type  1   force =     0.00000000    0.00000000    0.00273911
     atom    9 type  2   force =     0.00000000    0.00000000    0.02986360
     atom   10 type  2   force =    -0.00000000   -0.00000000    0.02986360
     atom   11 type  2   force =     0.00000000    0.00000000   -0.02986360
     atom   12 type  2   force =     0.00000000    0.00000000   -0.02986360
     atom   13 type  2   force =    -0.00000000   -0.06502246    0.00000000
     atom   14 type  2   force =     0.05631110   -0.03251122    0.00000000
     atom   15 type  2   force =     0.00000000    0.06502246    0.00000000
     atom   16 type  2   force =    -0.05631110    0.03251122    0.00000000
     atom   17 type  2   force =     0.05631110    0.03251124    0.00000000
     atom   18 type  2   force =    -0.05631110   -0.03251124    0.00000000
     atom   19 type  2   force =    -0.00000000    0.00000000    0.00000000
     atom   20 type  2   force =    -0.00000000   -0.00000000    0.00000000
     atom   21 type  2   force =     0.00000000   -0.00000000   -0.00000000
     atom   22 type  2   force =    -0.00000000    0.00000000    0.00000000
     atom   23 type  2   force =    -0.00000000   -0.00000000   -0.00000000
     atom   24 type  2   force =     0.00000000    0.00000000   -0.00000000
     The ionic contribution  to forces
     atom    1 type  1   force =    -0.00001490    0.00001161   -0.34772937
     atom    2 type  1   force =     0.00001490   -0.00001161   -0.34772937
     atom    3 type  1   force =     0.00001490   -0.00001161    0.34772937
     atom    4 type  1   force =    -0.00001490    0.00001161    0.34772937
     atom    5 type  1   force =     0.00006573   -0.00003464    0.11102493
     atom    6 type  1   force =    -0.00006573    0.00003464    0.11102493
     atom    7 type  1   force =    -0.00006573    0.00003464   -0.11102493
     atom    8 type  1   force =     0.00006573   -0.00003464   -0.11102493
     atom    9 type  2   force =     0.00006643   -0.00003818    0.68841853
     atom   10 type  2   force =    -0.00006643    0.00003818    0.68841853
     atom   11 type  2   force =    -0.00006643    0.00003818   -0.68841853
     atom   12 type  2   force =     0.00006643   -0.00003818   -0.68841853
     atom   13 type  2   force =     0.00008558  -16.27402504    0.00000000
     atom   14 type  2   force =    14.09381442   -8.13706951   -0.00000000
     atom   15 type  2   force =    -0.00008558   16.27402504   -0.00000000
     atom   16 type  2   force =   -14.09381442    8.13706951    0.00000000
     atom   17 type  2   force =    14.09376002    8.13694272    0.00000000
     atom   18 type  2   force =   -14.09376002   -8.13694272   -0.00000000
     atom   19 type  2   force =     0.00000000    0.00000000   -0.00000000
     atom   20 type  2   force =     0.00000000   -0.00000000    0.00000000
     atom   21 type  2   force =     0.00000000   -0.00000000    0.00000000
     atom   22 type  2   force =     0.00000000   -0.00000000    0.00000000
     atom   23 type  2   force =     0.00000000   -0.00000000    0.00000000
     atom   24 type  2   force =     0.00000000   -0.00000000    0.00000000
     The local contribution  to forces
     atom    1 type  1   force =    -0.00000243   -0.00000135    0.32040853
     atom    2 type  1   force =     0.00000243    0.00000135    0.32040853
     atom    3 type  1   force =     0.00000243    0.00000135   -0.32040853
     atom    4 type  1   force =    -0.00000243   -0.00000135   -0.32040853
     atom    5 type  1   force =     0.00135577   -0.00078577   -0.10732420
     atom    6 type  1   force =    -0.00135577    0.00078577   -0.10732420
     atom    7 type  1   force =    -0.00135577    0.00078577    0.10732420
     atom    8 type  1   force =     0.00135577   -0.00078577    0.10732420
     atom    9 type  2   force =     0.00180843   -0.00104424   -0.71462648
     atom   10 type  2   force =    -0.00180843    0.00104424   -0.71462648
     atom   11 type  2   force =    -0.00180843    0.00104424    0.71462648
     atom   12 type  2   force =     0.00180843   -0.00104424    0.71462648
     atom   13 type  2   force =    -0.00180996   16.31729413    0.00000000
     atom   14 type  2   force =   -14.12874564    8.15723577   -0.00000000
     atom   15 type  2   force =     0.00180996  -16.31729413   -0.00000000
     atom   16 type  2   force =    14.12874564   -8.15723577    0.00000000
     atom   17 type  2   force =   -14.13209596   -8.15708356    0.00000000
     atom   18 type  2   force =    14.13209596    8.15708356   -0.00000000
     atom   19 type  2   force =    -0.00000000   -0.00000000    0.00000000
     atom   20 type  2   force =    -0.00000000   -0.00000000   -0.00000000
     atom   21 type  2   force =    -0.00000000    0.00000000    0.00000000
     atom   22 type  2   force =    -0.00000000   -0.00000000    0.00000000
     atom   23 type  2   force =    -0.00000000    0.00000000    0.00000000
     atom   24 type  2   force =     0.00000000    0.00000000    0.00000000
     The core correction contribution to forces
     atom    1 type  1   force =    -0.00000000    0.00000000   -0.00015748
     atom    2 type  1   force =     0.00000000   -0.00000000   -0.00015748
     atom    3 type  1   force =     0.00000000   -0.00000000    0.00015748
     atom    4 type  1   force =    -0.00000000    0.00000000    0.00015748
     atom    5 type  1   force =     0.00000298   -0.00000172    0.00000197
     atom    6 type  1   force =    -0.00000298    0.00000172    0.00000197
     atom    7 type  1   force =    -0.00000298    0.00000172   -0.00000197
     atom    8 type  1   force =     0.00000298   -0.00000172   -0.00000197
     atom    9 type  2   force =     0.00000116   -0.00000067   -0.00341051
     atom   10 type  2   force =    -0.00000116    0.00000067   -0.00341051
     atom   11 type  2   force =    -0.00000116    0.00000067    0.00341051
     atom   12 type  2   force =     0.00000116   -0.00000067    0.00341051
     atom   13 type  2   force =    -0.00000115    0.00066105    0.00000000
     atom   14 type  2   force =    -0.00057072    0.00032950    0.00000000
     atom   15 type  2   force =     0.00000115   -0.00066105    0.00000000
     atom   16 type  2   force =     0.00057072   -0.00032950    0.00000000
     atom   17 type  2   force =    -0.00057307   -0.00032953    0.00000000
     atom   18 type  2   force =     0.00057307    0.00032953    0.00000000
     atom   19 type  2   force =    -0.00000000    0.00000000    0.00000000
     atom   20 type  2   force =    -0.00000000    0.00000000    0.00000000
     atom   21 type  2   force =    -0.00000000    0.00000000    0.00000000
     atom   22 type  2   force =    -0.00000000   -0.00000000    0.00000000
     atom   23 type  2   force =    -0.00000000    0.00000000    0.00000000
     atom   24 type  2   force =    -0.00000000    0.00000000    0.00000000
     The Hubbard contrib.    to forces
     atom    1 type  1   force =     0.00000000    0.00000000    0.00000000
     atom    2 type  1   force =     0.00000000    0.00000000    0.00000000
     atom    3 type  1   force =     0.00000000    0.00000000    0.00000000
     atom    4 type  1   force =     0.00000000    0.00000000    0.00000000
     atom    5 type  1   force =     0.00000000    0.00000000    0.00000000
     atom    6 type  1   force =     0.00000000    0.00000000    0.00000000
     atom    7 type  1   force =     0.00000000    0.00000000    0.00000000
     atom    8 type  1   force =     0.00000000    0.00000000    0.00000000
     atom    9 type  2   force =     0.00000000    0.00000000    0.00000000
     atom   10 type  2   force =     0.00000000    0.00000000    0.00000000
     atom   11 type  2   force =     0.00000000    0.00000000    0.00000000
     atom   12 type  2   force =     0.00000000    0.00000000    0.00000000
     atom   13 type  2   force =     0.00000000    0.00000000    0.00000000
     atom   14 type  2   force =     0.00000000    0.00000000    0.00000000
     atom   15 type  2   force =     0.00000000    0.00000000    0.00000000
     atom   16 type  2   force =     0.00000000    0.00000000    0.00000000
     atom   17 type  2   force =     0.00000000    0.00000000    0.00000000
     atom   18 type  2   force =     0.00000000    0.00000000    0.00000000
     atom   19 type  2   force =     0.00000000    0.00000000    0.00000000
     atom   20 type  2   force =     0.00000000    0.00000000    0.00000000
     atom   21 type  2   force =     0.00000000    0.00000000    0.00000000
     atom   22 type  2   force =     0.00000000    0.00000000    0.00000000
     atom   23 type  2   force =     0.00000000    0.00000000    0.00000000
     atom   24 type  2   force =     0.00000000    0.00000000    0.00000000
     The SCF correction term to forces
     atom    1 type  1   force =    -0.00000002    0.00000001    0.00000508
     atom    2 type  1   force =     0.00000002   -0.00000001    0.00000508
     atom    3 type  1   force =     0.00000002   -0.00000001   -0.00000508
     atom    4 type  1   force =    -0.00000002    0.00000001   -0.00000508
     atom    5 type  1   force =    -0.00000001    0.00000001    0.00002582
     atom    6 type  1   force =     0.00000001   -0.00000001    0.00002582
     atom    7 type  1   force =     0.00000001   -0.00000001   -0.00002582
     atom    8 type  1   force =    -0.00000001    0.00000001   -0.00002582
     atom    9 type  2   force =     0.00000001   -0.00000001   -0.00003772
     atom   10 type  2   force =    -0.00000001    0.00000001   -0.00003772
     atom   11 type  2   force =    -0.00000001    0.00000001    0.00003772
     atom   12 type  2   force =     0.00000001   -0.00000001    0.00003772
     atom   13 type  2   force =     0.00000008   -0.00001976    0.00000000
     atom   14 type  2   force =     0.00001700   -0.00000982    0.00000000
     atom   15 type  2   force =    -0.00000008    0.00001976   -0.00000000
     atom   16 type  2   force =    -0.00001700    0.00000982   -0.00000000
     atom   17 type  2   force =     0.00001715    0.00000981    0.00000000
     atom   18 type  2   force =    -0.00001715   -0.00000981   -0.00000000
     atom   19 type  2   force =    -0.00000000   -0.00000000   -0.00000000
     atom   20 type  2   force =    -0.00000000    0.00000000   -0.00000000
     atom   21 type  2   force =     0.00000000    0.00000000   -0.00000000
     atom   22 type  2   force =    -0.00000000    0.00000000   -0.00000000
     atom   23 type  2   force =     0.00000000    0.00000000   -0.00000000
     atom   24 type  2   force =     0.00000000    0.00000000   -0.00000000

     Total force =     0.055343     Total SCF correction =     0.000104


     Computing stress (Cartesian axis) and pressure

          total   stress  (Ry/bohr**3)                   (kbar)     P=      202.02
   0.00137202   0.00000000   0.00000000          201.83        0.00        0.00
   0.00000000   0.00137202   0.00000000            0.00      201.83        0.00
   0.00000000   0.00000000   0.00137589            0.00        0.00      202.40

     Energy error            =      5.1E-02 Ry
     Gradient error          =      2.2E-02 Ry/Bohr
     Cell gradient error     =      2.0E+02 kbar

     number of scf cycles    =   3
     number of bfgs steps    =   2

     enthalpy           old  =   -7950.3153661071 Ry
     enthalpy           new  =   -7950.3664940597 Ry

     CASE: enthalpy          _new < enthalpy          _old

     new trust radius        =       0.0500000000 bohr
     new conv_thr            =       0.0000000037 Ry

     new unit-cell volume =   1778.50220 a.u.^3 (   263.54684 Ang^3 )
     density =      7.14210 g/cm^3

CELL_PARAMETERS (angstrom)
   4.526208451  -0.000000024   0.000000000
  -2.263104725   3.919811803   0.000000000
   0.000000000   0.000000000  14.854500085

ATOMIC_POSITIONS (crystal)
Mg            0.0000000000        0.0000000000        0.4062658193
Mg            0.0000000000        0.0000000000        0.9062658193
Mg           -0.0000000000       -0.0000000000        0.5937341807
Mg           -0.0000000000       -0.0000000000        0.0937341807
Mg            0.3333330000        0.6666670000        0.6558547023
Mg            0.6666670000        0.3333330000        0.1558547023
Mg            0.6666670000        0.3333330000        0.3441452977
Mg            0.3333330000        0.6666670000        0.8441452977
Ni            0.3333330000        0.6666670000        0.3749856473
Ni            0.6666670000        0.3333330000        0.8749856473
Ni            0.6666670000        0.3333330000        0.6250143527
Ni            0.3333330000        0.6666670000        0.1250143527
Ni            0.1653763529        0.3307517064        0.2500000000
Ni            0.8346236471        0.1653763535        0.7500000000
Ni            0.8346236471        0.6692482936        0.7500000000
Ni            0.1653763529        0.8346236465        0.2500000000
Ni            0.6692482941        0.8346236471        0.2500000000
Ni            0.3307517059        0.1653763529        0.7500000000
Ni            0.5000000000        0.0000000000        0.5000000000
Ni            0.5000000000        0.5000000000        0.0000000000
Ni            0.5000000000        0.0000000000       -0.0000000000
Ni            0.5000000000        0.5000000000        0.5000000000
Ni           -0.0000000000        0.5000000000       -0.0000000000
Ni           -0.0000000000        0.5000000000        0.5000000000



     Writing config-only to output data dir ./C36_out/laves_C36.save/
     NEW-OLD atomic charge density approx. for the potential

     Check: negative core charge=   -0.000015
     extrapolated charge  374.46812, renormalised to  368.00000

     total cpu time spent up to now is     2763.4 secs

     Self-consistent Calculation

     iteration #  1     ecut=    50.00 Ry     beta= 0.10
     Davidson diagonalization with overlap
     c_bands:  2 eigenvalues not converged
     ethr =  1.00E-06,  avg # of iterations = 14.3

     total cpu time spent up to now is     2832.9 secs

     total energy              =   -7945.13177986 Ry
     estimated scf accuracy    <      22.59309161 Ry

     iteration #  2     ecut=    50.00 Ry     beta= 0.10
     Davidson diagonalization with overlap
     ethr =  6.14E-03,  avg # of iterations =  2.0

     total cpu time spent up to now is     2857.0 secs

     total energy              =   -7950.53053796 Ry
     estimated scf accuracy    <       1.10576040 Ry

     iteration #  3     ecut=    50.00 Ry     beta= 0.10
     Davidson diagonalization with overlap
     ethr =  3.00E-04,  avg # of iterations =  3.3

     total cpu time spent up to now is     2878.9 secs

     total energy              =   -7950.57862389 Ry
     estimated scf accuracy    <       1.14896634 Ry

     iteration #  4     ecut=    50.00 Ry     beta= 0.10
     Davidson diagonalization with overlap
     ethr =  3.00E-04,  avg # of iterations =  1.0

     total cpu time spent up to now is     2897.6 secs

     total energy              =   -7950.56971691 Ry
     estimated scf accuracy    <       1.19190536 Ry

     iteration #  5     ecut=    50.00 Ry     beta= 0.10
     Davidson diagonalization with overlap
     ethr =  3.00E-04,  avg # of iterations =  1.0

     total cpu time spent up to now is     2915.8 secs

     total energy              =   -7950.44792168 Ry
     estimated scf accuracy    <       1.12833469 Ry

     iteration #  6     ecut=    50.00 Ry     beta= 0.10
     Davidson diagonalization with overlap
     ethr =  3.00E-04,  avg # of iterations =  1.0

     total cpu time spent up to now is     2933.9 secs

     total energy              =   -7950.37200183 Ry
     estimated scf accuracy    <       0.44771302 Ry

     iteration #  7     ecut=    50.00 Ry     beta= 0.10
     Davidson diagonalization with overlap
     ethr =  1.22E-04,  avg # of iterations =  1.7

     total cpu time spent up to now is     2953.6 secs

     total energy              =   -7950.41143118 Ry
     estimated scf accuracy    <       0.02325736 Ry

     iteration #  8     ecut=    50.00 Ry     beta= 0.10
     Davidson diagonalization with overlap
     ethr =  6.32E-06,  avg # of iterations =  9.3

     total cpu time spent up to now is     2978.7 secs

     total energy              =   -7950.40835213 Ry
     estimated scf accuracy    <       0.06911888 Ry

     iteration #  9     ecut=    50.00 Ry     beta= 0.10
     Davidson diagonalization with overlap
     ethr =  6.32E-06,  avg # of iterations =  1.0

     total cpu time spent up to now is     2996.9 secs

     total energy              =   -7950.40977946 Ry
     estimated scf accuracy    <       0.03745761 Ry

     iteration # 10     ecut=    50.00 Ry     beta= 0.10
     Davidson diagonalization with overlap
     ethr =  6.32E-06,  avg # of iterations =  1.0

     total cpu time spent up to now is     3015.1 secs

     total energy              =   -7950.40804122 Ry
     estimated scf accuracy    <       0.04877718 Ry

     iteration # 11     ecut=    50.00 Ry     beta= 0.10
     Davidson diagonalization with overlap
     ethr =  6.32E-06,  avg # of iterations =  1.0

     total cpu time spent up to now is     3033.3 secs

     total energy              =   -7950.40837184 Ry
     estimated scf accuracy    <       0.03756003 Ry

     iteration # 12     ecut=    50.00 Ry     beta= 0.10
     Davidson diagonalization with overlap
     ethr =  6.32E-06,  avg # of iterations =  1.0

     total cpu time spent up to now is     3051.5 secs

     total energy              =   -7950.40726899 Ry
     estimated scf accuracy    <       0.03884123 Ry

     iteration # 13     ecut=    50.00 Ry     beta= 0.10
     Davidson diagonalization with overlap
     ethr =  6.32E-06,  avg # of iterations =  1.0

     total cpu time spent up to now is     3069.7 secs

     total energy              =   -7950.40282006 Ry
     estimated scf accuracy    <       0.03178674 Ry

     iteration # 14     ecut=    50.00 Ry     beta= 0.10
     Davidson diagonalization with overlap
     ethr =  6.32E-06,  avg # of iterations =  1.0

     total cpu time spent up to now is     3087.9 secs

     total energy              =   -7950.40274452 Ry
     estimated scf accuracy    <       0.00946011 Ry

     iteration # 15     ecut=    50.00 Ry     beta= 0.10
     Davidson diagonalization with overlap
     ethr =  2.57E-06,  avg # of iterations =  1.0

     total cpu time spent up to now is     3106.2 secs

     total energy              =   -7950.40298531 Ry
     estimated scf accuracy    <       0.00321877 Ry

     iteration # 16     ecut=    50.00 Ry     beta= 0.10
     Davidson diagonalization with overlap
     ethr =  8.75E-07,  avg # of iterations =  1.0

     total cpu time spent up to now is     3124.4 secs

     total energy              =   -7950.40298900 Ry
     estimated scf accuracy    <       0.00301362 Ry

     iteration # 17     ecut=    50.00 Ry     beta= 0.10
     Davidson diagonalization with overlap
     ethr =  8.19E-07,  avg # of iterations =  1.0

     total cpu time spent up to now is     3142.7 secs

     total energy              =   -7950.40301182 Ry
     estimated scf accuracy    <       0.00286239 Ry

     iteration # 18     ecut=    50.00 Ry     beta= 0.10
     Davidson diagonalization with overlap
     ethr =  7.78E-07,  avg # of iterations =  1.0

     total cpu time spent up to now is     3160.9 secs

     total energy              =   -7950.40290056 Ry
     estimated scf accuracy    <       0.00287210 Ry

     iteration # 19     ecut=    50.00 Ry     beta= 0.10
     Davidson diagonalization with overlap
     ethr =  7.78E-07,  avg # of iterations =  1.0

     total cpu time spent up to now is     3179.2 secs

     total energy              =   -7950.40310795 Ry
     estimated scf accuracy    <       0.00202359 Ry

     iteration # 20     ecut=    50.00 Ry     beta= 0.10
     Davidson diagonalization with overlap
     ethr =  5.50E-07,  avg # of iterations =  1.0

     total cpu time spent up to now is     3197.5 secs

     total energy              =   -7950.40303355 Ry
     estimated scf accuracy    <       0.00280197 Ry

     iteration # 21     ecut=    50.00 Ry     beta= 0.10
     Davidson diagonalization with overlap
     ethr =  5.50E-07,  avg # of iterations =  1.0

     total cpu time spent up to now is     3215.8 secs

     total energy              =   -7950.40302957 Ry
     estimated scf accuracy    <       0.00243313 Ry

     iteration # 22     ecut=    50.00 Ry     beta= 0.10
     Davidson diagonalization with overlap
     ethr =  5.50E-07,  avg # of iterations =  1.0

     total cpu time spent up to now is     3234.1 secs

     total energy              =   -7950.40308676 Ry
     estimated scf accuracy    <       0.00238013 Ry

     iteration # 23     ecut=    50.00 Ry     beta= 0.10
     Davidson diagonalization with overlap
     ethr =  5.50E-07,  avg # of iterations =  1.0

     total cpu time spent up to now is     3252.4 secs

     total energy              =   -7950.40312194 Ry
     estimated scf accuracy    <       0.00288648 Ry

     iteration # 24     ecut=    50.00 Ry     beta= 0.10
     Davidson diagonalization with overlap
     ethr =  5.50E-07,  avg # of iterations =  1.0

     total cpu time spent up to now is     3270.7 secs

     total energy              =   -7950.40192970 Ry
     estimated scf accuracy    <       0.00303455 Ry

     iteration # 25     ecut=    50.00 Ry     beta= 0.10
     Davidson diagonalization with overlap
     ethr =  5.50E-07,  avg # of iterations =  2.0

     total cpu time spent up to now is     3294.4 secs

     total energy              =   -7950.40244092 Ry
     estimated scf accuracy    <       0.00144152 Ry

     iteration # 26     ecut=    50.00 Ry     beta= 0.10
     Davidson diagonalization with overlap
     ethr =  3.92E-07,  avg # of iterations =  1.0

     total cpu time spent up to now is     3312.7 secs

     total energy              =   -7950.40248683 Ry
     estimated scf accuracy    <       0.00086029 Ry

     iteration # 27     ecut=    50.00 Ry     beta= 0.10
     Davidson diagonalization with overlap
     ethr =  2.34E-07,  avg # of iterations =  1.0

     total cpu time spent up to now is     3331.0 secs

     total energy              =   -7950.40242795 Ry
     estimated scf accuracy    <       0.00073799 Ry

     iteration # 28     ecut=    50.00 Ry     beta= 0.10
     Davidson diagonalization with overlap
     ethr =  2.01E-07,  avg # of iterations =  1.0

     total cpu time spent up to now is     3349.3 secs

     total energy              =   -7950.40245528 Ry
     estimated scf accuracy    <       0.00025783 Ry

     iteration # 29     ecut=    50.00 Ry     beta= 0.10
     Davidson diagonalization with overlap
     ethr =  7.01E-08,  avg # of iterations =  1.0

     total cpu time spent up to now is     3367.6 secs

     total energy              =   -7950.40243845 Ry
     estimated scf accuracy    <       0.00027266 Ry

     iteration # 30     ecut=    50.00 Ry     beta= 0.10
     Davidson diagonalization with overlap
     ethr =  7.01E-08,  avg # of iterations =  1.0

     total cpu time spent up to now is     3385.9 secs

     total energy              =   -7950.40243496 Ry
     estimated scf accuracy    <       0.00018303 Ry

     iteration # 31     ecut=    50.00 Ry     beta= 0.10
     Davidson diagonalization with overlap
     ethr =  4.97E-08,  avg # of iterations =  1.0

     total cpu time spent up to now is     3404.3 secs

     total energy              =   -7950.40242916 Ry
     estimated scf accuracy    <       0.00011743 Ry

     iteration # 32     ecut=    50.00 Ry     beta= 0.10
     Davidson diagonalization with overlap
     ethr =  3.19E-08,  avg # of iterations =  1.0

     total cpu time spent up to now is     3422.7 secs

     total energy              =   -7950.40242122 Ry
     estimated scf accuracy    <       0.00009842 Ry

     iteration # 33     ecut=    50.00 Ry     beta= 0.10
     Davidson diagonalization with overlap
     ethr =  2.67E-08,  avg # of iterations =  1.0

     total cpu time spent up to now is     3441.0 secs

     total energy              =   -7950.40241405 Ry
     estimated scf accuracy    <       0.00005854 Ry

     iteration # 34     ecut=    50.00 Ry     beta= 0.10
     Davidson diagonalization with overlap
     ethr =  1.59E-08,  avg # of iterations =  1.0

     total cpu time spent up to now is     3459.3 secs

     total energy              =   -7950.40241309 Ry
     estimated scf accuracy    <       0.00003259 Ry

     iteration # 35     ecut=    50.00 Ry     beta= 0.10
     Davidson diagonalization with overlap
     ethr =  8.86E-09,  avg # of iterations =  1.0

     total cpu time spent up to now is     3477.7 secs

     total energy              =   -7950.40240994 Ry
     estimated scf accuracy    <       0.00002423 Ry

     iteration # 36     ecut=    50.00 Ry     beta= 0.10
     Davidson diagonalization with overlap
     ethr =  6.59E-09,  avg # of iterations =  1.0

     total cpu time spent up to now is     3496.0 secs

     total energy              =   -7950.40240648 Ry
     estimated scf accuracy    <       0.00001130 Ry

     iteration # 37     ecut=    50.00 Ry     beta= 0.10
     Davidson diagonalization with overlap
     ethr =  3.07E-09,  avg # of iterations =  1.0

     total cpu time spent up to now is     3514.4 secs

     total energy              =   -7950.40240663 Ry
     estimated scf accuracy    <       0.00000167 Ry

     iteration # 38     ecut=    50.00 Ry     beta= 0.10
     Davidson diagonalization with overlap
     ethr =  4.55E-10,  avg # of iterations =  2.0

     total cpu time spent up to now is     3537.4 secs

     total energy              =   -7950.40240677 Ry
     estimated scf accuracy    <       0.00000021 Ry

     iteration # 39     ecut=    50.00 Ry     beta= 0.10
     Davidson diagonalization with overlap
     ethr =  5.79E-11,  avg # of iterations =  5.0

     total cpu time spent up to now is     3561.8 secs

     total energy              =   -7950.40240677 Ry
     estimated scf accuracy    <       0.00000004 Ry

     iteration # 40     ecut=    50.00 Ry     beta= 0.10
     Davidson diagonalization with overlap
     ethr =  1.02E-11,  avg # of iterations =  3.7

     total cpu time spent up to now is     3584.8 secs

     total energy              =   -7950.40240677 Ry
     estimated scf accuracy    <       0.00000003 Ry

     iteration # 41     ecut=    50.00 Ry     beta= 0.10
     Davidson diagonalization with overlap
     ethr =  8.57E-12,  avg # of iterations =  1.0

     total cpu time spent up to now is     3603.2 secs

     total energy              =   -7950.40240678 Ry
     estimated scf accuracy    <       0.00000003 Ry

     iteration # 42     ecut=    50.00 Ry     beta= 0.10
     Davidson diagonalization with overlap
     ethr =  7.06E-12,  avg # of iterations =  1.0

     total cpu time spent up to now is     3621.5 secs

     total energy              =   -7950.40240678 Ry
     estimated scf accuracy    <       0.00000002 Ry

     iteration # 43     ecut=    50.00 Ry     beta= 0.10
     Davidson diagonalization with overlap
     ethr =  5.73E-12,  avg # of iterations =  1.0

     total cpu time spent up to now is     3639.9 secs

     total energy              =   -7950.40240678 Ry
     estimated scf accuracy    <          5.9E-09 Ry

     iteration # 44     ecut=    50.00 Ry     beta= 0.10
     Davidson diagonalization with overlap
     ethr =  1.62E-12,  avg # of iterations =  1.7

     total cpu time spent up to now is     3659.5 secs

     End of self-consistent calculation

          k = 0.0000 0.0000 0.0000 ( 12121 PWs)   bands (ev):

   -86.8505 -86.8505 -86.8442 -86.8442 -86.8435 -86.8435 -86.8356 -86.8356
   -86.7825 -86.7825 -86.7777 -86.7777 -86.7673 -86.7673 -86.7643 -86.7643
   -86.7269 -86.7269 -86.7269 -86.7269 -86.7269 -86.7269 -86.7268 -86.7268
   -86.7161 -86.7161 -86.7161 -86.7161 -86.7160 -86.7160 -86.7159 -86.7159
   -58.4347 -58.4347 -58.4346 -58.4346 -58.4314 -58.4314 -58.4314 -58.4314
   -58.3715 -58.3715 -58.3715 -58.3715 -58.3681 -58.3681 -58.3680 -58.3680
   -48.8948 -48.8948 -48.8873 -48.8873 -48.8751 -48.8751 -48.8672 -48.8672
   -48.8340 -48.8340 -48.8326 -48.8326 -48.8256 -48.8256 -48.8240 -48.8240
   -48.8143 -48.8143 -48.8136 -48.8136 -48.8035 -48.8035 -48.8021 -48.8021
   -48.6906 -48.6906 -48.6815 -48.6815 -48.6699 -48.6699 -48.6628 -48.6628
   -46.8049 -46.8049 -46.8047 -46.8047 -46.7793 -46.7793 -46.7587 -46.7587
   -46.7520 -46.7520 -46.7385 -46.7385 -46.7135 -46.7135 -46.6981 -46.6981
   -46.6798 -46.6798 -46.6667 -46.6667 -46.6660 -46.6660 -46.6557 -46.6557
   -46.6521 -46.6521 -46.6373 -46.6373 -46.6343 -46.6343 -46.6042 -46.6042
   -46.5751 -46.5751 -46.5311 -46.5311 -46.5264 -46.5264 -46.5254 -46.5254
   -46.5009 -46.5009 -46.4977 -46.4977 -46.4959 -46.4959 -46.4656 -46.4656
   -46.4589 -46.4589 -46.4564 -46.4564 -46.4387 -46.4387 -46.4370 -46.4370
   -46.4307 -46.4307 -46.4300 -46.4300 -46.4114 -46.4114 -46.4099 -46.4099
   -25.5773 -25.5773 -25.5769 -25.5769 -25.5685 -25.5685 -25.5680 -25.5680
   -25.5087 -25.5087 -25.5075 -25.5075 -25.4986 -25.4986 -25.4975 -25.4975
   -25.2942 -25.2942 -25.2933 -25.2933 -25.2931 -25.2931 -25.2928 -25.2928
   -25.2898 -25.2898 -25.2894 -25.2894 -25.2706 -25.2706 -25.2694 -25.2694
   -25.2304 -25.2304 -25.2297 -25.2297 -25.2148 -25.2148 -25.2143 -25.2143
   -25.2112 -25.2112 -25.2108 -25.2108 -25.2056 -25.2056 -25.2052 -25.2052
     6.6834   6.6834   7.3768   7.3768   7.3970   7.3970   8.9826   8.9826
     9.7467   9.7467  10.7674  10.7674  10.7940  10.7940  10.9385  10.9385
    11.5331  11.5331  11.6580  11.6580  11.7157  11.7157  11.9005  11.9005
    11.9685  11.9685  11.9972  11.9972  12.0111  12.0111  12.0253  12.0253
    12.0378  12.0378  12.0418  12.0418  12.2185  12.2185  12.2371  12.2371
    12.2713  12.2713  12.3600  12.3600  12.3773  12.3773  12.3773  12.3773
    12.4025  12.4025  12.4460  12.4460  12.4982  12.4982  12.5418  12.5418
    12.5591  12.5591  12.6155  12.6155  12.9800  12.9800  12.9800  12.9800
    13.0156  13.0156  13.0238  13.0238  13.0288  13.0288  13.0790  13.0790
    13.2937  13.2937  13.3463  13.3463  13.5385  13.5385  13.5814  13.5814
    13.5886  13.5886  13.6354  13.6354  13.6629  13.6629  13.6968  13.6968
    13.8987  13.8987  13.9191  13.9191  14.2612  14.2612  14.4752  14.4752
    14.5001  14.5001  14.5275  14.5275  14.5499  14.5499  14.5913  14.5913
    14.7007  14.7007  14.7557  14.7557  14.9148  14.9148  14.9279  14.9279
    15.0829  15.0829  15.0991  15.0991  15.2173  15.2173  15.2262  15.2262
    15.2370  15.2370  15.2416  15.2416  15.2629  15.2629  15.2683  15.2683
    15.2773  15.2773  15.2809  15.2809  15.2949  15.2949  15.3036  15.3036
    15.3158  15.3158  15.3487  15.3487  15.3490  15.3490  15.3741  15.3741
    15.3885  15.3885  15.4342  15.4342  15.4439  15.4439  15.4603  15.4603
    15.4948  15.4948  15.5989  15.5989  15.6722  15.6722  15.9932  15.9932
    16.0471  16.0471  16.3432  16.3432  16.3456  16.3456  16.6604  16.6604
    16.6615  16.6615  16.6815  16.6815  16.6819  16.6819  16.7209  16.7209
    17.0653  17.0653  17.1945  17.1945  17.2238  17.2238  17.2328  17.2328
    17.2487  17.2487  17.3297  17.3297  17.4038  17.4038  17.5946  17.5946
    17.6839  17.6839  17.7167  17.7167  17.7522  17.7522  17.8132  17.8132
    19.1337  19.1337  19.1472  19.1472  19.3178  19.3178  19.3792  19.3792
    20.0192  20.0192  20.0765  20.0765  20.2487  20.2487  20.2759  20.2759
    21.2022  21.2022  21.2100  21.2100  21.2215  21.2215  21.7241  21.7241
    21.7559  21.7559  21.9496  21.9496  22.2145  22.2145  22.2227  22.2227
    22.4524  22.4524  22.4751  22.4751  23.2526  23.2526  23.2582  23.2582
    23.6068  23.6068  24.0965  24.0965  24.3995  24.3995  25.6030  25.6030
    25.9289  25.9289

          k = 0.0000 0.4027 0.0000 ( 12162 PWs)   bands (ev):

   -86.8469 -86.8469 -86.8433 -86.8433 -86.8410 -86.8410 -86.8367 -86.8367
   -86.7710 -86.7710 -86.7691 -86.7691 -86.7574 -86.7574 -86.7564 -86.7564
   -86.7379 -86.7379 -86.7374 -86.7374 -86.7276 -86.7276 -86.7274 -86.7274
   -86.7270 -86.7270 -86.7269 -86.7269 -86.7162 -86.7162 -86.7160 -86.7160
   -58.4344 -58.4344 -58.4343 -58.4343 -58.4311 -58.4311 -58.4311 -58.4311
   -58.3719 -58.3719 -58.3719 -58.3719 -58.3684 -58.3684 -58.3684 -58.3684
   -48.8947 -48.8947 -48.8866 -48.8866 -48.8828 -48.8828 -48.8732 -48.8732
   -48.8231 -48.8231 -48.8225 -48.8225 -48.8140 -48.8140 -48.8126 -48.8126
   -48.7888 -48.7888 -48.7875 -48.7875 -48.7761 -48.7761 -48.7756 -48.7756
   -48.7161 -48.7161 -48.7079 -48.7079 -48.6981 -48.6981 -48.6916 -48.6916
   -46.8000 -46.8000 -46.7883 -46.7883 -46.7816 -46.7816 -46.7678 -46.7678
   -46.7175 -46.7175 -46.7070 -46.7070 -46.6979 -46.6979 -46.6946 -46.6946
   -46.6649 -46.6649 -46.6510 -46.6510 -46.6442 -46.6442 -46.6356 -46.6356
   -46.6271 -46.6271 -46.6117 -46.6117 -46.6097 -46.6097 -46.5995 -46.5995
   -46.5661 -46.5661 -46.5452 -46.5452 -46.5329 -46.5329 -46.5273 -46.5273
   -46.5190 -46.5190 -46.5158 -46.5158 -46.5065 -46.5065 -46.4970 -46.4970
   -46.4907 -46.4907 -46.4849 -46.4849 -46.4681 -46.4681 -46.4671 -46.4671
   -46.4619 -46.4619 -46.4570 -46.4570 -46.4331 -46.4331 -46.4324 -46.4324
   -25.5754 -25.5754 -25.5752 -25.5752 -25.5664 -25.5664 -25.5662 -25.5662
   -25.5118 -25.5118 -25.5114 -25.5114 -25.5020 -25.5020 -25.5017 -25.5017
   -25.2959 -25.2959 -25.2957 -25.2957 -25.2897 -25.2897 -25.2886 -25.2886
   -25.2858 -25.2858 -25.2846 -25.2846 -25.2717 -25.2717 -25.2711 -25.2711
   -25.2285 -25.2285 -25.2283 -25.2283 -25.2177 -25.2177 -25.2170 -25.2170
   -25.2137 -25.2137 -25.2129 -25.2129 -25.2040 -25.2040 -25.2039 -25.2039
     7.7915   7.7915   8.4438   8.4438   8.4665   8.4665   9.9938   9.9938
    10.5118  10.5118  10.6679  10.6679  10.9157  10.9157  10.9421  10.9421
    11.4207  11.4207  11.4607  11.4607  11.6301  11.6301  11.7354  11.7354
    11.8784  11.8784  11.9609  11.9609  12.0523  12.0523  12.1666  12.1666
    12.1837  12.1837  12.2849  12.2849  12.3071  12.3071  12.3410  12.3410
    12.3542  12.3542  12.4649  12.4649  12.6106  12.6106  12.6641  12.6641
    12.6961  12.6961  12.7405  12.7405  12.7855  12.7855  12.8549  12.8549
    12.8700  12.8700  12.9070  12.9070  12.9123  12.9123  13.0464  13.0464
    13.0569  13.0569  13.1055  13.1055  13.1217  13.1217  13.1717  13.1717
    13.2320  13.2320  13.2523  13.2523  13.3334  13.3334  13.3851  13.3851
    13.4746  13.4746  13.5345  13.5345  13.5696  13.5696  13.6121  13.6121
    13.7284  13.7284  13.7650  13.7650  13.8405  13.8405  13.8720  13.8720
    13.8994  13.8994  14.0430  14.0430  14.0845  14.0845  14.1129  14.1129
    14.1342  14.1342  14.2087  14.2087  14.2989  14.2989  14.3225  14.3225
    14.3818  14.3818  14.4435  14.4435  14.5129  14.5129  14.5189  14.5189
    14.5935  14.5935  14.6871  14.6871  14.7168  14.7168  14.7488  14.7488
    14.8128  14.8128  14.8480  14.8480  14.8630  14.8630  14.9391  14.9391
    14.9692  14.9692  15.0216  15.0216  15.1105  15.1105  15.1518  15.1518
    15.2118  15.2118  15.2872  15.2872  15.2940  15.2940  15.3071  15.3071
    15.3732  15.3732  15.3853  15.3853  15.4001  15.4001  15.4385  15.4385
    15.5129  15.5129  15.5540  15.5540  15.5684  15.5684  15.7250  15.7250
    15.7470  15.7470  15.8291  15.8291  15.9446  15.9446  16.1079  16.1079
    16.4407  16.4407  16.4537  16.4537  16.9221  16.9221  16.9465  16.9465
    17.1697  17.1697  17.2702  17.2702  17.3504  17.3504  17.6319  17.6319
    17.6433  17.6433  17.7077  17.7077  17.7162  17.7162  17.8763  17.8763
    18.6214  18.6214  19.1615  19.1615  19.5019  19.5019  19.5500  19.5500
    21.1790  21.1790  21.3503  21.3503  21.4086  21.4086  21.7578  21.7578
    22.5125  22.5125  22.6904  22.6904  22.8571  22.8571  22.9470  22.9470
    23.0486  23.0486  23.0753  23.0753  23.7183  23.7183  23.9860  23.9860
    24.2808  24.2808  24.4017  24.4017  24.6230  24.6230  25.1220  25.1220
    25.2582  25.2582  26.0007  26.0007  26.3312  26.3312  26.3815  26.3815
    26.6420  26.6420

          k = 0.3487 0.6040 0.0000 ( 12162 PWs)   bands (ev):

   -86.8440 -86.8440 -86.8440 -86.8440 -86.8385 -86.8385 -86.8385 -86.8385
   -86.7595 -86.7595 -86.7595 -86.7595 -86.7505 -86.7505 -86.7505 -86.7505
   -86.7430 -86.7430 -86.7429 -86.7429 -86.7409 -86.7409 -86.7408 -86.7408
   -86.7269 -86.7269 -86.7269 -86.7269 -86.7161 -86.7161 -86.7160 -86.7160
   -58.4342 -58.4342 -58.4342 -58.4342 -58.4309 -58.4309 -58.4309 -58.4309
   -58.3721 -58.3721 -58.3720 -58.3720 -58.3686 -58.3686 -58.3686 -58.3686
   -48.8930 -48.8930 -48.8921 -48.8921 -48.8781 -48.8781 -48.8771 -48.8771
   -48.8195 -48.8195 -48.8191 -48.8191 -48.8100 -48.8100 -48.8092 -48.8092
   -48.7546 -48.7546 -48.7513 -48.7513 -48.7512 -48.7512 -48.7492 -48.7492
   -48.7394 -48.7394 -48.7337 -48.7337 -48.7281 -48.7281 -48.7261 -48.7261
   -46.7949 -46.7949 -46.7918 -46.7918 -46.7784 -46.7784 -46.7739 -46.7739
   -46.6863 -46.6863 -46.6822 -46.6822 -46.6723 -46.6723 -46.6676 -46.6676
   -46.6651 -46.6651 -46.6596 -46.6596 -46.6584 -46.6584 -46.6238 -46.6238
   -46.6083 -46.6083 -46.6077 -46.6077 -46.5918 -46.5918 -46.5825 -46.5825
   -46.5643 -46.5643 -46.5559 -46.5559 -46.5348 -46.5348 -46.5321 -46.5321
   -46.5227 -46.5227 -46.5187 -46.5187 -46.5156 -46.5156 -46.5119 -46.5119
   -46.5033 -46.5033 -46.4967 -46.4967 -46.4887 -46.4887 -46.4806 -46.4806
   -46.4800 -46.4800 -46.4757 -46.4757 -46.4495 -46.4495 -46.4493 -46.4493
   -25.5751 -25.5751 -25.5738 -25.5738 -25.5660 -25.5660 -25.5645 -25.5645
   -25.5135 -25.5135 -25.5134 -25.5134 -25.5037 -25.5037 -25.5037 -25.5037
   -25.2993 -25.2993 -25.2920 -25.2920 -25.2900 -25.2900 -25.2899 -25.2899
   -25.2807 -25.2807 -25.2806 -25.2806 -25.2771 -25.2771 -25.2682 -25.2682
   -25.2276 -25.2276 -25.2275 -25.2275 -25.2208 -25.2208 -25.2204 -25.2204
   -25.2136 -25.2136 -25.2120 -25.2120 -25.2034 -25.2034 -25.2034 -25.2034
     9.5883   9.5883   9.5892   9.5892  10.0604  10.0604  10.1760  10.1760
    10.1838  10.1838  10.3677  10.3677  10.5175  10.5175  10.5237  10.5237
    10.7163  10.7163  11.4943  11.4943  11.4947  11.4947  11.5899  11.5899
    11.6281  11.6281  11.6368  11.6368  11.6456  11.6456  12.2118  12.2118
    12.2164  12.2164  12.2324  12.2324  12.4533  12.4533  12.4563  12.4563
    12.5926  12.5926  12.6082  12.6082  12.8096  12.8096  12.8243  12.8243
    12.8613  12.8613  12.8797  12.8797  12.9309  12.9309  12.9530  12.9530
    12.9634  12.9634  12.9737  12.9737  13.0751  13.0751  13.1135  13.1135
    13.1482  13.1482  13.1629  13.1629  13.1791  13.1791  13.1838  13.1838
    13.2325  13.2325  13.2507  13.2507  13.2527  13.2527  13.3011  13.3011
    13.3113  13.3113  13.3137  13.3137  13.3541  13.3541  13.3780  13.3780
    13.4546  13.4546  13.4733  13.4733  13.4862  13.4862  13.5231  13.5231
    13.5498  13.5498  13.7637  13.7637  13.7659  13.7659  13.7762  13.7762
    13.9289  13.9289  14.1157  14.1157  14.1191  14.1191  14.1474  14.1474
    14.1574  14.1574  14.2097  14.2097  14.4088  14.4088  14.4161  14.4161
    14.5278  14.5278  14.5935  14.5935  14.6077  14.6077  14.6149  14.6149
    14.6895  14.6895  14.7071  14.7071  14.7406  14.7406  14.8321  14.8321
    14.8979  14.8979  14.9267  14.9267  14.9415  14.9415  14.9605  14.9605
    15.0095  15.0095  15.0324  15.0324  15.0644  15.0644  15.0882  15.0882
    15.1236  15.1236  15.1250  15.1250  15.1912  15.1912  15.2721  15.2721
    15.4710  15.4710  15.5139  15.5139  15.6276  15.6276  15.6353  15.6353
    15.6601  15.6601  15.7772  15.7772  15.7844  15.7844  15.9152  15.9152
    15.9909  15.9909  16.0637  16.0637  16.0637  16.0637  16.2961  16.2961
    16.5024  16.5024  16.5148  16.5148  16.6089  16.6089  18.1441  18.1441
    18.1664  18.1664  18.2162  18.2162  18.4713  18.4713  18.4785  18.4785
    19.1463  19.1463  21.0409  21.0409  21.0442  21.0442  21.2438  21.2438
    21.4964  21.4964  21.4966  21.4966  22.3029  22.3029  22.3045  22.3045
    22.3467  22.3467  22.4507  22.4507  22.4594  22.4594  22.6414  22.6414
    22.9749  22.9749  23.4745  23.4745  23.4837  23.4837  23.4955  23.4955
    24.4267  24.4267  24.4302  24.4302  24.9891  24.9891  25.0067  25.0067
    25.0851  25.0851  26.0614  26.0614  27.0954  27.0954  27.1039  27.1039
    27.1071  27.1071

     the Fermi energy is    16.1807 ev

!    total energy              =   -7950.40240678 Ry
     total all-electron energy =    -51824.254490 Ry
     estimated scf accuracy    <          3.5E-09 Ry
     smearing contrib. (-TS)   =       0.06390303 Ry
     internal energy E=F+TS    =   -7950.46630981 Ry

     The total energy is F=E-TS. E is the sum of the following terms:
     one-electron contribution =   -4130.57418985 Ry
     hartree contribution      =    2260.87915550 Ry
     xc contribution           =    -684.43683791 Ry
     ewald contribution        =   -3857.72360887 Ry
     one-center paw contrib.   =   -1538.61082869 Ry

     convergence has been achieved in  44 iterations

     Forces acting on atoms (cartesian axes, Ry/au):

     atom    1 type  1   force =     0.00000000    0.00000000    0.00517243
     atom    2 type  1   force =     0.00000000    0.00000000    0.00517243
     atom    3 type  1   force =     0.00000000    0.00000000   -0.00517243
     atom    4 type  1   force =     0.00000000    0.00000000   -0.00517243
     atom    5 type  1   force =    -0.00000000   -0.00000000    0.00085490
     atom    6 type  1   force =     0.00000000    0.00000000    0.00085490
     atom    7 type  1   force =    -0.00000000   -0.00000000   -0.00085490
     atom    8 type  1   force =     0.00000000    0.00000000   -0.00085490
     atom    9 type  2   force =     0.00000000    0.00000000   -0.00008098
     atom   10 type  2   force =     0.00000000    0.00000000   -0.00008098
     atom   11 type  2   force =    -0.00000000   -0.00000000    0.00008098
     atom   12 type  2   force =     0.00000000    0.00000000    0.00008098
     atom   13 type  2   force =    -0.00000000   -0.01531675    0.00000000
     atom   14 type  2   force =     0.01326469   -0.00765837    0.00000000
     atom   15 type  2   force =     0.00000000    0.01531675    0.00000000
     atom   16 type  2   force =    -0.01326469    0.00765837    0.00000000
     atom   17 type  2   force =     0.01326469    0.00765838   -0.00000000
     atom   18 type  2   force =    -0.01326469   -0.00765838    0.00000000
     atom   19 type  2   force =     0.00000000    0.00000000    0.00000000
     atom   20 type  2   force =    -0.00000000    0.00000000    0.00000000
     atom   21 type  2   force =    -0.00000000   -0.00000000   -0.00000000
     atom   22 type  2   force =     0.00000000   -0.00000000    0.00000000
     atom   23 type  2   force =    -0.00000000   -0.00000000    0.00000000
     atom   24 type  2   force =    -0.00000000   -0.00000000   -0.00000000
     The non-local contrib.  to forces
     atom    1 type  1   force =     0.00000000    0.00000000    0.03215123
     atom    2 type  1   force =     0.00000000    0.00000000    0.03215123
     atom    3 type  1   force =    -0.00000000   -0.00000000   -0.03215123
     atom    4 type  1   force =    -0.00000000   -0.00000000   -0.03215123
     atom    5 type  1   force =     0.00000000    0.00000000   -0.00261742
     atom    6 type  1   force =    -0.00000000   -0.00000000   -0.00261742
     atom    7 type  1   force =    -0.00000000   -0.00000000    0.00261742
     atom    8 type  1   force =    -0.00000000   -0.00000000    0.00261742
     atom    9 type  2   force =     0.00000000    0.00000000    0.02781816
     atom   10 type  2   force =    -0.00000000   -0.00000000    0.02781816
     atom   11 type  2   force =     0.00000000    0.00000000   -0.02781816
     atom   12 type  2   force =    -0.00000000   -0.00000000   -0.02781816
     atom   13 type  2   force =    -0.00000000   -0.06939695    0.00000000
     atom   14 type  2   force =     0.06009953   -0.03469847    0.00000000
     atom   15 type  2   force =     0.00000000    0.06939695    0.00000000
     atom   16 type  2   force =    -0.06009953    0.03469847    0.00000000
     atom   17 type  2   force =     0.06009953    0.03469848    0.00000000
     atom   18 type  2   force =    -0.06009953   -0.03469848    0.00000000
     atom   19 type  2   force =    -0.00000000   -0.00000000    0.00000000
     atom   20 type  2   force =     0.00000000    0.00000000   -0.00000000
     atom   21 type  2   force =     0.00000000   -0.00000000   -0.00000000
     atom   22 type  2   force =    -0.00000000    0.00000000   -0.00000000
     atom   23 type  2   force =    -0.00000000   -0.00000000    0.00000000
     atom   24 type  2   force =    -0.00000000   -0.00000000   -0.00000000
     The ionic contribution  to forces
     atom    1 type  1   force =    -0.00001482    0.00001149   -0.35526253
     atom    2 type  1   force =     0.00001482   -0.00001149   -0.35526253
     atom    3 type  1   force =     0.00001482   -0.00001149    0.35526253
     atom    4 type  1   force =    -0.00001482    0.00001149    0.35526253
     atom    5 type  1   force =     0.00006490   -0.00003425    0.11141966
     atom    6 type  1   force =    -0.00006490    0.00003425    0.11141966
     atom    7 type  1   force =    -0.00006490    0.00003425   -0.11141966
     atom    8 type  1   force =     0.00006490   -0.00003425   -0.11141966
     atom    9 type  2   force =     0.00006614   -0.00003802    0.54235256
     atom   10 type  2   force =    -0.00006614    0.00003802    0.54235256
     atom   11 type  2   force =    -0.00006614    0.00003802   -0.54235256
     atom   12 type  2   force =     0.00006614   -0.00003802   -0.54235256
     atom   13 type  2   force =     0.00008430  -15.54820371   -0.00000000
     atom   14 type  2   force =    13.46523411   -7.77415852   -0.00000000
     atom   15 type  2   force =    -0.00008430   15.54820371   -0.00000000
     atom   16 type  2   force =   -13.46523411    7.77415852   -0.00000000
     atom   17 type  2   force =    13.46517965    7.77403302   -0.00000000
     atom   18 type  2   force =   -13.46517965   -7.77403302   -0.00000000
     atom   19 type  2   force =     0.00000000    0.00000000   -0.00000000
     atom   20 type  2   force =     0.00000000   -0.00000000    0.00000000
     atom   21 type  2   force =     0.00000000   -0.00000000    0.00000000
     atom   22 type  2   force =     0.00000000   -0.00000000   -0.00000000
     atom   23 type  2   force =     0.00000000   -0.00000000    0.00000000
     atom   24 type  2   force =     0.00000000   -0.00000000   -0.00000000
     The local contribution  to forces
     atom    1 type  1   force =    -0.00000237   -0.00000132    0.32843746
     atom    2 type  1   force =     0.00000237    0.00000132    0.32843746
     atom    3 type  1   force =     0.00000237    0.00000132   -0.32843746
     atom    4 type  1   force =    -0.00000237   -0.00000132   -0.32843746
     atom    5 type  1   force =     0.00136515   -0.00079110   -0.10794660
     atom    6 type  1   force =    -0.00136515    0.00079110   -0.10794660
     atom    7 type  1   force =    -0.00136515    0.00079110    0.10794660
     atom    8 type  1   force =     0.00136515   -0.00079110    0.10794660
     atom    9 type  2   force =     0.00182004   -0.00105093   -0.56693494
     atom   10 type  2   force =    -0.00182004    0.00105093   -0.56693494
     atom   11 type  2   force =    -0.00182004    0.00105093    0.56693494
     atom   12 type  2   force =     0.00182004   -0.00105093    0.56693494
     atom   13 type  2   force =    -0.00182129   15.60252007    0.00000000
     atom   14 type  2   force =   -13.50971253    7.79983653   -0.00000000
     atom   15 type  2   force =     0.00182129  -15.60252007   -0.00000000
     atom   16 type  2   force =    13.50971253   -7.79983653    0.00000000
     atom   17 type  2   force =   -13.51308966   -7.79968657    0.00000000
     atom   18 type  2   force =    13.51308966    7.79968657   -0.00000000
     atom   19 type  2   force =    -0.00000000   -0.00000000    0.00000000
     atom   20 type  2   force =    -0.00000000   -0.00000000   -0.00000000
     atom   21 type  2   force =    -0.00000000    0.00000000   -0.00000000
     atom   22 type  2   force =    -0.00000000    0.00000000    0.00000000
     atom   23 type  2   force =     0.00000000    0.00000000   -0.00000000
     atom   24 type  2   force =     0.00000000    0.00000000    0.00000000
     The core correction contribution to forces
     atom    1 type  1   force =    -0.00000000    0.00000000   -0.00015001
     atom    2 type  1   force =     0.00000000   -0.00000000   -0.00015001
     atom    3 type  1   force =     0.00000000   -0.00000000    0.00015001
     atom    4 type  1   force =    -0.00000000    0.00000000    0.00015001
     atom    5 type  1   force =     0.00000300   -0.00000173    0.00000173
     atom    6 type  1   force =    -0.00000300    0.00000173    0.00000173
     atom    7 type  1   force =    -0.00000300    0.00000173   -0.00000173
     atom    8 type  1   force =     0.00000300   -0.00000173   -0.00000173
     atom    9 type  2   force =     0.00000116   -0.00000067   -0.00331860
     atom   10 type  2   force =    -0.00000116    0.00000067   -0.00331860
     atom   11 type  2   force =    -0.00000116    0.00000067    0.00331860
     atom   12 type  2   force =     0.00000116   -0.00000067    0.00331860
     atom   13 type  2   force =    -0.00000116    0.00072148    0.00000000
     atom   14 type  2   force =    -0.00062304    0.00035971   -0.00000000
     atom   15 type  2   force =     0.00000116   -0.00072148   -0.00000000
     atom   16 type  2   force =     0.00062304   -0.00035971    0.00000000
     atom   17 type  2   force =    -0.00062540   -0.00035974    0.00000000
     atom   18 type  2   force =     0.00062540    0.00035974   -0.00000000
     atom   19 type  2   force =    -0.00000000    0.00000000    0.00000000
     atom   20 type  2   force =    -0.00000000    0.00000000    0.00000000
     atom   21 type  2   force =    -0.00000000    0.00000000    0.00000000
     atom   22 type  2   force =    -0.00000000    0.00000000    0.00000000
     atom   23 type  2   force =    -0.00000000    0.00000000    0.00000000
     atom   24 type  2   force =    -0.00000000    0.00000000    0.00000000
     The Hubbard contrib.    to forces
     atom    1 type  1   force =     0.00000000    0.00000000    0.00000000
     atom    2 type  1   force =     0.00000000    0.00000000    0.00000000
     atom    3 type  1   force =     0.00000000    0.00000000    0.00000000
     atom    4 type  1   force =     0.00000000    0.00000000    0.00000000
     atom    5 type  1   force =     0.00000000    0.00000000    0.00000000
     atom    6 type  1   force =     0.00000000    0.00000000    0.00000000
     atom    7 type  1   force =     0.00000000    0.00000000    0.00000000
     atom    8 type  1   force =     0.00000000    0.00000000    0.00000000
     atom    9 type  2   force =     0.00000000    0.00000000    0.00000000
     atom   10 type  2   force =     0.00000000    0.00000000    0.00000000
     atom   11 type  2   force =     0.00000000    0.00000000    0.00000000
     atom   12 type  2   force =     0.00000000    0.00000000    0.00000000
     atom   13 type  2   force =     0.00000000    0.00000000    0.00000000
     atom   14 type  2   force =     0.00000000    0.00000000    0.00000000
     atom   15 type  2   force =     0.00000000    0.00000000    0.00000000
     atom   16 type  2   force =     0.00000000    0.00000000    0.00000000
     atom   17 type  2   force =     0.00000000    0.00000000    0.00000000
     atom   18 type  2   force =     0.00000000    0.00000000    0.00000000
     atom   19 type  2   force =     0.00000000    0.00000000    0.00000000
     atom   20 type  2   force =     0.00000000    0.00000000    0.00000000
     atom   21 type  2   force =     0.00000000    0.00000000    0.00000000
     atom   22 type  2   force =     0.00000000    0.00000000    0.00000000
     atom   23 type  2   force =     0.00000000    0.00000000    0.00000000
     atom   24 type  2   force =     0.00000000    0.00000000    0.00000000
     The SCF correction term to forces
     atom    1 type  1   force =     0.00000002   -0.00000001   -0.00000372
     atom    2 type  1   force =    -0.00000002    0.00000001   -0.00000372
     atom    3 type  1   force =    -0.00000002    0.00000001    0.00000372
     atom    4 type  1   force =     0.00000002   -0.00000001    0.00000372
     atom    5 type  1   force =    -0.00000001    0.00000000   -0.00000247
     atom    6 type  1   force =     0.00000001   -0.00000000   -0.00000247
     atom    7 type  1   force =     0.00000001   -0.00000000    0.00000247
     atom    8 type  1   force =    -0.00000001    0.00000000    0.00000247
     atom    9 type  2   force =    -0.00000009    0.00000005    0.00000184
     atom   10 type  2   force =     0.00000009   -0.00000005    0.00000184
     atom   11 type  2   force =     0.00000009   -0.00000005   -0.00000184
     atom   12 type  2   force =    -0.00000009    0.00000005   -0.00000184
     atom   13 type  2   force =    -0.00000004    0.00002846    0.00000000
     atom   14 type  2   force =    -0.00002463    0.00001422    0.00000000
     atom   15 type  2   force =     0.00000004   -0.00002846   -0.00000000
     atom   16 type  2   force =     0.00002463   -0.00001422    0.00000000
     atom   17 type  2   force =    -0.00002467   -0.00001419   -0.00000000
     atom   18 type  2   force =     0.00002467    0.00001419    0.00000000
     atom   19 type  2   force =     0.00000000   -0.00000000   -0.00000000
     atom   20 type  2   force =     0.00000000   -0.00000000   -0.00000000
     atom   21 type  2   force =     0.00000000    0.00000000   -0.00000000
     atom   22 type  2   force =    -0.00000000   -0.00000000   -0.00000000
     atom   23 type  2   force =    -0.00000000    0.00000000   -0.00000000
     atom   24 type  2   force =    -0.00000000   -0.00000000   -0.00000000

     Total force =     0.038956     Total SCF correction =     0.000070


     Computing stress (Cartesian axis) and pressure

          total   stress  (Ry/bohr**3)                   (kbar)     P=      129.49
   0.00087925   0.00000000  -0.00000000          129.34        0.00       -0.00
   0.00000000   0.00087925  -0.00000000            0.00      129.34       -0.00
   0.00000000   0.00000000   0.00088224            0.00        0.00      129.78

     Energy error            =      3.6E-02 Ry
     Gradient error          =      1.5E-02 Ry/Bohr
     Cell gradient error     =      1.3E+02 kbar

     number of scf cycles    =   4
     number of bfgs steps    =   3

     enthalpy           old  =   -7950.3664940597 Ry
     enthalpy           new  =   -7950.4024067813 Ry

     CASE: enthalpy          _new < enthalpy          _old

     new trust radius        =       0.0500000000 bohr
     new conv_thr            =       0.0000000026 Ry

     new unit-cell volume =   1810.08249 a.u.^3 (   268.22655 Ang^3 )
     density =      7.01749 g/cm^3

CELL_PARAMETERS (angstrom)
   4.553040100  -0.000000021   0.000000000
  -2.276520549   3.943048689   0.000000000
  -0.000000000  -0.000000000  14.940603905

ATOMIC_POSITIONS (crystal)
Mg            0.0000000000        0.0000000000        0.4064430458
Mg            0.0000000000        0.0000000000        0.9064430458
Mg            0.0000000000        0.0000000000        0.5935569542
Mg           -0.0000000000       -0.0000000000        0.0935569542
Mg            0.3333330000        0.6666670000        0.6558831936
Mg            0.6666670000        0.3333330000        0.1558831936
Mg            0.6666670000        0.3333330000        0.3441168064
Mg            0.3333330000        0.6666670000        0.8441168064
Ni            0.3333330000        0.6666670000        0.3749579123
Ni            0.6666670000        0.3333330000        0.8749579123
Ni            0.6666670000        0.3333330000        0.6250420877
Ni            0.3333330000        0.6666670000        0.1250420877
Ni            0.1649170844        0.3298331696        0.2500000000
Ni            0.8350829155        0.1649170852        0.7500000000
Ni            0.8350829156        0.6701668304        0.7500000000
Ni            0.1649170845        0.8350829148        0.2500000000
Ni            0.6701668311        0.8350829156        0.2500000000
Ni            0.3298331689        0.1649170844        0.7500000000
Ni            0.5000000000        0.0000000000        0.5000000000
Ni            0.5000000000        0.5000000000        0.0000000000
Ni            0.5000000000        0.0000000000       -0.0000000000
Ni            0.5000000000        0.5000000000        0.5000000000
Ni           -0.0000000000        0.5000000000       -0.0000000000
Ni           -0.0000000000        0.5000000000        0.5000000000



     Writing config-only to output data dir ./C36_out/laves_C36.save/
     NEW-OLD atomic charge density approx. for the potential

     Check: negative core charge=   -0.000015
     extrapolated charge  374.42026, renormalised to  368.00000

     total cpu time spent up to now is     3701.9 secs

     Self-consistent Calculation

     iteration #  1     ecut=    50.00 Ry     beta= 0.10
     Davidson diagonalization with overlap
     c_bands:  2 eigenvalues not converged
     ethr =  1.00E-06,  avg # of iterations = 14.7

     total cpu time spent up to now is     3768.8 secs

     total energy              =   -7945.12281043 Ry
     estimated scf accuracy    <      22.94364869 Ry

     iteration #  2     ecut=    50.00 Ry     beta= 0.10
     Davidson diagonalization with overlap
     ethr =  6.23E-03,  avg # of iterations =  2.0

     total cpu time spent up to now is     3791.6 secs

     total energy              =   -7950.55458594 Ry
     estimated scf accuracy    <       1.14360904 Ry

     iteration #  3     ecut=    50.00 Ry     beta= 0.10
     Davidson diagonalization with overlap
     ethr =  3.11E-04,  avg # of iterations =  3.3

     total cpu time spent up to now is     3812.6 secs

     total energy              =   -7950.60303737 Ry
     estimated scf accuracy    <       1.18317317 Ry

     iteration #  4     ecut=    50.00 Ry     beta= 0.10
     Davidson diagonalization with overlap
     ethr =  3.11E-04,  avg # of iterations =  1.0

     total cpu time spent up to now is     3830.8 secs

     total energy              =   -7950.59263337 Ry
     estimated scf accuracy    <       1.22427653 Ry

     iteration #  5     ecut=    50.00 Ry     beta= 0.10
     Davidson diagonalization with overlap
     ethr =  3.11E-04,  avg # of iterations =  1.0

     total cpu time spent up to now is     3849.0 secs

     total energy              =   -7950.45890551 Ry
     estimated scf accuracy    <       1.15254212 Ry

     iteration #  6     ecut=    50.00 Ry     beta= 0.10
     Davidson diagonalization with overlap
     ethr =  3.11E-04,  avg # of iterations =  1.0

     total cpu time spent up to now is     3867.2 secs

     total energy              =   -7950.41036851 Ry
     estimated scf accuracy    <       0.41164494 Ry

     iteration #  7     ecut=    50.00 Ry     beta= 0.10
     Davidson diagonalization with overlap
     ethr =  1.12E-04,  avg # of iterations =  3.3

     total cpu time spent up to now is     3886.6 secs

     total energy              =   -7950.44092752 Ry
     estimated scf accuracy    <       0.05308113 Ry

     iteration #  8     ecut=    50.00 Ry     beta= 0.10
     Davidson diagonalization with overlap
     ethr =  1.44E-05,  avg # of iterations =  2.7

     total cpu time spent up to now is     3906.6 secs

     total energy              =   -7950.42875167 Ry
     estimated scf accuracy    <       0.12912272 Ry

     iteration #  9     ecut=    50.00 Ry     beta= 0.10
     Davidson diagonalization with overlap
     ethr =  1.44E-05,  avg # of iterations =  1.0

     total cpu time spent up to now is     3924.8 secs

     total energy              =   -7950.43096449 Ry
     estimated scf accuracy    <       0.05019882 Ry

     iteration # 10     ecut=    50.00 Ry     beta= 0.10
     Davidson diagonalization with overlap
     ethr =  1.36E-05,  avg # of iterations =  1.0

     total cpu time spent up to now is     3943.0 secs

     total energy              =   -7950.42813119 Ry
     estimated scf accuracy    <       0.05156861 Ry

     iteration # 11     ecut=    50.00 Ry     beta= 0.10
     Davidson diagonalization with overlap
     ethr =  1.36E-05,  avg # of iterations =  1.0

     total cpu time spent up to now is     3961.2 secs

     total energy              =   -7950.42865316 Ry
     estimated scf accuracy    <       0.03604838 Ry

     iteration # 12     ecut=    50.00 Ry     beta= 0.10
     Davidson diagonalization with overlap
     ethr =  9.80E-06,  avg # of iterations =  1.0

     total cpu time spent up to now is     3979.5 secs

     total energy              =   -7950.42826752 Ry
     estimated scf accuracy    <       0.03773071 Ry

     iteration # 13     ecut=    50.00 Ry     beta= 0.10
     Davidson diagonalization with overlap
     ethr =  9.80E-06,  avg # of iterations =  1.0

     total cpu time spent up to now is     3997.7 secs

     total energy              =   -7950.42298818 Ry
     estimated scf accuracy    <       0.03462658 Ry

     iteration # 14     ecut=    50.00 Ry     beta= 0.10
     Davidson diagonalization with overlap
     ethr =  9.41E-06,  avg # of iterations =  1.0

     total cpu time spent up to now is     4016.0 secs

     total energy              =   -7950.42355073 Ry
     estimated scf accuracy    <       0.00802005 Ry

     iteration # 15     ecut=    50.00 Ry     beta= 0.10
     Davidson diagonalization with overlap
     ethr =  2.18E-06,  avg # of iterations =  1.3

     total cpu time spent up to now is     4035.0 secs

     total energy              =   -7950.42356905 Ry
     estimated scf accuracy    <       0.00360249 Ry

     iteration # 16     ecut=    50.00 Ry     beta= 0.10
     Davidson diagonalization with overlap
     ethr =  9.79E-07,  avg # of iterations =  1.3

     total cpu time spent up to now is     4054.0 secs

     total energy              =   -7950.42361547 Ry
     estimated scf accuracy    <       0.00253693 Ry

     iteration # 17     ecut=    50.00 Ry     beta= 0.10
     Davidson diagonalization with overlap
     ethr =  6.89E-07,  avg # of iterations =  1.0

     total cpu time spent up to now is     4072.3 secs

     total energy              =   -7950.42355057 Ry
     estimated scf accuracy    <       0.00270569 Ry

     iteration # 18     ecut=    50.00 Ry     beta= 0.10
     Davidson diagonalization with overlap
     ethr =  6.89E-07,  avg # of iterations =  1.3

     total cpu time spent up to now is     4091.3 secs

     total energy              =   -7950.42355796 Ry
     estimated scf accuracy    <       0.00214294 Ry

     iteration # 19     ecut=    50.00 Ry     beta= 0.10
     Davidson diagonalization with overlap
     ethr =  5.82E-07,  avg # of iterations =  1.0

     total cpu time spent up to now is     4110.1 secs

     total energy              =   -7950.42356103 Ry
     estimated scf accuracy    <       0.00203801 Ry

     iteration # 20     ecut=    50.00 Ry     beta= 0.10
     Davidson diagonalization with overlap
     ethr =  5.54E-07,  avg # of iterations =  1.0

     total cpu time spent up to now is     4128.6 secs

     total energy              =   -7950.42361137 Ry
     estimated scf accuracy    <       0.00201197 Ry

     iteration # 21     ecut=    50.00 Ry     beta= 0.10
     Davidson diagonalization with overlap
     ethr =  5.47E-07,  avg # of iterations =  1.0

     total cpu time spent up to now is     4147.0 secs

     total energy              =   -7950.42365612 Ry
     estimated scf accuracy    <       0.00201919 Ry

     iteration # 22     ecut=    50.00 Ry     beta= 0.10
     Davidson diagonalization with overlap
     ethr =  5.47E-07,  avg # of iterations =  1.0

     total cpu time spent up to now is     4165.3 secs

     total energy              =   -7950.42367851 Ry
     estimated scf accuracy    <       0.00222362 Ry

     iteration # 23     ecut=    50.00 Ry     beta= 0.10
     Davidson diagonalization with overlap
     ethr =  5.47E-07,  avg # of iterations =  1.3

     total cpu time spent up to now is     4184.4 secs

     total energy              =   -7950.42367269 Ry
     estimated scf accuracy    <       0.00250449 Ry

     iteration # 24     ecut=    50.00 Ry     beta= 0.10
     Davidson diagonalization with overlap
     ethr =  5.47E-07,  avg # of iterations =  1.0

     total cpu time spent up to now is     4202.7 secs

     total energy              =   -7950.42272680 Ry
     estimated scf accuracy    <       0.00247916 Ry

     iteration # 25     ecut=    50.00 Ry     beta= 0.10
     Davidson diagonalization with overlap
     ethr =  5.47E-07,  avg # of iterations =  2.3

     total cpu time spent up to now is     4225.7 secs

     total energy              =   -7950.42318642 Ry
     estimated scf accuracy    <       0.00045216 Ry

     iteration # 26     ecut=    50.00 Ry     beta= 0.10
     Davidson diagonalization with overlap
     ethr =  1.23E-07,  avg # of iterations =  1.0

     total cpu time spent up to now is     4244.0 secs

     total energy              =   -7950.42313057 Ry
     estimated scf accuracy    <       0.00034166 Ry

     iteration # 27     ecut=    50.00 Ry     beta= 0.10
     Davidson diagonalization with overlap
     ethr =  9.28E-08,  avg # of iterations =  1.3

     total cpu time spent up to now is     4263.1 secs

     total energy              =   -7950.42312965 Ry
     estimated scf accuracy    <       0.00010409 Ry

     iteration # 28     ecut=    50.00 Ry     beta= 0.10
     Davidson diagonalization with overlap
     ethr =  2.83E-08,  avg # of iterations =  1.3

     total cpu time spent up to now is     4282.2 secs

     total energy              =   -7950.42311855 Ry
     estimated scf accuracy    <       0.00006131 Ry

     iteration # 29     ecut=    50.00 Ry     beta= 0.10
     Davidson diagonalization with overlap
     ethr =  1.67E-08,  avg # of iterations =  2.0

     total cpu time spent up to now is     4303.8 secs

     total energy              =   -7950.42312030 Ry
     estimated scf accuracy    <       0.00006428 Ry

     iteration # 30     ecut=    50.00 Ry     beta= 0.10
     Davidson diagonalization with overlap
     ethr =  1.67E-08,  avg # of iterations =  1.0

     total cpu time spent up to now is     4322.1 secs

     total energy              =   -7950.42312660 Ry
     estimated scf accuracy    <       0.00004439 Ry

     iteration # 31     ecut=    50.00 Ry     beta= 0.10
     Davidson diagonalization with overlap
     ethr =  1.21E-08,  avg # of iterations =  2.0

     total cpu time spent up to now is     4345.2 secs

     total energy              =   -7950.42314436 Ry
     estimated scf accuracy    <       0.00016384 Ry

     iteration # 32     ecut=    50.00 Ry     beta= 0.10
     Davidson diagonalization with overlap
     ethr =  1.21E-08,  avg # of iterations =  1.0

     total cpu time spent up to now is     4363.6 secs

     total energy              =   -7950.42315258 Ry
     estimated scf accuracy    <       0.00025507 Ry

     iteration # 33     ecut=    50.00 Ry     beta= 0.10
     Davidson diagonalization with overlap
     ethr =  1.21E-08,  avg # of iterations =  1.0

     total cpu time spent up to now is     4381.9 secs

     total energy              =   -7950.42315460 Ry
     estimated scf accuracy    <       0.00032352 Ry

     iteration # 34     ecut=    50.00 Ry     beta= 0.10
     Davidson diagonalization with overlap
     ethr =  1.21E-08,  avg # of iterations =  1.0

     total cpu time spent up to now is     4400.2 secs

     total energy              =   -7950.42317037 Ry
     estimated scf accuracy    <       0.00032630 Ry

     iteration # 35     ecut=    50.00 Ry     beta= 0.10
     Davidson diagonalization with overlap
     ethr =  1.21E-08,  avg # of iterations =  1.0

     total cpu time spent up to now is     4418.6 secs

     total energy              =   -7950.42316989 Ry
     estimated scf accuracy    <       0.00044070 Ry

     iteration # 36     ecut=    50.00 Ry     beta= 0.10
     Davidson diagonalization with overlap
     ethr =  1.21E-08,  avg # of iterations =  1.0

     total cpu time spent up to now is     4436.9 secs

     total energy              =   -7950.42316119 Ry
     estimated scf accuracy    <       0.00042699 Ry

     iteration # 37     ecut=    50.00 Ry     beta= 0.10
     Davidson diagonalization with overlap
     ethr =  1.21E-08,  avg # of iterations =  1.0

     total cpu time spent up to now is     4455.3 secs

     total energy              =   -7950.42317526 Ry
     estimated scf accuracy    <       0.00036107 Ry

     iteration # 38     ecut=    50.00 Ry     beta= 0.10
     Davidson diagonalization with overlap
     ethr =  1.21E-08,  avg # of iterations =  1.3

     total cpu time spent up to now is     4474.4 secs

     total energy              =   -7950.42315648 Ry
     estimated scf accuracy    <       0.00046676 Ry

     iteration # 39     ecut=    50.00 Ry     beta= 0.10
     Davidson diagonalization with overlap
     ethr =  1.21E-08,  avg # of iterations =  1.0

     total cpu time spent up to now is     4492.7 secs

     total energy              =   -7950.42308411 Ry
     estimated scf accuracy    <       0.00033338 Ry

     iteration # 40     ecut=    50.00 Ry     beta= 0.10
     Davidson diagonalization with overlap
     ethr =  1.21E-08,  avg # of iterations =  2.3

     total cpu time spent up to now is     4517.0 secs

     total energy              =   -7950.42311051 Ry
     estimated scf accuracy    <       0.00001262 Ry

     iteration # 41     ecut=    50.00 Ry     beta= 0.10
     Davidson diagonalization with overlap
     ethr =  3.43E-09,  avg # of iterations =  3.0

     total cpu time spent up to now is     4542.6 secs

     total energy              =   -7950.42311287 Ry
     estimated scf accuracy    <       0.00000890 Ry

     iteration # 42     ecut=    50.00 Ry     beta= 0.10
     Davidson diagonalization with overlap
     ethr =  2.42E-09,  avg # of iterations =  2.0

     total cpu time spent up to now is     4563.8 secs

     total energy              =   -7950.42310973 Ry
     estimated scf accuracy    <       0.00000535 Ry

     iteration # 43     ecut=    50.00 Ry     beta= 0.10
     Davidson diagonalization with overlap
     ethr =  1.45E-09,  avg # of iterations =  2.0

     total cpu time spent up to now is     4588.6 secs

     total energy              =   -7950.42311074 Ry
     estimated scf accuracy    <       0.00000128 Ry

     iteration # 44     ecut=    50.00 Ry     beta= 0.10
     Davidson diagonalization with overlap
     ethr =  3.47E-10,  avg # of iterations =  2.3

     total cpu time spent up to now is     4609.5 secs

     total energy              =   -7950.42311078 Ry
     estimated scf accuracy    <       0.00000122 Ry

     iteration # 45     ecut=    50.00 Ry     beta= 0.10
     Davidson diagonalization with overlap
     ethr =  3.31E-10,  avg # of iterations =  2.0

     total cpu time spent up to now is     4632.6 secs

     total energy              =   -7950.42311081 Ry
     estimated scf accuracy    <       0.00000041 Ry

     iteration # 46     ecut=    50.00 Ry     beta= 0.10
     Davidson diagonalization with overlap
     ethr =  1.12E-10,  avg # of iterations =  2.3

     total cpu time spent up to now is     4653.8 secs

     total energy              =   -7950.42311083 Ry
     estimated scf accuracy    <       0.00000016 Ry

     iteration # 47     ecut=    50.00 Ry     beta= 0.10
     Davidson diagonalization with overlap
     ethr =  4.39E-11,  avg # of iterations =  2.0

     total cpu time spent up to now is     4674.4 secs

     total energy              =   -7950.42311078 Ry
     estimated scf accuracy    <       0.00000015 Ry

     iteration # 48     ecut=    50.00 Ry     beta= 0.10
     Davidson diagonalization with overlap
     ethr =  4.09E-11,  avg # of iterations =  3.0

     total cpu time spent up to now is     4698.9 secs

     total energy              =   -7950.42311082 Ry
     estimated scf accuracy    <       0.00000004 Ry

     iteration # 49     ecut=    50.00 Ry     beta= 0.10
     Davidson diagonalization with overlap
     ethr =  1.08E-11,  avg # of iterations =  2.0

     total cpu time spent up to now is     4719.5 secs

     total energy              =   -7950.42311082 Ry
     estimated scf accuracy    <          4.3E-09 Ry

     iteration # 50     ecut=    50.00 Ry     beta= 0.10
     Davidson diagonalization with overlap
     ethr =  1.17E-12,  avg # of iterations =  5.0

     total cpu time spent up to now is     4744.1 secs

     total energy              =   -7950.42311081 Ry
     estimated scf accuracy    <          4.6E-09 Ry

     iteration # 51     ecut=    50.00 Ry     beta= 0.10
     Davidson diagonalization with overlap
     ethr =  1.17E-12,  avg # of iterations =  2.0

     total cpu time spent up to now is     4765.2 secs

     total energy              =   -7950.42311081 Ry
     estimated scf accuracy    <          3.4E-09 Ry

     iteration # 52     ecut=    50.00 Ry     beta= 0.10
     Davidson diagonalization with overlap
     ethr =  9.11E-13,  avg # of iterations =  2.0

     total cpu time spent up to now is     4786.4 secs

     End of self-consistent calculation

          k = 0.0000 0.0000 0.0000 ( 12121 PWs)   bands (ev):

   -87.1587 -87.1587 -87.1530 -87.1530 -87.1525 -87.1525 -87.1456 -87.1456
   -87.0926 -87.0926 -87.0885 -87.0885 -87.0789 -87.0789 -87.0763 -87.0763
   -87.0406 -87.0406 -87.0406 -87.0406 -87.0405 -87.0405 -87.0405 -87.0405
   -87.0310 -87.0310 -87.0309 -87.0309 -87.0309 -87.0309 -87.0308 -87.0308
   -58.7996 -58.7996 -58.7996 -58.7996 -58.7966 -58.7966 -58.7966 -58.7966
   -58.7376 -58.7376 -58.7376 -58.7376 -58.7344 -58.7344 -58.7343 -58.7343
   -49.1980 -49.1980 -49.1910 -49.1910 -49.1795 -49.1795 -49.1723 -49.1723
   -49.1387 -49.1387 -49.1374 -49.1374 -49.1312 -49.1312 -49.1293 -49.1293
   -49.1204 -49.1204 -49.1194 -49.1194 -49.1107 -49.1107 -49.1091 -49.1091
   -49.0032 -49.0032 -48.9944 -48.9944 -48.9837 -48.9837 -48.9769 -48.9769
   -47.1057 -47.1057 -47.1054 -47.1054 -47.0803 -47.0803 -47.0601 -47.0601
   -47.0548 -47.0548 -47.0421 -47.0421 -47.0187 -47.0187 -47.0044 -47.0044
   -46.9815 -46.9815 -46.9699 -46.9699 -46.9691 -46.9691 -46.9592 -46.9592
   -46.9544 -46.9544 -46.9420 -46.9420 -46.9392 -46.9392 -46.9092 -46.9092
   -46.8831 -46.8831 -46.8412 -46.8412 -46.8375 -46.8375 -46.8350 -46.8350
   -46.8128 -46.8128 -46.8107 -46.8107 -46.8085 -46.8085 -46.7810 -46.7810
   -46.7704 -46.7704 -46.7687 -46.7687 -46.7547 -46.7547 -46.7529 -46.7529
   -46.7438 -46.7438 -46.7429 -46.7429 -46.7276 -46.7276 -46.7257 -46.7257
   -25.9409 -25.9409 -25.9405 -25.9405 -25.9325 -25.9325 -25.9320 -25.9320
   -25.8740 -25.8740 -25.8730 -25.8730 -25.8643 -25.8643 -25.8634 -25.8634
   -25.6578 -25.6578 -25.6570 -25.6570 -25.6563 -25.6563 -25.6560 -25.6560
   -25.6531 -25.6531 -25.6528 -25.6528 -25.6355 -25.6355 -25.6345 -25.6345
   -25.5954 -25.5954 -25.5948 -25.5948 -25.5805 -25.5805 -25.5801 -25.5801
   -25.5771 -25.5771 -25.5767 -25.5767 -25.5717 -25.5717 -25.5714 -25.5714
     6.4519   6.4519   7.1379   7.1379   7.1549   7.1549   8.7262   8.7262
     9.4809   9.4809  10.5441  10.5441  10.5645  10.5645  10.7035  10.7035
    11.2910  11.2910  11.4073  11.4073  11.4777  11.4777  11.6396  11.6396
    11.7124  11.7124  11.7452  11.7452  11.7599  11.7599  11.7740  11.7740
    11.7883  11.7883  11.7919  11.7919  11.9617  11.9617  11.9803  11.9803
    12.0149  12.0149  12.0983  12.0983  12.1153  12.1153  12.1156  12.1156
    12.1408  12.1408  12.1857  12.1857  12.2422  12.2422  12.2861  12.2861
    12.2959  12.2959  12.3528  12.3528  12.7115  12.7115  12.7115  12.7115
    12.7444  12.7444  12.7526  12.7526  12.7575  12.7575  12.8090  12.8090
    13.0180  13.0180  13.0712  13.0712  13.2530  13.2530  13.2913  13.2913
    13.3027  13.3027  13.3479  13.3479  13.3778  13.3778  13.4068  13.4068
    13.6072  13.6072  13.6275  13.6275  13.9505  13.9505  14.1638  14.1638
    14.1925  14.1925  14.2193  14.2193  14.2387  14.2387  14.2750  14.2750
    14.3897  14.3897  14.4442  14.4442  14.5959  14.5959  14.6082  14.6082
    14.7608  14.7608  14.7764  14.7764  14.8938  14.8938  14.8992  14.8992
    14.9140  14.9140  14.9150  14.9150  14.9353  14.9353  14.9406  14.9406
    14.9483  14.9483  14.9526  14.9526  14.9687  14.9687  14.9764  14.9764
    14.9877  14.9877  15.0195  15.0195  15.0206  15.0206  15.0472  15.0472
    15.0617  15.0617  15.1051  15.1051  15.1137  15.1137  15.1303  15.1303
    15.1640  15.1640  15.2654  15.2654  15.3387  15.3387  15.6520  15.6520
    15.7058  15.7058  15.9858  15.9858  15.9880  15.9880  16.2982  16.2982
    16.2993  16.2993  16.3170  16.3170  16.3174  16.3174  16.3845  16.3845
    16.7030  16.7030  16.8462  16.8462  16.8726  16.8726  16.8841  16.8841
    16.8973  16.8973  16.9591  16.9591  17.0319  17.0319  17.2182  17.2182
    17.3244  17.3244  17.3568  17.3568  17.3867  17.3867  17.4469  17.4469
    18.7723  18.7723  18.7857  18.7857  18.9347  18.9347  18.9953  18.9953
    19.6146  19.6146  19.6712  19.6712  19.8639  19.8639  19.8910  19.8910
    20.7907  20.7907  20.7911  20.7911  20.8083  20.8083  21.2744  21.2744
    21.3119  21.3119  21.5076  21.5076  21.7906  21.7906  21.7989  21.7989
    22.0495  22.0495  22.0720  22.0720  22.8328  22.8328  22.8381  22.8381
    23.1083  23.1083  23.6020  23.6020  23.8942  23.8942  25.1133  25.1133
    25.4278  25.4278

          k = 0.0000 0.4003 0.0000 ( 12162 PWs)   bands (ev):

   -87.1555 -87.1555 -87.1522 -87.1522 -87.1504 -87.1504 -87.1466 -87.1466
   -87.0820 -87.0820 -87.0804 -87.0804 -87.0696 -87.0696 -87.0688 -87.0688
   -87.0507 -87.0507 -87.0503 -87.0503 -87.0417 -87.0417 -87.0415 -87.0415
   -87.0406 -87.0406 -87.0406 -87.0406 -87.0310 -87.0310 -87.0309 -87.0309
   -58.7994 -58.7994 -58.7993 -58.7993 -58.7964 -58.7964 -58.7963 -58.7963
   -58.7379 -58.7379 -58.7379 -58.7379 -58.7346 -58.7346 -58.7346 -58.7346
   -49.1981 -49.1981 -49.1907 -49.1907 -49.1871 -49.1871 -49.1782 -49.1782
   -49.1288 -49.1288 -49.1280 -49.1280 -49.1207 -49.1207 -49.1190 -49.1190
   -49.0961 -49.0961 -49.0947 -49.0947 -49.0847 -49.0847 -49.0841 -49.0841
   -49.0274 -49.0274 -49.0198 -49.0198 -49.0110 -49.0110 -49.0049 -49.0049
   -47.1005 -47.1005 -47.0896 -47.0896 -47.0829 -47.0829 -47.0698 -47.0698
   -47.0213 -47.0213 -47.0109 -47.0109 -47.0029 -47.0029 -46.9991 -46.9991
   -46.9684 -46.9684 -46.9554 -46.9554 -46.9494 -46.9494 -46.9419 -46.9419
   -46.9325 -46.9325 -46.9190 -46.9190 -46.9166 -46.9166 -46.9058 -46.9058
   -46.8755 -46.8755 -46.8539 -46.8539 -46.8442 -46.8442 -46.8386 -46.8386
   -46.8292 -46.8292 -46.8273 -46.8273 -46.8177 -46.8177 -46.8079 -46.8079
   -46.8026 -46.8026 -46.7980 -46.7980 -46.7798 -46.7798 -46.7785 -46.7785
   -46.7749 -46.7749 -46.7706 -46.7706 -46.7468 -46.7468 -46.7462 -46.7462
   -25.9392 -25.9392 -25.9391 -25.9391 -25.9306 -25.9306 -25.9304 -25.9304
   -25.8768 -25.8768 -25.8765 -25.8765 -25.8674 -25.8674 -25.8671 -25.8671
   -25.6593 -25.6593 -25.6591 -25.6591 -25.6533 -25.6533 -25.6523 -25.6523
   -25.6496 -25.6496 -25.6486 -25.6486 -25.6365 -25.6365 -25.6360 -25.6360
   -25.5938 -25.5938 -25.5936 -25.5936 -25.5832 -25.5832 -25.5826 -25.5826
   -25.5793 -25.5793 -25.5787 -25.5787 -25.5703 -25.5703 -25.5702 -25.5702
     7.5462   7.5462   8.1926   8.1926   8.2119   8.2119   9.7267   9.7267
    10.2425  10.2425  10.4032  10.4032  10.6600  10.6600  10.6848  10.6848
    11.1712  11.1712  11.2128  11.2128  11.3796  11.3796  11.4844  11.4844
    11.6201  11.6201  11.7076  11.7076  11.7958  11.7958  11.9089  11.9089
    11.9189  11.9189  12.0258  12.0258  12.0509  12.0509  12.0816  12.0816
    12.0927  12.0927  12.1985  12.1985  12.3381  12.3381  12.3875  12.3875
    12.4276  12.4276  12.4735  12.4735  12.5179  12.5179  12.5873  12.5873
    12.6021  12.6021  12.6389  12.6389  12.6463  12.6463  12.7745  12.7745
    12.7840  12.7840  12.8296  12.8296  12.8457  12.8457  12.8981  12.8981
    12.9542  12.9542  12.9686  12.9686  13.0500  13.0500  13.1051  13.1051
    13.1905  13.1905  13.2522  13.2522  13.2847  13.2847  13.3237  13.3237
    13.4331  13.4331  13.4749  13.4749  13.5468  13.5468  13.5771  13.5771
    13.6014  13.6014  13.7420  13.7420  13.7829  13.7829  13.8136  13.8136
    13.8354  13.8354  13.9087  13.9087  13.9937  13.9937  14.0162  14.0162
    14.0782  14.0782  14.1367  14.1367  14.2048  14.2048  14.2100  14.2100
    14.2862  14.2862  14.3747  14.3747  14.4034  14.4034  14.4343  14.4343
    14.4999  14.4999  14.5314  14.5314  14.5492  14.5492  14.6216  14.6216
    14.6482  14.6482  14.7061  14.7061  14.7891  14.7891  14.8308  14.8308
    14.8892  14.8892  14.9602  14.9602  14.9657  14.9657  14.9789  14.9789
    15.0451  15.0451  15.0560  15.0560  15.0707  15.0707  15.1083  15.1083
    15.1809  15.1809  15.2213  15.2213  15.2357  15.2357  15.3869  15.3869
    15.4093  15.4093  15.4863  15.4863  15.5984  15.5984  15.7637  15.7637
    16.0852  16.0852  16.0931  16.0931  16.5574  16.5574  16.5865  16.5865
    16.8019  16.8019  16.9009  16.9009  16.9823  16.9823  17.2545  17.2545
    17.2743  17.2743  17.3374  17.3374  17.3403  17.3403  17.5110  17.5110
    18.2500  18.2500  18.7749  18.7749  19.1084  19.1084  19.1548  19.1548
    20.7564  20.7564  20.9489  20.9489  21.0041  21.0041  21.3398  21.3398
    22.0933  22.0933  22.2636  22.2636  22.4388  22.4388  22.5029  22.5029
    22.6273  22.6273  22.6309  22.6309  23.2742  23.2742  23.5682  23.5682
    23.8293  23.8293  23.9454  23.9454  24.1966  24.1966  24.6678  24.6678
    24.7740  24.7740  25.5082  25.5082  25.8427  25.8427  25.9245  25.9245
    26.1781  26.1781

          k = 0.3467 0.6004 0.0000 ( 12162 PWs)   bands (ev):

   -87.1529 -87.1529 -87.1529 -87.1529 -87.1481 -87.1481 -87.1481 -87.1481
   -87.0719 -87.0719 -87.0719 -87.0719 -87.0620 -87.0620 -87.0620 -87.0620
   -87.0561 -87.0561 -87.0560 -87.0560 -87.0540 -87.0540 -87.0540 -87.0540
   -87.0405 -87.0405 -87.0405 -87.0405 -87.0310 -87.0310 -87.0309 -87.0309
   -58.7992 -58.7992 -58.7992 -58.7992 -58.7962 -58.7962 -58.7962 -58.7962
   -58.7381 -58.7381 -58.7380 -58.7380 -58.7348 -58.7348 -58.7348 -58.7348
   -49.1968 -49.1968 -49.1959 -49.1959 -49.1826 -49.1826 -49.1818 -49.1818
   -49.1256 -49.1256 -49.1247 -49.1247 -49.1170 -49.1170 -49.1160 -49.1160
   -49.0621 -49.0621 -49.0618 -49.0618 -49.0614 -49.0614 -49.0572 -49.0572
   -49.0502 -49.0502 -49.0449 -49.0449 -49.0399 -49.0399 -49.0378 -49.0378
   -47.0958 -47.0958 -47.0926 -47.0926 -47.0801 -47.0801 -47.0754 -47.0754
   -46.9907 -46.9907 -46.9861 -46.9861 -46.9782 -46.9782 -46.9718 -46.9718
   -46.9714 -46.9714 -46.9653 -46.9653 -46.9648 -46.9648 -46.9293 -46.9293
   -46.9159 -46.9159 -46.9143 -46.9143 -46.9016 -46.9016 -46.8908 -46.8908
   -46.8751 -46.8751 -46.8613 -46.8613 -46.8465 -46.8465 -46.8440 -46.8440
   -46.8319 -46.8319 -46.8276 -46.8276 -46.8265 -46.8265 -46.8236 -46.8236
   -46.8149 -46.8149 -46.8065 -46.8065 -46.7996 -46.7996 -46.7926 -46.7926
   -46.7919 -46.7919 -46.7871 -46.7871 -46.7614 -46.7614 -46.7613 -46.7613
   -25.9389 -25.9389 -25.9377 -25.9377 -25.9303 -25.9303 -25.9290 -25.9290
   -25.8783 -25.8783 -25.8783 -25.8783 -25.8689 -25.8689 -25.8689 -25.8689
   -25.6623 -25.6623 -25.6558 -25.6558 -25.6535 -25.6535 -25.6534 -25.6534
   -25.6452 -25.6452 -25.6450 -25.6450 -25.6413 -25.6413 -25.6334 -25.6334
   -25.5929 -25.5929 -25.5929 -25.5929 -25.5859 -25.5859 -25.5856 -25.5856
   -25.5793 -25.5793 -25.5780 -25.5780 -25.5697 -25.5697 -25.5697 -25.5697
     9.3275   9.3275   9.3284   9.3284   9.7885   9.7885   9.9089   9.9089
     9.9165   9.9165  10.0968  10.0968  10.2491  10.2491  10.2551  10.2551
    10.4428  10.4428  11.2370  11.2370  11.2374  11.2374  11.3275  11.3275
    11.3550  11.3550  11.3631  11.3631  11.3716  11.3716  11.9633  11.9633
    11.9674  11.9674  11.9739  11.9739  12.1906  12.1906  12.1962  12.1962
    12.3280  12.3280  12.3467  12.3467  12.5397  12.5397  12.5547  12.5547
    12.5883  12.5883  12.6106  12.6106  12.6614  12.6614  12.6775  12.6775
    12.6811  12.6811  12.6985  12.6985  12.7911  12.7911  12.8391  12.8391
    12.8754  12.8754  12.8769  12.8769  12.9014  12.9014  12.9050  12.9050
    12.9581  12.9581  12.9684  12.9684  12.9697  12.9697  13.0268  13.0268
    13.0327  13.0327  13.0376  13.0376  13.0739  13.0739  13.1016  13.1016
    13.1732  13.1732  13.1919  13.1919  13.2048  13.2048  13.2417  13.2417
    13.2685  13.2685  13.4739  13.4739  13.4751  13.4751  13.4876  13.4876
    13.6403  13.6403  13.8195  13.8195  13.8234  13.8234  13.8514  13.8514
    13.8611  13.8611  13.9068  13.9068  14.0996  14.0996  14.1071  14.1071
    14.2182  14.2182  14.2794  14.2794  14.2934  14.2934  14.3034  14.3034
    14.3800  14.3800  14.3962  14.3962  14.4293  14.4293  14.5149  14.5149
    14.5813  14.5813  14.6083  14.6083  14.6243  14.6243  14.6459  14.6459
    14.6928  14.6928  14.7125  14.7125  14.7427  14.7427  14.7682  14.7682
    14.8043  14.8043  14.8047  14.8047  14.8681  14.8681  14.9511  14.9511
    15.1415  15.1415  15.1837  15.1837  15.2916  15.2916  15.2950  15.2950
    15.3192  15.3192  15.4391  15.4391  15.4458  15.4458  15.5702  15.5702
    15.6438  15.6438  15.7173  15.7173  15.7173  15.7173  15.9408  15.9408
    16.1501  16.1501  16.1616  16.1616  16.2448  16.2448  17.7644  17.7644
    17.7858  17.7858  17.8299  17.8299  18.0936  18.0936  18.1011  18.1011
    18.7535  18.7535  20.6385  20.6385  20.6418  20.6418  20.8364  20.8364
    21.0916  21.0916  21.0918  21.0918  21.8816  21.8816  21.8831  21.8831
    21.9184  21.9184  22.0226  22.0226  22.0313  22.0313  22.2168  22.2168
    22.5489  22.5489  23.0370  23.0370  23.0400  23.0400  23.0559  23.0559
    23.9801  23.9801  23.9835  23.9835  24.5126  24.5126  24.5300  24.5300
    24.6115  24.6115  25.5518  25.5518  26.6200  26.6200  26.6313  26.6313
    26.6464  26.6464

     the Fermi energy is    15.8276 ev

!    total energy              =   -7950.42311081 Ry
     total all-electron energy =    -51824.275194 Ry
     estimated scf accuracy    <          4.8E-10 Ry
     smearing contrib. (-TS)   =       0.06806166 Ry
     internal energy E=F+TS    =   -7950.49117247 Ry

     The total energy is F=E-TS. E is the sum of the following terms:
     one-electron contribution =   -4166.36483961 Ry
     hartree contribution      =    2274.34805503 Ry
     xc contribution           =    -684.14027304 Ry
     ewald contribution        =   -3835.76525125 Ry
     one-center paw contrib.   =   -1538.56886361 Ry

     convergence has been achieved in  52 iterations

     Forces acting on atoms (cartesian axes, Ry/au):

     atom    1 type  1   force =    -0.00000000   -0.00000000    0.00423602
     atom    2 type  1   force =     0.00000000    0.00000000    0.00423602
     atom    3 type  1   force =    -0.00000000   -0.00000000   -0.00423602
     atom    4 type  1   force =     0.00000000    0.00000000   -0.00423602
     atom    5 type  1   force =    -0.00000000   -0.00000000    0.00066295
     atom    6 type  1   force =    -0.00000000   -0.00000000    0.00066295
     atom    7 type  1   force =     0.00000000    0.00000000   -0.00066295
     atom    8 type  1   force =     0.00000000    0.00000000   -0.00066295
     atom    9 type  2   force =     0.00000000    0.00000000   -0.00035065
     atom   10 type  2   force =     0.00000000    0.00000000   -0.00035065
     atom   11 type  2   force =     0.00000000    0.00000000    0.00035065
     atom   12 type  2   force =     0.00000000    0.00000000    0.00035065
     atom   13 type  2   force =    -0.00000000   -0.00807226   -0.00000000
     atom   14 type  2   force =     0.00699078   -0.00403613    0.00000000
     atom   15 type  2   force =     0.00000000    0.00807226    0.00000000
     atom   16 type  2   force =    -0.00699078    0.00403613   -0.00000000
     atom   17 type  2   force =     0.00699078    0.00403613    0.00000000
     atom   18 type  2   force =    -0.00699078   -0.00403613   -0.00000000
     atom   19 type  2   force =    -0.00000000   -0.00000000    0.00000000
     atom   20 type  2   force =     0.00000000   -0.00000000   -0.00000000
     atom   21 type  2   force =     0.00000000   -0.00000000   -0.00000000
     atom   22 type  2   force =     0.00000000    0.00000000    0.00000000
     atom   23 type  2   force =     0.00000000    0.00000000    0.00000000
     atom   24 type  2   force =     0.00000000   -0.00000000   -0.00000000
     The non-local contrib.  to forces
     atom    1 type  1   force =     0.00000000    0.00000000    0.03046216
     atom    2 type  1   force =    -0.00000000   -0.00000000    0.03046216
     atom    3 type  1   force =     0.00000000    0.00000000   -0.03046216
     atom    4 type  1   force =    -0.00000000   -0.00000000   -0.03046216
     atom    5 type  1   force =     0.00000000    0.00000000   -0.00268538
     atom    6 type  1   force =    -0.00000000   -0.00000000   -0.00268538
     atom    7 type  1   force =     0.00000000    0.00000000    0.00268538
     atom    8 type  1   force =     0.00000000    0.00000000    0.00268538
     atom    9 type  2   force =    -0.00000000   -0.00000000    0.02576731
     atom   10 type  2   force =     0.00000000    0.00000000    0.02576731
     atom   11 type  2   force =    -0.00000000   -0.00000000   -0.02576731
     atom   12 type  2   force =    -0.00000000   -0.00000000   -0.02576731
     atom   13 type  2   force =    -0.00000000   -0.07336672    0.00000000
     atom   14 type  2   force =     0.06353744   -0.03668335   -0.00000000
     atom   15 type  2   force =     0.00000000    0.07336672    0.00000000
     atom   16 type  2   force =    -0.06353744    0.03668335   -0.00000000
     atom   17 type  2   force =     0.06353744    0.03668337    0.00000000
     atom   18 type  2   force =    -0.06353744   -0.03668337   -0.00000000
     atom   19 type  2   force =    -0.00000000   -0.00000000   -0.00000000
     atom   20 type  2   force =     0.00000000    0.00000000    0.00000000
     atom   21 type  2   force =     0.00000000    0.00000000    0.00000000
     atom   22 type  2   force =     0.00000000    0.00000000    0.00000000
     atom   23 type  2   force =     0.00000000    0.00000000   -0.00000000
     atom   24 type  2   force =    -0.00000000   -0.00000000    0.00000000
     The ionic contribution  to forces
     atom    1 type  1   force =    -0.00001475    0.00001137   -0.39289051
     atom    2 type  1   force =     0.00001475   -0.00001137   -0.39289051
     atom    3 type  1   force =     0.00001475   -0.00001137    0.39289051
     atom    4 type  1   force =    -0.00001475    0.00001137    0.39289051
     atom    5 type  1   force =     0.00006407   -0.00003386    0.11097671
     atom    6 type  1   force =    -0.00006407    0.00003386    0.11097671
     atom    7 type  1   force =    -0.00006407    0.00003386   -0.11097671
     atom    8 type  1   force =     0.00006407   -0.00003386   -0.11097671
     atom    9 type  2   force =     0.00006598   -0.00003793    0.36025477
     atom   10 type  2   force =    -0.00006598    0.00003793    0.36025477
     atom   11 type  2   force =    -0.00006598    0.00003793   -0.36025477
     atom   12 type  2   force =     0.00006598   -0.00003793   -0.36025477
     atom   13 type  2   force =     0.00008296  -14.69307751    0.00000000
     atom   14 type  2   force =    12.72467263   -7.34659520   -0.00000000
     atom   15 type  2   force =    -0.00008296   14.69307751   -0.00000000
     atom   16 type  2   force =   -12.72467263    7.34659520    0.00000000
     atom   17 type  2   force =    12.72461793    7.34647093    0.00000000
     atom   18 type  2   force =   -12.72461793   -7.34647093   -0.00000000
     atom   19 type  2   force =     0.00000000   -0.00000000    0.00000000
     atom   20 type  2   force =     0.00000000   -0.00000000    0.00000000
     atom   21 type  2   force =     0.00000000   -0.00000000    0.00000000
     atom   22 type  2   force =     0.00000000    0.00000000    0.00000000
     atom   23 type  2   force =    -0.00000000    0.00000000    0.00000000
     atom   24 type  2   force =    -0.00000000    0.00000000    0.00000000
     The local contribution  to forces
     atom    1 type  1   force =    -0.00000231   -0.00000129    0.36680361
     atom    2 type  1   force =     0.00000231    0.00000129    0.36680361
     atom    3 type  1   force =     0.00000231    0.00000129   -0.36680361
     atom    4 type  1   force =    -0.00000231   -0.00000129   -0.36680361
     atom    5 type  1   force =     0.00137448   -0.00079640   -0.10762919
     atom    6 type  1   force =    -0.00137448    0.00079640   -0.10762919
     atom    7 type  1   force =    -0.00137448    0.00079640    0.10762919
     atom    8 type  1   force =     0.00137448   -0.00079640    0.10762919
     atom    9 type  2   force =     0.00183156   -0.00105756   -0.38313990
     atom   10 type  2   force =    -0.00183156    0.00105756   -0.38313990
     atom   11 type  2   force =    -0.00183156    0.00105756    0.38313990
     atom   12 type  2   force =     0.00183156   -0.00105756    0.38313990
     atom   13 type  2   force =    -0.00183243   14.75856540    0.00000000
     atom   14 type  2   force =   -12.77880595    7.37784703   -0.00000000
     atom   15 type  2   force =     0.00183243  -14.75856540   -0.00000000
     atom   16 type  2   force =    12.77880595   -7.37784703    0.00000000
     atom   17 type  2   force =   -12.78220974   -7.37769942    0.00000000
     atom   18 type  2   force =    12.78220974    7.37769942   -0.00000000
     atom   19 type  2   force =    -0.00000000    0.00000000    0.00000000
     atom   20 type  2   force =    -0.00000000   -0.00000000   -0.00000000
     atom   21 type  2   force =    -0.00000000    0.00000000   -0.00000000
     atom   22 type  2   force =    -0.00000000   -0.00000000    0.00000000
     atom   23 type  2   force =     0.00000000    0.00000000   -0.00000000
     atom   24 type  2   force =     0.00000000    0.00000000    0.00000000
     The core correction contribution to forces
     atom    1 type  1   force =    -0.00000000    0.00000000   -0.00013848
     atom    2 type  1   force =     0.00000000   -0.00000000   -0.00013848
     atom    3 type  1   force =     0.00000000   -0.00000000    0.00013848
     atom    4 type  1   force =    -0.00000000    0.00000000    0.00013848
     atom    5 type  1   force =     0.00000302   -0.00000174    0.00000258
     atom    6 type  1   force =    -0.00000302    0.00000174    0.00000258
     atom    7 type  1   force =    -0.00000302    0.00000174   -0.00000258
     atom    8 type  1   force =     0.00000302   -0.00000174   -0.00000258
     atom    9 type  2   force =     0.00000116   -0.00000067   -0.00323111
     atom   10 type  2   force =    -0.00000116    0.00000067   -0.00323111
     atom   11 type  2   force =    -0.00000116    0.00000067    0.00323111
     atom   12 type  2   force =     0.00000116   -0.00000067    0.00323111
     atom   13 type  2   force =    -0.00000116    0.00079186    0.00000000
     atom   14 type  2   force =    -0.00068399    0.00039490   -0.00000000
     atom   15 type  2   force =     0.00000116   -0.00079186   -0.00000000
     atom   16 type  2   force =     0.00068399   -0.00039490    0.00000000
     atom   17 type  2   force =    -0.00068635   -0.00039493    0.00000000
     atom   18 type  2   force =     0.00068635    0.00039493   -0.00000000
     atom   19 type  2   force =    -0.00000000    0.00000000    0.00000000
     atom   20 type  2   force =    -0.00000000   -0.00000000    0.00000000
     atom   21 type  2   force =    -0.00000000    0.00000000    0.00000000
     atom   22 type  2   force =    -0.00000000   -0.00000000    0.00000000
     atom   23 type  2   force =     0.00000000    0.00000000    0.00000000
     atom   24 type  2   force =     0.00000000    0.00000000    0.00000000
     The Hubbard contrib.    to forces
     atom    1 type  1   force =     0.00000000    0.00000000    0.00000000
     atom    2 type  1   force =     0.00000000    0.00000000    0.00000000
     atom    3 type  1   force =     0.00000000    0.00000000    0.00000000
     atom    4 type  1   force =     0.00000000    0.00000000    0.00000000
     atom    5 type  1   force =     0.00000000    0.00000000    0.00000000
     atom    6 type  1   force =     0.00000000    0.00000000    0.00000000
     atom    7 type  1   force =     0.00000000    0.00000000    0.00000000
     atom    8 type  1   force =     0.00000000    0.00000000    0.00000000
     atom    9 type  2   force =     0.00000000    0.00000000    0.00000000
     atom   10 type  2   force =     0.00000000    0.00000000    0.00000000
     atom   11 type  2   force =     0.00000000    0.00000000    0.00000000
     atom   12 type  2   force =     0.00000000    0.00000000    0.00000000
     atom   13 type  2   force =     0.00000000    0.00000000    0.00000000
     atom   14 type  2   force =     0.00000000    0.00000000    0.00000000
     atom   15 type  2   force =     0.00000000    0.00000000    0.00000000
     atom   16 type  2   force =     0.00000000    0.00000000    0.00000000
     atom   17 type  2   force =     0.00000000    0.00000000    0.00000000
     atom   18 type  2   force =     0.00000000    0.00000000    0.00000000
     atom   19 type  2   force =     0.00000000    0.00000000    0.00000000
     atom   20 type  2   force =     0.00000000    0.00000000    0.00000000
     atom   21 type  2   force =     0.00000000    0.00000000    0.00000000
     atom   22 type  2   force =     0.00000000    0.00000000    0.00000000
     atom   23 type  2   force =     0.00000000    0.00000000    0.00000000
     atom   24 type  2   force =     0.00000000    0.00000000    0.00000000
     The SCF correction term to forces
     atom    1 type  1   force =     0.00000004   -0.00000002   -0.00000076
     atom    2 type  1   force =    -0.00000004    0.00000002   -0.00000076
     atom    3 type  1   force =    -0.00000004    0.00000002    0.00000076
     atom    4 type  1   force =     0.00000004   -0.00000002    0.00000076
     atom    5 type  1   force =    -0.00000002    0.00000001   -0.00000178
     atom    6 type  1   force =     0.00000002   -0.00000001   -0.00000178
     atom    7 type  1   force =     0.00000002   -0.00000001    0.00000178
     atom    8 type  1   force =    -0.00000002    0.00000001    0.00000178
     atom    9 type  2   force =    -0.00000022    0.00000013   -0.00000172
     atom   10 type  2   force =     0.00000022   -0.00000013   -0.00000172
     atom   11 type  2   force =     0.00000022   -0.00000013    0.00000172
     atom   12 type  2   force =    -0.00000022    0.00000013    0.00000172
     atom   13 type  2   force =    -0.00000002    0.00000832    0.00000000
     atom   14 type  2   force =    -0.00000723    0.00000417   -0.00000000
     atom   15 type  2   force =     0.00000002   -0.00000832   -0.00000000
     atom   16 type  2   force =     0.00000723   -0.00000417    0.00000000
     atom   17 type  2   force =    -0.00000722   -0.00000414    0.00000000
     atom   18 type  2   force =     0.00000722    0.00000414   -0.00000000
     atom   19 type  2   force =     0.00000000    0.00000000   -0.00000000
     atom   20 type  2   force =     0.00000000    0.00000000   -0.00000000
     atom   21 type  2   force =     0.00000000    0.00000000   -0.00000000
     atom   22 type  2   force =     0.00000000    0.00000000   -0.00000000
     atom   23 type  2   force =    -0.00000000   -0.00000000   -0.00000000
     atom   24 type  2   force =    -0.00000000   -0.00000000   -0.00000000

     Total force =     0.021564     Total SCF correction =     0.000021


     Computing stress (Cartesian axis) and pressure

          total   stress  (Ry/bohr**3)                   (kbar)     P=       58.00
   0.00039359   0.00000000  -0.00000000           57.90        0.00       -0.00
   0.00000000   0.00039359  -0.00000000            0.00       57.90       -0.00
  -0.00000000  -0.00000000   0.00039557           -0.00       -0.00       58.19

     Energy error            =      2.1E-02 Ry
     Gradient error          =      8.1E-03 Ry/Bohr
     Cell gradient error     =      5.8E+01 kbar

     number of scf cycles    =   5
     number of bfgs steps    =   4

     enthalpy           old  =   -7950.4024067813 Ry
     enthalpy           new  =   -7950.4231108126 Ry

     CASE: enthalpy          _new < enthalpy          _old

     new trust radius        =       0.0416759049 bohr
     new conv_thr            =       0.0000000013 Ry

     new unit-cell volume =   1836.66627 a.u.^3 (   272.16586 Ang^3 )
     density =      6.91592 g/cm^3

CELL_PARAMETERS (angstrom)
   4.575340226  -0.000000019  -0.000000000
  -2.287670613   3.962361163  -0.000000000
  -0.000000000  -0.000000000  15.012609872

ATOMIC_POSITIONS (crystal)
Mg            0.0000000000        0.0000000000        0.4067061316
Mg            0.0000000000        0.0000000000        0.9067061316
Mg            0.0000000000        0.0000000000        0.5932938684
Mg           -0.0000000000       -0.0000000000        0.0932938684
Mg            0.3333330000        0.6666670000        0.6559237689
Mg            0.6666670000        0.3333330000        0.1559237689
Mg            0.6666670000        0.3333330000        0.3440762311
Mg            0.3333330000        0.6666670000        0.8440762311
Ni            0.3333330000        0.6666670000        0.3749157824
Ni            0.6666670000        0.3333330000        0.8749157824
Ni            0.6666670000        0.3333330000        0.6250842176
Ni            0.3333330000        0.6666670000        0.1250842176
Ni            0.1643994362        0.3287978733        0.2500000000
Ni            0.8356005638        0.1643994371        0.7500000000
Ni            0.8356005638        0.6712021267        0.7500000000
Ni            0.1643994362        0.8356005629        0.2500000000
Ni            0.6712021276        0.8356005638        0.2500000000
Ni            0.3287978724        0.1643994362        0.7500000000
Ni            0.5000000000        0.0000000000        0.5000000000
Ni            0.5000000000        0.5000000000       -0.0000000000
Ni            0.5000000000        0.0000000000       -0.0000000000
Ni            0.5000000000        0.5000000000        0.5000000000
Ni           -0.0000000000        0.5000000000        0.0000000000
Ni           -0.0000000000        0.5000000000        0.5000000000



     Writing config-only to output data dir ./C36_out/laves_C36.save/
     NEW-OLD atomic charge density approx. for the potential

     Check: negative core charge=   -0.000016
     extrapolated charge  373.32625, renormalised to  368.00000

     total cpu time spent up to now is     4828.6 secs

     Self-consistent Calculation

     iteration #  1     ecut=    50.00 Ry     beta= 0.10
     Davidson diagonalization with overlap
     ethr =  1.00E-06,  avg # of iterations = 14.3

     total cpu time spent up to now is     4893.0 secs

     total energy              =   -7946.69140725 Ry
     estimated scf accuracy    <      16.29985539 Ry

     iteration #  2     ecut=    50.00 Ry     beta= 0.10
     Davidson diagonalization with overlap
     ethr =  4.43E-03,  avg # of iterations =  2.0

     total cpu time spent up to now is     4915.8 secs

     total energy              =   -7950.52411340 Ry
     estimated scf accuracy    <       0.84115120 Ry

     iteration #  3     ecut=    50.00 Ry     beta= 0.10
     Davidson diagonalization with overlap
     ethr =  2.29E-04,  avg # of iterations =  3.3

     total cpu time spent up to now is     4936.7 secs

     total energy              =   -7950.54885143 Ry
     estimated scf accuracy    <       0.84834952 Ry

     iteration #  4     ecut=    50.00 Ry     beta= 0.10
     Davidson diagonalization with overlap
     ethr =  2.29E-04,  avg # of iterations =  1.0

     total cpu time spent up to now is     4954.8 secs

     total energy              =   -7950.50648913 Ry
     estimated scf accuracy    <       0.82732363 Ry

     iteration #  5     ecut=    50.00 Ry     beta= 0.10
     Davidson diagonalization with overlap
     ethr =  2.25E-04,  avg # of iterations =  1.0

     total cpu time spent up to now is     4973.0 secs

     total energy              =   -7950.42488352 Ry
     estimated scf accuracy    <       0.56021652 Ry

     iteration #  6     ecut=    50.00 Ry     beta= 0.10
     Davidson diagonalization with overlap
     ethr =  1.52E-04,  avg # of iterations =  3.3

     total cpu time spent up to now is     4992.4 secs

     total energy              =   -7950.43535009 Ry
     estimated scf accuracy    <       0.11838360 Ry

     iteration #  7     ecut=    50.00 Ry     beta= 0.10
     Davidson diagonalization with overlap
     ethr =  3.22E-05,  avg # of iterations =  1.0

     total cpu time spent up to now is     5010.6 secs

     total energy              =   -7950.43089158 Ry
     estimated scf accuracy    <       0.05821657 Ry

     iteration #  8     ecut=    50.00 Ry     beta= 0.10
     Davidson diagonalization with overlap
     ethr =  1.58E-05,  avg # of iterations =  1.7

     total cpu time spent up to now is     5030.3 secs

     total energy              =   -7950.42856498 Ry
     estimated scf accuracy    <       0.02240959 Ry

     iteration #  9     ecut=    50.00 Ry     beta= 0.10
     Davidson diagonalization with overlap
     ethr =  6.09E-06,  avg # of iterations =  3.3

     total cpu time spent up to now is     5050.4 secs

     total energy              =   -7950.43076665 Ry
     estimated scf accuracy    <       0.00527143 Ry

     iteration # 10     ecut=    50.00 Ry     beta= 0.10
     Davidson diagonalization with overlap
     c_bands:  2 eigenvalues not converged
     ethr =  1.43E-06,  avg # of iterations =  9.0

     total cpu time spent up to now is     5072.9 secs

     total energy              =   -7950.43031881 Ry
     estimated scf accuracy    <       0.01741233 Ry

     iteration # 11     ecut=    50.00 Ry     beta= 0.10
     Davidson diagonalization with overlap
     ethr =  1.43E-06,  avg # of iterations =  1.3

     total cpu time spent up to now is     5091.9 secs

     total energy              =   -7950.42920935 Ry
     estimated scf accuracy    <       0.01288085 Ry

     iteration # 12     ecut=    50.00 Ry     beta= 0.10
     Davidson diagonalization with overlap
     ethr =  1.43E-06,  avg # of iterations =  1.0

     total cpu time spent up to now is     5110.1 secs

     total energy              =   -7950.42993784 Ry
     estimated scf accuracy    <       0.00622108 Ry

     iteration # 13     ecut=    50.00 Ry     beta= 0.10
     Davidson diagonalization with overlap
     ethr =  1.43E-06,  avg # of iterations =  1.0

     total cpu time spent up to now is     5128.4 secs

     total energy              =   -7950.42808648 Ry
     estimated scf accuracy    <       0.00980179 Ry

     iteration # 14     ecut=    50.00 Ry     beta= 0.10
     Davidson diagonalization with overlap
     ethr =  1.43E-06,  avg # of iterations =  1.3

     total cpu time spent up to now is     5147.4 secs

     total energy              =   -7950.42849987 Ry
     estimated scf accuracy    <       0.00127287 Ry

     iteration # 15     ecut=    50.00 Ry     beta= 0.10
     Davidson diagonalization with overlap
     ethr =  3.46E-07,  avg # of iterations =  1.3

     total cpu time spent up to now is     5166.4 secs

     total energy              =   -7950.42859506 Ry
     estimated scf accuracy    <       0.00063000 Ry

     iteration # 16     ecut=    50.00 Ry     beta= 0.10
     Davidson diagonalization with overlap
     ethr =  1.71E-07,  avg # of iterations =  1.0

     total cpu time spent up to now is     5184.6 secs

     total energy              =   -7950.42857300 Ry
     estimated scf accuracy    <       0.00103071 Ry

     iteration # 17     ecut=    50.00 Ry     beta= 0.10
     Davidson diagonalization with overlap
     ethr =  1.71E-07,  avg # of iterations =  1.0

     total cpu time spent up to now is     5202.9 secs

     total energy              =   -7950.42845556 Ry
     estimated scf accuracy    <       0.00094372 Ry

     iteration # 18     ecut=    50.00 Ry     beta= 0.10
     Davidson diagonalization with overlap
     ethr =  1.71E-07,  avg # of iterations =  1.0

     total cpu time spent up to now is     5221.2 secs

     total energy              =   -7950.42845874 Ry
     estimated scf accuracy    <       0.00029012 Ry

     iteration # 19     ecut=    50.00 Ry     beta= 0.10
     Davidson diagonalization with overlap
     ethr =  7.88E-08,  avg # of iterations =  1.0

     total cpu time spent up to now is     5239.6 secs

     total energy              =   -7950.42842049 Ry
     estimated scf accuracy    <       0.00018354 Ry

     iteration # 20     ecut=    50.00 Ry     beta= 0.10
     Davidson diagonalization with overlap
     ethr =  4.99E-08,  avg # of iterations =  2.0

     total cpu time spent up to now is     5260.3 secs

     total energy              =   -7950.42843701 Ry
     estimated scf accuracy    <       0.00000674 Ry

     iteration # 21     ecut=    50.00 Ry     beta= 0.10
     Davidson diagonalization with overlap
     ethr =  1.83E-09,  avg # of iterations =  3.7

     total cpu time spent up to now is     5284.0 secs

     total energy              =   -7950.42843841 Ry
     estimated scf accuracy    <       0.00000203 Ry

     iteration # 22     ecut=    50.00 Ry     beta= 0.10
     Davidson diagonalization with overlap
     ethr =  5.52E-10,  avg # of iterations =  3.3

     total cpu time spent up to now is     5308.0 secs

     total energy              =   -7950.42843667 Ry
     estimated scf accuracy    <       0.00001526 Ry

     iteration # 23     ecut=    50.00 Ry     beta= 0.10
     Davidson diagonalization with overlap
     ethr =  5.52E-10,  avg # of iterations =  2.7

     total cpu time spent up to now is     5331.5 secs

     total energy              =   -7950.42843778 Ry
     estimated scf accuracy    <       0.00000106 Ry

     iteration # 24     ecut=    50.00 Ry     beta= 0.10
     Davidson diagonalization with overlap
     ethr =  2.87E-10,  avg # of iterations =  2.0

     total cpu time spent up to now is     5353.5 secs

     total energy              =   -7950.42843792 Ry
     estimated scf accuracy    <       0.00000037 Ry

     iteration # 25     ecut=    50.00 Ry     beta= 0.10
     Davidson diagonalization with overlap
     ethr =  1.02E-10,  avg # of iterations =  2.0

     total cpu time spent up to now is     5377.1 secs

     total energy              =   -7950.42843806 Ry
     estimated scf accuracy    <       0.00000034 Ry

     iteration # 26     ecut=    50.00 Ry     beta= 0.10
     Davidson diagonalization with overlap
     ethr =  9.31E-11,  avg # of iterations =  2.0

     total cpu time spent up to now is     5398.2 secs

     total energy              =   -7950.42843809 Ry
     estimated scf accuracy    <       0.00000058 Ry

     iteration # 27     ecut=    50.00 Ry     beta= 0.10
     Davidson diagonalization with overlap
     ethr =  9.31E-11,  avg # of iterations =  1.0

     total cpu time spent up to now is     5416.6 secs

     total energy              =   -7950.42843787 Ry
     estimated scf accuracy    <       0.00000045 Ry

     iteration # 28     ecut=    50.00 Ry     beta= 0.10
     Davidson diagonalization with overlap
     ethr =  9.31E-11,  avg # of iterations =  2.0

     total cpu time spent up to now is     5442.2 secs

     total energy              =   -7950.42843793 Ry
     estimated scf accuracy    <       0.00000020 Ry

     iteration # 29     ecut=    50.00 Ry     beta= 0.10
     Davidson diagonalization with overlap
     ethr =  5.52E-11,  avg # of iterations =  2.0

     total cpu time spent up to now is     5465.0 secs

     total energy              =   -7950.42843797 Ry
     estimated scf accuracy    <       0.00000003 Ry

     iteration # 30     ecut=    50.00 Ry     beta= 0.10
     Davidson diagonalization with overlap
     ethr =  8.56E-12,  avg # of iterations =  2.0

     total cpu time spent up to now is     5486.7 secs

     total energy              =   -7950.42843798 Ry
     estimated scf accuracy    <       0.00000006 Ry

     iteration # 31     ecut=    50.00 Ry     beta= 0.10
     Davidson diagonalization with overlap
     ethr =  8.56E-12,  avg # of iterations =  1.0

     total cpu time spent up to now is     5505.0 secs

     total energy              =   -7950.42843798 Ry
     estimated scf accuracy    <       0.00000001 Ry

     iteration # 32     ecut=    50.00 Ry     beta= 0.10
     Davidson diagonalization with overlap
     ethr =  3.38E-12,  avg # of iterations =  1.0

     total cpu time spent up to now is     5523.4 secs

     total energy              =   -7950.42843799 Ry
     estimated scf accuracy    <          3.9E-09 Ry

     iteration # 33     ecut=    50.00 Ry     beta= 0.10
     Davidson diagonalization with overlap
     ethr =  1.06E-12,  avg # of iterations =  1.0

     total cpu time spent up to now is     5541.5 secs

     End of self-consistent calculation

          k = 0.0000 0.0000 0.0000 ( 12121 PWs)   bands (ev):

   -87.4095 -87.4095 -87.4042 -87.4042 -87.4039 -87.4039 -87.3975 -87.3975
   -87.3462 -87.3462 -87.3426 -87.3426 -87.3338 -87.3338 -87.3315 -87.3315
   -87.2969 -87.2969 -87.2969 -87.2969 -87.2968 -87.2968 -87.2968 -87.2968
   -87.2887 -87.2887 -87.2887 -87.2887 -87.2886 -87.2886 -87.2886 -87.2886
   -59.0984 -59.0984 -59.0983 -59.0983 -59.0955 -59.0955 -59.0955 -59.0955
   -59.0376 -59.0376 -59.0375 -59.0375 -59.0344 -59.0344 -59.0344 -59.0344
   -49.4443 -49.4443 -49.4377 -49.4377 -49.4266 -49.4266 -49.4200 -49.4200
   -49.3877 -49.3877 -49.3863 -49.3863 -49.3811 -49.3811 -49.3789 -49.3789
   -49.3703 -49.3703 -49.3692 -49.3692 -49.3619 -49.3619 -49.3600 -49.3600
   -49.2582 -49.2582 -49.2493 -49.2493 -49.2398 -49.2398 -49.2330 -49.2330
   -47.3507 -47.3507 -47.3502 -47.3502 -47.3258 -47.3258 -47.3064 -47.3064
   -47.3007 -47.3007 -47.2898 -47.2898 -47.2676 -47.2676 -47.2535 -47.2535
   -47.2271 -47.2271 -47.2178 -47.2178 -47.2169 -47.2169 -47.2062 -47.2062
   -47.2001 -47.2001 -47.1914 -47.1914 -47.1888 -47.1888 -47.1566 -47.1566
   -47.1344 -47.1344 -47.0942 -47.0942 -47.0909 -47.0909 -47.0869 -47.0869
   -47.0666 -47.0666 -47.0655 -47.0655 -47.0633 -47.0633 -47.0377 -47.0377
   -47.0241 -47.0241 -47.0231 -47.0231 -47.0123 -47.0123 -47.0102 -47.0102
   -46.9996 -46.9996 -46.9985 -46.9985 -46.9857 -46.9857 -46.9835 -46.9835
   -26.2386 -26.2386 -26.2383 -26.2383 -26.2305 -26.2305 -26.2301 -26.2301
   -26.1735 -26.1735 -26.1726 -26.1726 -26.1640 -26.1640 -26.1632 -26.1632
   -25.9555 -25.9555 -25.9549 -25.9549 -25.9537 -25.9537 -25.9534 -25.9534
   -25.9506 -25.9506 -25.9503 -25.9503 -25.9343 -25.9343 -25.9334 -25.9334
   -25.8948 -25.8948 -25.8943 -25.8943 -25.8802 -25.8802 -25.8799 -25.8799
   -25.8768 -25.8768 -25.8765 -25.8765 -25.8717 -25.8717 -25.8714 -25.8714
     6.2642   6.2642   6.9451   6.9451   6.9574   6.9574   8.5170   8.5170
     9.2658   9.2658  10.3622  10.3622  10.3777  10.3777  10.5118  10.5118
    11.0918  11.0918  11.2032  11.2032  11.2851  11.2851  11.4264  11.4264
    11.5015  11.5015  11.5398  11.5398  11.5551  11.5551  11.5687  11.5687
    11.5849  11.5849  11.5879  11.5879  11.7523  11.7523  11.7709  11.7709
    11.8052  11.8052  11.8836  11.8836  11.9012  11.9012  11.9017  11.9017
    11.9274  11.9274  11.9734  11.9734  12.0344  12.0344  12.0786  12.0786
    12.0813  12.0813  12.1387  12.1387  12.4921  12.4921  12.4922  12.4922
    12.5245  12.5245  12.5315  12.5315  12.5363  12.5363  12.5900  12.5900
    12.7929  12.7929  12.8464  12.8464  13.0209  13.0209  13.0555  13.0555
    13.0703  13.0703  13.1130  13.1130  13.1461  13.1461  13.1714  13.1714
    13.3708  13.3708  13.3912  13.3912  13.6968  13.6968  13.9101  13.9101
    13.9414  13.9414  13.9676  13.9676  13.9858  13.9858  14.0173  14.0173
    14.1355  14.1355  14.1895  14.1895  14.3354  14.3354  14.3469  14.3469
    14.4986  14.4986  14.5135  14.5135  14.6299  14.6299  14.6319  14.6319
    14.6479  14.6479  14.6510  14.6510  14.6673  14.6673  14.6730  14.6730
    14.6791  14.6791  14.6850  14.6850  14.7023  14.7023  14.7093  14.7093
    14.7198  14.7198  14.7506  14.7506  14.7521  14.7521  14.7806  14.7806
    14.7951  14.7951  14.8357  14.8357  14.8436  14.8436  14.8605  14.8605
    14.8940  14.8940  14.9945  14.9945  15.0678  15.0678  15.3751  15.3751
    15.4289  15.4289  15.6937  15.6937  15.6957  15.6957  16.0030  16.0030
    16.0042  16.0042  16.0190  16.0190  16.0194  16.0194  16.1109  16.1109
    16.4092  16.4092  16.5620  16.5620  16.5854  16.5854  16.5999  16.5999
    16.6097  16.6097  16.6588  16.6588  16.7295  16.7295  16.9124  16.9124
    17.0324  17.0324  17.0645  17.0645  17.0868  17.0868  17.1465  17.1465
    18.4776  18.4776  18.4911  18.4911  18.6233  18.6233  18.6833  18.6833
    19.2853  19.2853  19.3413  19.3413  19.5497  19.5497  19.5769  19.5769
    20.4461  20.4461  20.4563  20.4563  20.4731  20.4731  20.9061  20.9061
    20.9470  20.9470  21.1462  21.1462  21.4443  21.4443  21.4526  21.4526
    21.7207  21.7207  21.7429  21.7429  22.4898  22.4898  22.4947  22.4947
    22.7030  22.7030  23.1970  23.1970  23.4826  23.4826  24.7086  24.7086
    25.0188  25.0188

          k = 0.0000 0.3983 0.0000 ( 12162 PWs)   bands (ev):

   -87.4066 -87.4066 -87.4035 -87.4035 -87.4020 -87.4020 -87.3984 -87.3984
   -87.3364 -87.3364 -87.3350 -87.3350 -87.3250 -87.3250 -87.3243 -87.3243
   -87.3063 -87.3063 -87.3059 -87.3059 -87.2988 -87.2988 -87.2986 -87.2986
   -87.2969 -87.2969 -87.2969 -87.2969 -87.2887 -87.2887 -87.2886 -87.2886
   -59.0981 -59.0981 -59.0981 -59.0981 -59.0953 -59.0953 -59.0953 -59.0953
   -59.0379 -59.0379 -59.0378 -59.0378 -59.0347 -59.0347 -59.0347 -59.0347
   -49.4445 -49.4445 -49.4378 -49.4378 -49.4342 -49.4342 -49.4259 -49.4259
   -49.3784 -49.3784 -49.3775 -49.3775 -49.3715 -49.3715 -49.3695 -49.3695
   -49.3471 -49.3471 -49.3455 -49.3455 -49.3369 -49.3369 -49.3361 -49.3361
   -49.2814 -49.2814 -49.2740 -49.2740 -49.2665 -49.2665 -49.2605 -49.2605
   -47.3451 -47.3451 -47.3348 -47.3348 -47.3281 -47.3281 -47.3156 -47.3156
   -47.2695 -47.2695 -47.2589 -47.2589 -47.2520 -47.2520 -47.2476 -47.2476
   -47.2154 -47.2154 -47.2035 -47.2035 -47.1983 -47.1983 -47.1916 -47.1916
   -47.1814 -47.1814 -47.1699 -47.1699 -47.1670 -47.1670 -47.1550 -47.1550
   -47.1280 -47.1280 -47.1060 -47.1060 -47.0979 -47.0979 -47.0921 -47.0921
   -47.0818 -47.0818 -47.0810 -47.0810 -47.0716 -47.0716 -47.0610 -47.0610
   -47.0568 -47.0568 -47.0530 -47.0530 -47.0344 -47.0344 -47.0329 -47.0329
   -47.0297 -47.0297 -47.0259 -47.0259 -47.0032 -47.0032 -47.0024 -47.0024
   -26.2371 -26.2371 -26.2369 -26.2369 -26.2288 -26.2288 -26.2287 -26.2287
   -26.1761 -26.1761 -26.1758 -26.1758 -26.1668 -26.1668 -26.1665 -26.1665
   -25.9568 -25.9568 -25.9566 -25.9566 -25.9509 -25.9509 -25.9500 -25.9500
   -25.9475 -25.9475 -25.9465 -25.9465 -25.9352 -25.9352 -25.9347 -25.9347
   -25.8933 -25.8933 -25.8931 -25.8931 -25.8827 -25.8827 -25.8821 -25.8821
   -25.8789 -25.8789 -25.8783 -25.8783 -25.8705 -25.8705 -25.8703 -25.8703
     7.3474   7.3474   7.9899   7.9899   8.0044   8.0044   9.5089   9.5089
    10.0244  10.0244  10.1874  10.1874  10.4526  10.4526  10.4740  10.4740
    10.9680  10.9680  11.0120  11.0120  11.1764  11.1764  11.2798  11.2798
    11.4098  11.4098  11.5021  11.5021  11.5872  11.5872  11.6964  11.6964
    11.7043  11.7043  11.8151  11.8151  11.8419  11.8419  11.8702  11.8702
    11.8794  11.8794  11.9826  11.9826  12.1143  12.1143  12.1618  12.1618
    12.2082  12.2082  12.2563  12.2563  12.2991  12.2991  12.3687  12.3687
    12.3834  12.3834  12.4206  12.4206  12.4305  12.4305  12.5529  12.5529
    12.5614  12.5614  12.6041  12.6041  12.6210  12.6210  12.6750  12.6750
    12.7273  12.7273  12.7371  12.7371  12.8184  12.8184  12.8767  12.8767
    12.9583  12.9583  13.0218  13.0218  13.0529  13.0529  13.0892  13.0892
    13.1918  13.1918  13.2384  13.2384  13.3073  13.3073  13.3360  13.3360
    13.3576  13.3576  13.4953  13.4953  13.5363  13.5363  13.5692  13.5692
    13.5916  13.5916  13.6637  13.6637  13.7441  13.7441  13.7654  13.7654
    13.8323  13.8323  13.8873  13.8873  13.9518  13.9518  13.9583  13.9583
    14.0352  14.0352  14.1190  14.1190  14.1470  14.1470  14.1771  14.1771
    14.2439  14.2439  14.2723  14.2723  14.2937  14.2937  14.3620  14.3620
    14.3862  14.3862  14.4498  14.4498  14.5274  14.5274  14.5689  14.5689
    14.6276  14.6276  14.6933  14.6933  14.6976  14.6976  14.7110  14.7110
    14.7771  14.7771  14.7877  14.7877  14.8023  14.8023  14.8397  14.8397
    14.9095  14.9095  14.9499  14.9499  14.9643  14.9643  15.1114  15.1114
    15.1343  15.1343  15.2067  15.2067  15.3161  15.3161  15.4843  15.4843
    15.7940  15.7940  15.7985  15.7985  16.2600  16.2600  16.2949  16.2949
    16.5018  16.5018  16.5998  16.5998  16.6805  16.6805  16.9468  16.9468
    16.9732  16.9732  17.0329  17.0329  17.0364  17.0364  17.2147  17.2147
    17.9496  17.9496  18.4599  18.4599  18.7864  18.7864  18.8314  18.8314
    20.4119  20.4119  20.6217  20.6217  20.6721  20.6721  20.9965  20.9965
    21.7511  21.7511  21.9149  21.9149  22.0984  22.0984  22.1411  22.1411
    22.2680  22.2680  22.2843  22.2843  22.9116  22.9116  23.2290  23.2290
    23.4596  23.4596  23.5715  23.5715  23.8474  23.8474  24.2952  24.2952
    24.3789  24.3789  25.1071  25.1071  25.4442  25.4442  25.5527  25.5527
    25.7510  25.7510

          k = 0.3450 0.5975 0.0000 ( 12162 PWs)   bands (ev):

   -87.4042 -87.4042 -87.4042 -87.4042 -87.3999 -87.3999 -87.3999 -87.3999
   -87.3275 -87.3275 -87.3275 -87.3275 -87.3167 -87.3167 -87.3167 -87.3167
   -87.3123 -87.3123 -87.3122 -87.3122 -87.3100 -87.3100 -87.3100 -87.3100
   -87.2968 -87.2968 -87.2968 -87.2968 -87.2887 -87.2887 -87.2886 -87.2886
   -59.0980 -59.0980 -59.0980 -59.0980 -59.0952 -59.0952 -59.0952 -59.0952
   -59.0380 -59.0380 -59.0380 -59.0380 -59.0348 -59.0348 -59.0348 -59.0348
   -49.4437 -49.4437 -49.4428 -49.4428 -49.4299 -49.4299 -49.4291 -49.4291
   -49.3757 -49.3757 -49.3742 -49.3742 -49.3680 -49.3680 -49.3668 -49.3668
   -49.3155 -49.3155 -49.3147 -49.3147 -49.3127 -49.3127 -49.3082 -49.3082
   -49.3041 -49.3041 -49.2990 -49.2990 -49.2943 -49.2943 -49.2923 -49.2923
   -47.3408 -47.3408 -47.3373 -47.3373 -47.3257 -47.3257 -47.3206 -47.3206
   -47.2394 -47.2394 -47.2341 -47.2341 -47.2281 -47.2281 -47.2215 -47.2215
   -47.2197 -47.2197 -47.2148 -47.2148 -47.2147 -47.2147 -47.1776 -47.1776
   -47.1664 -47.1664 -47.1639 -47.1639 -47.1540 -47.1540 -47.1414 -47.1414
   -47.1293 -47.1293 -47.1102 -47.1102 -47.1011 -47.1011 -47.0990 -47.0990
   -47.0844 -47.0844 -47.0822 -47.0822 -47.0778 -47.0778 -47.0771 -47.0771
   -47.0683 -47.0683 -47.0595 -47.0595 -47.0527 -47.0527 -47.0472 -47.0472
   -47.0462 -47.0462 -47.0403 -47.0403 -47.0162 -47.0162 -47.0162 -47.0162
   -26.2368 -26.2368 -26.2358 -26.2358 -26.2285 -26.2285 -26.2273 -26.2273
   -26.1774 -26.1774 -26.1774 -26.1774 -26.1682 -26.1682 -26.1681 -26.1681
   -25.9596 -25.9596 -25.9537 -25.9537 -25.9511 -25.9511 -25.9511 -25.9511
   -25.9434 -25.9434 -25.9432 -25.9432 -25.9395 -25.9395 -25.9323 -25.9323
   -25.8925 -25.8925 -25.8925 -25.8925 -25.8851 -25.8851 -25.8848 -25.8848
   -25.8789 -25.8789 -25.8777 -25.8777 -25.8699 -25.8699 -25.8699 -25.8699
     9.1173   9.1173   9.1182   9.1182   9.5667   9.5667   9.6920   9.6920
     9.6994   9.6994   9.8766   9.8766  10.0317  10.0317  10.0375  10.0375
    10.2178  10.2178  11.0286  11.0286  11.0289  11.0289  11.1129  11.1129
    11.1308  11.1308  11.1408  11.1408  11.1490  11.1490  11.7627  11.7627
    11.7631  11.7631  11.7667  11.7667  11.9773  11.9773  11.9851  11.9851
    12.1138  12.1138  12.1353  12.1353  12.3201  12.3201  12.3353  12.3353
    12.3644  12.3644  12.3915  12.3915  12.4416  12.4416  12.4477  12.4477
    12.4526  12.4526  12.4738  12.4738  12.5569  12.5569  12.6163  12.6163
    12.6413  12.6413  12.6531  12.6531  12.6753  12.6753  12.6776  12.6776
    12.7353  12.7353  12.7361  12.7361  12.7362  12.7362  12.8048  12.8048
    12.8048  12.8048  12.8125  12.8125  12.8447  12.8447  12.8778  12.8778
    12.9428  12.9428  12.9626  12.9626  12.9746  12.9746  13.0125  13.0125
    13.0389  13.0389  13.2344  13.2344  13.2392  13.2392  13.2515  13.2515
    13.4062  13.4062  13.5772  13.5772  13.5823  13.5823  13.6103  13.6103
    13.6191  13.6191  13.6587  13.6587  13.8458  13.8458  13.8535  13.8535
    13.9648  13.9648  14.0219  14.0219  14.0357  14.0357  14.0481  14.0481
    14.1272  14.1272  14.1423  14.1423  14.1761  14.1761  14.2556  14.2556
    14.3225  14.3225  14.3479  14.3479  14.3645  14.3645  14.3900  14.3900
    14.4348  14.4348  14.4519  14.4519  14.4805  14.4805  14.5075  14.5075
    14.5448  14.5448  14.5449  14.5449  14.6048  14.6048  14.6909  14.6909
    14.8734  14.8734  14.9153  14.9153  15.0169  15.0169  15.0177  15.0177
    15.0404  15.0404  15.1642  15.1642  15.1702  15.1702  15.2883  15.2883
    15.3602  15.3602  15.4352  15.4352  15.4353  15.4353  15.6495  15.6495
    15.8642  15.8642  15.8748  15.8748  15.9469  15.9469  17.4545  17.4545
    17.4747  17.4747  17.5126  17.5126  17.7881  17.7881  17.7959  17.7959
    18.4337  18.4337  20.3102  20.3102  20.3134  20.3134  20.5031  20.5031
    20.7615  20.7615  20.7618  20.7618  21.5376  21.5376  21.5390  21.5390
    21.5700  21.5700  21.6729  21.6729  21.6816  21.6816  21.8707  21.8707
    22.2003  22.2003  22.6754  22.6754  22.6770  22.6770  22.6953  22.6953
    23.6171  23.6171  23.6205  23.6205  24.1236  24.1236  24.1409  24.1409
    24.2256  24.2256  25.1360  25.1360  26.2327  26.2327  26.2437  26.2437
    26.2687  26.2687

     the Fermi energy is    15.5399 ev

!    total energy              =   -7950.42843799 Ry
     total all-electron energy =    -51824.280521 Ry
     estimated scf accuracy    <          8.5E-10 Ry
     smearing contrib. (-TS)   =       0.07150201 Ry
     internal energy E=F+TS    =   -7950.49994000 Ry

     The total energy is F=E-TS. E is the sum of the following terms:
     one-electron contribution =   -4195.60603265 Ry
     hartree contribution      =    2285.35293126 Ry
     xc contribution           =    -683.89942343 Ry
     ewald contribution        =   -3817.81505874 Ry
     one-center paw contrib.   =   -1538.53235643 Ry

     convergence has been achieved in  33 iterations

     Forces acting on atoms (cartesian axes, Ry/au):

     atom    1 type  1   force =     0.00000000    0.00000000    0.00284409
     atom    2 type  1   force =     0.00000000    0.00000000    0.00284409
     atom    3 type  1   force =    -0.00000000   -0.00000000   -0.00284409
     atom    4 type  1   force =    -0.00000000   -0.00000000   -0.00284409
     atom    5 type  1   force =     0.00000000    0.00000000    0.00040188
     atom    6 type  1   force =     0.00000000    0.00000000    0.00040188
     atom    7 type  1   force =    -0.00000000   -0.00000000   -0.00040188
     atom    8 type  1   force =    -0.00000000   -0.00000000   -0.00040188
     atom    9 type  2   force =    -0.00000000   -0.00000000   -0.00051808
     atom   10 type  2   force =    -0.00000000   -0.00000000   -0.00051808
     atom   11 type  2   force =     0.00000000    0.00000000    0.00051808
     atom   12 type  2   force =     0.00000000    0.00000000    0.00051808
     atom   13 type  2   force =    -0.00000000   -0.00125288    0.00000000
     atom   14 type  2   force =     0.00108502   -0.00062644    0.00000000
     atom   15 type  2   force =     0.00000000    0.00125288    0.00000000
     atom   16 type  2   force =    -0.00108502    0.00062644   -0.00000000
     atom   17 type  2   force =     0.00108502    0.00062644   -0.00000000
     atom   18 type  2   force =    -0.00108502   -0.00062644   -0.00000000
     atom   19 type  2   force =     0.00000000   -0.00000000   -0.00000000
     atom   20 type  2   force =    -0.00000000   -0.00000000    0.00000000
     atom   21 type  2   force =     0.00000000    0.00000000   -0.00000000
     atom   22 type  2   force =    -0.00000000   -0.00000000    0.00000000
     atom   23 type  2   force =     0.00000000    0.00000000    0.00000000
     atom   24 type  2   force =     0.00000000    0.00000000    0.00000000
     The non-local contrib.  to forces
     atom    1 type  1   force =    -0.00000000   -0.00000000    0.02799689
     atom    2 type  1   force =     0.00000000    0.00000000    0.02799689
     atom    3 type  1   force =    -0.00000000   -0.00000000   -0.02799689
     atom    4 type  1   force =    -0.00000000   -0.00000000   -0.02799689
     atom    5 type  1   force =    -0.00000000   -0.00000000   -0.00300706
     atom    6 type  1   force =     0.00000000    0.00000000   -0.00300706
     atom    7 type  1   force =     0.00000000    0.00000000    0.00300706
     atom    8 type  1   force =    -0.00000000   -0.00000000    0.00300706
     atom    9 type  2   force =     0.00000000    0.00000000    0.02407898
     atom   10 type  2   force =    -0.00000000   -0.00000000    0.02407898
     atom   11 type  2   force =     0.00000000    0.00000000   -0.02407898
     atom   12 type  2   force =    -0.00000000   -0.00000000   -0.02407898
     atom   13 type  2   force =    -0.00000000   -0.07674579   -0.00000000
     atom   14 type  2   force =     0.06646381   -0.03837289   -0.00000000
     atom   15 type  2   force =     0.00000000    0.07674579   -0.00000000
     atom   16 type  2   force =    -0.06646381    0.03837289   -0.00000000
     atom   17 type  2   force =     0.06646381    0.03837290    0.00000000
     atom   18 type  2   force =    -0.06646381   -0.03837290   -0.00000000
     atom   19 type  2   force =    -0.00000000   -0.00000000   -0.00000000
     atom   20 type  2   force =     0.00000000    0.00000000    0.00000000
     atom   21 type  2   force =    -0.00000000   -0.00000000    0.00000000
     atom   22 type  2   force =    -0.00000000    0.00000000    0.00000000
     atom   23 type  2   force =     0.00000000   -0.00000000    0.00000000
     atom   24 type  2   force =     0.00000000   -0.00000000    0.00000000
     The ionic contribution  to forces
     atom    1 type  1   force =    -0.00001471    0.00001129   -0.47166659
     atom    2 type  1   force =     0.00001471   -0.00001129   -0.47166659
     atom    3 type  1   force =     0.00001471   -0.00001129    0.47166659
     atom    4 type  1   force =    -0.00001471    0.00001129    0.47166659
     atom    5 type  1   force =     0.00006338   -0.00003354    0.10874541
     atom    6 type  1   force =    -0.00006338    0.00003354    0.10874541
     atom    7 type  1   force =    -0.00006338    0.00003354   -0.10874541
     atom    8 type  1   force =     0.00006338   -0.00003354   -0.10874541
     atom    9 type  2   force =     0.00006601   -0.00003796    0.16578102
     atom   10 type  2   force =    -0.00006601    0.00003796    0.16578102
     atom   11 type  2   force =    -0.00006601    0.00003796   -0.16578102
     atom   12 type  2   force =     0.00006601   -0.00003796   -0.16578102
     atom   13 type  2   force =     0.00008176  -13.80982027   -0.00000000
     atom   14 type  2   force =    11.95974920   -6.90496653   -0.00000000
     atom   15 type  2   force =    -0.00008176   13.80982027   -0.00000000
     atom   16 type  2   force =   -11.95974920    6.90496653   -0.00000000
     atom   17 type  2   force =    11.95969407    6.90484320   -0.00000000
     atom   18 type  2   force =   -11.95969407   -6.90484320   -0.00000000
     atom   19 type  2   force =     0.00000000   -0.00000000   -0.00000000
     atom   20 type  2   force =    -0.00000000   -0.00000000    0.00000000
     atom   21 type  2   force =     0.00000000   -0.00000000    0.00000000
     atom   22 type  2   force =    -0.00000000   -0.00000000   -0.00000000
     atom   23 type  2   force =    -0.00000000    0.00000000    0.00000000
     atom   24 type  2   force =     0.00000000   -0.00000000   -0.00000000
     The local contribution  to forces
     atom    1 type  1   force =    -0.00000226   -0.00000126    0.44663885
     atom    2 type  1   force =     0.00000226    0.00000126    0.44663885
     atom    3 type  1   force =     0.00000226    0.00000126   -0.44663885
     atom    4 type  1   force =    -0.00000226   -0.00000126   -0.44663885
     atom    5 type  1   force =     0.00138223   -0.00080080   -0.10534212
     atom    6 type  1   force =    -0.00138223    0.00080080   -0.10534212
     atom    7 type  1   force =    -0.00138223    0.00080080    0.10534212
     atom    8 type  1   force =     0.00138223   -0.00080080    0.10534212
     atom    9 type  2   force =     0.00184106   -0.00106303   -0.18721345
     atom   10 type  2   force =    -0.00184106    0.00106303   -0.18721345
     atom   11 type  2   force =    -0.00184106    0.00106303    0.18721345
     atom   12 type  2   force =     0.00184106   -0.00106303    0.18721345
     atom   13 type  2   force =    -0.00184151   13.88543755    0.00000000
     atom   14 type  2   force =   -12.02263829    6.94127301   -0.00000000
     atom   15 type  2   force =     0.00184151  -13.88543755   -0.00000000
     atom   16 type  2   force =    12.02263829   -6.94127301    0.00000000
     atom   17 type  2   force =   -12.02606416   -6.94112747    0.00000000
     atom   18 type  2   force =    12.02606416    6.94112747   -0.00000000
     atom   19 type  2   force =    -0.00000000   -0.00000000    0.00000000
     atom   20 type  2   force =    -0.00000000   -0.00000000   -0.00000000
     atom   21 type  2   force =    -0.00000000   -0.00000000   -0.00000000
     atom   22 type  2   force =    -0.00000000    0.00000000    0.00000000
     atom   23 type  2   force =     0.00000000    0.00000000   -0.00000000
     atom   24 type  2   force =     0.00000000    0.00000000    0.00000000
     The core correction contribution to forces
     atom    1 type  1   force =    -0.00000000    0.00000000   -0.00012248
     atom    2 type  1   force =     0.00000000   -0.00000000   -0.00012248
     atom    3 type  1   force =     0.00000000   -0.00000000    0.00012248
     atom    4 type  1   force =    -0.00000000    0.00000000    0.00012248
     atom    5 type  1   force =     0.00000303   -0.00000175    0.00000483
     atom    6 type  1   force =    -0.00000303    0.00000175    0.00000483
     atom    7 type  1   force =    -0.00000303    0.00000175   -0.00000483
     atom    8 type  1   force =     0.00000303   -0.00000175   -0.00000483
     atom    9 type  2   force =     0.00000117   -0.00000067   -0.00316283
     atom   10 type  2   force =    -0.00000117    0.00000067   -0.00316283
     atom   11 type  2   force =    -0.00000117    0.00000067    0.00316283
     atom   12 type  2   force =     0.00000117   -0.00000067    0.00316283
     atom   13 type  2   force =    -0.00000116    0.00088131    0.00000000
     atom   14 type  2   force =    -0.00076145    0.00043962   -0.00000000
     atom   15 type  2   force =     0.00000116   -0.00088131   -0.00000000
     atom   16 type  2   force =     0.00076145   -0.00043962    0.00000000
     atom   17 type  2   force =    -0.00076382   -0.00043965    0.00000000
     atom   18 type  2   force =     0.00076382    0.00043965   -0.00000000
     atom   19 type  2   force =    -0.00000000    0.00000000    0.00000000
     atom   20 type  2   force =    -0.00000000    0.00000000    0.00000000
     atom   21 type  2   force =    -0.00000000    0.00000000    0.00000000
     atom   22 type  2   force =     0.00000000    0.00000000    0.00000000
     atom   23 type  2   force =     0.00000000    0.00000000    0.00000000
     atom   24 type  2   force =     0.00000000    0.00000000    0.00000000
     The Hubbard contrib.    to forces
     atom    1 type  1   force =     0.00000000    0.00000000    0.00000000
     atom    2 type  1   force =     0.00000000    0.00000000    0.00000000
     atom    3 type  1   force =     0.00000000    0.00000000    0.00000000
     atom    4 type  1   force =     0.00000000    0.00000000    0.00000000
     atom    5 type  1   force =     0.00000000    0.00000000    0.00000000
     atom    6 type  1   force =     0.00000000    0.00000000    0.00000000
     atom    7 type  1   force =     0.00000000    0.00000000    0.00000000
     atom    8 type  1   force =     0.00000000    0.00000000    0.00000000
     atom    9 type  2   force =     0.00000000    0.00000000    0.00000000
     atom   10 type  2   force =     0.00000000    0.00000000    0.00000000
     atom   11 type  2   force =     0.00000000    0.00000000    0.00000000
     atom   12 type  2   force =     0.00000000    0.00000000    0.00000000
     atom   13 type  2   force =     0.00000000    0.00000000    0.00000000
     atom   14 type  2   force =     0.00000000    0.00000000    0.00000000
     atom   15 type  2   force =     0.00000000    0.00000000    0.00000000
     atom   16 type  2   force =     0.00000000    0.00000000    0.00000000
     atom   17 type  2   force =     0.00000000    0.00000000    0.00000000
     atom   18 type  2   force =     0.00000000    0.00000000    0.00000000
     atom   19 type  2   force =     0.00000000    0.00000000    0.00000000
     atom   20 type  2   force =     0.00000000    0.00000000    0.00000000
     atom   21 type  2   force =     0.00000000    0.00000000    0.00000000
     atom   22 type  2   force =     0.00000000    0.00000000    0.00000000
     atom   23 type  2   force =     0.00000000    0.00000000    0.00000000
     atom   24 type  2   force =     0.00000000    0.00000000    0.00000000
     The SCF correction term to forces
     atom    1 type  1   force =     0.00000001   -0.00000001   -0.00000258
     atom    2 type  1   force =    -0.00000001    0.00000001   -0.00000258
     atom    3 type  1   force =    -0.00000001    0.00000001    0.00000258
     atom    4 type  1   force =     0.00000001   -0.00000001    0.00000258
     atom    5 type  1   force =    -0.00000001    0.00000000    0.00000083
     atom    6 type  1   force =     0.00000001   -0.00000000    0.00000083
     atom    7 type  1   force =     0.00000001   -0.00000000   -0.00000083
     atom    8 type  1   force =    -0.00000001    0.00000000   -0.00000083
     atom    9 type  2   force =    -0.00000005    0.00000003   -0.00000181
     atom   10 type  2   force =     0.00000005   -0.00000003   -0.00000181
     atom   11 type  2   force =     0.00000005   -0.00000003    0.00000181
     atom   12 type  2   force =    -0.00000005    0.00000003    0.00000181
     atom   13 type  2   force =    -0.00000000   -0.00000584   -0.00000000
     atom   14 type  2   force =     0.00000505   -0.00000292    0.00000000
     atom   15 type  2   force =     0.00000000    0.00000584    0.00000000
     atom   16 type  2   force =    -0.00000505    0.00000292   -0.00000000
     atom   17 type  2   force =     0.00000506    0.00000292   -0.00000000
     atom   18 type  2   force =    -0.00000506   -0.00000292    0.00000000
     atom   19 type  2   force =     0.00000000    0.00000000   -0.00000000
     atom   20 type  2   force =     0.00000000   -0.00000000   -0.00000000
     atom   21 type  2   force =    -0.00000000    0.00000000   -0.00000000
     atom   22 type  2   force =     0.00000000   -0.00000000   -0.00000000
     atom   23 type  2   force =     0.00000000   -0.00000000   -0.00000000
     atom   24 type  2   force =     0.00000000   -0.00000000   -0.00000000

     Total force =     0.006595     Total SCF correction =     0.000016


     Computing stress (Cartesian axis) and pressure

          total   stress  (Ry/bohr**3)                   (kbar)     P=       -2.15
  -0.00001477  -0.00000000   0.00000000           -2.17       -0.00        0.00
  -0.00000000  -0.00001477  -0.00000000           -0.00       -2.17       -0.00
   0.00000000  -0.00000000  -0.00001436            0.00       -0.00       -2.11

     Energy error            =      5.3E-03 Ry
     Gradient error          =      2.8E-03 Ry/Bohr
     Cell gradient error     =      2.2E+00 kbar

     number of scf cycles    =   6
     number of bfgs steps    =   5

     enthalpy           old  =   -7950.4231108126 Ry
     enthalpy           new  =   -7950.4284379911 Ry

     CASE: enthalpy          _new < enthalpy          _old

     new trust radius        =       0.0025451090 bohr
     new conv_thr            =       0.0000000005 Ry

     new unit-cell volume =   1835.90846 a.u.^3 (   272.05357 Ang^3 )
     density =      6.91878 g/cm^3

CELL_PARAMETERS (angstrom)
   4.574690870  -0.000000019  -0.000000000
  -2.287345934   3.961798804  -0.000000000
  -0.000000000  -0.000000000  15.010676102

ATOMIC_POSITIONS (crystal)
Mg            0.0000000000        0.0000000000        0.4067958438
Mg            0.0000000000        0.0000000000        0.9067958438
Mg            0.0000000000        0.0000000000        0.5932041562
Mg           -0.0000000000       -0.0000000000        0.0932041562
Mg            0.3333330000        0.6666670000        0.6559364378
Mg            0.6666670000        0.3333330000        0.1559364378
Mg            0.6666670000        0.3333330000        0.3440635622
Mg            0.3333330000        0.6666670000        0.8440635622
Ni            0.3333330000        0.6666670000        0.3748997998
Ni            0.6666670000        0.3333330000        0.8748997998
Ni            0.6666670000        0.3333330000        0.6251002002
Ni            0.3333330000        0.6666670000        0.1251002002
Ni            0.1643182819        0.3286355649        0.2500000000
Ni            0.8356817180        0.1643182829        0.7500000000
Ni            0.8356817181        0.6713644351        0.7500000000
Ni            0.1643182820        0.8356817171        0.2500000000
Ni            0.6713644361        0.8356817181        0.2500000000
Ni            0.3286355639        0.1643182819        0.7500000000
Ni            0.5000000000        0.0000000000        0.5000000000
Ni            0.5000000000        0.5000000000        0.0000000000
Ni            0.5000000000        0.0000000000       -0.0000000000
Ni            0.5000000000        0.5000000000        0.5000000000
Ni           -0.0000000000        0.5000000000        0.0000000000
Ni           -0.0000000000        0.5000000000        0.5000000000



     Writing config-only to output data dir ./C36_out/laves_C36.save/
     NEW-OLD atomic charge density approx. for the potential

     Check: negative core charge=   -0.000016
     extrapolated charge  367.84810, renormalised to  368.00000

     total cpu time spent up to now is     5583.8 secs

     Self-consistent Calculation

     iteration #  1     ecut=    50.00 Ry     beta= 0.10
     Davidson diagonalization with overlap
     ethr =  1.00E-06,  avg # of iterations =  3.0

     total cpu time spent up to now is     5614.5 secs

     total energy              =   -7950.42585205 Ry
     estimated scf accuracy    <       0.01124493 Ry

     iteration #  2     ecut=    50.00 Ry     beta= 0.10
     Davidson diagonalization with overlap
     ethr =  3.06E-06,  avg # of iterations =  2.0

     total cpu time spent up to now is     5637.2 secs

     total energy              =   -7950.42859141 Ry
     estimated scf accuracy    <       0.00070260 Ry

     iteration #  3     ecut=    50.00 Ry     beta= 0.10
     Davidson diagonalization with overlap
     ethr =  1.91E-07,  avg # of iterations =  2.0

     total cpu time spent up to now is     5657.7 secs

     total energy              =   -7950.42854380 Ry
     estimated scf accuracy    <       0.00062473 Ry

     iteration #  4     ecut=    50.00 Ry     beta= 0.10
     Davidson diagonalization with overlap
     ethr =  1.70E-07,  avg # of iterations =  1.0

     total cpu time spent up to now is     5675.9 secs

     total energy              =   -7950.42850626 Ry
     estimated scf accuracy    <       0.00030047 Ry

     iteration #  5     ecut=    50.00 Ry     beta= 0.10
     Davidson diagonalization with overlap
     ethr =  8.16E-08,  avg # of iterations =  1.0

     total cpu time spent up to now is     5694.0 secs

     total energy              =   -7950.42847686 Ry
     estimated scf accuracy    <       0.00008891 Ry

     iteration #  6     ecut=    50.00 Ry     beta= 0.10
     Davidson diagonalization with overlap
     ethr =  2.42E-08,  avg # of iterations =  2.0

     total cpu time spent up to now is     5715.3 secs

     total energy              =   -7950.42848653 Ry
     estimated scf accuracy    <       0.00000122 Ry

     iteration #  7     ecut=    50.00 Ry     beta= 0.10
     Davidson diagonalization with overlap
     ethr =  3.32E-10,  avg # of iterations =  4.7

     total cpu time spent up to now is     5746.0 secs

     total energy              =   -7950.42849004 Ry
     estimated scf accuracy    <       0.00000385 Ry

     iteration #  8     ecut=    50.00 Ry     beta= 0.10
     Davidson diagonalization with overlap
     ethr =  3.32E-10,  avg # of iterations =  3.0

     total cpu time spent up to now is     5771.8 secs

     total energy              =   -7950.42849313 Ry
     estimated scf accuracy    <       0.00002341 Ry

     iteration #  9     ecut=    50.00 Ry     beta= 0.10
     Davidson diagonalization with overlap
     ethr =  3.32E-10,  avg # of iterations =  3.0

     total cpu time spent up to now is     5798.2 secs

     total energy              =   -7950.42849185 Ry
     estimated scf accuracy    <       0.00005828 Ry

     iteration # 10     ecut=    50.00 Ry     beta= 0.10
     Davidson diagonalization with overlap
     ethr =  3.32E-10,  avg # of iterations =  1.0

     total cpu time spent up to now is     5816.5 secs

     total energy              =   -7950.42847865 Ry
     estimated scf accuracy    <       0.00004716 Ry

     iteration # 11     ecut=    50.00 Ry     beta= 0.10
     Davidson diagonalization with overlap
     ethr =  3.32E-10,  avg # of iterations =  3.3

     total cpu time spent up to now is     5845.9 secs

     total energy              =   -7950.42847976 Ry
     estimated scf accuracy    <       0.00000434 Ry

     iteration # 12     ecut=    50.00 Ry     beta= 0.10
     Davidson diagonalization with overlap
     ethr =  3.32E-10,  avg # of iterations =  2.0

     total cpu time spent up to now is     5869.5 secs

     total energy              =   -7950.42848010 Ry
     estimated scf accuracy    <       0.00000016 Ry

     iteration # 13     ecut=    50.00 Ry     beta= 0.10
     Davidson diagonalization with overlap
     ethr =  4.22E-11,  avg # of iterations =  3.7

     total cpu time spent up to now is     5894.3 secs

     total energy              =   -7950.42848015 Ry
     estimated scf accuracy    <       0.00000014 Ry

     iteration # 14     ecut=    50.00 Ry     beta= 0.10
     Davidson diagonalization with overlap
     ethr =  3.86E-11,  avg # of iterations =  2.0

     total cpu time spent up to now is     5916.7 secs

     total energy              =   -7950.42848008 Ry
     estimated scf accuracy    <       0.00000046 Ry

     iteration # 15     ecut=    50.00 Ry     beta= 0.10
     Davidson diagonalization with overlap
     ethr =  3.86E-11,  avg # of iterations =  2.0

     total cpu time spent up to now is     5937.8 secs

     total energy              =   -7950.42847997 Ry
     estimated scf accuracy    <       0.00000018 Ry

     iteration # 16     ecut=    50.00 Ry     beta= 0.10
     Davidson diagonalization with overlap
     ethr =  3.86E-11,  avg # of iterations =  2.0

     total cpu time spent up to now is     5961.8 secs

     total energy              =   -7950.42848002 Ry
     estimated scf accuracy    <       0.00000003 Ry

     iteration # 17     ecut=    50.00 Ry     beta= 0.10
     Davidson diagonalization with overlap
     ethr =  6.85E-12,  avg # of iterations =  4.0

     total cpu time spent up to now is     5988.4 secs

     total energy              =   -7950.42848003 Ry
     estimated scf accuracy    <       0.00000008 Ry

     iteration # 18     ecut=    50.00 Ry     beta= 0.10
     Davidson diagonalization with overlap
     ethr =  6.85E-12,  avg # of iterations =  2.0

     total cpu time spent up to now is     6011.9 secs

     total energy              =   -7950.42848003 Ry
     estimated scf accuracy    <          8.7E-09 Ry

     iteration # 19     ecut=    50.00 Ry     beta= 0.10
     Davidson diagonalization with overlap
     ethr =  2.37E-12,  avg # of iterations =  2.0

     total cpu time spent up to now is     6036.7 secs

     total energy              =   -7950.42848003 Ry
     estimated scf accuracy    <          1.8E-09 Ry

     iteration # 20     ecut=    50.00 Ry     beta= 0.10
     Davidson diagonalization with overlap
     ethr =  4.92E-13,  avg # of iterations =  2.0

     total cpu time spent up to now is     6059.1 secs

     total energy              =   -7950.42848003 Ry
     estimated scf accuracy    <          6.3E-10 Ry

     iteration # 21     ecut=    50.00 Ry     beta= 0.10
     Davidson diagonalization with overlap
     ethr =  1.70E-13,  avg # of iterations =  2.0

     total cpu time spent up to now is     6082.1 secs

     End of self-consistent calculation

          k = 0.0000 0.0000 0.0000 ( 12121 PWs)   bands (ev):

   -87.4019 -87.4019 -87.3965 -87.3965 -87.3963 -87.3963 -87.3898 -87.3898
   -87.3392 -87.3392 -87.3354 -87.3354 -87.3271 -87.3271 -87.3246 -87.3246
   -87.2896 -87.2896 -87.2896 -87.2896 -87.2895 -87.2895 -87.2895 -87.2895
   -87.2820 -87.2820 -87.2819 -87.2819 -87.2819 -87.2819 -87.2818 -87.2818
   -59.0896 -59.0896 -59.0896 -59.0896 -59.0868 -59.0868 -59.0867 -59.0867
   -59.0293 -59.0293 -59.0292 -59.0292 -59.0261 -59.0261 -59.0260 -59.0260
   -49.4367 -49.4367 -49.4302 -49.4302 -49.4190 -49.4190 -49.4124 -49.4124
   -49.3807 -49.3807 -49.3793 -49.3793 -49.3745 -49.3745 -49.3723 -49.3723
   -49.3633 -49.3633 -49.3622 -49.3622 -49.3554 -49.3554 -49.3534 -49.3534
   -49.2512 -49.2512 -49.2420 -49.2420 -49.2330 -49.2330 -49.2260 -49.2260
   -47.3436 -47.3436 -47.3431 -47.3431 -47.3187 -47.3187 -47.2997 -47.2997
   -47.2931 -47.2931 -47.2829 -47.2829 -47.2606 -47.2606 -47.2460 -47.2460
   -47.2198 -47.2198 -47.2110 -47.2110 -47.2100 -47.2100 -47.1991 -47.1991
   -47.1928 -47.1928 -47.1850 -47.1850 -47.1823 -47.1823 -47.1490 -47.1490
   -47.1274 -47.1274 -47.0873 -47.0873 -47.0838 -47.0838 -47.0795 -47.0795
   -47.0593 -47.0593 -47.0582 -47.0582 -47.0564 -47.0564 -47.0305 -47.0305
   -47.0169 -47.0169 -47.0159 -47.0159 -47.0050 -47.0050 -47.0030 -47.0030
   -46.9931 -46.9931 -46.9920 -46.9920 -46.9791 -46.9791 -46.9769 -46.9769
   -26.2299 -26.2299 -26.2296 -26.2296 -26.2218 -26.2218 -26.2214 -26.2214
   -26.1652 -26.1652 -26.1644 -26.1644 -26.1556 -26.1556 -26.1548 -26.1548
   -25.9468 -25.9468 -25.9462 -25.9462 -25.9449 -25.9449 -25.9446 -25.9446
   -25.9419 -25.9419 -25.9416 -25.9416 -25.9256 -25.9256 -25.9246 -25.9246
   -25.8867 -25.8867 -25.8861 -25.8861 -25.8718 -25.8718 -25.8715 -25.8715
   -25.8684 -25.8684 -25.8681 -25.8681 -25.8633 -25.8633 -25.8630 -25.8630
     6.2695   6.2695   6.9513   6.9513   6.9621   6.9621   8.5221   8.5221
     9.2726   9.2726  10.3678  10.3678  10.3835  10.3835  10.5176  10.5176
    11.0963  11.0963  11.2094  11.2094  11.2922  11.2922  11.4322  11.4322
    11.5057  11.5057  11.5457  11.5457  11.5610  11.5610  11.5744  11.5744
    11.5907  11.5907  11.5937  11.5937  11.7585  11.7585  11.7770  11.7770
    11.8111  11.8111  11.8887  11.8887  11.9071  11.9071  11.9075  11.9075
    11.9333  11.9333  11.9792  11.9792  12.0412  12.0412  12.0854  12.0854
    12.0873  12.0873  12.1448  12.1448  12.4983  12.4983  12.4983  12.4983
    12.5316  12.5316  12.5377  12.5377  12.5426  12.5426  12.5971  12.5971
    12.7991  12.7991  12.8527  12.8527  13.0281  13.0281  13.0628  13.0628
    13.0775  13.0775  13.1196  13.1196  13.1532  13.1532  13.1787  13.1787
    13.3785  13.3785  13.3989  13.3989  13.7037  13.7037  13.9172  13.9172
    13.9484  13.9484  13.9746  13.9746  13.9936  13.9936  14.0244  14.0244
    14.1422  14.1422  14.1961  14.1961  14.3423  14.3423  14.3538  14.3538
    14.5062  14.5062  14.5210  14.5210  14.6374  14.6374  14.6390  14.6390
    14.6547  14.6547  14.6588  14.6588  14.6743  14.6743  14.6804  14.6804
    14.6860  14.6860  14.6923  14.6923  14.7093  14.7093  14.7168  14.7168
    14.7271  14.7271  14.7579  14.7579  14.7592  14.7592  14.7882  14.7882
    14.8026  14.8026  14.8425  14.8425  14.8504  14.8504  14.8677  14.8677
    14.9014  14.9014  15.0030  15.0030  15.0763  15.0763  15.3841  15.3841
    15.4378  15.4378  15.7013  15.7013  15.7034  15.7034  16.0115  16.0115
    16.0126  16.0126  16.0267  16.0267  16.0271  16.0271  16.1189  16.1189
    16.4179  16.4179  16.5695  16.5695  16.5924  16.5924  16.6078  16.6078
    16.6165  16.6165  16.6681  16.6681  16.7380  16.7380  16.9213  16.9213
    17.0412  17.0412  17.0733  17.0733  17.0934  17.0934  17.1533  17.1533
    18.4858  18.4858  18.4993  18.4993  18.6326  18.6326  18.6926  18.6926
    19.2951  19.2951  19.3512  19.3512  19.5583  19.5583  19.5857  19.5857
    20.4542  20.4542  20.4665  20.4665  20.4833  20.4833  20.9155  20.9155
    20.9554  20.9554  21.1558  21.1558  21.4537  21.4537  21.4620  21.4620
    21.7299  21.7299  21.7521  21.7521  22.4992  22.4992  22.5041  22.5041
    22.7154  22.7154  23.2072  23.2072  23.4944  23.4944  24.7157  24.7157
    25.0306  25.0306

          k = 0.0000 0.3984 0.0000 ( 12162 PWs)   bands (ev):

   -87.3989 -87.3989 -87.3958 -87.3958 -87.3943 -87.3943 -87.3907 -87.3907
   -87.3294 -87.3294 -87.3279 -87.3279 -87.3183 -87.3183 -87.3175 -87.3175
   -87.2990 -87.2990 -87.2986 -87.2986 -87.2920 -87.2920 -87.2918 -87.2918
   -87.2897 -87.2897 -87.2896 -87.2896 -87.2820 -87.2820 -87.2819 -87.2819
   -59.0894 -59.0894 -59.0894 -59.0894 -59.0866 -59.0866 -59.0865 -59.0865
   -59.0295 -59.0295 -59.0295 -59.0295 -59.0263 -59.0263 -59.0263 -59.0263
   -49.4370 -49.4370 -49.4303 -49.4303 -49.4266 -49.4266 -49.4183 -49.4183
   -49.3714 -49.3714 -49.3705 -49.3705 -49.3649 -49.3649 -49.3629 -49.3629
   -49.3401 -49.3401 -49.3385 -49.3385 -49.3302 -49.3302 -49.3293 -49.3293
   -49.2744 -49.2744 -49.2668 -49.2668 -49.2597 -49.2597 -49.2536 -49.2536
   -47.3379 -47.3379 -47.3276 -47.3276 -47.3208 -47.3208 -47.3083 -47.3083
   -47.2626 -47.2626 -47.2519 -47.2519 -47.2450 -47.2450 -47.2405 -47.2405
   -47.2081 -47.2081 -47.1963 -47.1963 -47.1913 -47.1913 -47.1845 -47.1845
   -47.1743 -47.1743 -47.1631 -47.1631 -47.1600 -47.1600 -47.1478 -47.1478
   -47.1210 -47.1210 -47.0990 -47.0990 -47.0908 -47.0908 -47.0850 -47.0850
   -47.0745 -47.0745 -47.0740 -47.0740 -47.0648 -47.0648 -47.0538 -47.0538
   -47.0496 -47.0496 -47.0458 -47.0458 -47.0279 -47.0279 -47.0263 -47.0263
   -47.0225 -47.0225 -47.0187 -47.0187 -46.9966 -46.9966 -46.9959 -46.9959
   -26.2284 -26.2284 -26.2282 -26.2282 -26.2201 -26.2201 -26.2199 -26.2199
   -26.1678 -26.1678 -26.1675 -26.1675 -26.1584 -26.1584 -26.1582 -26.1582
   -25.9482 -25.9482 -25.9480 -25.9480 -25.9422 -25.9422 -25.9413 -25.9413
   -25.9388 -25.9388 -25.9378 -25.9378 -25.9265 -25.9265 -25.9260 -25.9260
   -25.8852 -25.8852 -25.8850 -25.8850 -25.8743 -25.8743 -25.8737 -25.8737
   -25.8705 -25.8705 -25.8699 -25.8699 -25.8621 -25.8621 -25.8620 -25.8620
     7.3531   7.3531   7.9965   7.9965   8.0095   8.0095   9.5145   9.5145
    10.0313  10.0313  10.1934  10.1934  10.4592  10.4592  10.4795  10.4795
    10.9739  10.9739  11.0186  11.0186  11.1828  11.1828  11.2860  11.2860
    11.4161  11.4161  11.5088  11.5088  11.5937  11.5937  11.7025  11.7025
    11.7100  11.7100  11.8216  11.8216  11.8482  11.8482  11.8764  11.8764
    11.8854  11.8854  11.9898  11.9898  12.1198  12.1198  12.1678  12.1678
    12.2143  12.2143  12.2627  12.2627  12.3053  12.3053  12.3746  12.3746
    12.3893  12.3893  12.4270  12.4270  12.4373  12.4373  12.5593  12.5593
    12.5678  12.5678  12.6102  12.6102  12.6276  12.6276  12.6816  12.6816
    12.7336  12.7336  12.7434  12.7434  12.8246  12.8246  12.8834  12.8834
    12.9645  12.9645  13.0283  13.0283  13.0600  13.0600  13.0962  13.0962
    13.1985  13.1985  13.2451  13.2451  13.3140  13.3140  13.3424  13.3424
    13.3637  13.3637  13.5015  13.5015  13.5429  13.5429  13.5758  13.5758
    13.5984  13.5984  13.6704  13.6704  13.7506  13.7506  13.7718  13.7718
    13.8403  13.8403  13.8946  13.8946  13.9582  13.9582  13.9651  13.9651
    14.0420  14.0420  14.1254  14.1254  14.1535  14.1535  14.1836  14.1836
    14.2506  14.2506  14.2788  14.2788  14.3013  14.3013  14.3686  14.3686
    14.3932  14.3932  14.4578  14.4578  14.5352  14.5352  14.5762  14.5762
    14.6361  14.6361  14.7006  14.7006  14.7048  14.7048  14.7183  14.7183
    14.7845  14.7845  14.7953  14.7953  14.8100  14.8100  14.8476  14.8476
    14.9168  14.9168  14.9574  14.9574  14.9720  14.9720  15.1194  15.1194
    15.1424  15.1424  15.2143  15.2143  15.3238  15.3238  15.4933  15.4933
    15.8012  15.8012  15.8062  15.8062  16.2682  16.2682  16.3046  16.3046
    16.5099  16.5099  16.6080  16.6080  16.6875  16.6875  16.9555  16.9555
    16.9818  16.9818  17.0416  17.0416  17.0444  17.0444  17.2236  17.2236
    17.9599  17.9599  18.4690  18.4690  18.7946  18.7946  18.8396  18.8396
    20.4220  20.4220  20.6310  20.6310  20.6796  20.6796  21.0049  21.0049
    21.7606  21.7606  21.9246  21.9246  22.1089  22.1089  22.1518  22.1518
    22.2785  22.2785  22.2943  22.2943  22.9219  22.9219  23.2402  23.2402
    23.4701  23.4701  23.5813  23.5813  23.8563  23.8563  24.3053  24.3053
    24.3888  24.3888  25.1187  25.1187  25.4552  25.4552  25.5645  25.5645
    25.7623  25.7623

          k = 0.3450 0.5976 0.0000 ( 12162 PWs)   bands (ev):

   -87.3965 -87.3965 -87.3965 -87.3965 -87.3922 -87.3922 -87.3922 -87.3922
   -87.3205 -87.3205 -87.3205 -87.3205 -87.3096 -87.3096 -87.3096 -87.3096
   -87.3056 -87.3056 -87.3055 -87.3055 -87.3031 -87.3031 -87.3030 -87.3030
   -87.2896 -87.2896 -87.2896 -87.2896 -87.2819 -87.2819 -87.2819 -87.2819
   -59.0893 -59.0893 -59.0893 -59.0893 -59.0864 -59.0864 -59.0864 -59.0864
   -59.0297 -59.0297 -59.0297 -59.0297 -59.0265 -59.0265 -59.0264 -59.0264
   -49.4362 -49.4362 -49.4353 -49.4353 -49.4224 -49.4224 -49.4216 -49.4216
   -49.3687 -49.3687 -49.3672 -49.3672 -49.3615 -49.3615 -49.3603 -49.3603
   -49.3087 -49.3087 -49.3079 -49.3079 -49.3053 -49.3053 -49.3008 -49.3008
   -49.2974 -49.2974 -49.2923 -49.2923 -49.2874 -49.2874 -49.2855 -49.2855
   -47.3335 -47.3335 -47.3300 -47.3300 -47.3184 -47.3184 -47.3132 -47.3132
   -47.2325 -47.2325 -47.2271 -47.2271 -47.2213 -47.2213 -47.2147 -47.2147
   -47.2124 -47.2124 -47.2079 -47.2079 -47.2076 -47.2076 -47.1702 -47.1702
   -47.1593 -47.1593 -47.1564 -47.1564 -47.1469 -47.1469 -47.1341 -47.1341
   -47.1227 -47.1227 -47.1029 -47.1029 -47.0942 -47.0942 -47.0922 -47.0922
   -47.0775 -47.0775 -47.0750 -47.0750 -47.0711 -47.0711 -47.0701 -47.0701
   -47.0612 -47.0612 -47.0527 -47.0527 -47.0453 -47.0453 -47.0404 -47.0404
   -47.0393 -47.0393 -47.0329 -47.0329 -47.0097 -47.0097 -47.0097 -47.0097
   -26.2281 -26.2281 -26.2270 -26.2270 -26.2197 -26.2197 -26.2186 -26.2186
   -26.1692 -26.1692 -26.1691 -26.1691 -26.1598 -26.1598 -26.1598 -26.1598
   -25.9510 -25.9510 -25.9451 -25.9451 -25.9424 -25.9424 -25.9424 -25.9424
   -25.9347 -25.9347 -25.9345 -25.9345 -25.9308 -25.9308 -25.9236 -25.9236
   -25.8844 -25.8844 -25.8843 -25.8843 -25.8767 -25.8767 -25.8764 -25.8764
   -25.8705 -25.8705 -25.8693 -25.8693 -25.8615 -25.8615 -25.8615 -25.8615
     9.1241   9.1241   9.1250   9.1250   9.5724   9.5724   9.6981   9.6981
     9.7056   9.7056   9.8831   9.8831  10.0385  10.0385  10.0442  10.0442
    10.2223  10.2223  11.0356  11.0356  11.0359  11.0359  11.1185  11.1185
    11.1360  11.1360  11.1473  11.1473  11.1554  11.1554  11.7685  11.7685
    11.7706  11.7706  11.7742  11.7742  11.9844  11.9844  11.9923  11.9923
    12.1206  12.1206  12.1423  12.1423  12.3268  12.3268  12.3420  12.3420
    12.3703  12.3703  12.3980  12.3980  12.4480  12.4480  12.4524  12.4524
    12.4587  12.4587  12.4798  12.4798  12.5625  12.5625  12.6231  12.6231
    12.6462  12.6462  12.6597  12.6597  12.6817  12.6817  12.6838  12.6838
    12.7412  12.7412  12.7412  12.7412  12.7424  12.7424  12.8108  12.8108
    12.8122  12.8122  12.8190  12.8190  12.8507  12.8507  12.8852  12.8852
    12.9487  12.9487  12.9693  12.9693  12.9806  12.9806  13.0192  13.0192
    13.0455  13.0455  13.2401  13.2401  13.2453  13.2453  13.2574  13.2574
    13.4135  13.4135  13.5834  13.5834  13.5892  13.5892  13.6174  13.6174
    13.6257  13.6257  13.6650  13.6650  13.8518  13.8518  13.8595  13.8595
    13.9712  13.9712  14.0283  14.0283  14.0420  14.0420  14.0542  14.0542
    14.1339  14.1339  14.1495  14.1495  14.1839  14.1839  14.2622  14.2622
    14.3292  14.3292  14.3548  14.3548  14.3709  14.3709  14.3977  14.3977
    14.4425  14.4425  14.4594  14.4594  14.4881  14.4881  14.5149  14.5149
    14.5529  14.5529  14.5530  14.5530  14.6121  14.6121  14.6993  14.6993
    14.8814  14.8814  14.9235  14.9235  15.0241  15.0241  15.0254  15.0254
    15.0476  15.0476  15.1727  15.1727  15.1785  15.1785  15.2957  15.2957
    15.3677  15.3677  15.4434  15.4434  15.4435  15.4435  15.6564  15.6564
    15.8732  15.8732  15.8837  15.8837  15.9543  15.9543  17.4630  17.4630
    17.4828  17.4828  17.5196  17.5196  17.7987  17.7987  17.8064  17.8064
    18.4434  18.4434  20.3195  20.3195  20.3227  20.3227  20.5118  20.5118
    20.7708  20.7708  20.7711  20.7711  21.5472  21.5472  21.5486  21.5486
    21.5805  21.5805  21.6825  21.6825  21.6911  21.6911  21.8809  21.8809
    22.2094  22.2094  22.6846  22.6846  22.6849  22.6849  22.7034  22.7034
    23.6286  23.6286  23.6320  23.6320  24.1348  24.1348  24.1521  24.1521
    24.2370  24.2370  25.1475  25.1475  26.2444  26.2444  26.2554  26.2554
    26.2762  26.2762

     the Fermi energy is    15.5481 ev

!    total energy              =   -7950.42848003 Ry
     total all-electron energy =    -51824.280563 Ry
     estimated scf accuracy    <          2.9E-10 Ry
     smearing contrib. (-TS)   =       0.07134485 Ry
     internal energy E=F+TS    =   -7950.49982488 Ry

     The total energy is F=E-TS. E is the sum of the following terms:
     one-electron contribution =   -4194.55025293 Ry
     hartree contribution      =    2284.92456992 Ry
     xc contribution           =    -683.90533290 Ry
     ewald contribution        =   -3818.43545575 Ry
     one-center paw contrib.   =   -1538.53335322 Ry

     convergence has been achieved in  21 iterations

     Forces acting on atoms (cartesian axes, Ry/au):

     atom    1 type  1   force =     0.00000000    0.00000000    0.00232829
     atom    2 type  1   force =     0.00000000    0.00000000    0.00232829
     atom    3 type  1   force =    -0.00000000   -0.00000000   -0.00232829
     atom    4 type  1   force =     0.00000000    0.00000000   -0.00232829
     atom    5 type  1   force =     0.00000000    0.00000000    0.00031850
     atom    6 type  1   force =     0.00000000    0.00000000    0.00031850
     atom    7 type  1   force =    -0.00000000   -0.00000000   -0.00031850
     atom    8 type  1   force =     0.00000000    0.00000000   -0.00031850
     atom    9 type  2   force =    -0.00000000   -0.00000000   -0.00049112
     atom   10 type  2   force =    -0.00000000   -0.00000000   -0.00049112
     atom   11 type  2   force =     0.00000000    0.00000000    0.00049112
     atom   12 type  2   force =    -0.00000000   -0.00000000    0.00049112
     atom   13 type  2   force =    -0.00000000   -0.00047849   -0.00000000
     atom   14 type  2   force =     0.00041438   -0.00023924   -0.00000000
     atom   15 type  2   force =     0.00000000    0.00047849    0.00000000
     atom   16 type  2   force =    -0.00041438    0.00023924    0.00000000
     atom   17 type  2   force =     0.00041438    0.00023924   -0.00000000
     atom   18 type  2   force =    -0.00041438   -0.00023924   -0.00000000
     atom   19 type  2   force =    -0.00000000   -0.00000000    0.00000000
     atom   20 type  2   force =     0.00000000    0.00000000    0.00000000
     atom   21 type  2   force =     0.00000000    0.00000000   -0.00000000
     atom   22 type  2   force =     0.00000000    0.00000000   -0.00000000
     atom   23 type  2   force =    -0.00000000   -0.00000000   -0.00000000
     atom   24 type  2   force =    -0.00000000   -0.00000000   -0.00000000
     The non-local contrib.  to forces
     atom    1 type  1   force =    -0.00000000   -0.00000000    0.02716562
     atom    2 type  1   force =     0.00000000    0.00000000    0.02716562
     atom    3 type  1   force =     0.00000000    0.00000000   -0.02716562
     atom    4 type  1   force =    -0.00000000   -0.00000000   -0.02716562
     atom    5 type  1   force =    -0.00000000   -0.00000000   -0.00320486
     atom    6 type  1   force =    -0.00000000   -0.00000000   -0.00320486
     atom    7 type  1   force =    -0.00000000   -0.00000000    0.00320486
     atom    8 type  1   force =     0.00000000    0.00000000    0.00320486
     atom    9 type  2   force =    -0.00000000   -0.00000000    0.02436234
     atom   10 type  2   force =     0.00000000    0.00000000    0.02436234
     atom   11 type  2   force =     0.00000000    0.00000000   -0.02436234
     atom   12 type  2   force =     0.00000000    0.00000000   -0.02436234
     atom   13 type  2   force =    -0.00000000   -0.07698197   -0.00000000
     atom   14 type  2   force =     0.06666835   -0.03849098   -0.00000000
     atom   15 type  2   force =     0.00000000    0.07698197    0.00000000
     atom   16 type  2   force =    -0.06666835    0.03849098    0.00000000
     atom   17 type  2   force =     0.06666835    0.03849099    0.00000000
     atom   18 type  2   force =    -0.06666835   -0.03849099   -0.00000000
     atom   19 type  2   force =     0.00000000    0.00000000    0.00000000
     atom   20 type  2   force =    -0.00000000    0.00000000   -0.00000000
     atom   21 type  2   force =    -0.00000000   -0.00000000   -0.00000000
     atom   22 type  2   force =     0.00000000    0.00000000    0.00000000
     atom   23 type  2   force =    -0.00000000   -0.00000000   -0.00000000
     atom   24 type  2   force =    -0.00000000    0.00000000    0.00000000
     The ionic contribution  to forces
     atom    1 type  1   force =    -0.00001472    0.00001130   -0.51105534
     atom    2 type  1   force =     0.00001472   -0.00001130   -0.51105534
     atom    3 type  1   force =     0.00001472   -0.00001130    0.51105534
     atom    4 type  1   force =    -0.00001472    0.00001130    0.51105534
     atom    5 type  1   force =     0.00006339   -0.00003354    0.10739621
     atom    6 type  1   force =    -0.00006339    0.00003354    0.10739621
     atom    7 type  1   force =    -0.00006339    0.00003354   -0.10739621
     atom    8 type  1   force =     0.00006339   -0.00003354   -0.10739621
     atom    9 type  2   force =     0.00006613   -0.00003803    0.14184426
     atom   10 type  2   force =    -0.00006613    0.00003803    0.14184426
     atom   11 type  2   force =    -0.00006613    0.00003803   -0.14184426
     atom   12 type  2   force =     0.00006613   -0.00003803   -0.14184426
     atom   13 type  2   force =     0.00008173  -13.70772175    0.00000000
     atom   14 type  2   force =    11.87132942   -6.85391737   -0.00000000
     atom   15 type  2   force =    -0.00008173   13.70772175   -0.00000000
     atom   16 type  2   force =   -11.87132942    6.85391737    0.00000000
     atom   17 type  2   force =    11.87127412    6.85379396    0.00000000
     atom   18 type  2   force =   -11.87127412   -6.85379396   -0.00000000
     atom   19 type  2   force =     0.00000000   -0.00000000    0.00000000
     atom   20 type  2   force =    -0.00000000   -0.00000000    0.00000000
     atom   21 type  2   force =     0.00000000   -0.00000000    0.00000000
     atom   22 type  2   force =    -0.00000000   -0.00000000    0.00000000
     atom   23 type  2   force =    -0.00000000    0.00000000    0.00000000
     atom   24 type  2   force =     0.00000000    0.00000000    0.00000000
     The local contribution  to forces
     atom    1 type  1   force =    -0.00000226   -0.00000126    0.48633831
     atom    2 type  1   force =     0.00000226    0.00000126    0.48633831
     atom    3 type  1   force =     0.00000226    0.00000126   -0.48633831
     atom    4 type  1   force =    -0.00000226   -0.00000126   -0.48633831
     atom    5 type  1   force =     0.00138201   -0.00080067   -0.10388014
     atom    6 type  1   force =    -0.00138201    0.00080067   -0.10388014
     atom    7 type  1   force =    -0.00138201    0.00080067    0.10388014
     atom    8 type  1   force =     0.00138201   -0.00080067    0.10388014
     atom    9 type  2   force =     0.00184073   -0.00106284   -0.16353358
     atom   10 type  2   force =    -0.00184073    0.00106284   -0.16353358
     atom   11 type  2   force =    -0.00184073    0.00106284    0.16353358
     atom   12 type  2   force =     0.00184073   -0.00106284    0.16353358
     atom   13 type  2   force =    -0.00184111   13.78431287    0.00000000
     atom   14 type  2   force =   -11.93506234    6.89071094   -0.00000000
     atom   15 type  2   force =     0.00184111  -13.78431287   -0.00000000
     atom   16 type  2   force =    11.93506234   -6.89071094    0.00000000
     atom   17 type  2   force =   -11.93848753   -6.89056546    0.00000000
     atom   18 type  2   force =    11.93848753    6.89056546   -0.00000000
     atom   19 type  2   force =    -0.00000000   -0.00000000    0.00000000
     atom   20 type  2   force =    -0.00000000   -0.00000000    0.00000000
     atom   21 type  2   force =    -0.00000000   -0.00000000   -0.00000000
     atom   22 type  2   force =    -0.00000000   -0.00000000    0.00000000
     atom   23 type  2   force =     0.00000000   -0.00000000   -0.00000000
     atom   24 type  2   force =     0.00000000   -0.00000000    0.00000000
     The core correction contribution to forces
     atom    1 type  1   force =    -0.00000000    0.00000000   -0.00011749
     atom    2 type  1   force =     0.00000000   -0.00000000   -0.00011749
     atom    3 type  1   force =     0.00000000   -0.00000000    0.00011749
     atom    4 type  1   force =    -0.00000000    0.00000000    0.00011749
     atom    5 type  1   force =     0.00000303   -0.00000175    0.00000592
     atom    6 type  1   force =    -0.00000303    0.00000175    0.00000592
     atom    7 type  1   force =    -0.00000303    0.00000175   -0.00000592
     atom    8 type  1   force =     0.00000303   -0.00000175   -0.00000592
     atom    9 type  2   force =     0.00000117   -0.00000067   -0.00317253
     atom   10 type  2   force =    -0.00000117    0.00000067   -0.00317253
     atom   11 type  2   force =    -0.00000117    0.00000067    0.00317253
     atom   12 type  2   force =     0.00000117   -0.00000067    0.00317253
     atom   13 type  2   force =    -0.00000116    0.00088957    0.00000000
     atom   14 type  2   force =    -0.00076860    0.00044375   -0.00000000
     atom   15 type  2   force =     0.00000116   -0.00088957   -0.00000000
     atom   16 type  2   force =     0.00076860   -0.00044375    0.00000000
     atom   17 type  2   force =    -0.00077097   -0.00044378    0.00000000
     atom   18 type  2   force =     0.00077097    0.00044378   -0.00000000
     atom   19 type  2   force =    -0.00000000    0.00000000    0.00000000
     atom   20 type  2   force =    -0.00000000   -0.00000000    0.00000000
     atom   21 type  2   force =    -0.00000000   -0.00000000    0.00000000
     atom   22 type  2   force =     0.00000000   -0.00000000    0.00000000
     atom   23 type  2   force =     0.00000000   -0.00000000    0.00000000
     atom   24 type  2   force =     0.00000000   -0.00000000    0.00000000
     The Hubbard contrib.    to forces
     atom    1 type  1   force =     0.00000000    0.00000000    0.00000000
     atom    2 type  1   force =     0.00000000    0.00000000    0.00000000
     atom    3 type  1   force =     0.00000000    0.00000000    0.00000000
     atom    4 type  1   force =     0.00000000    0.00000000    0.00000000
     atom    5 type  1   force =     0.00000000    0.00000000    0.00000000
     atom    6 type  1   force =     0.00000000    0.00000000    0.00000000
     atom    7 type  1   force =     0.00000000    0.00000000    0.00000000
     atom    8 type  1   force =     0.00000000    0.00000000    0.00000000
     atom    9 type  2   force =     0.00000000    0.00000000    0.00000000
     atom   10 type  2   force =     0.00000000    0.00000000    0.00000000
     atom   11 type  2   force =     0.00000000    0.00000000    0.00000000
     atom   12 type  2   force =     0.00000000    0.00000000    0.00000000
     atom   13 type  2   force =     0.00000000    0.00000000    0.00000000
     atom   14 type  2   force =     0.00000000    0.00000000    0.00000000
     atom   15 type  2   force =     0.00000000    0.00000000    0.00000000
     atom   16 type  2   force =     0.00000000    0.00000000    0.00000000
     atom   17 type  2   force =     0.00000000    0.00000000    0.00000000
     atom   18 type  2   force =     0.00000000    0.00000000    0.00000000
     atom   19 type  2   force =     0.00000000    0.00000000    0.00000000
     atom   20 type  2   force =     0.00000000    0.00000000    0.00000000
     atom   21 type  2   force =     0.00000000    0.00000000    0.00000000
     atom   22 type  2   force =     0.00000000    0.00000000    0.00000000
     atom   23 type  2   force =     0.00000000    0.00000000    0.00000000
     atom   24 type  2   force =     0.00000000    0.00000000    0.00000000
     The SCF correction term to forces
     atom    1 type  1   force =     0.00000000   -0.00000000   -0.00000282
     atom    2 type  1   force =    -0.00000000    0.00000000   -0.00000282
     atom    3 type  1   force =    -0.00000000    0.00000000    0.00000282
     atom    4 type  1   force =     0.00000000   -0.00000000    0.00000282
     atom    5 type  1   force =     0.00000000   -0.00000000    0.00000137
     atom    6 type  1   force =    -0.00000000    0.00000000    0.00000137
     atom    7 type  1   force =    -0.00000000    0.00000000   -0.00000137
     atom    8 type  1   force =     0.00000000   -0.00000000   -0.00000137
     atom    9 type  2   force =    -0.00000001    0.00000000    0.00000839
     atom   10 type  2   force =     0.00000001   -0.00000000    0.00000839
     atom   11 type  2   force =     0.00000001   -0.00000000   -0.00000839
     atom   12 type  2   force =    -0.00000001    0.00000000   -0.00000839
     atom   13 type  2   force =    -0.00000001    0.00002244   -0.00000000
     atom   14 type  2   force =    -0.00001943    0.00001122   -0.00000000
     atom   15 type  2   force =     0.00000001   -0.00002244    0.00000000
     atom   16 type  2   force =     0.00001943   -0.00001122    0.00000000
     atom   17 type  2   force =    -0.00001943   -0.00001121   -0.00000000
     atom   18 type  2   force =     0.00001943    0.00001121    0.00000000
     atom   19 type  2   force =     0.00000000   -0.00000000   -0.00000000
     atom   20 type  2   force =    -0.00000000    0.00000000    0.00000000
     atom   21 type  2   force =     0.00000000   -0.00000000    0.00000000
     atom   22 type  2   force =     0.00000000    0.00000000   -0.00000000
     atom   23 type  2   force =    -0.00000000    0.00000000    0.00000000
     atom   24 type  2   force =    -0.00000000    0.00000000   -0.00000000

     Total force =     0.004942     Total SCF correction =     0.000058


     Computing stress (Cartesian axis) and pressure

          total   stress  (Ry/bohr**3)                   (kbar)     P=       -0.83
  -0.00000559  -0.00000000  -0.00000000           -0.82       -0.00       -0.00
  -0.00000000  -0.00000559  -0.00000000           -0.00       -0.82       -0.00
  -0.00000000  -0.00000000  -0.00000578           -0.00       -0.00       -0.85

     Energy error            =      4.2E-05 Ry
     Gradient error          =      2.3E-03 Ry/Bohr
     Cell gradient error     =      8.5E-01 kbar

     number of scf cycles    =   7
     number of bfgs steps    =   6

     enthalpy           old  =   -7950.4284379911 Ry
     enthalpy           new  =   -7950.4284800323 Ry

     CASE: enthalpy          _new < enthalpy          _old

     new trust radius        =       0.0038171717 bohr
     new conv_thr            =       0.0000000004 Ry

     new unit-cell volume =   1835.41152 a.u.^3 (   271.97993 Ang^3 )
     density =      6.92065 g/cm^3

CELL_PARAMETERS (angstrom)
   4.574281615  -0.000000019  -0.000000000
  -2.287141307   3.961444379  -0.000000000
  -0.000000000  -0.000000000  15.009298432

ATOMIC_POSITIONS (crystal)
Mg            0.0000000000        0.0000000000        0.4069304120
Mg            0.0000000000        0.0000000000        0.9069304120
Mg            0.0000000000        0.0000000000        0.5930695880
Mg           -0.0000000000       -0.0000000000        0.0930695880
Mg            0.3333330000        0.6666670000        0.6559549445
Mg            0.6666670000        0.3333330000        0.1559549445
Mg            0.6666670000        0.3333330000        0.3440450555
Mg            0.3333330000        0.6666670000        0.8440450555
Ni            0.3333330000        0.6666670000        0.3748723162
Ni            0.6666670000        0.3333330000        0.8748723162
Ni            0.6666670000        0.3333330000        0.6251276838
Ni            0.3333330000        0.6666670000        0.1251276838
Ni            0.1642505230        0.3285000471        0.2500000000
Ni            0.8357494769        0.1642505241        0.7500000000
Ni            0.8357494770        0.6714999529        0.7500000000
Ni            0.1642505231        0.8357494759        0.2500000000
Ni            0.6714999539        0.8357494770        0.2500000000
Ni            0.3285000461        0.1642505230        0.7500000000
Ni            0.5000000000        0.0000000000        0.5000000000
Ni            0.5000000000        0.5000000000        0.0000000000
Ni            0.5000000000        0.0000000000       -0.0000000000
Ni            0.5000000000        0.5000000000        0.5000000000
Ni           -0.0000000000        0.5000000000       -0.0000000000
Ni           -0.0000000000        0.5000000000        0.5000000000



     Writing config-only to output data dir ./C36_out/laves_C36.save/
     NEW-OLD atomic charge density approx. for the potential

     Check: negative core charge=   -0.000016
     extrapolated charge  367.90037, renormalised to  368.00000

     total cpu time spent up to now is     6124.6 secs

     Self-consistent Calculation

     iteration #  1     ecut=    50.00 Ry     beta= 0.10
     Davidson diagonalization with overlap
     ethr =  1.00E-06,  avg # of iterations =  3.7

     total cpu time spent up to now is     6155.5 secs

     total energy              =   -7950.42741396 Ry
     estimated scf accuracy    <       0.00481372 Ry

     iteration #  2     ecut=    50.00 Ry     beta= 0.10
     Davidson diagonalization with overlap
     ethr =  1.31E-06,  avg # of iterations =  2.0

     total cpu time spent up to now is     6179.4 secs

     total energy              =   -7950.42857339 Ry
     estimated scf accuracy    <       0.00031196 Ry

     iteration #  3     ecut=    50.00 Ry     beta= 0.10
     Davidson diagonalization with overlap
     ethr =  8.48E-08,  avg # of iterations =  4.3

     total cpu time spent up to now is     6201.0 secs

     total energy              =   -7950.42854486 Ry
     estimated scf accuracy    <       0.00027003 Ry

     iteration #  4     ecut=    50.00 Ry     beta= 0.10
     Davidson diagonalization with overlap
     ethr =  7.34E-08,  avg # of iterations =  1.0

     total cpu time spent up to now is     6219.2 secs

     total energy              =   -7950.42852704 Ry
     estimated scf accuracy    <       0.00009153 Ry

     iteration #  5     ecut=    50.00 Ry     beta= 0.10
     Davidson diagonalization with overlap
     ethr =  2.49E-08,  avg # of iterations =  1.3

     total cpu time spent up to now is     6238.6 secs

     total energy              =   -7950.42851520 Ry
     estimated scf accuracy    <       0.00001588 Ry

     iteration #  6     ecut=    50.00 Ry     beta= 0.10
     Davidson diagonalization with overlap
     ethr =  4.31E-09,  avg # of iterations =  2.7

     total cpu time spent up to now is     6263.5 secs

     total energy              =   -7950.42851848 Ry
     estimated scf accuracy    <       0.00000098 Ry

     iteration #  7     ecut=    50.00 Ry     beta= 0.10
     Davidson diagonalization with overlap
     ethr =  2.66E-10,  avg # of iterations =  5.0

     total cpu time spent up to now is     6292.4 secs

     total energy              =   -7950.42852082 Ry
     estimated scf accuracy    <       0.00000282 Ry

     iteration #  8     ecut=    50.00 Ry     beta= 0.10
     Davidson diagonalization with overlap
     ethr =  2.66E-10,  avg # of iterations =  3.0

     total cpu time spent up to now is     6319.7 secs

     total energy              =   -7950.42851920 Ry
     estimated scf accuracy    <       0.00001831 Ry

     iteration #  9     ecut=    50.00 Ry     beta= 0.10
     Davidson diagonalization with overlap
     ethr =  2.66E-10,  avg # of iterations =  1.7

     total cpu time spent up to now is     6340.5 secs

     total energy              =   -7950.42851907 Ry
     estimated scf accuracy    <       0.00001364 Ry

     iteration # 10     ecut=    50.00 Ry     beta= 0.10
     Davidson diagonalization with overlap
     ethr =  2.66E-10,  avg # of iterations =  1.3

     total cpu time spent up to now is     6360.3 secs

     total energy              =   -7950.42851353 Ry
     estimated scf accuracy    <       0.00001462 Ry

     iteration # 11     ecut=    50.00 Ry     beta= 0.10
     Davidson diagonalization with overlap
     ethr =  2.66E-10,  avg # of iterations =  2.0

     total cpu time spent up to now is     6386.2 secs

     total energy              =   -7950.42851251 Ry
     estimated scf accuracy    <       0.00000463 Ry

     iteration # 12     ecut=    50.00 Ry     beta= 0.10
     Davidson diagonalization with overlap
     ethr =  2.66E-10,  avg # of iterations =  2.3

     total cpu time spent up to now is     6411.6 secs

     total energy              =   -7950.42851293 Ry
     estimated scf accuracy    <       0.00000024 Ry

     iteration # 13     ecut=    50.00 Ry     beta= 0.10
     Davidson diagonalization with overlap
     ethr =  6.54E-11,  avg # of iterations =  1.3

     total cpu time spent up to now is     6431.4 secs

     total energy              =   -7950.42851286 Ry
     estimated scf accuracy    <       0.00000020 Ry

     iteration # 14     ecut=    50.00 Ry     beta= 0.10
     Davidson diagonalization with overlap
     ethr =  5.41E-11,  avg # of iterations =  1.7

     total cpu time spent up to now is     6452.1 secs

     total energy              =   -7950.42851278 Ry
     estimated scf accuracy    <       0.00000011 Ry

     iteration # 15     ecut=    50.00 Ry     beta= 0.10
     Davidson diagonalization with overlap
     ethr =  2.90E-11,  avg # of iterations =  2.0

     total cpu time spent up to now is     6474.5 secs

     total energy              =   -7950.42851280 Ry
     estimated scf accuracy    <       0.00000006 Ry

     iteration # 16     ecut=    50.00 Ry     beta= 0.10
     Davidson diagonalization with overlap
     ethr =  1.51E-11,  avg # of iterations =  3.3

     total cpu time spent up to now is     6501.0 secs

     total energy              =   -7950.42851304 Ry
     estimated scf accuracy    <       0.00000012 Ry

     iteration # 17     ecut=    50.00 Ry     beta= 0.10
     Davidson diagonalization with overlap
     ethr =  1.51E-11,  avg # of iterations =  3.3

     total cpu time spent up to now is     6533.3 secs

     total energy              =   -7950.42851320 Ry
     estimated scf accuracy    <       0.00000196 Ry

     iteration # 18     ecut=    50.00 Ry     beta= 0.10
     Davidson diagonalization with overlap
     ethr =  1.51E-11,  avg # of iterations =  1.0

     total cpu time spent up to now is     6552.5 secs

     total energy              =   -7950.42851323 Ry
     estimated scf accuracy    <       0.00000199 Ry

     iteration # 19     ecut=    50.00 Ry     beta= 0.10
     Davidson diagonalization with overlap
     ethr =  1.51E-11,  avg # of iterations =  1.0

     total cpu time spent up to now is     6571.9 secs

     total energy              =   -7950.42851277 Ry
     estimated scf accuracy    <       0.00000220 Ry

     iteration # 20     ecut=    50.00 Ry     beta= 0.10
     Davidson diagonalization with overlap
     ethr =  1.51E-11,  avg # of iterations =  3.0

     total cpu time spent up to now is     6604.3 secs

     total energy              =   -7950.42851279 Ry
     estimated scf accuracy    <       0.00000029 Ry

     iteration # 21     ecut=    50.00 Ry     beta= 0.10
     Davidson diagonalization with overlap
     ethr =  1.51E-11,  avg # of iterations =  3.0

     total cpu time spent up to now is     6632.8 secs

     total energy              =   -7950.42851286 Ry
     estimated scf accuracy    <       0.00000002 Ry

     iteration # 22     ecut=    50.00 Ry     beta= 0.10
     Davidson diagonalization with overlap
     ethr =  5.69E-12,  avg # of iterations =  2.0

     total cpu time spent up to now is     6657.1 secs

     total energy              =   -7950.42851289 Ry
     estimated scf accuracy    <          3.5E-09 Ry

     iteration # 23     ecut=    50.00 Ry     beta= 0.10
     Davidson diagonalization with overlap
     ethr =  9.48E-13,  avg # of iterations =  5.7

     total cpu time spent up to now is     6697.3 secs

     total energy              =   -7950.42851290 Ry
     estimated scf accuracy    <       0.00000042 Ry

     iteration # 24     ecut=    50.00 Ry     beta= 0.10
     Davidson diagonalization with overlap
     ethr =  9.48E-13,  avg # of iterations =  3.0

     total cpu time spent up to now is     6727.8 secs

     total energy              =   -7950.42851290 Ry
     estimated scf accuracy    <       0.00000020 Ry

     iteration # 25     ecut=    50.00 Ry     beta= 0.10
     Davidson diagonalization with overlap
     ethr =  9.48E-13,  avg # of iterations =  2.0

     total cpu time spent up to now is     6751.4 secs

     total energy              =   -7950.42851290 Ry
     estimated scf accuracy    <       0.00000018 Ry

     iteration # 26     ecut=    50.00 Ry     beta= 0.10
     Davidson diagonalization with overlap
     ethr =  9.48E-13,  avg # of iterations =  1.0

     total cpu time spent up to now is     6770.7 secs

     total energy              =   -7950.42851291 Ry
     estimated scf accuracy    <       0.00000017 Ry

     iteration # 27     ecut=    50.00 Ry     beta= 0.10
     Davidson diagonalization with overlap
     ethr =  9.48E-13,  avg # of iterations =  1.0

     total cpu time spent up to now is     6790.0 secs

     total energy              =   -7950.42851287 Ry
     estimated scf accuracy    <       0.00000019 Ry

     iteration # 28     ecut=    50.00 Ry     beta= 0.10
     Davidson diagonalization with overlap
     ethr =  9.48E-13,  avg # of iterations =  3.0

     total cpu time spent up to now is     6821.4 secs

     total energy              =   -7950.42851287 Ry
     estimated scf accuracy    <       0.00000004 Ry

     iteration # 29     ecut=    50.00 Ry     beta= 0.10
     Davidson diagonalization with overlap
     ethr =  9.48E-13,  avg # of iterations =  3.0

     total cpu time spent up to now is     6849.8 secs

     total energy              =   -7950.42851288 Ry
     estimated scf accuracy    <          1.7E-09 Ry

     iteration # 30     ecut=    50.00 Ry     beta= 0.10
     Davidson diagonalization with overlap
     ethr =  4.55E-13,  avg # of iterations =  1.0

     total cpu time spent up to now is     6869.1 secs

     total energy              =   -7950.42851288 Ry
     estimated scf accuracy    <          2.0E-09 Ry

     iteration # 31     ecut=    50.00 Ry     beta= 0.10
     Davidson diagonalization with overlap
     ethr =  4.55E-13,  avg # of iterations =  1.0

     total cpu time spent up to now is     6888.3 secs

     total energy              =   -7950.42851288 Ry
     estimated scf accuracy    <          1.9E-09 Ry

     iteration # 32     ecut=    50.00 Ry     beta= 0.10
     Davidson diagonalization with overlap
     ethr =  4.55E-13,  avg # of iterations =  1.0

     total cpu time spent up to now is     6907.6 secs

     total energy              =   -7950.42851288 Ry
     estimated scf accuracy    <          1.3E-09 Ry

     iteration # 33     ecut=    50.00 Ry     beta= 0.10
     Davidson diagonalization with overlap
     ethr =  3.43E-13,  avg # of iterations =  1.0

     total cpu time spent up to now is     6926.6 secs

     End of self-consistent calculation

          k = 0.0000 0.0000 0.0000 ( 12121 PWs)   bands (ev):

   -87.3968 -87.3968 -87.3913 -87.3913 -87.3911 -87.3911 -87.3845 -87.3845
   -87.3347 -87.3347 -87.3306 -87.3306 -87.3230 -87.3230 -87.3202 -87.3202
   -87.2848 -87.2848 -87.2848 -87.2848 -87.2847 -87.2847 -87.2847 -87.2847
   -87.2779 -87.2779 -87.2779 -87.2779 -87.2778 -87.2778 -87.2778 -87.2778
   -59.0837 -59.0837 -59.0836 -59.0836 -59.0808 -59.0808 -59.0808 -59.0808
   -59.0240 -59.0240 -59.0240 -59.0240 -59.0208 -59.0208 -59.0207 -59.0207
   -49.4316 -49.4316 -49.4251 -49.4251 -49.4138 -49.4138 -49.4072 -49.4072
   -49.3760 -49.3760 -49.3746 -49.3746 -49.3705 -49.3705 -49.3682 -49.3682
   -49.3587 -49.3587 -49.3575 -49.3575 -49.3515 -49.3515 -49.3495 -49.3495
   -49.2467 -49.2467 -49.2372 -49.2372 -49.2289 -49.2289 -49.2216 -49.2216
   -47.3389 -47.3389 -47.3383 -47.3383 -47.3140 -47.3140 -47.2954 -47.2954
   -47.2880 -47.2880 -47.2785 -47.2785 -47.2559 -47.2559 -47.2410 -47.2410
   -47.2150 -47.2150 -47.2064 -47.2064 -47.2054 -47.2054 -47.1943 -47.1943
   -47.1878 -47.1878 -47.1812 -47.1812 -47.1785 -47.1785 -47.1438 -47.1438
   -47.1229 -47.1229 -47.0828 -47.0828 -47.0792 -47.0792 -47.0745 -47.0745
   -47.0545 -47.0545 -47.0532 -47.0532 -47.0522 -47.0522 -47.0259 -47.0259
   -47.0120 -47.0120 -47.0110 -47.0110 -47.0002 -47.0002 -46.9982 -46.9982
   -46.9893 -46.9893 -46.9883 -46.9883 -46.9752 -46.9752 -46.9731 -46.9731
   -26.2240 -26.2240 -26.2237 -26.2237 -26.2159 -26.2159 -26.2155 -26.2155
   -26.1601 -26.1601 -26.1592 -26.1592 -26.1503 -26.1503 -26.1495 -26.1495
   -25.9410 -25.9410 -25.9403 -25.9403 -25.9390 -25.9390 -25.9387 -25.9387
   -25.9359 -25.9359 -25.9356 -25.9356 -25.9197 -25.9197 -25.9187 -25.9187
   -25.8817 -25.8817 -25.8811 -25.8811 -25.8664 -25.8664 -25.8661 -25.8661
   -25.8630 -25.8630 -25.8626 -25.8626 -25.8580 -25.8580 -25.8577 -25.8577
     6.2730   6.2730   6.9560   6.9560   6.9645   6.9645   8.5250   8.5250
     9.2778   9.2778  10.3716  10.3716  10.3879  10.3879  10.5215  10.5215
    11.0987  11.0987  11.2134  11.2134  11.2973  11.2973  11.4360  11.4360
    11.5071  11.5071  11.5494  11.5494  11.5648  11.5648  11.5782  11.5782
    11.5945  11.5945  11.5974  11.5974  11.7627  11.7627  11.7812  11.7812
    11.8152  11.8152  11.8915  11.8915  11.9109  11.9109  11.9112  11.9112
    11.9372  11.9372  11.9829  11.9829  12.0458  12.0458  12.0901  12.0901
    12.0913  12.0913  12.1488  12.1488  12.5022  12.5022  12.5023  12.5023
    12.5365  12.5365  12.5418  12.5418  12.5467  12.5467  12.6021  12.6021
    12.8031  12.8031  12.8566  12.8566  13.0330  13.0330  13.0679  13.0679
    13.0825  13.0825  13.1240  13.1240  13.1581  13.1581  13.1839  13.1839
    13.3840  13.3840  13.4045  13.4045  13.7086  13.7086  13.9220  13.9220
    13.9532  13.9532  13.9795  13.9795  13.9988  13.9988  14.0294  14.0294
    14.1461  14.1461  14.2000  14.2000  14.3466  14.3466  14.3580  14.3580
    14.5115  14.5115  14.5263  14.5263  14.6422  14.6422  14.6436  14.6436
    14.6587  14.6587  14.6640  14.6640  14.6784  14.6784  14.6853  14.6853
    14.6899  14.6899  14.6970  14.6970  14.7136  14.7136  14.7218  14.7218
    14.7319  14.7319  14.7625  14.7625  14.7635  14.7635  14.7932  14.7932
    14.8076  14.8076  14.8462  14.8462  14.8544  14.8544  14.8720  14.8720
    14.9062  14.9062  15.0091  15.0091  15.0824  15.0824  15.3904  15.3904
    15.4441  15.4441  15.7062  15.7062  15.7083  15.7083  16.0171  16.0171
    16.0183  16.0183  16.0311  16.0311  16.0316  16.0316  16.1248  16.1248
    16.4239  16.4239  16.5741  16.5741  16.5962  16.5962  16.6129  16.6129
    16.6198  16.6198  16.6752  16.6752  16.7435  16.7435  16.9274  16.9274
    17.0474  17.0474  17.0795  17.0795  17.0963  17.0963  17.1563  17.1563
    18.4910  18.4910  18.5047  18.5047  18.6392  18.6392  18.6992  18.6992
    19.3020  19.3020  19.3581  19.3581  19.5640  19.5640  19.5916  19.5916
    20.4584  20.4584  20.4739  20.4739  20.4905  20.4905  20.9208  20.9208
    20.9594  20.9594  21.1619  21.1619  21.4595  21.4595  21.4678  21.4678
    21.7360  21.7360  21.7582  21.7582  22.5052  22.5052  22.5100  22.5100
    22.7240  22.7240  23.2129  23.2129  23.5024  23.5024  24.7169  24.7169
    25.0383  25.0383

          k = 0.0000 0.3984 0.0000 ( 12162 PWs)   bands (ev):

   -87.3937 -87.3937 -87.3906 -87.3906 -87.3891 -87.3891 -87.3854 -87.3854
   -87.3247 -87.3247 -87.3232 -87.3232 -87.3142 -87.3142 -87.3134 -87.3134
   -87.2942 -87.2942 -87.2937 -87.2937 -87.2880 -87.2880 -87.2877 -87.2877
   -87.2848 -87.2848 -87.2848 -87.2848 -87.2779 -87.2779 -87.2778 -87.2778
   -59.0834 -59.0834 -59.0834 -59.0834 -59.0806 -59.0806 -59.0806 -59.0806
   -59.0243 -59.0243 -59.0243 -59.0243 -59.0210 -59.0210 -59.0210 -59.0210
   -49.4319 -49.4319 -49.4252 -49.4252 -49.4215 -49.4215 -49.4132 -49.4132
   -49.3667 -49.3667 -49.3658 -49.3658 -49.3609 -49.3609 -49.3589 -49.3589
   -49.3355 -49.3355 -49.3338 -49.3338 -49.3262 -49.3262 -49.3251 -49.3251
   -49.2698 -49.2698 -49.2619 -49.2619 -49.2556 -49.2556 -49.2492 -49.2492
   -47.3330 -47.3330 -47.3228 -47.3228 -47.3160 -47.3160 -47.3034 -47.3034
   -47.2582 -47.2582 -47.2474 -47.2474 -47.2405 -47.2405 -47.2359 -47.2359
   -47.2033 -47.2033 -47.1916 -47.1916 -47.1866 -47.1866 -47.1798 -47.1798
   -47.1695 -47.1695 -47.1589 -47.1589 -47.1555 -47.1555 -47.1430 -47.1430
   -47.1165 -47.1165 -47.0946 -47.0946 -47.0863 -47.0863 -47.0802 -47.0802
   -47.0696 -47.0696 -47.0694 -47.0694 -47.0605 -47.0605 -47.0490 -47.0490
   -47.0448 -47.0448 -47.0410 -47.0410 -47.0240 -47.0240 -47.0225 -47.0225
   -47.0177 -47.0177 -47.0138 -47.0138 -46.9928 -46.9928 -46.9921 -46.9921
   -26.2224 -26.2224 -26.2223 -26.2223 -26.2141 -26.2141 -26.2140 -26.2140
   -26.1626 -26.1626 -26.1623 -26.1623 -26.1531 -26.1531 -26.1528 -26.1528
   -25.9423 -25.9423 -25.9421 -25.9421 -25.9363 -25.9363 -25.9353 -25.9353
   -25.9328 -25.9328 -25.9318 -25.9318 -25.9206 -25.9206 -25.9201 -25.9201
   -25.8801 -25.8801 -25.8799 -25.8799 -25.8689 -25.8689 -25.8683 -25.8683
   -25.8650 -25.8650 -25.8645 -25.8645 -25.8567 -25.8567 -25.8566 -25.8566
     7.3569   7.3569   8.0014   8.0014   8.0123   8.0123   9.5180   9.5180
    10.0364  10.0364  10.1971  10.1971  10.4639  10.4639  10.4828  10.4828
    10.9778  10.9778  11.0233  11.0233  11.1871  11.1871  11.2902  11.2902
    11.4202  11.4202  11.5134  11.5134  11.5980  11.5980  11.7065  11.7065
    11.7137  11.7137  11.8259  11.8259  11.8523  11.8523  11.8804  11.8804
    11.8893  11.8893  11.9949  11.9949  12.1231  12.1231  12.1716  12.1716
    12.2182  12.2182  12.2670  12.2670  12.3094  12.3094  12.3782  12.3782
    12.3930  12.3930  12.4312  12.4312  12.4420  12.4420  12.5635  12.5635
    12.5719  12.5719  12.6142  12.6142  12.6320  12.6320  12.6859  12.6859
    12.7376  12.7376  12.7476  12.7476  12.8287  12.8287  12.8879  12.8879
    12.9682  12.9682  13.0323  13.0323  13.0648  13.0648  13.1012  13.1012
    13.2031  13.2031  13.2495  13.2495  13.3184  13.3184  13.3466  13.3466
    13.3675  13.3675  13.5053  13.5053  13.5472  13.5472  13.5801  13.5801
    13.6029  13.6029  13.6747  13.6747  13.7547  13.7547  13.7758  13.7758
    13.8461  13.8461  13.8994  13.8994  13.9623  13.9623  13.9694  13.9694
    14.0465  14.0465  14.1290  14.1290  14.1571  14.1571  14.1875  14.1875
    14.2546  14.2546  14.2825  14.2825  14.3064  14.3064  14.3725  14.3725
    14.3978  14.3978  14.4634  14.4634  14.5404  14.5404  14.5808  14.5808
    14.6422  14.6422  14.7054  14.7054  14.7094  14.7094  14.7231  14.7231
    14.7893  14.7893  14.8003  14.8003  14.8150  14.8150  14.8531  14.8531
    14.9212  14.9212  14.9621  14.9621  14.9770  14.9770  15.1247  15.1247
    15.1478  15.1478  15.2193  15.2193  15.3289  15.3289  15.4995  15.4995
    15.8058  15.8058  15.8111  15.8111  16.2737  16.2737  16.3117  16.3117
    16.5149  16.5149  16.6135  16.6135  16.6909  16.6909  16.9612  16.9612
    16.9874  16.9874  17.0472  17.0472  17.0494  17.0494  17.2299  17.2299
    17.9677  17.9677  18.4753  18.4753  18.7996  18.7996  18.8443  18.8443
    20.4290  20.4290  20.6377  20.6377  20.6830  20.6830  21.0094  21.0094
    21.7670  21.7670  21.9309  21.9309  22.1162  22.1162  22.1593  22.1593
    22.2856  22.2856  22.3009  22.3009  22.9288  22.9288  23.2488  23.2488
    23.4768  23.4768  23.5872  23.5872  23.8612  23.8612  24.3116  24.3116
    24.3944  24.3944  25.1265  25.1265  25.4625  25.4625  25.5734  25.5734
    25.7698  25.7698

          k = 0.3450 0.5976 0.0000 ( 12162 PWs)   bands (ev):

   -87.3913 -87.3913 -87.3913 -87.3913 -87.3869 -87.3869 -87.3869 -87.3869
   -87.3159 -87.3159 -87.3159 -87.3159 -87.3051 -87.3051 -87.3050 -87.3050
   -87.3015 -87.3015 -87.3014 -87.3014 -87.2986 -87.2986 -87.2985 -87.2985
   -87.2847 -87.2847 -87.2847 -87.2847 -87.2779 -87.2779 -87.2778 -87.2778
   -59.0833 -59.0833 -59.0833 -59.0833 -59.0804 -59.0804 -59.0804 -59.0804
   -59.0244 -59.0244 -59.0244 -59.0244 -59.0211 -59.0211 -59.0211 -59.0211
   -49.4311 -49.4311 -49.4302 -49.4302 -49.4172 -49.4172 -49.4164 -49.4164
   -49.3641 -49.3641 -49.3625 -49.3625 -49.3575 -49.3575 -49.3563 -49.3563
   -49.3043 -49.3043 -49.3036 -49.3036 -49.3003 -49.3003 -49.2959 -49.2959
   -49.2932 -49.2932 -49.2882 -49.2882 -49.2830 -49.2830 -49.2812 -49.2812
   -47.3286 -47.3286 -47.3251 -47.3251 -47.3136 -47.3136 -47.3083 -47.3083
   -47.2279 -47.2279 -47.2224 -47.2224 -47.2168 -47.2168 -47.2105 -47.2105
   -47.2076 -47.2076 -47.2035 -47.2035 -47.2030 -47.2030 -47.1652 -47.1652
   -47.1546 -47.1546 -47.1513 -47.1513 -47.1422 -47.1422 -47.1292 -47.1292
   -47.1183 -47.1183 -47.0979 -47.0979 -47.0900 -47.0900 -47.0880 -47.0880
   -47.0731 -47.0731 -47.0703 -47.0703 -47.0671 -47.0671 -47.0655 -47.0655
   -47.0566 -47.0566 -47.0485 -47.0485 -47.0403 -47.0403 -47.0364 -47.0364
   -47.0349 -47.0349 -47.0281 -47.0281 -47.0059 -47.0059 -47.0059 -47.0059
   -26.2221 -26.2221 -26.2211 -26.2211 -26.2138 -26.2138 -26.2126 -26.2126
   -26.1640 -26.1640 -26.1640 -26.1640 -26.1545 -26.1545 -26.1544 -26.1544
   -25.9451 -25.9451 -25.9392 -25.9392 -25.9365 -25.9365 -25.9364 -25.9364
   -25.9287 -25.9287 -25.9285 -25.9285 -25.9249 -25.9249 -25.9177 -25.9177
   -25.8793 -25.8793 -25.8793 -25.8793 -25.8714 -25.8714 -25.8710 -25.8710
   -25.8651 -25.8651 -25.8639 -25.8639 -25.8562 -25.8562 -25.8562 -25.8562
     9.1288   9.1288   9.1297   9.1297   9.5763   9.5763   9.7020   9.7020
     9.7095   9.7095   9.8883   9.8883  10.0432  10.0432  10.0490  10.0490
    10.2240  10.2240  11.0406  11.0406  11.0409  11.0409  11.1224  11.1224
    11.1387  11.1387  11.1515  11.1515  11.1596  11.1596  11.7722  11.7722
    11.7759  11.7759  11.7795  11.7795  11.9892  11.9892  11.9971  11.9971
    12.1255  12.1255  12.1472  12.1472  12.3312  12.3312  12.3463  12.3463
    12.3744  12.3744  12.4024  12.4024  12.4521  12.4521  12.4555  12.4555
    12.4626  12.4626  12.4837  12.4837  12.5666  12.5666  12.6277  12.6277
    12.6494  12.6494  12.6642  12.6642  12.6859  12.6859  12.6878  12.6878
    12.7442  12.7442  12.7444  12.7444  12.7472  12.7472  12.8146  12.8146
    12.8171  12.8171  12.8231  12.8231  12.8544  12.8544  12.8903  12.8903
    12.9521  12.9521  12.9739  12.9739  12.9841  12.9841  13.0237  13.0237
    13.0499  13.0499  13.2432  13.2432  13.2488  13.2488  13.2607  13.2607
    13.4185  13.4185  13.5871  13.5871  13.5937  13.5937  13.6221  13.6221
    13.6298  13.6298  13.6690  13.6690  13.8557  13.8557  13.8635  13.8635
    13.9752  13.9752  14.0321  14.0321  14.0459  14.0459  14.0576  14.0576
    14.1379  14.1379  14.1541  14.1541  14.1893  14.1893  14.2663  14.2663
    14.3331  14.3331  14.3594  14.3594  14.3745  14.3745  14.4030  14.4030
    14.4476  14.4476  14.4642  14.4642  14.4929  14.4929  14.5197  14.5197
    14.5585  14.5585  14.5586  14.5586  14.6167  14.6167  14.7052  14.7052
    14.8868  14.8868  14.9290  14.9290  15.0287  15.0287  15.0304  15.0304
    15.0522  15.0522  15.1785  15.1785  15.1841  15.1841  15.3002  15.3002
    15.3722  15.3722  15.4488  15.4488  15.4490  15.4490  15.6607  15.6607
    15.8795  15.8795  15.8899  15.8899  15.9587  15.9587  17.4686  17.4686
    17.4879  17.4879  17.5233  17.5233  17.8066  17.8066  17.8144  17.8144
    18.4509  18.4509  20.3258  20.3258  20.3290  20.3290  20.5173  20.5173
    20.7766  20.7766  20.7769  20.7769  21.5538  21.5538  21.5552  21.5552
    21.5872  21.5872  21.6884  21.6884  21.6970  21.6970  21.8889  21.8889
    22.2140  22.2140  22.6882  22.6882  22.6899  22.6899  22.7070  22.7070
    23.6370  23.6370  23.6404  23.6404  24.1425  24.1425  24.1599  24.1599
    24.2449  24.2449  25.1545  25.1545  26.2527  26.2527  26.2636  26.2636
    26.2791  26.2791

     the Fermi energy is    15.5535 ev

!    total energy              =   -7950.42851287 Ry
     total all-electron energy =    -51824.280596 Ry
     estimated scf accuracy    <          3.7E-10 Ry
     smearing contrib. (-TS)   =       0.07121793 Ry
     internal energy E=F+TS    =   -7950.49973081 Ry

     The total energy is F=E-TS. E is the sum of the following terms:
     one-electron contribution =   -4193.83456154 Ry
     hartree contribution      =    2284.63294281 Ry
     xc contribution           =    -683.90931523 Ry
     ewald contribution        =   -3818.85478338 Ry
     one-center paw contrib.   =   -1538.53401346 Ry

     convergence has been achieved in  33 iterations

     Forces acting on atoms (cartesian axes, Ry/au):

     atom    1 type  1   force =    -0.00000000   -0.00000000    0.00151573
     atom    2 type  1   force =    -0.00000000   -0.00000000    0.00151573
     atom    3 type  1   force =     0.00000000    0.00000000   -0.00151573
     atom    4 type  1   force =     0.00000000    0.00000000   -0.00151573
     atom    5 type  1   force =     0.00000000    0.00000000    0.00019787
     atom    6 type  1   force =     0.00000000    0.00000000    0.00019787
     atom    7 type  1   force =    -0.00000000   -0.00000000   -0.00019787
     atom    8 type  1   force =    -0.00000000   -0.00000000   -0.00019787
     atom    9 type  2   force =    -0.00000000   -0.00000000   -0.00026854
     atom   10 type  2   force =     0.00000000    0.00000000   -0.00026854
     atom   11 type  2   force =    -0.00000000   -0.00000000    0.00026854
     atom   12 type  2   force =     0.00000000    0.00000000    0.00026854
     atom   13 type  2   force =     0.00000000    0.00009586    0.00000000
     atom   14 type  2   force =    -0.00008301    0.00004793    0.00000000
     atom   15 type  2   force =    -0.00000000   -0.00009586   -0.00000000
     atom   16 type  2   force =     0.00008301   -0.00004793    0.00000000
     atom   17 type  2   force =    -0.00008301   -0.00004793   -0.00000000
     atom   18 type  2   force =     0.00008301    0.00004793   -0.00000000
     atom   19 type  2   force =     0.00000000   -0.00000000   -0.00000000
     atom   20 type  2   force =     0.00000000   -0.00000000   -0.00000000
     atom   21 type  2   force =    -0.00000000    0.00000000    0.00000000
     atom   22 type  2   force =     0.00000000    0.00000000    0.00000000
     atom   23 type  2   force =    -0.00000000   -0.00000000    0.00000000
     atom   24 type  2   force =    -0.00000000    0.00000000    0.00000000
     The non-local contrib.  to forces
     atom    1 type  1   force =     0.00000000    0.00000000    0.02578704
     atom    2 type  1   force =    -0.00000000   -0.00000000    0.02578704
     atom    3 type  1   force =     0.00000000    0.00000000   -0.02578704
     atom    4 type  1   force =    -0.00000000   -0.00000000   -0.02578704
     atom    5 type  1   force =     0.00000000    0.00000000   -0.00348461
     atom    6 type  1   force =     0.00000000    0.00000000   -0.00348461
     atom    7 type  1   force =     0.00000000    0.00000000    0.00348461
     atom    8 type  1   force =    -0.00000000   -0.00000000    0.00348461
     atom    9 type  2   force =     0.00000000    0.00000000    0.02463443
     atom   10 type  2   force =     0.00000000    0.00000000    0.02463443
     atom   11 type  2   force =    -0.00000000   -0.00000000   -0.02463443
     atom   12 type  2   force =    -0.00000000   -0.00000000   -0.02463443
     atom   13 type  2   force =    -0.00000000   -0.07706852   -0.00000000
     atom   14 type  2   force =     0.06674330   -0.03853425   -0.00000000
     atom   15 type  2   force =     0.00000000    0.07706852    0.00000000
     atom   16 type  2   force =    -0.06674330    0.03853425   -0.00000000
     atom   17 type  2   force =     0.06674330    0.03853427    0.00000000
     atom   18 type  2   force =    -0.06674330   -0.03853427   -0.00000000
     atom   19 type  2   force =     0.00000000    0.00000000    0.00000000
     atom   20 type  2   force =    -0.00000000   -0.00000000    0.00000000
     atom   21 type  2   force =     0.00000000    0.00000000    0.00000000
     atom   22 type  2   force =    -0.00000000   -0.00000000   -0.00000000
     atom   23 type  2   force =    -0.00000000   -0.00000000    0.00000000
     atom   24 type  2   force =     0.00000000   -0.00000000   -0.00000000
     The ionic contribution  to forces
     atom    1 type  1   force =    -0.00001473    0.00001129   -0.57432055
     atom    2 type  1   force =     0.00001473   -0.00001129   -0.57432055
     atom    3 type  1   force =     0.00001473   -0.00001129    0.57432055
     atom    4 type  1   force =    -0.00001473    0.00001129    0.57432055
     atom    5 type  1   force =     0.00006339   -0.00003354    0.10499554
     atom    6 type  1   force =    -0.00006339    0.00003354    0.10499554
     atom    7 type  1   force =    -0.00006339    0.00003354   -0.10499554
     atom    8 type  1   force =     0.00006339   -0.00003354   -0.10499554
     atom    9 type  2   force =     0.00006622   -0.00003808    0.13473144
     atom   10 type  2   force =    -0.00006622    0.00003808    0.13473144
     atom   11 type  2   force =    -0.00006622    0.00003808   -0.13473144
     atom   12 type  2   force =     0.00006622   -0.00003808   -0.13473144
     atom   13 type  2   force =     0.00008171  -13.63756378    0.00000000
     atom   14 type  2   force =    11.81057098   -6.81883848   -0.00000000
     atom   15 type  2   force =    -0.00008171   13.63756378   -0.00000000
     atom   16 type  2   force =   -11.81057098    6.81883848    0.00000000
     atom   17 type  2   force =    11.81051552    6.81871499    0.00000000
     atom   18 type  2   force =   -11.81051552   -6.81871499   -0.00000000
     atom   19 type  2   force =     0.00000000    0.00000000    0.00000000
     atom   20 type  2   force =     0.00000000   -0.00000000    0.00000000
     atom   21 type  2   force =     0.00000000   -0.00000000    0.00000000
     atom   22 type  2   force =     0.00000000   -0.00000000    0.00000000
     atom   23 type  2   force =    -0.00000000    0.00000000    0.00000000
     atom   24 type  2   force =    -0.00000000    0.00000000    0.00000000
     The local contribution  to forces
     atom    1 type  1   force =    -0.00000226   -0.00000126    0.55015960
     atom    2 type  1   force =     0.00000226    0.00000126    0.55015960
     atom    3 type  1   force =     0.00000226    0.00000126   -0.55015960
     atom    4 type  1   force =    -0.00000226   -0.00000126   -0.55015960
     atom    5 type  1   force =     0.00138188   -0.00080059   -0.10132089
     atom    6 type  1   force =    -0.00138188    0.00080059   -0.10132089
     atom    7 type  1   force =    -0.00138188    0.00080059    0.10132089
     atom    8 type  1   force =     0.00138188   -0.00080059    0.10132089
     atom    9 type  2   force =     0.00184053   -0.00106272   -0.15646335
     atom   10 type  2   force =    -0.00184053    0.00106272   -0.15646335
     atom   11 type  2   force =    -0.00184053    0.00106272    0.15646335
     atom   12 type  2   force =     0.00184053   -0.00106272    0.15646335
     atom   13 type  2   force =    -0.00184083   13.71482325   -0.00000000
     atom   14 type  2   force =   -11.87488295    6.85596631   -0.00000000
     atom   15 type  2   force =     0.00184083  -13.71482325   -0.00000000
     atom   16 type  2   force =    11.87488295   -6.85596631   -0.00000000
     atom   17 type  2   force =   -11.87830771   -6.85582088   -0.00000000
     atom   18 type  2   force =    11.87830771    6.85582088   -0.00000000
     atom   19 type  2   force =    -0.00000000   -0.00000000    0.00000000
     atom   20 type  2   force =    -0.00000000   -0.00000000    0.00000000
     atom   21 type  2   force =    -0.00000000   -0.00000000   -0.00000000
     atom   22 type  2   force =    -0.00000000   -0.00000000    0.00000000
     atom   23 type  2   force =     0.00000000   -0.00000000   -0.00000000
     atom   24 type  2   force =     0.00000000   -0.00000000    0.00000000
     The core correction contribution to forces
     atom    1 type  1   force =    -0.00000000    0.00000000   -0.00010947
     atom    2 type  1   force =     0.00000000   -0.00000000   -0.00010947
     atom    3 type  1   force =     0.00000000   -0.00000000    0.00010947
     atom    4 type  1   force =    -0.00000000    0.00000000    0.00010947
     atom    5 type  1   force =     0.00000303   -0.00000175    0.00000747
     atom    6 type  1   force =    -0.00000303    0.00000175    0.00000747
     atom    7 type  1   force =    -0.00000303    0.00000175   -0.00000747
     atom    8 type  1   force =     0.00000303   -0.00000175   -0.00000747
     atom    9 type  2   force =     0.00000117   -0.00000067   -0.00318026
     atom   10 type  2   force =    -0.00000117    0.00000067   -0.00318026
     atom   11 type  2   force =    -0.00000117    0.00000067    0.00318026
     atom   12 type  2   force =     0.00000117   -0.00000067    0.00318026
     atom   13 type  2   force =    -0.00000116    0.00089304    0.00000000
     atom   14 type  2   force =    -0.00077160    0.00044548   -0.00000000
     atom   15 type  2   force =     0.00000116   -0.00089304   -0.00000000
     atom   16 type  2   force =     0.00077160   -0.00044548    0.00000000
     atom   17 type  2   force =    -0.00077398   -0.00044551    0.00000000
     atom   18 type  2   force =     0.00077398    0.00044551   -0.00000000
     atom   19 type  2   force =    -0.00000000    0.00000000    0.00000000
     atom   20 type  2   force =    -0.00000000   -0.00000000    0.00000000
     atom   21 type  2   force =    -0.00000000    0.00000000    0.00000000
     atom   22 type  2   force =    -0.00000000   -0.00000000    0.00000000
     atom   23 type  2   force =     0.00000000   -0.00000000    0.00000000
     atom   24 type  2   force =     0.00000000   -0.00000000    0.00000000
     The Hubbard contrib.    to forces
     atom    1 type  1   force =     0.00000000    0.00000000    0.00000000
     atom    2 type  1   force =     0.00000000    0.00000000    0.00000000
     atom    3 type  1   force =     0.00000000    0.00000000    0.00000000
     atom    4 type  1   force =     0.00000000    0.00000000    0.00000000
     atom    5 type  1   force =     0.00000000    0.00000000    0.00000000
     atom    6 type  1   force =     0.00000000    0.00000000    0.00000000
     atom    7 type  1   force =     0.00000000    0.00000000    0.00000000
     atom    8 type  1   force =     0.00000000    0.00000000    0.00000000
     atom    9 type  2   force =     0.00000000    0.00000000    0.00000000
     atom   10 type  2   force =     0.00000000    0.00000000    0.00000000
     atom   11 type  2   force =     0.00000000    0.00000000    0.00000000
     atom   12 type  2   force =     0.00000000    0.00000000    0.00000000
     atom   13 type  2   force =     0.00000000    0.00000000    0.00000000
     atom   14 type  2   force =     0.00000000    0.00000000    0.00000000
     atom   15 type  2   force =     0.00000000    0.00000000    0.00000000
     atom   16 type  2   force =     0.00000000    0.00000000    0.00000000
     atom   17 type  2   force =     0.00000000    0.00000000    0.00000000
     atom   18 type  2   force =     0.00000000    0.00000000    0.00000000
     atom   19 type  2   force =     0.00000000    0.00000000    0.00000000
     atom   20 type  2   force =     0.00000000    0.00000000    0.00000000
     atom   21 type  2   force =     0.00000000    0.00000000    0.00000000
     atom   22 type  2   force =     0.00000000    0.00000000    0.00000000
     atom   23 type  2   force =     0.00000000    0.00000000    0.00000000
     atom   24 type  2   force =     0.00000000    0.00000000    0.00000000
     The SCF correction term to forces
     atom    1 type  1   force =     0.00000000   -0.00000000   -0.00000089
     atom    2 type  1   force =    -0.00000000    0.00000000   -0.00000089
     atom    3 type  1   force =    -0.00000000    0.00000000    0.00000089
     atom    4 type  1   force =     0.00000000   -0.00000000    0.00000089
     atom    5 type  1   force =     0.00000000   -0.00000000    0.00000037
     atom    6 type  1   force =    -0.00000000    0.00000000    0.00000037
     atom    7 type  1   force =    -0.00000000    0.00000000   -0.00000037
     atom    8 type  1   force =     0.00000000   -0.00000000   -0.00000037
     atom    9 type  2   force =    -0.00000001    0.00000000    0.00000920
     atom   10 type  2   force =     0.00000001   -0.00000000    0.00000920
     atom   11 type  2   force =     0.00000001   -0.00000000   -0.00000920
     atom   12 type  2   force =    -0.00000001    0.00000000   -0.00000920
     atom   13 type  2   force =    -0.00000000    0.00001140    0.00000000
     atom   14 type  2   force =    -0.00000987    0.00000570   -0.00000000
     atom   15 type  2   force =     0.00000000   -0.00001140    0.00000000
     atom   16 type  2   force =     0.00000987   -0.00000570    0.00000000
     atom   17 type  2   force =    -0.00000987   -0.00000570    0.00000000
     atom   18 type  2   force =     0.00000987    0.00000570   -0.00000000
     atom   19 type  2   force =     0.00000000   -0.00000000   -0.00000000
     atom   20 type  2   force =     0.00000000    0.00000000   -0.00000000
     atom   21 type  2   force =     0.00000000    0.00000000   -0.00000000
     atom   22 type  2   force =     0.00000000    0.00000000   -0.00000000
     atom   23 type  2   force =    -0.00000000   -0.00000000   -0.00000000
     atom   24 type  2   force =     0.00000000   -0.00000000   -0.00000000

     Total force =     0.003113     Total SCF correction =     0.000033


     Computing stress (Cartesian axis) and pressure

          total   stress  (Ry/bohr**3)                   (kbar)     P=        0.23
   0.00000138   0.00000000   0.00000000            0.20        0.00        0.00
   0.00000000   0.00000138   0.00000000            0.00        0.20        0.00
   0.00000000   0.00000000   0.00000185            0.00        0.00        0.27

     Energy error            =      3.3E-05 Ry
     Gradient error          =      1.5E-03 Ry/Bohr
     Cell gradient error     =      2.7E-01 kbar

     number of scf cycles    =   8
     number of bfgs steps    =   7

     enthalpy           old  =   -7950.4284800323 Ry
     enthalpy           new  =   -7950.4285128750 Ry

     CASE: enthalpy          _new < enthalpy          _old

     new trust radius        =       0.0056108542 bohr
     new conv_thr            =       0.0000000003 Ry

     new unit-cell volume =   1835.29990 a.u.^3 (   271.96339 Ang^3 )
     density =      6.92107 g/cm^3

CELL_PARAMETERS (angstrom)
   4.574146024  -0.000000019  -0.000000000
  -2.287073511   3.961326953  -0.000000000
  -0.000000000  -0.000000000  15.009275413

ATOMIC_POSITIONS (crystal)
Mg            0.0000000000        0.0000000000        0.4071282318
Mg            0.0000000000        0.0000000000        0.9071282318
Mg            0.0000000000        0.0000000000        0.5928717682
Mg            0.0000000000        0.0000000000        0.0928717682
Mg            0.3333330000        0.6666670000        0.6559816118
Mg            0.6666670000        0.3333330000        0.1559816118
Mg            0.6666670000        0.3333330000        0.3440183882
Mg            0.3333330000        0.6666670000        0.8440183882
Ni            0.3333330000        0.6666670000        0.3748359640
Ni            0.6666670000        0.3333330000        0.8748359640
Ni            0.6666670000        0.3333330000        0.6251640360
Ni            0.3333330000        0.6666670000        0.1251640360
Ni            0.1641974177        0.3283938364        0.2500000000
Ni            0.8358025823        0.1641974187        0.7500000000
Ni            0.8358025823        0.6716061636        0.7500000000
Ni            0.1641974177        0.8358025813        0.2500000000
Ni            0.6716061646        0.8358025823        0.2500000000
Ni            0.3283938354        0.1641974177        0.7500000000
Ni            0.5000000000        0.0000000000        0.5000000000
Ni            0.5000000000        0.5000000000       -0.0000000000
Ni            0.5000000000        0.0000000000       -0.0000000000
Ni            0.5000000000        0.5000000000        0.5000000000
Ni           -0.0000000000        0.5000000000        0.0000000000
Ni           -0.0000000000        0.5000000000        0.5000000000



     Writing config-only to output data dir ./C36_out/laves_C36.save/
     NEW-OLD atomic charge density approx. for the potential

     Check: negative core charge=   -0.000016
     extrapolated charge  367.97762, renormalised to  368.00000

     total cpu time spent up to now is     6971.0 secs

     Self-consistent Calculation

     iteration #  1     ecut=    50.00 Ry     beta= 0.10
     Davidson diagonalization with overlap
     ethr =  1.00E-06,  avg # of iterations =  6.0

     Threshold (ethr) on eigenvalues was too large:
     Diagonalizing with lowered threshold

     Davidson diagonalization with overlap
     ethr =  7.32E-08,  avg # of iterations =  3.0

     total cpu time spent up to now is     7023.9 secs

     total energy              =   -7950.42854314 Ry
     estimated scf accuracy    <       0.00026823 Ry

     iteration #  2     ecut=    50.00 Ry     beta= 0.10
     Davidson diagonalization with overlap
     ethr =  7.29E-08,  avg # of iterations =  2.0

     total cpu time spent up to now is     7048.5 secs

     total energy              =   -7950.42857375 Ry
     estimated scf accuracy    <       0.00003135 Ry

     iteration #  3     ecut=    50.00 Ry     beta= 0.10
     Davidson diagonalization with overlap
     ethr =  8.52E-09,  avg # of iterations =  3.7

     total cpu time spent up to now is     7071.7 secs

     total energy              =   -7950.42854492 Ry
     estimated scf accuracy    <       0.00002414 Ry

     iteration #  4     ecut=    50.00 Ry     beta= 0.10
     Davidson diagonalization with overlap
     ethr =  6.56E-09,  avg # of iterations =  2.7

     total cpu time spent up to now is     7094.5 secs

     total energy              =   -7950.42853680 Ry
     estimated scf accuracy    <       0.00000213 Ry

     iteration #  5     ecut=    50.00 Ry     beta= 0.10
     Davidson diagonalization with overlap
     ethr =  5.79E-10,  avg # of iterations =  5.0

     total cpu time spent up to now is     7125.2 secs

     total energy              =   -7950.42853663 Ry
     estimated scf accuracy    <       0.00000165 Ry

     iteration #  6     ecut=    50.00 Ry     beta= 0.10
     Davidson diagonalization with overlap
     ethr =  4.49E-10,  avg # of iterations =  1.0

     total cpu time spent up to now is     7145.2 secs

     total energy              =   -7950.42853443 Ry
     estimated scf accuracy    <       0.00000049 Ry

     iteration #  7     ecut=    50.00 Ry     beta= 0.10
     Davidson diagonalization with overlap
     ethr =  1.34E-10,  avg # of iterations =  2.0

     total cpu time spent up to now is     7171.9 secs

     total energy              =   -7950.42853487 Ry
     estimated scf accuracy    <       0.00000076 Ry

     iteration #  8     ecut=    50.00 Ry     beta= 0.10
     Davidson diagonalization with overlap
     ethr =  1.34E-10,  avg # of iterations =  1.0

     total cpu time spent up to now is     7191.8 secs

     total energy              =   -7950.42853427 Ry
     estimated scf accuracy    <       0.00000105 Ry

     iteration #  9     ecut=    50.00 Ry     beta= 0.10
     Davidson diagonalization with overlap
     ethr =  1.34E-10,  avg # of iterations =  2.0

     total cpu time spent up to now is     7214.9 secs

     total energy              =   -7950.42853230 Ry
     estimated scf accuracy    <       0.00000038 Ry

     iteration # 10     ecut=    50.00 Ry     beta= 0.10
     Davidson diagonalization with overlap
     ethr =  1.03E-10,  avg # of iterations =  3.0

     total cpu time spent up to now is     7243.8 secs

     total energy              =   -7950.42853210 Ry
     estimated scf accuracy    <       0.00000221 Ry

     iteration # 11     ecut=    50.00 Ry     beta= 0.10
     Davidson diagonalization with overlap
     ethr =  1.03E-10,  avg # of iterations =  2.0

     total cpu time spent up to now is     7269.3 secs

     total energy              =   -7950.42853209 Ry
     estimated scf accuracy    <       0.00000111 Ry

     iteration # 12     ecut=    50.00 Ry     beta= 0.10
     Davidson diagonalization with overlap
     ethr =  1.03E-10,  avg # of iterations =  1.0

     total cpu time spent up to now is     7288.9 secs

     total energy              =   -7950.42853211 Ry
     estimated scf accuracy    <       0.00000063 Ry

     iteration # 13     ecut=    50.00 Ry     beta= 0.10
     Davidson diagonalization with overlap
     ethr =  1.03E-10,  avg # of iterations =  1.0

     total cpu time spent up to now is     7307.9 secs

     total energy              =   -7950.42853211 Ry
     estimated scf accuracy    <       0.00000068 Ry

     iteration # 14     ecut=    50.00 Ry     beta= 0.10
     Davidson diagonalization with overlap
     ethr =  1.03E-10,  avg # of iterations =  1.0

     total cpu time spent up to now is     7326.9 secs

     total energy              =   -7950.42853216 Ry
     estimated scf accuracy    <       0.00000065 Ry

     iteration # 15     ecut=    50.00 Ry     beta= 0.10
     Davidson diagonalization with overlap
     ethr =  1.03E-10,  avg # of iterations =  1.0

     total cpu time spent up to now is     7346.7 secs

     total energy              =   -7950.42853199 Ry
     estimated scf accuracy    <       0.00000090 Ry

     iteration # 16     ecut=    50.00 Ry     beta= 0.10
     Davidson diagonalization with overlap
     ethr =  1.03E-10,  avg # of iterations =  2.0

     total cpu time spent up to now is     7371.4 secs

     total energy              =   -7950.42853219 Ry
     estimated scf accuracy    <       0.00000010 Ry

     iteration # 17     ecut=    50.00 Ry     beta= 0.10
     Davidson diagonalization with overlap
     ethr =  2.74E-11,  avg # of iterations =  1.0

     total cpu time spent up to now is     7391.0 secs

     total energy              =   -7950.42853219 Ry
     estimated scf accuracy    <       0.00000009 Ry

     iteration # 18     ecut=    50.00 Ry     beta= 0.10
     Davidson diagonalization with overlap
     ethr =  2.53E-11,  avg # of iterations =  1.0

     total cpu time spent up to now is     7410.5 secs

     total energy              =   -7950.42853219 Ry
     estimated scf accuracy    <       0.00000009 Ry

     iteration # 19     ecut=    50.00 Ry     beta= 0.10
     Davidson diagonalization with overlap
     ethr =  2.53E-11,  avg # of iterations =  1.0

     total cpu time spent up to now is     7429.8 secs

     total energy              =   -7950.42853216 Ry
     estimated scf accuracy    <       0.00000008 Ry

     iteration # 20     ecut=    50.00 Ry     beta= 0.10
     Davidson diagonalization with overlap
     ethr =  2.31E-11,  avg # of iterations =  1.0

     total cpu time spent up to now is     7449.0 secs

     total energy              =   -7950.42853216 Ry
     estimated scf accuracy    <       0.00000002 Ry

     iteration # 21     ecut=    50.00 Ry     beta= 0.10
     Davidson diagonalization with overlap
     ethr =  4.33E-12,  avg # of iterations =  1.3

     total cpu time spent up to now is     7469.1 secs

     total energy              =   -7950.42853216 Ry
     estimated scf accuracy    <          8.8E-09 Ry

     iteration # 22     ecut=    50.00 Ry     beta= 0.10
     Davidson diagonalization with overlap
     ethr =  2.39E-12,  avg # of iterations =  1.0

     total cpu time spent up to now is     7488.4 secs

     total energy              =   -7950.42853216 Ry
     estimated scf accuracy    <          6.1E-09 Ry

     iteration # 23     ecut=    50.00 Ry     beta= 0.10
     Davidson diagonalization with overlap
     ethr =  1.65E-12,  avg # of iterations =  2.0

     total cpu time spent up to now is     7510.2 secs

     total energy              =   -7950.42853216 Ry
     estimated scf accuracy    <          8.3E-10 Ry

     iteration # 24     ecut=    50.00 Ry     beta= 0.10
     Davidson diagonalization with overlap
     ethr =  2.26E-13,  avg # of iterations =  2.0

     total cpu time spent up to now is     7532.7 secs

     total energy              =   -7950.42853216 Ry
     estimated scf accuracy    <          2.9E-10 Ry

     iteration # 25     ecut=    50.00 Ry     beta= 0.10
     Davidson diagonalization with overlap
     ethr =  1.00E-13,  avg # of iterations =  1.0

     total cpu time spent up to now is     7551.9 secs

     total energy              =   -7950.42853216 Ry
     estimated scf accuracy    <          4.1E-10 Ry

     iteration # 26     ecut=    50.00 Ry     beta= 0.10
     Davidson diagonalization with overlap
     ethr =  1.00E-13,  avg # of iterations =  1.7

     total cpu time spent up to now is     7572.5 secs

     End of self-consistent calculation

          k = 0.0000 0.0000 0.0000 ( 12121 PWs)   bands (ev):

   -87.3952 -87.3952 -87.3896 -87.3896 -87.3895 -87.3895 -87.3827 -87.3827
   -87.3337 -87.3337 -87.3292 -87.3292 -87.3227 -87.3227 -87.3197 -87.3197
   -87.2834 -87.2834 -87.2833 -87.2833 -87.2833 -87.2833 -87.2833 -87.2833
   -87.2778 -87.2778 -87.2777 -87.2777 -87.2777 -87.2777 -87.2776 -87.2776
   -59.0818 -59.0818 -59.0818 -59.0818 -59.0790 -59.0790 -59.0789 -59.0789
   -59.0234 -59.0234 -59.0233 -59.0233 -59.0200 -59.0200 -59.0199 -59.0199
   -49.4300 -49.4300 -49.4235 -49.4235 -49.4121 -49.4121 -49.4055 -49.4055
   -49.3748 -49.3748 -49.3732 -49.3732 -49.3703 -49.3703 -49.3680 -49.3680
   -49.3574 -49.3574 -49.3561 -49.3561 -49.3514 -49.3514 -49.3493 -49.3493
   -49.2458 -49.2458 -49.2357 -49.2357 -49.2288 -49.2288 -49.2208 -49.2208
   -47.3377 -47.3377 -47.3371 -47.3371 -47.3126 -47.3126 -47.2946 -47.2946
   -47.2863 -47.2863 -47.2778 -47.2778 -47.2548 -47.2548 -47.2393 -47.2393
   -47.2136 -47.2136 -47.2052 -47.2052 -47.2041 -47.2041 -47.1930 -47.1930
   -47.1862 -47.1862 -47.1813 -47.1813 -47.1787 -47.1787 -47.1421 -47.1421
   -47.1220 -47.1220 -47.0820 -47.0820 -47.0784 -47.0784 -47.0729 -47.0729
   -47.0533 -47.0533 -47.0517 -47.0517 -47.0517 -47.0517 -47.0248 -47.0248
   -47.0105 -47.0105 -47.0096 -47.0096 -46.9988 -46.9988 -46.9968 -46.9968
   -46.9896 -46.9896 -46.9886 -46.9886 -46.9754 -46.9754 -46.9733 -46.9733
   -26.2222 -26.2222 -26.2218 -26.2218 -26.2141 -26.2141 -26.2136 -26.2136
   -26.1594 -26.1594 -26.1585 -26.1585 -26.1494 -26.1494 -26.1486 -26.1486
   -25.9393 -25.9393 -25.9386 -25.9386 -25.9371 -25.9371 -25.9368 -25.9368
   -25.9340 -25.9340 -25.9337 -25.9337 -25.9180 -25.9180 -25.9169 -25.9169
   -25.8814 -25.8814 -25.8808 -25.8808 -25.8655 -25.8655 -25.8652 -25.8652
   -25.8620 -25.8620 -25.8617 -25.8617 -25.8572 -25.8572 -25.8569 -25.8569
     6.2738   6.2738   6.9585   6.9585   6.9635   6.9635   8.5245   8.5245
     9.2802   9.2802  10.3727  10.3727  10.3898  10.3898  10.5227  10.5227
    11.0978  11.0978  11.2140  11.2140  11.2997  11.2997  11.4367  11.4367
    11.5044  11.5044  11.5501  11.5501  11.5655  11.5655  11.5789  11.5789
    11.5952  11.5952  11.5981  11.5981  11.7640  11.7640  11.7825  11.7825
    11.8165  11.8165  11.8906  11.8906  11.9118  11.9118  11.9119  11.9119
    11.9378  11.9378  11.9834  11.9834  12.0476  12.0476  12.0918  12.0918
    12.0921  12.0921  12.1497  12.1497  12.5028  12.5028  12.5029  12.5029
    12.5386  12.5386  12.5427  12.5427  12.5476  12.5476  12.6042  12.6042
    12.8038  12.8038  12.8572  12.8572  13.0347  13.0347  13.0698  13.0698
    13.0842  13.0842  13.1252  13.1252  13.1597  13.1597  13.1859  13.1859
    13.3864  13.3864  13.4069  13.4069  13.7105  13.7105  13.9229  13.9229
    13.9547  13.9547  13.9810  13.9810  14.0004  14.0004  14.0308  14.0308
    14.1462  14.1462  14.2001  14.2001  14.3472  14.3472  14.3587  14.3587
    14.5135  14.5135  14.5282  14.5282  14.6433  14.6433  14.6443  14.6443
    14.6585  14.6585  14.6658  14.6658  14.6784  14.6784  14.6865  14.6865
    14.6897  14.6897  14.6982  14.6982  14.7141  14.7141  14.7233  14.7233
    14.7328  14.7328  14.7632  14.7632  14.7640  14.7640  14.7947  14.7947
    14.8091  14.8091  14.8457  14.8457  14.8541  14.8541  14.8723  14.8723
    14.9070  14.9070  15.0117  15.0117  15.0849  15.0849  15.3928  15.3928
    15.4465  15.4465  15.7072  15.7072  15.7092  15.7092  16.0189  16.0189
    16.0200  16.0200  16.0310  16.0310  16.0314  16.0314  16.1267  16.1267
    16.4260  16.4260  16.5745  16.5745  16.5956  16.5956  16.6142  16.6142
    16.6184  16.6184  16.6791  16.6791  16.7446  16.7446  16.9295  16.9295
    17.0500  17.0500  17.0822  17.0822  17.0938  17.0938  17.1542  17.1542
    18.4919  18.4919  18.5059  18.5059  18.6418  18.6418  18.7019  18.7019
    19.3047  19.3047  19.3609  19.3609  19.5654  19.5654  19.5932  19.5932
    20.4566  20.4566  20.4769  20.4769  20.4934  20.4934  20.9205  20.9205
    20.9573  20.9573  21.1629  21.1629  21.4601  21.4601  21.4684  21.4684
    21.7374  21.7374  21.7596  21.7596  22.5060  22.5060  22.5107  22.5107
    22.7272  22.7272  23.2119  23.2119  23.5048  23.5048  24.7092  24.7092
    25.0393  25.0393

          k = 0.0000 0.3984 0.0000 ( 12162 PWs)   bands (ev):

   -87.3921 -87.3921 -87.3889 -87.3889 -87.3874 -87.3874 -87.3837 -87.3837
   -87.3236 -87.3236 -87.3218 -87.3218 -87.3140 -87.3140 -87.3130 -87.3130
   -87.2928 -87.2928 -87.2923 -87.2923 -87.2879 -87.2879 -87.2875 -87.2875
   -87.2834 -87.2834 -87.2834 -87.2834 -87.2778 -87.2778 -87.2777 -87.2777
   -59.0816 -59.0816 -59.0816 -59.0816 -59.0787 -59.0787 -59.0787 -59.0787
   -59.0236 -59.0236 -59.0236 -59.0236 -59.0203 -59.0203 -59.0202 -59.0202
   -49.4303 -49.4303 -49.4236 -49.4236 -49.4198 -49.4198 -49.4115 -49.4115
   -49.3654 -49.3654 -49.3645 -49.3645 -49.3608 -49.3608 -49.3588 -49.3588
   -49.3344 -49.3344 -49.3325 -49.3325 -49.3260 -49.3260 -49.3245 -49.3245
   -49.2688 -49.2688 -49.2605 -49.2605 -49.2554 -49.2554 -49.2485 -49.2485
   -47.3317 -47.3317 -47.3215 -47.3215 -47.3145 -47.3145 -47.3020 -47.3020
   -47.2572 -47.2572 -47.2465 -47.2465 -47.2394 -47.2394 -47.2347 -47.2347
   -47.2019 -47.2019 -47.1903 -47.1903 -47.1854 -47.1854 -47.1786 -47.1786
   -47.1682 -47.1682 -47.1584 -47.1584 -47.1548 -47.1548 -47.1418 -47.1418
   -47.1156 -47.1156 -47.0937 -47.0937 -47.0853 -47.0853 -47.0789 -47.0789
   -47.0685 -47.0685 -47.0681 -47.0681 -47.0599 -47.0599 -47.0477 -47.0477
   -47.0435 -47.0435 -47.0399 -47.0399 -47.0242 -47.0242 -47.0226 -47.0226
   -47.0162 -47.0162 -47.0124 -47.0124 -46.9931 -46.9931 -46.9923 -46.9923
   -26.2206 -26.2206 -26.2205 -26.2205 -26.2123 -26.2123 -26.2121 -26.2121
   -26.1620 -26.1620 -26.1617 -26.1617 -26.1523 -26.1523 -26.1520 -26.1520
   -25.9406 -25.9406 -25.9403 -25.9403 -25.9345 -25.9345 -25.9335 -25.9335
   -25.9310 -25.9310 -25.9300 -25.9300 -25.9188 -25.9188 -25.9183 -25.9183
   -25.8797 -25.8797 -25.8795 -25.8795 -25.8680 -25.8680 -25.8675 -25.8675
   -25.8641 -25.8641 -25.8635 -25.8635 -25.8559 -25.8559 -25.8558 -25.8558
     7.3579   7.3579   8.0039   8.0039   8.0116   8.0116   9.5180   9.5180
    10.0387  10.0387  10.1974  10.1974  10.4659  10.4659  10.4828  10.4828
    10.9788  10.9788  11.0252  11.0252  11.1885  11.1885  11.2916  11.2916
    11.4212  11.4212  11.5150  11.5150  11.5992  11.5992  11.7075  11.7075
    11.7142  11.7142  11.8271  11.8271  11.8532  11.8532  11.8812  11.8812
    11.8899  11.8899  11.9970  11.9970  12.1231  12.1231  12.1721  12.1721
    12.2190  12.2190  12.2681  12.2681  12.3106  12.3106  12.3783  12.3783
    12.3932  12.3932  12.4323  12.4323  12.4434  12.4434  12.5644  12.5644
    12.5726  12.5726  12.6151  12.6151  12.6332  12.6332  12.6870  12.6870
    12.7382  12.7382  12.7488  12.7488  12.8298  12.8298  12.8894  12.8894
    12.9684  12.9684  13.0328  13.0328  13.0663  13.0663  13.1031  13.1031
    13.2044  13.2044  13.2507  13.2507  13.3194  13.3194  13.3475  13.3475
    13.3681  13.3681  13.5060  13.5060  13.5479  13.5479  13.5808  13.5808
    13.6040  13.6040  13.6755  13.6755  13.7554  13.7554  13.7764  13.7764
    13.8483  13.8483  13.9004  13.9004  13.9630  13.9630  13.9702  13.9702
    14.0475  14.0475  14.1285  14.1285  14.1566  14.1566  14.1875  14.1875
    14.2548  14.2548  14.2822  14.2822  14.3080  14.3080  14.3724  14.3724
    14.3987  14.3987  14.4656  14.4656  14.5419  14.5419  14.5815  14.5815
    14.6446  14.6446  14.7063  14.7063  14.7103  14.7103  14.7242  14.7242
    14.7902  14.7902  14.8017  14.8017  14.8162  14.8162  14.8547  14.8547
    14.9216  14.9216  14.9628  14.9628  14.9782  14.9782  15.1260  15.1260
    15.1494  15.1494  15.2203  15.2203  15.3300  15.3300  15.5018  15.5018
    15.8065  15.8065  15.8119  15.8119  16.2753  16.2753  16.3150  16.3150
    16.5154  16.5154  16.6148  16.6148  16.6890  16.6890  16.9626  16.9626
    16.9889  16.9889  17.0479  17.0479  17.0508  17.0508  17.2323  17.2323
    17.9714  17.9714  18.4773  18.4773  18.7997  18.7997  18.8441  18.8441
    20.4312  20.4312  20.6402  20.6402  20.6807  20.6807  21.0081  21.0081
    21.7688  21.7688  21.9321  21.9321  22.1193  22.1193  22.1620  22.1620
    22.2876  22.2876  22.3029  22.3029  22.9306  22.9306  23.2535  23.2535
    23.4784  23.4784  23.5875  23.5875  23.8600  23.8600  24.3122  24.3122
    24.3942  24.3942  25.1290  25.1290  25.4641  25.4641  25.5777  25.5777
    25.7717  25.7717

          k = 0.3451 0.5977 0.0000 ( 12162 PWs)   bands (ev):

   -87.3896 -87.3896 -87.3896 -87.3896 -87.3852 -87.3852 -87.3852 -87.3852
   -87.3146 -87.3146 -87.3146 -87.3146 -87.3043 -87.3043 -87.3042 -87.3042
   -87.3014 -87.3014 -87.3013 -87.3013 -87.2977 -87.2977 -87.2977 -87.2977
   -87.2833 -87.2833 -87.2833 -87.2833 -87.2778 -87.2778 -87.2777 -87.2777
   -59.0815 -59.0815 -59.0815 -59.0815 -59.0786 -59.0786 -59.0786 -59.0786
   -59.0238 -59.0238 -59.0238 -59.0238 -59.0204 -59.0204 -59.0204 -59.0204
   -49.4295 -49.4295 -49.4286 -49.4286 -49.4156 -49.4156 -49.4148 -49.4148
   -49.3628 -49.3628 -49.3611 -49.3611 -49.3574 -49.3574 -49.3562 -49.3562
   -49.3034 -49.3034 -49.3029 -49.3029 -49.2988 -49.2988 -49.2943 -49.2943
   -49.2930 -49.2930 -49.2880 -49.2880 -49.2822 -49.2822 -49.2807 -49.2807
   -47.3272 -47.3272 -47.3237 -47.3237 -47.3123 -47.3123 -47.3067 -47.3067
   -47.2267 -47.2267 -47.2213 -47.2213 -47.2156 -47.2156 -47.2099 -47.2099
   -47.2062 -47.2062 -47.2028 -47.2028 -47.2019 -47.2019 -47.1637 -47.1637
   -47.1535 -47.1535 -47.1497 -47.1497 -47.1410 -47.1410 -47.1280 -47.1280
   -47.1173 -47.1173 -47.0963 -47.0963 -47.0896 -47.0896 -47.0877 -47.0877
   -47.0722 -47.0722 -47.0691 -47.0691 -47.0669 -47.0669 -47.0646 -47.0646
   -47.0555 -47.0555 -47.0480 -47.0480 -47.0388 -47.0388 -47.0361 -47.0361
   -47.0341 -47.0341 -47.0267 -47.0267 -47.0061 -47.0061 -47.0061 -47.0061
   -26.2203 -26.2203 -26.2193 -26.2193 -26.2119 -26.2119 -26.2108 -26.2108
   -26.1634 -26.1634 -26.1634 -26.1634 -26.1536 -26.1536 -26.1536 -26.1536
   -25.9434 -25.9434 -25.9374 -25.9374 -25.9347 -25.9347 -25.9346 -25.9346
   -25.9269 -25.9269 -25.9266 -25.9266 -25.9232 -25.9232 -25.9159 -25.9159
   -25.8790 -25.8790 -25.8789 -25.8789 -25.8705 -25.8705 -25.8702 -25.8702
   -25.8642 -25.8642 -25.8629 -25.8629 -25.8554 -25.8554 -25.8554 -25.8554
     9.1304   9.1304   9.1314   9.1314   9.5774   9.5774   9.7026   9.7026
     9.7101   9.7101   9.8915   9.8915  10.0451  10.0451  10.0508  10.0508
    10.2216  10.2216  11.0427  11.0427  11.0431  11.0431  11.1237  11.1237
    11.1375  11.1375  11.1521  11.1521  11.1602  11.1602  11.7728  11.7728
    11.7782  11.7782  11.7818  11.7818  11.9907  11.9907  11.9986  11.9986
    12.1275  12.1275  12.1492  12.1492  12.3322  12.3322  12.3474  12.3474
    12.3758  12.3758  12.4035  12.4035  12.4530  12.4530  12.4559  12.4559
    12.4633  12.4633  12.4844  12.4844  12.5683  12.5683  12.6293  12.6293
    12.6498  12.6498  12.6654  12.6654  12.6869  12.6869  12.6885  12.6885
    12.7438  12.7438  12.7447  12.7447  12.7484  12.7484  12.8149  12.8149
    12.8185  12.8185  12.8237  12.8237  12.8548  12.8548  12.8922  12.8922
    12.9518  12.9518  12.9752  12.9752  12.9839  12.9839  13.0247  13.0247
    13.0512  13.0512  13.2425  13.2425  13.2486  13.2486  13.2601  13.2601
    13.4201  13.4201  13.5870  13.5870  13.5946  13.5946  13.6232  13.6232
    13.6304  13.6304  13.6697  13.6697  13.8567  13.8567  13.8645  13.8645
    13.9758  13.9758  14.0324  14.0324  14.0464  14.0464  14.0569  14.0569
    14.1378  14.1378  14.1549  14.1549  14.1910  14.1910  14.2667  14.2667
    14.3330  14.3330  14.3606  14.3606  14.3738  14.3738  14.4047  14.4047
    14.4491  14.4491  14.4653  14.4653  14.4938  14.4938  14.5207  14.5207
    14.5602  14.5602  14.5605  14.5605  14.6174  14.6174  14.7072  14.7072
    14.8885  14.8885  14.9306  14.9306  15.0296  15.0296  15.0316  15.0316
    15.0530  15.0530  15.1805  15.1805  15.1859  15.1859  15.3005  15.3005
    15.3725  15.3725  15.4503  15.4503  15.4506  15.4506  15.6612  15.6612
    15.8818  15.8818  15.8920  15.8920  15.9589  15.9589  17.4697  17.4697
    17.4883  17.4883  17.5222  17.5222  17.8104  17.8104  17.8182  17.8182
    18.4545  18.4545  20.3279  20.3279  20.3311  20.3311  20.5178  20.5178
    20.7775  20.7775  20.7779  20.7779  21.5560  21.5560  21.5575  21.5575
    21.5888  21.5888  21.6891  21.6891  21.6977  21.6977  21.8929  21.8929
    22.2120  22.2120  22.6850  22.6850  22.6895  22.6895  22.7043  22.7043
    23.6408  23.6408  23.6442  23.6442  24.1452  24.1452  24.1625  24.1625
    24.2475  24.2475  25.1552  25.1552  26.2559  26.2559  26.2667  26.2667
    26.2749  26.2749

     the Fermi energy is    15.5549 ev

!    total energy              =   -7950.42853216 Ry
     total all-electron energy =    -51824.280616 Ry
     estimated scf accuracy    <          2.0E-10 Ry
     smearing contrib. (-TS)   =       0.07113591 Ry
     internal energy E=F+TS    =   -7950.49966807 Ry

     The total energy is F=E-TS. E is the sum of the following terms:
     one-electron contribution =   -4193.60630392 Ry
     hartree contribution      =    2284.53370064 Ry
     xc contribution           =    -683.91008312 Ry
     ewald contribution        =   -3818.98280922 Ry
     one-center paw contrib.   =   -1538.53417245 Ry

     convergence has been achieved in  26 iterations

     Forces acting on atoms (cartesian axes, Ry/au):

     atom    1 type  1   force =    -0.00000000   -0.00000000    0.00028285
     atom    2 type  1   force =     0.00000000    0.00000000    0.00028285
     atom    3 type  1   force =     0.00000000    0.00000000   -0.00028285
     atom    4 type  1   force =    -0.00000000   -0.00000000   -0.00028285
     atom    5 type  1   force =     0.00000000    0.00000000    0.00003193
     atom    6 type  1   force =     0.00000000    0.00000000    0.00003193
     atom    7 type  1   force =     0.00000000    0.00000000   -0.00003193
     atom    8 type  1   force =    -0.00000000   -0.00000000   -0.00003193
     atom    9 type  2   force =     0.00000000    0.00000000    0.00010700
     atom   10 type  2   force =     0.00000000    0.00000000    0.00010700
     atom   11 type  2   force =    -0.00000000   -0.00000000   -0.00010700
     atom   12 type  2   force =    -0.00000000   -0.00000000   -0.00010700
     atom   13 type  2   force =     0.00000000    0.00045043    0.00000000
     atom   14 type  2   force =    -0.00039009    0.00022522   -0.00000000
     atom   15 type  2   force =    -0.00000000   -0.00045043    0.00000000
     atom   16 type  2   force =     0.00039009   -0.00022522   -0.00000000
     atom   17 type  2   force =    -0.00039009   -0.00022522   -0.00000000
     atom   18 type  2   force =     0.00039009    0.00022522    0.00000000
     atom   19 type  2   force =     0.00000000   -0.00000000    0.00000000
     atom   20 type  2   force =    -0.00000000    0.00000000    0.00000000
     atom   21 type  2   force =    -0.00000000    0.00000000   -0.00000000
     atom   22 type  2   force =    -0.00000000   -0.00000000   -0.00000000
     atom   23 type  2   force =     0.00000000   -0.00000000   -0.00000000
     atom   24 type  2   force =    -0.00000000   -0.00000000   -0.00000000
     The non-local contrib.  to forces
     atom    1 type  1   force =    -0.00000000   -0.00000000    0.02361681
     atom    2 type  1   force =     0.00000000    0.00000000    0.02361681
     atom    3 type  1   force =    -0.00000000   -0.00000000   -0.02361681
     atom    4 type  1   force =     0.00000000    0.00000000   -0.02361681
     atom    5 type  1   force =     0.00000000    0.00000000   -0.00393446
     atom    6 type  1   force =    -0.00000000   -0.00000000   -0.00393446
     atom    7 type  1   force =    -0.00000000   -0.00000000    0.00393446
     atom    8 type  1   force =    -0.00000000   -0.00000000    0.00393446
     atom    9 type  2   force =    -0.00000000   -0.00000000    0.02494370
     atom   10 type  2   force =    -0.00000000   -0.00000000    0.02494370
     atom   11 type  2   force =     0.00000000    0.00000000   -0.02494370
     atom   12 type  2   force =    -0.00000000   -0.00000000   -0.02494370
     atom   13 type  2   force =    -0.00000000   -0.07696106    0.00000000
     atom   14 type  2   force =     0.06665024   -0.03848052   -0.00000000
     atom   15 type  2   force =     0.00000000    0.07696106   -0.00000000
     atom   16 type  2   force =    -0.06665024    0.03848052    0.00000000
     atom   17 type  2   force =     0.06665024    0.03848054    0.00000000
     atom   18 type  2   force =    -0.06665024   -0.03848054   -0.00000000
     atom   19 type  2   force =     0.00000000    0.00000000    0.00000000
     atom   20 type  2   force =     0.00000000    0.00000000    0.00000000
     atom   21 type  2   force =    -0.00000000   -0.00000000   -0.00000000
     atom   22 type  2   force =     0.00000000    0.00000000    0.00000000
     atom   23 type  2   force =    -0.00000000   -0.00000000   -0.00000000
     atom   24 type  2   force =     0.00000000    0.00000000    0.00000000
     The ionic contribution  to forces
     atom    1 type  1   force =    -0.00001472    0.00001128   -0.67441944
     atom    2 type  1   force =     0.00001472   -0.00001128   -0.67441944
     atom    3 type  1   force =     0.00001472   -0.00001128    0.67441944
     atom    4 type  1   force =    -0.00001472    0.00001128    0.67441944
     atom    5 type  1   force =     0.00006337   -0.00003353    0.10213090
     atom    6 type  1   force =    -0.00006337    0.00003353    0.10213090
     atom    7 type  1   force =    -0.00006337    0.00003353   -0.10213090
     atom    8 type  1   force =     0.00006337   -0.00003353   -0.10213090
     atom    9 type  2   force =     0.00006626   -0.00003811    0.13440056
     atom   10 type  2   force =    -0.00006626    0.00003811    0.13440056
     atom   11 type  2   force =    -0.00006626    0.00003811   -0.13440056
     atom   12 type  2   force =     0.00006626   -0.00003811   -0.13440056
     atom   13 type  2   force =     0.00008169  -13.60003960    0.00000000
     atom   14 type  2   force =    11.77807420   -6.80007648    0.00000000
     atom   15 type  2   force =    -0.00008169   13.60003960    0.00000000
     atom   16 type  2   force =   -11.77807420    6.80007648    0.00000000
     atom   17 type  2   force =    11.77801861    6.79995292    0.00000000
     atom   18 type  2   force =   -11.77801861   -6.79995292    0.00000000
     atom   19 type  2   force =     0.00000000    0.00000000    0.00000000
     atom   20 type  2   force =     0.00000000    0.00000000   -0.00000000
     atom   21 type  2   force =     0.00000000   -0.00000000   -0.00000000
     atom   22 type  2   force =     0.00000000    0.00000000    0.00000000
     atom   23 type  2   force =     0.00000000    0.00000000    0.00000000
     atom   24 type  2   force =     0.00000000    0.00000000    0.00000000
     The local contribution  to forces
     atom    1 type  1   force =    -0.00000226   -0.00000125    0.65118216
     atom    2 type  1   force =     0.00000226    0.00000125    0.65118216
     atom    3 type  1   force =     0.00000226    0.00000125   -0.65118216
     atom    4 type  1   force =    -0.00000226   -0.00000125   -0.65118216
     atom    5 type  1   force =     0.00138184   -0.00080057   -0.09817598
     atom    6 type  1   force =    -0.00138184    0.00080057   -0.09817598
     atom    7 type  1   force =    -0.00138184    0.00080057    0.09817598
     atom    8 type  1   force =     0.00138184   -0.00080057    0.09817598
     atom    9 type  2   force =     0.00184047   -0.00106269   -0.15606399
     atom   10 type  2   force =    -0.00184047    0.00106269   -0.15606399
     atom   11 type  2   force =    -0.00184047    0.00106269    0.15606399
     atom   12 type  2   force =     0.00184047   -0.00106269    0.15606399
     atom   13 type  2   force =    -0.00184068   13.67753991   -0.00000000
     atom   14 type  2   force =   -11.84259478    6.83732469   -0.00000000
     atom   15 type  2   force =     0.00184068  -13.67753991   -0.00000000
     atom   16 type  2   force =    11.84259478   -6.83732469   -0.00000000
     atom   17 type  2   force =   -11.84601939   -6.83717935   -0.00000000
     atom   18 type  2   force =    11.84601939    6.83717935   -0.00000000
     atom   19 type  2   force =    -0.00000000   -0.00000000    0.00000000
     atom   20 type  2   force =    -0.00000000   -0.00000000    0.00000000
     atom   21 type  2   force =    -0.00000000    0.00000000   -0.00000000
     atom   22 type  2   force =    -0.00000000   -0.00000000    0.00000000
     atom   23 type  2   force =     0.00000000   -0.00000000   -0.00000000
     atom   24 type  2   force =     0.00000000   -0.00000000    0.00000000
     The core correction contribution to forces
     atom    1 type  1   force =    -0.00000000    0.00000000   -0.00009726
     atom    2 type  1   force =     0.00000000   -0.00000000   -0.00009726
     atom    3 type  1   force =     0.00000000   -0.00000000    0.00009726
     atom    4 type  1   force =    -0.00000000    0.00000000    0.00009726
     atom    5 type  1   force =     0.00000303   -0.00000175    0.00000983
     atom    6 type  1   force =    -0.00000303    0.00000175    0.00000983
     atom    7 type  1   force =    -0.00000303    0.00000175   -0.00000983
     atom    8 type  1   force =     0.00000303   -0.00000175   -0.00000983
     atom    9 type  2   force =     0.00000117   -0.00000067   -0.00318742
     atom   10 type  2   force =    -0.00000117    0.00000067   -0.00318742
     atom   11 type  2   force =    -0.00000117    0.00000067    0.00318742
     atom   12 type  2   force =     0.00000117   -0.00000067    0.00318742
     atom   13 type  2   force =    -0.00000116    0.00088665   -0.00000000
     atom   14 type  2   force =    -0.00076607    0.00044229   -0.00000000
     atom   15 type  2   force =     0.00000116   -0.00088665   -0.00000000
     atom   16 type  2   force =     0.00076607   -0.00044229   -0.00000000
     atom   17 type  2   force =    -0.00076844   -0.00044232   -0.00000000
     atom   18 type  2   force =     0.00076844    0.00044232   -0.00000000
     atom   19 type  2   force =    -0.00000000    0.00000000    0.00000000
     atom   20 type  2   force =    -0.00000000   -0.00000000    0.00000000
     atom   21 type  2   force =    -0.00000000    0.00000000    0.00000000
     atom   22 type  2   force =    -0.00000000   -0.00000000    0.00000000
     atom   23 type  2   force =     0.00000000   -0.00000000    0.00000000
     atom   24 type  2   force =     0.00000000   -0.00000000    0.00000000
     The Hubbard contrib.    to forces
     atom    1 type  1   force =     0.00000000    0.00000000    0.00000000
     atom    2 type  1   force =     0.00000000    0.00000000    0.00000000
     atom    3 type  1   force =     0.00000000    0.00000000    0.00000000
     atom    4 type  1   force =     0.00000000    0.00000000    0.00000000
     atom    5 type  1   force =     0.00000000    0.00000000    0.00000000
     atom    6 type  1   force =     0.00000000    0.00000000    0.00000000
     atom    7 type  1   force =     0.00000000    0.00000000    0.00000000
     atom    8 type  1   force =     0.00000000    0.00000000    0.00000000
     atom    9 type  2   force =     0.00000000    0.00000000    0.00000000
     atom   10 type  2   force =     0.00000000    0.00000000    0.00000000
     atom   11 type  2   force =     0.00000000    0.00000000    0.00000000
     atom   12 type  2   force =     0.00000000    0.00000000    0.00000000
     atom   13 type  2   force =     0.00000000    0.00000000    0.00000000
     atom   14 type  2   force =     0.00000000    0.00000000    0.00000000
     atom   15 type  2   force =     0.00000000    0.00000000    0.00000000
     atom   16 type  2   force =     0.00000000    0.00000000    0.00000000
     atom   17 type  2   force =     0.00000000    0.00000000    0.00000000
     atom   18 type  2   force =     0.00000000    0.00000000    0.00000000
     atom   19 type  2   force =     0.00000000    0.00000000    0.00000000
     atom   20 type  2   force =     0.00000000    0.00000000    0.00000000
     atom   21 type  2   force =     0.00000000    0.00000000    0.00000000
     atom   22 type  2   force =     0.00000000    0.00000000    0.00000000
     atom   23 type  2   force =     0.00000000    0.00000000    0.00000000
     atom   24 type  2   force =     0.00000000    0.00000000    0.00000000
     The SCF correction term to forces
     atom    1 type  1   force =     0.00000000   -0.00000000    0.00000057
     atom    2 type  1   force =    -0.00000000    0.00000000    0.00000057
     atom    3 type  1   force =    -0.00000000    0.00000000   -0.00000057
     atom    4 type  1   force =     0.00000000   -0.00000000   -0.00000057
     atom    5 type  1   force =    -0.00000000    0.00000000    0.00000164
     atom    6 type  1   force =     0.00000000   -0.00000000    0.00000164
     atom    7 type  1   force =     0.00000000   -0.00000000   -0.00000164
     atom    8 type  1   force =    -0.00000000    0.00000000   -0.00000164
     atom    9 type  2   force =    -0.00000001    0.00000000    0.00001415
     atom   10 type  2   force =     0.00000001   -0.00000000    0.00001415
     atom   11 type  2   force =     0.00000001   -0.00000000   -0.00001415
     atom   12 type  2   force =    -0.00000001    0.00000000   -0.00001415
     atom   13 type  2   force =    -0.00000000    0.00002404    0.00000000
     atom   14 type  2   force =    -0.00002082    0.00001202   -0.00000000
     atom   15 type  2   force =     0.00000000   -0.00002404   -0.00000000
     atom   16 type  2   force =     0.00002082   -0.00001202    0.00000000
     atom   17 type  2   force =    -0.00002082   -0.00001202    0.00000000
     atom   18 type  2   force =     0.00002082    0.00001202   -0.00000000
     atom   19 type  2   force =     0.00000000   -0.00000000   -0.00000000
     atom   20 type  2   force =    -0.00000000    0.00000000    0.00000000
     atom   21 type  2   force =     0.00000000   -0.00000000    0.00000000
     atom   22 type  2   force =     0.00000000    0.00000000   -0.00000000
     atom   23 type  2   force =    -0.00000000    0.00000000    0.00000000
     atom   24 type  2   force =    -0.00000000    0.00000000   -0.00000000

     Total force =     0.001260     Total SCF correction =     0.000065


     Computing stress (Cartesian axis) and pressure

          total   stress  (Ry/bohr**3)                   (kbar)     P=        0.55
   0.00000343   0.00000000   0.00000000            0.50        0.00        0.00
   0.00000000   0.00000343   0.00000000            0.00        0.50        0.00
   0.00000000   0.00000000   0.00000427            0.00        0.00        0.63

     Energy error            =      1.9E-05 Ry
     Gradient error          =      4.5E-04 Ry/Bohr
     Cell gradient error     =      6.3E-01 kbar

     number of scf cycles    =   9
     number of bfgs steps    =   8

     enthalpy           old  =   -7950.4285128750 Ry
     enthalpy           new  =   -7950.4285321621 Ry

     CASE: enthalpy          _new < enthalpy          _old

     small trust_radius: resetting bfgs history

     new trust radius        =       0.0009155920 bohr
     new conv_thr            =       0.0000000002 Ry

     new unit-cell volume =   1835.81078 a.u.^3 (   272.03909 Ang^3 )
     density =      6.91915 g/cm^3

CELL_PARAMETERS (angstrom)
   4.574538205  -0.000000019  -0.000000000
  -2.287269602   3.961666592  -0.000000000
  -0.000000000  -0.000000000  15.010879317

ATOMIC_POSITIONS (crystal)
Mg            0.0000000000       -0.0000000000        0.4071382041
Mg            0.0000000000        0.0000000000        0.9071382041
Mg            0.0000000000        0.0000000000        0.5928617959
Mg            0.0000000000        0.0000000000        0.0928617959
Mg            0.3333330000        0.6666670000        0.6559827376
Mg            0.6666670000        0.3333330000        0.1559827376
Mg            0.6666670000        0.3333330000        0.3440172624
Mg            0.3333330000        0.6666670000        0.8440172624
Ni            0.3333330000        0.6666670000        0.3748397364
Ni            0.6666670000        0.3333330000        0.8748397364
Ni            0.6666670000        0.3333330000        0.6251602636
Ni            0.3333330000        0.6666670000        0.1251602636
Ni            0.1642275033        0.3284540077        0.2500000000
Ni            0.8357724967        0.1642275043        0.7500000000
Ni            0.8357724967        0.6715459923        0.7500000000
Ni            0.1642275033        0.8357724957        0.2500000000
Ni            0.6715459934        0.8357724967        0.2500000000
Ni            0.3284540066        0.1642275033        0.7500000000
Ni            0.5000000000        0.0000000000        0.5000000000
Ni            0.5000000000        0.5000000000       -0.0000000000
Ni            0.5000000000        0.0000000000       -0.0000000000
Ni            0.5000000000        0.5000000000        0.5000000000
Ni           -0.0000000000        0.5000000000        0.0000000000
Ni           -0.0000000000        0.5000000000        0.5000000000



     Writing config-only to output data dir ./C36_out/laves_C36.save/
     NEW-OLD atomic charge density approx. for the potential

     Check: negative core charge=   -0.000016
     extrapolated charge  368.10241, renormalised to  368.00000

     total cpu time spent up to now is     7616.9 secs

     Self-consistent Calculation

     iteration #  1     ecut=    50.00 Ry     beta= 0.10
     Davidson diagonalization with overlap
     ethr =  1.00E-06,  avg # of iterations =  2.0

     total cpu time spent up to now is     7646.0 secs

     total energy              =   -7950.42734971 Ry
     estimated scf accuracy    <       0.00509003 Ry

     iteration #  2     ecut=    50.00 Ry     beta= 0.10
     Davidson diagonalization with overlap
     ethr =  1.38E-06,  avg # of iterations =  2.0

     total cpu time spent up to now is     7669.8 secs

     total energy              =   -7950.42856938 Ry
     estimated scf accuracy    <       0.00030591 Ry

     iteration #  3     ecut=    50.00 Ry     beta= 0.10
     Davidson diagonalization with overlap
     ethr =  8.31E-08,  avg # of iterations =  2.0

     total cpu time spent up to now is     7691.4 secs

     total energy              =   -7950.42855914 Ry
     estimated scf accuracy    <       0.00027564 Ry

     iteration #  4     ecut=    50.00 Ry     beta= 0.10
     Davidson diagonalization with overlap
     ethr =  7.49E-08,  avg # of iterations =  1.0

     total cpu time spent up to now is     7710.4 secs

     total energy              =   -7950.42854632 Ry
     estimated scf accuracy    <       0.00017163 Ry

     iteration #  5     ecut=    50.00 Ry     beta= 0.10
     Davidson diagonalization with overlap
     ethr =  4.66E-08,  avg # of iterations =  1.0

     total cpu time spent up to now is     7729.4 secs

     total energy              =   -7950.42853163 Ry
     estimated scf accuracy    <       0.00008266 Ry

     iteration #  6     ecut=    50.00 Ry     beta= 0.10
     Davidson diagonalization with overlap
     ethr =  2.25E-08,  avg # of iterations =  1.0

     total cpu time spent up to now is     7748.3 secs

     total energy              =   -7950.42853336 Ry
     estimated scf accuracy    <       0.00000933 Ry

     iteration #  7     ecut=    50.00 Ry     beta= 0.10
     Davidson diagonalization with overlap
     ethr =  2.54E-09,  avg # of iterations =  2.0

     total cpu time spent up to now is     7770.8 secs

     total energy              =   -7950.42853565 Ry
     estimated scf accuracy    <       0.00000080 Ry

     iteration #  8     ecut=    50.00 Ry     beta= 0.10
     Davidson diagonalization with overlap
     ethr =  2.18E-10,  avg # of iterations =  3.0

     total cpu time spent up to now is     7800.2 secs

     total energy              =   -7950.42853628 Ry
     estimated scf accuracy    <       0.00001781 Ry

     iteration #  9     ecut=    50.00 Ry     beta= 0.10
     Davidson diagonalization with overlap
     ethr =  2.18E-10,  avg # of iterations =  2.0

     total cpu time spent up to now is     7822.5 secs

     total energy              =   -7950.42853554 Ry
     estimated scf accuracy    <       0.00001920 Ry

     iteration # 10     ecut=    50.00 Ry     beta= 0.10
     Davidson diagonalization with overlap
     ethr =  2.18E-10,  avg # of iterations =  1.0

     total cpu time spent up to now is     7840.9 secs

     total energy              =   -7950.42853590 Ry
     estimated scf accuracy    <       0.00001493 Ry

     iteration # 11     ecut=    50.00 Ry     beta= 0.10
     Davidson diagonalization with overlap
     ethr =  2.18E-10,  avg # of iterations =  1.0

     total cpu time spent up to now is     7859.4 secs

     total energy              =   -7950.42853296 Ry
     estimated scf accuracy    <       0.00001588 Ry

     iteration # 12     ecut=    50.00 Ry     beta= 0.10
     Davidson diagonalization with overlap
     ethr =  2.18E-10,  avg # of iterations =  3.0

     total cpu time spent up to now is     7886.6 secs

     total energy              =   -7950.42853342 Ry
     estimated scf accuracy    <       0.00000225 Ry

     iteration # 13     ecut=    50.00 Ry     beta= 0.10
     Davidson diagonalization with overlap
     ethr =  2.18E-10,  avg # of iterations =  2.0

     total cpu time spent up to now is     7909.4 secs

     total energy              =   -7950.42853350 Ry
     estimated scf accuracy    <       0.00000064 Ry

     iteration # 14     ecut=    50.00 Ry     beta= 0.10
     Davidson diagonalization with overlap
     ethr =  1.73E-10,  avg # of iterations =  1.0

     total cpu time spent up to now is     7929.1 secs

     total energy              =   -7950.42853350 Ry
     estimated scf accuracy    <       0.00000069 Ry

     iteration # 15     ecut=    50.00 Ry     beta= 0.10
     Davidson diagonalization with overlap
     ethr =  1.73E-10,  avg # of iterations =  1.0

     total cpu time spent up to now is     7947.9 secs

     total energy              =   -7950.42853347 Ry
     estimated scf accuracy    <       0.00000062 Ry

     iteration # 16     ecut=    50.00 Ry     beta= 0.10
     Davidson diagonalization with overlap
     ethr =  1.69E-10,  avg # of iterations =  1.0

     total cpu time spent up to now is     7967.4 secs

     total energy              =   -7950.42853345 Ry
     estimated scf accuracy    <       0.00000046 Ry

     iteration # 17     ecut=    50.00 Ry     beta= 0.10
     Davidson diagonalization with overlap
     ethr =  1.25E-10,  avg # of iterations =  1.0

     total cpu time spent up to now is     7986.9 secs

     total energy              =   -7950.42853331 Ry
     estimated scf accuracy    <       0.00000039 Ry

     iteration # 18     ecut=    50.00 Ry     beta= 0.10
     Davidson diagonalization with overlap
     ethr =  1.05E-10,  avg # of iterations =  2.0

     total cpu time spent up to now is     8010.3 secs

     total energy              =   -7950.42853337 Ry
     estimated scf accuracy    <       0.00000001 Ry

     iteration # 19     ecut=    50.00 Ry     beta= 0.10
     Davidson diagonalization with overlap
     ethr =  3.93E-12,  avg # of iterations =  2.0

     total cpu time spent up to now is     8032.8 secs

     total energy              =   -7950.42853337 Ry
     estimated scf accuracy    <       0.00000001 Ry

     iteration # 20     ecut=    50.00 Ry     beta= 0.10
     Davidson diagonalization with overlap
     ethr =  3.81E-12,  avg # of iterations =  1.0

     total cpu time spent up to now is     8051.4 secs

     total energy              =   -7950.42853337 Ry
     estimated scf accuracy    <       0.00000001 Ry

     iteration # 21     ecut=    50.00 Ry     beta= 0.10
     Davidson diagonalization with overlap
     ethr =  3.09E-12,  avg # of iterations =  2.0

     total cpu time spent up to now is     8075.0 secs

     total energy              =   -7950.42853337 Ry
     estimated scf accuracy    <       0.00000001 Ry

     iteration # 22     ecut=    50.00 Ry     beta= 0.10
     Davidson diagonalization with overlap
     ethr =  2.74E-12,  avg # of iterations =  2.0

     total cpu time spent up to now is     8102.6 secs

     total energy              =   -7950.42853337 Ry
     estimated scf accuracy    <       0.00000002 Ry

     iteration # 23     ecut=    50.00 Ry     beta= 0.10
     Davidson diagonalization with overlap
     ethr =  2.74E-12,  avg # of iterations =  1.0

     total cpu time spent up to now is     8121.5 secs

     total energy              =   -7950.42853337 Ry
     estimated scf accuracy    <          9.0E-09 Ry

     iteration # 24     ecut=    50.00 Ry     beta= 0.10
     Davidson diagonalization with overlap
     ethr =  2.44E-12,  avg # of iterations =  1.0

     total cpu time spent up to now is     8140.7 secs

     total energy              =   -7950.42853337 Ry
     estimated scf accuracy    <          5.8E-09 Ry

     iteration # 25     ecut=    50.00 Ry     beta= 0.10
     Davidson diagonalization with overlap
     ethr =  1.58E-12,  avg # of iterations =  1.0

     total cpu time spent up to now is     8159.7 secs

     total energy              =   -7950.42853337 Ry
     estimated scf accuracy    <          3.7E-09 Ry

     iteration # 26     ecut=    50.00 Ry     beta= 0.10
     Davidson diagonalization with overlap
     ethr =  9.97E-13,  avg # of iterations =  1.7

     total cpu time spent up to now is     8180.1 secs

     total energy              =   -7950.42853337 Ry
     estimated scf accuracy    <          1.3E-09 Ry

     iteration # 27     ecut=    50.00 Ry     beta= 0.10
     Davidson diagonalization with overlap
     ethr =  3.48E-13,  avg # of iterations =  1.0

     total cpu time spent up to now is     8198.5 secs

     total energy              =   -7950.42853337 Ry
     estimated scf accuracy    <          2.9E-10 Ry

     iteration # 28     ecut=    50.00 Ry     beta= 0.10
     Davidson diagonalization with overlap
     ethr =  1.00E-13,  avg # of iterations =  1.0

     total cpu time spent up to now is     8217.3 secs

     total energy              =   -7950.42853337 Ry
     estimated scf accuracy    <          3.1E-10 Ry

     iteration # 29     ecut=    50.00 Ry     beta= 0.10
     Davidson diagonalization with overlap
     ethr =  1.00E-13,  avg # of iterations =  1.0

     total cpu time spent up to now is     8236.1 secs

     total energy              =   -7950.42853337 Ry
     estimated scf accuracy    <          3.3E-10 Ry

     iteration # 30     ecut=    50.00 Ry     beta= 0.10
     Davidson diagonalization with overlap
     ethr =  1.00E-13,  avg # of iterations =  1.0

     total cpu time spent up to now is     8255.2 secs

     End of self-consistent calculation

          k = 0.0000 0.0000 0.0000 ( 12121 PWs)   bands (ev):

   -87.4001 -87.4001 -87.3945 -87.3945 -87.3944 -87.3944 -87.3877 -87.3877
   -87.3383 -87.3383 -87.3338 -87.3338 -87.3276 -87.3276 -87.3245 -87.3245
   -87.2881 -87.2881 -87.2880 -87.2880 -87.2880 -87.2880 -87.2879 -87.2879
   -87.2828 -87.2828 -87.2827 -87.2827 -87.2827 -87.2827 -87.2826 -87.2826
   -59.0875 -59.0875 -59.0874 -59.0874 -59.0846 -59.0846 -59.0846 -59.0846
   -59.0292 -59.0292 -59.0291 -59.0291 -59.0258 -59.0258 -59.0257 -59.0257
   -49.4348 -49.4348 -49.4283 -49.4283 -49.4169 -49.4169 -49.4103 -49.4103
   -49.3793 -49.3793 -49.3778 -49.3778 -49.3751 -49.3751 -49.3727 -49.3727
   -49.3620 -49.3620 -49.3607 -49.3607 -49.3562 -49.3562 -49.3541 -49.3541
   -49.2506 -49.2506 -49.2404 -49.2404 -49.2337 -49.2337 -49.2257 -49.2257
   -47.3424 -47.3424 -47.3419 -47.3419 -47.3171 -47.3171 -47.2992 -47.2992
   -47.2911 -47.2911 -47.2826 -47.2826 -47.2595 -47.2595 -47.2441 -47.2441
   -47.2183 -47.2183 -47.2097 -47.2097 -47.2086 -47.2086 -47.1978 -47.1978
   -47.1909 -47.1909 -47.1861 -47.1861 -47.1835 -47.1835 -47.1469 -47.1469
   -47.1267 -47.1267 -47.0868 -47.0868 -47.0833 -47.0833 -47.0776 -47.0776
   -47.0581 -47.0581 -47.0566 -47.0566 -47.0564 -47.0564 -47.0297 -47.0297
   -47.0152 -47.0152 -47.0142 -47.0142 -47.0035 -47.0035 -47.0015 -47.0015
   -46.9945 -46.9945 -46.9935 -46.9935 -46.9804 -46.9804 -46.9782 -46.9782
   -26.2278 -26.2278 -26.2275 -26.2275 -26.2197 -26.2197 -26.2193 -26.2193
   -26.1652 -26.1652 -26.1643 -26.1643 -26.1552 -26.1552 -26.1544 -26.1544
   -25.9449 -25.9449 -25.9442 -25.9442 -25.9428 -25.9428 -25.9425 -25.9425
   -25.9397 -25.9397 -25.9394 -25.9394 -25.9236 -25.9236 -25.9226 -25.9226
   -25.8872 -25.8872 -25.8866 -25.8866 -25.8713 -25.8713 -25.8710 -25.8710
   -25.8678 -25.8678 -25.8674 -25.8674 -25.8630 -25.8630 -25.8627 -25.8627
     6.2703   6.2703   6.9549   6.9549   6.9596   6.9596   8.5205   8.5205
     9.2761   9.2761  10.3691  10.3691  10.3861  10.3861  10.5191  10.5191
    11.0941  11.0941  11.2097  11.2097  11.2957  11.2957  11.4328  11.4328
    11.5002  11.5002  11.5460  11.5460  11.5615  11.5615  11.5749  11.5749
    11.5911  11.5911  11.5940  11.5940  11.7601  11.7601  11.7786  11.7786
    11.8126  11.8126  11.8865  11.8865  11.9078  11.9078  11.9079  11.9079
    11.9337  11.9337  11.9793  11.9793  12.0435  12.0435  12.0877  12.0877
    12.0880  12.0880  12.1456  12.1456  12.4985  12.4985  12.4986  12.4986
    12.5343  12.5343  12.5384  12.5384  12.5433  12.5433  12.6000  12.6000
    12.7995  12.7995  12.8528  12.8528  13.0302  13.0302  13.0653  13.0653
    13.0796  13.0796  13.1208  13.1208  13.1552  13.1552  13.1813  13.1813
    13.3818  13.3818  13.4023  13.4023  13.7060  13.7060  13.9181  13.9181
    13.9501  13.9501  13.9763  13.9763  13.9954  13.9954  14.0261  14.0261
    14.1414  14.1414  14.1953  14.1953  14.3424  14.3424  14.3540  14.3540
    14.5087  14.5087  14.5234  14.5234  14.6384  14.6384  14.6393  14.6393
    14.6534  14.6534  14.6609  14.6609  14.6733  14.6733  14.6814  14.6814
    14.6846  14.6846  14.6932  14.6932  14.7091  14.7091  14.7185  14.7185
    14.7277  14.7277  14.7582  14.7582  14.7591  14.7591  14.7898  14.7898
    14.8043  14.8043  14.8406  14.8406  14.8490  14.8490  14.8672  14.8672
    14.9019  14.9019  15.0064  15.0064  15.0796  15.0796  15.3872  15.3872
    15.4409  15.4409  15.7020  15.7020  15.7040  15.7040  16.0135  16.0135
    16.0146  16.0146  16.0253  16.0253  16.0258  16.0258  16.1214  16.1214
    16.4206  16.4206  16.5692  16.5692  16.5903  16.5903  16.6089  16.6089
    16.6129  16.6129  16.6737  16.6737  16.7389  16.7389  16.9239  16.9239
    17.0446  17.0446  17.0767  17.0767  17.0882  17.0882  17.1485  17.1485
    18.4864  18.4864  18.5003  18.5003  18.6360  18.6360  18.6962  18.6962
    19.2987  19.2987  19.3548  19.3548  19.5597  19.5597  19.5874  19.5874
    20.4500  20.4500  20.4706  20.4706  20.4871  20.4871  20.9136  20.9136
    20.9504  20.9504  21.1563  21.1563  21.4535  21.4535  21.4618  21.4618
    21.7311  21.7311  21.7533  21.7533  22.4993  22.4993  22.5041  22.5041
    22.7194  22.7194  23.2041  23.2041  23.4970  23.4970  24.7011  24.7011
    25.0310  25.0310

          k = 0.0000 0.3984 0.0000 ( 12162 PWs)   bands (ev):

   -87.3970 -87.3970 -87.3938 -87.3938 -87.3923 -87.3923 -87.3886 -87.3886
   -87.3283 -87.3283 -87.3265 -87.3265 -87.3189 -87.3189 -87.3179 -87.3179
   -87.2975 -87.2975 -87.2970 -87.2970 -87.2928 -87.2928 -87.2925 -87.2925
   -87.2881 -87.2881 -87.2880 -87.2880 -87.2827 -87.2827 -87.2826 -87.2826
   -59.0873 -59.0873 -59.0872 -59.0872 -59.0844 -59.0844 -59.0844 -59.0844
   -59.0294 -59.0294 -59.0294 -59.0294 -59.0261 -59.0261 -59.0260 -59.0260
   -49.4351 -49.4351 -49.4284 -49.4284 -49.4247 -49.4247 -49.4164 -49.4164
   -49.3699 -49.3699 -49.3690 -49.3690 -49.3656 -49.3656 -49.3636 -49.3636
   -49.3390 -49.3390 -49.3371 -49.3371 -49.3308 -49.3308 -49.3293 -49.3293
   -49.2736 -49.2736 -49.2651 -49.2651 -49.2603 -49.2603 -49.2534 -49.2534
   -47.3364 -47.3364 -47.3262 -47.3262 -47.3192 -47.3192 -47.3067 -47.3067
   -47.2619 -47.2619 -47.2512 -47.2512 -47.2441 -47.2441 -47.2394 -47.2394
   -47.2067 -47.2067 -47.1950 -47.1950 -47.1900 -47.1900 -47.1833 -47.1833
   -47.1729 -47.1729 -47.1632 -47.1632 -47.1595 -47.1595 -47.1466 -47.1466
   -47.1204 -47.1204 -47.0984 -47.0984 -47.0901 -47.0901 -47.0836 -47.0836
   -47.0733 -47.0733 -47.0728 -47.0728 -47.0647 -47.0647 -47.0525 -47.0525
   -47.0483 -47.0483 -47.0447 -47.0447 -47.0291 -47.0291 -47.0275 -47.0275
   -47.0209 -47.0209 -47.0172 -47.0172 -46.9980 -46.9980 -46.9972 -46.9972
   -26.2263 -26.2263 -26.2261 -26.2261 -26.2179 -26.2179 -26.2178 -26.2178
   -26.1678 -26.1678 -26.1675 -26.1675 -26.1580 -26.1580 -26.1578 -26.1578
   -25.9462 -25.9462 -25.9460 -25.9460 -25.9401 -25.9401 -25.9391 -25.9391
   -25.9367 -25.9367 -25.9356 -25.9356 -25.9245 -25.9245 -25.9240 -25.9240
   -25.8855 -25.8855 -25.8853 -25.8853 -25.8738 -25.8738 -25.8732 -25.8732
   -25.8699 -25.8699 -25.8693 -25.8693 -25.8617 -25.8617 -25.8616 -25.8616
     7.3541   7.3541   8.0002   8.0002   8.0075   8.0075   9.5139   9.5139
    10.0344  10.0344  10.1932  10.1932  10.4619  10.4619  10.4787  10.4787
    10.9749  10.9749  11.0211  11.0211  11.1846  11.1846  11.2877  11.2877
    11.4170  11.4170  11.5108  11.5108  11.5950  11.5950  11.7035  11.7035
    11.7102  11.7102  11.8228  11.8228  11.8489  11.8489  11.8770  11.8770
    11.8857  11.8857  11.9927  11.9927  12.1191  12.1191  12.1679  12.1679
    12.2149  12.2149  12.2639  12.2639  12.3065  12.3065  12.3740  12.3740
    12.3890  12.3890  12.4280  12.4280  12.4391  12.4391  12.5600  12.5600
    12.5683  12.5683  12.6109  12.6109  12.6288  12.6288  12.6827  12.6827
    12.7338  12.7338  12.7447  12.7447  12.8256  12.8256  12.8851  12.8851
    12.9640  12.9640  13.0283  13.0283  13.0618  13.0618  13.0986  13.0986
    13.1999  13.1999  13.2464  13.2464  13.3149  13.3149  13.3431  13.3431
    13.3638  13.3638  13.5017  13.5017  13.5434  13.5434  13.5763  13.5763
    13.5994  13.5994  13.6709  13.6709  13.7510  13.7510  13.7719  13.7719
    13.8433  13.8433  13.8955  13.8955  13.9586  13.9586  13.9657  13.9657
    14.0429  14.0429  14.1236  14.1236  14.1518  14.1518  14.1827  14.1827
    14.2500  14.2500  14.2773  14.2773  14.3032  14.3032  14.3676  14.3676
    14.3938  14.3938  14.4606  14.4606  14.5368  14.5368  14.5765  14.5765
    14.6392  14.6392  14.7012  14.7012  14.7053  14.7053  14.7193  14.7193
    14.7852  14.7852  14.7967  14.7967  14.8111  14.8111  14.8495  14.8495
    14.9164  14.9164  14.9576  14.9576  14.9731  14.9731  15.1207  15.1207
    15.1440  15.1440  15.2151  15.2151  15.3247  15.3247  15.4962  15.4962
    15.8014  15.8014  15.8066  15.8066  16.2699  16.2699  16.3090  16.3090
    16.5098  16.5098  16.6093  16.6093  16.6833  16.6833  16.9569  16.9569
    16.9832  16.9832  17.0423  17.0423  17.0451  17.0451  17.2267  17.2267
    17.9651  17.9651  18.4712  18.4712  18.7937  18.7937  18.8380  18.8380
    20.4245  20.4245  20.6342  20.6342  20.6744  20.6744  21.0014  21.0014
    21.7625  21.7625  21.9256  21.9256  22.1130  22.1130  22.1551  22.1551
    22.2807  22.2807  22.2964  22.2964  22.9238  22.9238  23.2472  23.2472
    23.4715  23.4715  23.5804  23.5804  23.8531  23.8531  24.3051  24.3051
    24.3870  24.3870  25.1216  25.1216  25.4565  25.4565  25.5706  25.5706
    25.7642  25.7642

          k = 0.3450 0.5976 0.0000 ( 12162 PWs)   bands (ev):

   -87.3945 -87.3945 -87.3945 -87.3945 -87.3901 -87.3901 -87.3901 -87.3901
   -87.3192 -87.3192 -87.3192 -87.3192 -87.3091 -87.3091 -87.3091 -87.3091
   -87.3063 -87.3063 -87.3062 -87.3062 -87.3026 -87.3026 -87.3025 -87.3025
   -87.2880 -87.2880 -87.2880 -87.2880 -87.2827 -87.2827 -87.2827 -87.2827
   -59.0871 -59.0871 -59.0871 -59.0871 -59.0843 -59.0843 -59.0843 -59.0843
   -59.0296 -59.0296 -59.0296 -59.0296 -59.0262 -59.0262 -59.0262 -59.0262
   -49.4343 -49.4343 -49.4334 -49.4334 -49.4204 -49.4204 -49.4196 -49.4196
   -49.3673 -49.3673 -49.3657 -49.3657 -49.3622 -49.3622 -49.3610 -49.3610
   -49.3081 -49.3081 -49.3076 -49.3076 -49.3035 -49.3035 -49.2990 -49.2990
   -49.2979 -49.2979 -49.2929 -49.2929 -49.2869 -49.2869 -49.2855 -49.2855
   -47.3319 -47.3319 -47.3285 -47.3285 -47.3171 -47.3171 -47.3115 -47.3115
   -47.2313 -47.2313 -47.2260 -47.2260 -47.2202 -47.2202 -47.2148 -47.2148
   -47.2109 -47.2109 -47.2076 -47.2076 -47.2067 -47.2067 -47.1685 -47.1685
   -47.1583 -47.1583 -47.1545 -47.1545 -47.1456 -47.1456 -47.1328 -47.1328
   -47.1217 -47.1217 -47.1010 -47.1010 -47.0945 -47.0945 -47.0926 -47.0926
   -47.0768 -47.0768 -47.0739 -47.0739 -47.0717 -47.0717 -47.0693 -47.0693
   -47.0603 -47.0603 -47.0528 -47.0528 -47.0436 -47.0436 -47.0410 -47.0410
   -47.0388 -47.0388 -47.0314 -47.0314 -47.0110 -47.0110 -47.0110 -47.0110
   -26.2259 -26.2259 -26.2249 -26.2249 -26.2175 -26.2175 -26.2164 -26.2164
   -26.1692 -26.1692 -26.1691 -26.1691 -26.1594 -26.1594 -26.1594 -26.1594
   -25.9490 -25.9490 -25.9431 -25.9431 -25.9403 -25.9403 -25.9403 -25.9403
   -25.9325 -25.9325 -25.9323 -25.9323 -25.9289 -25.9289 -25.9215 -25.9215
   -25.8848 -25.8848 -25.8847 -25.8847 -25.8763 -25.8763 -25.8760 -25.8760
   -25.8699 -25.8699 -25.8687 -25.8687 -25.8612 -25.8612 -25.8612 -25.8612
     9.1261   9.1261   9.1271   9.1271   9.5736   9.5736   9.6983   9.6983
     9.7058   9.7058   9.8879   9.8879  10.0409  10.0409  10.0466  10.0466
    10.2174  10.2174  11.0385  11.0385  11.0388  11.0388  11.1199  11.1199
    11.1333  11.1333  11.1476  11.1476  11.1557  11.1557  11.7687  11.7687
    11.7739  11.7739  11.7775  11.7775  11.9862  11.9862  11.9940  11.9940
    12.1231  12.1231  12.1448  12.1448  12.3278  12.3278  12.3430  12.3430
    12.3720  12.3720  12.3991  12.3991  12.4489  12.4489  12.4524  12.4524
    12.4591  12.4591  12.4801  12.4801  12.5646  12.5646  12.6251  12.6251
    12.6462  12.6462  12.6611  12.6611  12.6825  12.6825  12.6842  12.6842
    12.7398  12.7398  12.7411  12.7411  12.7438  12.7438  12.8105  12.8105
    12.8138  12.8138  12.8191  12.8191  12.8507  12.8507  12.8876  12.8876
    12.9473  12.9473  12.9709  12.9709  12.9794  12.9794  13.0202  13.0202
    13.0469  13.0469  13.2381  13.2381  13.2441  13.2441  13.2556  13.2556
    13.4155  13.4155  13.5824  13.5824  13.5899  13.5899  13.6184  13.6184
    13.6258  13.6258  13.6654  13.6654  13.8526  13.8526  13.8604  13.8604
    13.9713  13.9713  14.0278  14.0278  14.0420  14.0420  14.0522  14.0522
    14.1328  14.1328  14.1500  14.1500  14.1861  14.1861  14.2620  14.2620
    14.3280  14.3280  14.3560  14.3560  14.3688  14.3688  14.3997  14.3997
    14.4441  14.4441  14.4603  14.4603  14.4886  14.4886  14.5156  14.5156
    14.5549  14.5549  14.5552  14.5552  14.6122  14.6122  14.7019  14.7019
    14.8833  14.8833  14.9253  14.9253  15.0246  15.0246  15.0265  15.0265
    15.0481  15.0481  15.1751  15.1751  15.1805  15.1805  15.2951  15.2951
    15.3672  15.3672  15.4450  15.4450  15.4453  15.4453  15.6562  15.6562
    15.8761  15.8761  15.8864  15.8864  15.9535  15.9535  17.4638  17.4638
    17.4825  17.4825  17.5165  17.5165  17.8041  17.8041  17.8119  17.8119
    18.4486  18.4486  20.3221  20.3221  20.3253  20.3253  20.5117  20.5117
    20.7712  20.7712  20.7715  20.7715  21.5499  21.5499  21.5513  21.5513
    21.5819  21.5819  21.6824  21.6824  21.6910  21.6910  21.8867  21.8867
    22.2046  22.2046  22.6780  22.6780  22.6827  22.6827  22.6974  22.6974
    23.6338  23.6338  23.6373  23.6373  24.1380  24.1380  24.1553  24.1553
    24.2403  24.2403  25.1473  25.1473  26.2486  26.2486  26.2594  26.2594
    26.2676  26.2676

     the Fermi energy is    15.5495 ev

!    total energy              =   -7950.42853337 Ry
     total all-electron energy =    -51824.280617 Ry
     estimated scf accuracy    <          7.5E-11 Ry
     smearing contrib. (-TS)   =       0.07121436 Ry
     internal energy E=F+TS    =   -7950.49974773 Ry

     The total energy is F=E-TS. E is the sum of the following terms:
     one-electron contribution =   -4194.26434092 Ry
     hartree contribution      =    2284.79481585 Ry
     xc contribution           =    -683.90583067 Ry
     ewald contribution        =   -3818.59091758 Ry
     one-center paw contrib.   =   -1538.53347441 Ry

     convergence has been achieved in  30 iterations

     Forces acting on atoms (cartesian axes, Ry/au):

     atom    1 type  1   force =    -0.00000000   -0.00000000    0.00020117
     atom    2 type  1   force =     0.00000000    0.00000000    0.00020117
     atom    3 type  1   force =    -0.00000000   -0.00000000   -0.00020117
     atom    4 type  1   force =    -0.00000000   -0.00000000   -0.00020117
     atom    5 type  1   force =     0.00000000    0.00000000    0.00003036
     atom    6 type  1   force =     0.00000000    0.00000000    0.00003036
     atom    7 type  1   force =     0.00000000    0.00000000   -0.00003036
     atom    8 type  1   force =    -0.00000000   -0.00000000   -0.00003036
     atom    9 type  2   force =     0.00000000    0.00000000    0.00011064
     atom   10 type  2   force =     0.00000000    0.00000000    0.00011064
     atom   11 type  2   force =    -0.00000000   -0.00000000   -0.00011064
     atom   12 type  2   force =    -0.00000000   -0.00000000   -0.00011064
     atom   13 type  2   force =     0.00000000    0.00012135   -0.00000000
     atom   14 type  2   force =    -0.00010509    0.00006067    0.00000000
     atom   15 type  2   force =    -0.00000000   -0.00012135   -0.00000000
     atom   16 type  2   force =     0.00010509   -0.00006067   -0.00000000
     atom   17 type  2   force =    -0.00010509   -0.00006067    0.00000000
     atom   18 type  2   force =     0.00010509    0.00006067   -0.00000000
     atom   19 type  2   force =    -0.00000000   -0.00000000   -0.00000000
     atom   20 type  2   force =    -0.00000000    0.00000000   -0.00000000
     atom   21 type  2   force =    -0.00000000   -0.00000000    0.00000000
     atom   22 type  2   force =     0.00000000    0.00000000    0.00000000
     atom   23 type  2   force =    -0.00000000   -0.00000000   -0.00000000
     atom   24 type  2   force =     0.00000000    0.00000000    0.00000000
     The non-local contrib.  to forces
     atom    1 type  1   force =    -0.00000000   -0.00000000    0.02340331
     atom    2 type  1   force =     0.00000000    0.00000000    0.02340331
     atom    3 type  1   force =    -0.00000000   -0.00000000   -0.02340331
     atom    4 type  1   force =    -0.00000000   -0.00000000   -0.02340331
     atom    5 type  1   force =    -0.00000000   -0.00000000   -0.00399025
     atom    6 type  1   force =     0.00000000    0.00000000   -0.00399025
     atom    7 type  1   force =    -0.00000000   -0.00000000    0.00399025
     atom    8 type  1   force =     0.00000000    0.00000000    0.00399025
     atom    9 type  2   force =     0.00000000    0.00000000    0.02489739
     atom   10 type  2   force =     0.00000000    0.00000000    0.02489739
     atom   11 type  2   force =    -0.00000000   -0.00000000   -0.02489739
     atom   12 type  2   force =     0.00000000    0.00000000   -0.02489739
     atom   13 type  2   force =    -0.00000000   -0.07680085   -0.00000000
     atom   14 type  2   force =     0.06651149   -0.03840041    0.00000000
     atom   15 type  2   force =     0.00000000    0.07680085    0.00000000
     atom   16 type  2   force =    -0.06651149    0.03840041    0.00000000
     atom   17 type  2   force =     0.06651149    0.03840043   -0.00000000
     atom   18 type  2   force =    -0.06651149   -0.03840043   -0.00000000
     atom   19 type  2   force =     0.00000000   -0.00000000   -0.00000000
     atom   20 type  2   force =     0.00000000    0.00000000    0.00000000
     atom   21 type  2   force =    -0.00000000   -0.00000000    0.00000000
     atom   22 type  2   force =     0.00000000    0.00000000    0.00000000
     atom   23 type  2   force =    -0.00000000   -0.00000000   -0.00000000
     atom   24 type  2   force =    -0.00000000   -0.00000000   -0.00000000
     The ionic contribution  to forces
     atom    1 type  1   force =    -0.00001471    0.00001128   -0.68514317
     atom    2 type  1   force =     0.00001471   -0.00001128   -0.68514317
     atom    3 type  1   force =     0.00001471   -0.00001128    0.68514317
     atom    4 type  1   force =    -0.00001471    0.00001128    0.68514317
     atom    5 type  1   force =     0.00006336   -0.00003352    0.10335766
     atom    6 type  1   force =    -0.00006336    0.00003352    0.10335766
     atom    7 type  1   force =    -0.00006336    0.00003352   -0.10335766
     atom    8 type  1   force =     0.00006336   -0.00003352   -0.10335766
     atom    9 type  2   force =     0.00006621   -0.00003808    0.13589477
     atom   10 type  2   force =    -0.00006621    0.00003808    0.13589477
     atom   11 type  2   force =    -0.00006621    0.00003808   -0.13589477
     atom   12 type  2   force =     0.00006621   -0.00003808   -0.13589477
     atom   13 type  2   force =     0.00008169  -13.64276543   -0.00000000
     atom   14 type  2   force =    11.81507578   -6.82143934   -0.00000000
     atom   15 type  2   force =    -0.00008169   13.64276543   -0.00000000
     atom   16 type  2   force =   -11.81507578    6.82143934   -0.00000000
     atom   17 type  2   force =    11.81502026    6.82131584   -0.00000000
     atom   18 type  2   force =   -11.81502026   -6.82131584   -0.00000000
     atom   19 type  2   force =     0.00000000    0.00000000   -0.00000000
     atom   20 type  2   force =     0.00000000   -0.00000000   -0.00000000
     atom   21 type  2   force =     0.00000000    0.00000000   -0.00000000
     atom   22 type  2   force =     0.00000000   -0.00000000   -0.00000000
     atom   23 type  2   force =    -0.00000000    0.00000000   -0.00000000
     atom   24 type  2   force =    -0.00000000    0.00000000   -0.00000000
     The local contribution  to forces
     atom    1 type  1   force =    -0.00000225   -0.00000125    0.66203774
     atom    2 type  1   force =     0.00000225    0.00000125    0.66203774
     atom    3 type  1   force =     0.00000225    0.00000125   -0.66203774
     atom    4 type  1   force =    -0.00000225   -0.00000125   -0.66203774
     atom    5 type  1   force =     0.00138198   -0.00080065   -0.09934709
     atom    6 type  1   force =    -0.00138198    0.00080065   -0.09934709
     atom    7 type  1   force =    -0.00138198    0.00080065    0.09934709
     atom    8 type  1   force =     0.00138198   -0.00080065    0.09934709
     atom    9 type  2   force =     0.00184067   -0.00106280   -0.15750052
     atom   10 type  2   force =    -0.00184067    0.00106280   -0.15750052
     atom   11 type  2   force =    -0.00184067    0.00106280    0.15750052
     atom   12 type  2   force =     0.00184067   -0.00106280    0.15750052
     atom   13 type  2   force =    -0.00184087   13.71981803    0.00000000
     atom   14 type  2   force =   -11.87920835    6.85846357   -0.00000000
     atom   15 type  2   force =     0.00184087  -13.71981803   -0.00000000
     atom   16 type  2   force =    11.87920835   -6.85846357    0.00000000
     atom   17 type  2   force =   -11.88263337   -6.85831824    0.00000000
     atom   18 type  2   force =    11.88263337    6.85831824   -0.00000000
     atom   19 type  2   force =    -0.00000000   -0.00000000    0.00000000
     atom   20 type  2   force =    -0.00000000   -0.00000000    0.00000000
     atom   21 type  2   force =    -0.00000000   -0.00000000   -0.00000000
     atom   22 type  2   force =    -0.00000000   -0.00000000    0.00000000
     atom   23 type  2   force =     0.00000000   -0.00000000   -0.00000000
     atom   24 type  2   force =     0.00000000   -0.00000000    0.00000000
     The core correction contribution to forces
     atom    1 type  1   force =    -0.00000000    0.00000000   -0.00009622
     atom    2 type  1   force =     0.00000000   -0.00000000   -0.00009622
     atom    3 type  1   force =     0.00000000   -0.00000000    0.00009622
     atom    4 type  1   force =    -0.00000000    0.00000000    0.00009622
     atom    5 type  1   force =     0.00000303   -0.00000175    0.00001003
     atom    6 type  1   force =    -0.00000303    0.00000175    0.00001003
     atom    7 type  1   force =    -0.00000303    0.00000175   -0.00001003
     atom    8 type  1   force =     0.00000303   -0.00000175   -0.00001003
     atom    9 type  2   force =     0.00000117   -0.00000067   -0.00318428
     atom   10 type  2   force =    -0.00000117    0.00000067   -0.00318428
     atom   11 type  2   force =    -0.00000117    0.00000067    0.00318428
     atom   12 type  2   force =     0.00000117   -0.00000067    0.00318428
     atom   13 type  2   force =    -0.00000116    0.00087963    0.00000000
     atom   14 type  2   force =    -0.00075999    0.00043878    0.00000000
     atom   15 type  2   force =     0.00000116   -0.00087963    0.00000000
     atom   16 type  2   force =     0.00075999   -0.00043878    0.00000000
     atom   17 type  2   force =    -0.00076237   -0.00043881    0.00000000
     atom   18 type  2   force =     0.00076237    0.00043881    0.00000000
     atom   19 type  2   force =    -0.00000000   -0.00000000    0.00000000
     atom   20 type  2   force =    -0.00000000   -0.00000000    0.00000000
     atom   21 type  2   force =    -0.00000000   -0.00000000    0.00000000
     atom   22 type  2   force =    -0.00000000   -0.00000000    0.00000000
     atom   23 type  2   force =     0.00000000   -0.00000000    0.00000000
     atom   24 type  2   force =     0.00000000   -0.00000000    0.00000000
     The Hubbard contrib.    to forces
     atom    1 type  1   force =     0.00000000    0.00000000    0.00000000
     atom    2 type  1   force =     0.00000000    0.00000000    0.00000000
     atom    3 type  1   force =     0.00000000    0.00000000    0.00000000
     atom    4 type  1   force =     0.00000000    0.00000000    0.00000000
     atom    5 type  1   force =     0.00000000    0.00000000    0.00000000
     atom    6 type  1   force =     0.00000000    0.00000000    0.00000000
     atom    7 type  1   force =     0.00000000    0.00000000    0.00000000
     atom    8 type  1   force =     0.00000000    0.00000000    0.00000000
     atom    9 type  2   force =     0.00000000    0.00000000    0.00000000
     atom   10 type  2   force =     0.00000000    0.00000000    0.00000000
     atom   11 type  2   force =     0.00000000    0.00000000    0.00000000
     atom   12 type  2   force =     0.00000000    0.00000000    0.00000000
     atom   13 type  2   force =     0.00000000    0.00000000    0.00000000
     atom   14 type  2   force =     0.00000000    0.00000000    0.00000000
     atom   15 type  2   force =     0.00000000    0.00000000    0.00000000
     atom   16 type  2   force =     0.00000000    0.00000000    0.00000000
     atom   17 type  2   force =     0.00000000    0.00000000    0.00000000
     atom   18 type  2   force =     0.00000000    0.00000000    0.00000000
     atom   19 type  2   force =     0.00000000    0.00000000    0.00000000
     atom   20 type  2   force =     0.00000000    0.00000000    0.00000000
     atom   21 type  2   force =     0.00000000    0.00000000    0.00000000
     atom   22 type  2   force =     0.00000000    0.00000000    0.00000000
     atom   23 type  2   force =     0.00000000    0.00000000    0.00000000
     atom   24 type  2   force =     0.00000000    0.00000000    0.00000000
     The SCF correction term to forces
     atom    1 type  1   force =    -0.00000000    0.00000000   -0.00000049
     atom    2 type  1   force =     0.00000000   -0.00000000   -0.00000049
     atom    3 type  1   force =     0.00000000   -0.00000000    0.00000049
     atom    4 type  1   force =    -0.00000000    0.00000000    0.00000049
     atom    5 type  1   force =    -0.00000000    0.00000000    0.00000001
     atom    6 type  1   force =     0.00000000   -0.00000000    0.00000001
     atom    7 type  1   force =     0.00000000   -0.00000000   -0.00000001
     atom    8 type  1   force =    -0.00000000    0.00000000   -0.00000001
     atom    9 type  2   force =     0.00000000   -0.00000000    0.00000329
     atom   10 type  2   force =    -0.00000000    0.00000000    0.00000329
     atom   11 type  2   force =    -0.00000000    0.00000000   -0.00000329
     atom   12 type  2   force =     0.00000000   -0.00000000   -0.00000329
     atom   13 type  2   force =     0.00000000   -0.00001042   -0.00000000
     atom   14 type  2   force =     0.00000903   -0.00000521   -0.00000000
     atom   15 type  2   force =    -0.00000000    0.00001042    0.00000000
     atom   16 type  2   force =    -0.00000903    0.00000521    0.00000000
     atom   17 type  2   force =     0.00000903    0.00000521    0.00000000
     atom   18 type  2   force =    -0.00000903   -0.00000521   -0.00000000
     atom   19 type  2   force =    -0.00000000   -0.00000000   -0.00000000
     atom   20 type  2   force =    -0.00000000   -0.00000000    0.00000000
     atom   21 type  2   force =     0.00000000   -0.00000000    0.00000000
     atom   22 type  2   force =     0.00000000   -0.00000000   -0.00000000
     atom   23 type  2   force =     0.00000000    0.00000000    0.00000000
     atom   24 type  2   force =    -0.00000000   -0.00000000   -0.00000000

     Total force =     0.000550     Total SCF correction =     0.000026


     Computing stress (Cartesian axis) and pressure

          total   stress  (Ry/bohr**3)                   (kbar)     P=       -0.50
  -0.00000356  -0.00000000  -0.00000000           -0.52       -0.00       -0.00
  -0.00000000  -0.00000356  -0.00000000           -0.00       -0.52       -0.00
  -0.00000000   0.00000000  -0.00000303           -0.00        0.00       -0.45

     Energy error            =      1.2E-06 Ry
     Gradient error          =      2.0E-04 Ry/Bohr
     Cell gradient error     =      5.2E-01 kbar

     number of scf cycles    =  10
     number of bfgs steps    =   9

     enthalpy           old  =   -7950.4285321621 Ry
     enthalpy           new  =   -7950.4285333658 Ry

     CASE: enthalpy          _new < enthalpy          _old

     Message from routine bfgs :: compute_trust_radius:
     history already reset at previous step: stopping
     small trust_radius: resetting bfgs history

     new trust radius        =       0.0007627238 bohr
     new conv_thr            =       0.0000000002 Ry

     new unit-cell volume =   1835.34516 a.u.^3 (   271.97009 Ang^3 )
     density =      6.92090 g/cm^3

CELL_PARAMETERS (angstrom)
   4.574131040  -0.000000019  -0.000000000
  -2.287066019   3.961313977  -0.000000000
  -0.000000000  -0.000000000  15.009743935

ATOMIC_POSITIONS (crystal)
Mg           -0.0000000000       -0.0000000000        0.4071452958
Mg            0.0000000000        0.0000000000        0.9071452958
Mg            0.0000000000        0.0000000000        0.5928547042
Mg            0.0000000000        0.0000000000        0.0928547042
Mg            0.3333330000        0.6666670000        0.6559838078
Mg            0.6666670000        0.3333330000        0.1559838078
Mg            0.6666670000        0.3333330000        0.3440161922
Mg            0.3333330000        0.6666670000        0.8440161922
Ni            0.3333330000        0.6666670000        0.3748436367
Ni            0.6666670000        0.3333330000        0.8748436367
Ni            0.6666670000        0.3333330000        0.6251563633
Ni            0.3333330000        0.6666670000        0.1251563633
Ni            0.1642356076        0.3284702163        0.2500000000
Ni            0.8357643924        0.1642356087        0.7500000000
Ni            0.8357643924        0.6715297837        0.7500000000
Ni            0.1642356076        0.8357643913        0.2500000000
Ni            0.6715297847        0.8357643924        0.2500000000
Ni            0.3284702153        0.1642356076        0.7500000000
Ni            0.5000000000        0.0000000000        0.5000000000
Ni            0.5000000000        0.5000000000       -0.0000000000
Ni            0.5000000000        0.0000000000       -0.0000000000
Ni            0.5000000000        0.5000000000        0.5000000000
Ni           -0.0000000000        0.5000000000       -0.0000000000
Ni           -0.0000000000        0.5000000000        0.5000000000



     Writing config-only to output data dir ./C36_out/laves_C36.save/
     NEW-OLD atomic charge density approx. for the potential

     Check: negative core charge=   -0.000016
     extrapolated charge  367.90664, renormalised to  368.00000

     total cpu time spent up to now is     8298.2 secs

     Self-consistent Calculation

     iteration #  1     ecut=    50.00 Ry     beta= 0.10
     Davidson diagonalization with overlap
     ethr =  1.00E-06,  avg # of iterations =  2.0

     total cpu time spent up to now is     8325.7 secs

     total energy              =   -7950.42755439 Ry
     estimated scf accuracy    <       0.00421891 Ry

     iteration #  2     ecut=    50.00 Ry     beta= 0.10
     Davidson diagonalization with overlap
     ethr =  1.15E-06,  avg # of iterations =  2.0

     total cpu time spent up to now is     8348.8 secs

     total energy              =   -7950.42855882 Ry
     estimated scf accuracy    <       0.00024727 Ry

     iteration #  3     ecut=    50.00 Ry     beta= 0.10
     Davidson diagonalization with overlap
     ethr =  6.72E-08,  avg # of iterations =  2.0

     total cpu time spent up to now is     8369.8 secs

     total energy              =   -7950.42855259 Ry
     estimated scf accuracy    <       0.00022346 Ry

     iteration #  4     ecut=    50.00 Ry     beta= 0.10
     Davidson diagonalization with overlap
     ethr =  6.07E-08,  avg # of iterations =  1.0

     total cpu time spent up to now is     8388.3 secs

     total energy              =   -7950.42854315 Ry
     estimated scf accuracy    <       0.00014739 Ry

     iteration #  5     ecut=    50.00 Ry     beta= 0.10
     Davidson diagonalization with overlap
     ethr =  4.01E-08,  avg # of iterations =  1.0

     total cpu time spent up to now is     8407.3 secs

     total energy              =   -7950.42853453 Ry
     estimated scf accuracy    <       0.00007691 Ry

     iteration #  6     ecut=    50.00 Ry     beta= 0.10
     Davidson diagonalization with overlap
     ethr =  2.09E-08,  avg # of iterations =  1.0

     total cpu time spent up to now is     8426.3 secs

     total energy              =   -7950.42853251 Ry
     estimated scf accuracy    <       0.00002052 Ry

     iteration #  7     ecut=    50.00 Ry     beta= 0.10
     Davidson diagonalization with overlap
     ethr =  5.58E-09,  avg # of iterations =  2.0

     total cpu time spent up to now is     8447.7 secs

     total energy              =   -7950.42853403 Ry
     estimated scf accuracy    <       0.00000128 Ry

     iteration #  8     ecut=    50.00 Ry     beta= 0.10
     Davidson diagonalization with overlap
     ethr =  3.49E-10,  avg # of iterations =  2.0

     total cpu time spent up to now is     8470.2 secs

     total energy              =   -7950.42853431 Ry
     estimated scf accuracy    <       0.00000245 Ry

     iteration #  9     ecut=    50.00 Ry     beta= 0.10
     Davidson diagonalization with overlap
     ethr =  3.49E-10,  avg # of iterations =  1.0

     total cpu time spent up to now is     8489.2 secs

     total energy              =   -7950.42853434 Ry
     estimated scf accuracy    <       0.00000406 Ry

     iteration # 10     ecut=    50.00 Ry     beta= 0.10
     Davidson diagonalization with overlap
     ethr =  3.49E-10,  avg # of iterations =  1.0

     total cpu time spent up to now is     8508.4 secs

     total energy              =   -7950.42853443 Ry
     estimated scf accuracy    <       0.00000407 Ry

     iteration # 11     ecut=    50.00 Ry     beta= 0.10
     Davidson diagonalization with overlap
     ethr =  3.49E-10,  avg # of iterations =  1.0

     total cpu time spent up to now is     8528.0 secs

     total energy              =   -7950.42853393 Ry
     estimated scf accuracy    <       0.00000468 Ry

     iteration # 12     ecut=    50.00 Ry     beta= 0.10
     Davidson diagonalization with overlap
     ethr =  3.49E-10,  avg # of iterations =  1.0

     total cpu time spent up to now is     8547.4 secs

     total energy              =   -7950.42853349 Ry
     estimated scf accuracy    <       0.00000205 Ry

     iteration # 13     ecut=    50.00 Ry     beta= 0.10
     Davidson diagonalization with overlap
     ethr =  3.49E-10,  avg # of iterations =  2.0

     total cpu time spent up to now is     8570.8 secs

     total energy              =   -7950.42853370 Ry
     estimated scf accuracy    <       0.00000007 Ry

     iteration # 14     ecut=    50.00 Ry     beta= 0.10
     Davidson diagonalization with overlap
     ethr =  1.86E-11,  avg # of iterations =  2.0

     total cpu time spent up to now is     8593.8 secs

     total energy              =   -7950.42853372 Ry
     estimated scf accuracy    <       0.00000026 Ry

     iteration # 15     ecut=    50.00 Ry     beta= 0.10
     Davidson diagonalization with overlap
     ethr =  1.86E-11,  avg # of iterations =  2.0

     total cpu time spent up to now is     8616.2 secs

     total energy              =   -7950.42853373 Ry
     estimated scf accuracy    <       0.00000046 Ry

     iteration # 16     ecut=    50.00 Ry     beta= 0.10
     Davidson diagonalization with overlap
     ethr =  1.86E-11,  avg # of iterations =  1.0

     total cpu time spent up to now is     8635.6 secs

     total energy              =   -7950.42853373 Ry
     estimated scf accuracy    <       0.00000050 Ry

     iteration # 17     ecut=    50.00 Ry     beta= 0.10
     Davidson diagonalization with overlap
     ethr =  1.86E-11,  avg # of iterations =  1.0

     total cpu time spent up to now is     8654.9 secs

     total energy              =   -7950.42853366 Ry
     estimated scf accuracy    <       0.00000049 Ry

     iteration # 18     ecut=    50.00 Ry     beta= 0.10
     Davidson diagonalization with overlap
     ethr =  1.86E-11,  avg # of iterations =  2.0

     total cpu time spent up to now is     8678.5 secs

     total energy              =   -7950.42853362 Ry
     estimated scf accuracy    <       0.00000013 Ry

     iteration # 19     ecut=    50.00 Ry     beta= 0.10
     Davidson diagonalization with overlap
     ethr =  1.86E-11,  avg # of iterations =  2.3

     total cpu time spent up to now is     8702.9 secs

     total energy              =   -7950.42853365 Ry
     estimated scf accuracy    <       0.00000002 Ry

     iteration # 20     ecut=    50.00 Ry     beta= 0.10
     Davidson diagonalization with overlap
     ethr =  4.39E-12,  avg # of iterations =  1.0

     total cpu time spent up to now is     8722.5 secs

     total energy              =   -7950.42853365 Ry
     estimated scf accuracy    <          7.6E-09 Ry

     iteration # 21     ecut=    50.00 Ry     beta= 0.10
     Davidson diagonalization with overlap
     ethr =  2.06E-12,  avg # of iterations =  1.0

     total cpu time spent up to now is     8741.7 secs

     total energy              =   -7950.42853365 Ry
     estimated scf accuracy    <          2.0E-09 Ry

     iteration # 22     ecut=    50.00 Ry     beta= 0.10
     Davidson diagonalization with overlap
     ethr =  5.43E-13,  avg # of iterations =  2.0

     total cpu time spent up to now is     8763.8 secs

     total energy              =   -7950.42853365 Ry
     estimated scf accuracy    <          5.0E-09 Ry

     iteration # 23     ecut=    50.00 Ry     beta= 0.10
     Davidson diagonalization with overlap
     ethr =  5.43E-13,  avg # of iterations =  2.0

     total cpu time spent up to now is     8788.2 secs

     total energy              =   -7950.42853365 Ry
     estimated scf accuracy    <          3.5E-10 Ry

     iteration # 24     ecut=    50.00 Ry     beta= 0.10
     Davidson diagonalization with overlap
     ethr =  1.00E-13,  avg # of iterations =  1.3

     total cpu time spent up to now is     8808.0 secs

     End of self-consistent calculation

          k = 0.0000 0.0000 0.0000 ( 12121 PWs)   bands (ev):

   -87.3957 -87.3957 -87.3901 -87.3901 -87.3901 -87.3901 -87.3833 -87.3833
   -87.3339 -87.3339 -87.3293 -87.3293 -87.3233 -87.3233 -87.3201 -87.3201
   -87.2835 -87.2835 -87.2835 -87.2835 -87.2834 -87.2834 -87.2834 -87.2834
   -87.2784 -87.2784 -87.2783 -87.2783 -87.2783 -87.2783 -87.2782 -87.2782
   -59.0823 -59.0823 -59.0822 -59.0822 -59.0794 -59.0794 -59.0794 -59.0794
   -59.0240 -59.0240 -59.0240 -59.0240 -59.0206 -59.0206 -59.0206 -59.0206
   -49.4305 -49.4305 -49.4240 -49.4240 -49.4126 -49.4126 -49.4060 -49.4060
   -49.3749 -49.3749 -49.3734 -49.3734 -49.3709 -49.3709 -49.3685 -49.3685
   -49.3576 -49.3576 -49.3563 -49.3563 -49.3520 -49.3520 -49.3499 -49.3499
   -49.2461 -49.2461 -49.2359 -49.2359 -49.2293 -49.2293 -49.2213 -49.2213
   -47.3382 -47.3382 -47.3377 -47.3377 -47.3128 -47.3128 -47.2950 -47.2950
   -47.2868 -47.2868 -47.2783 -47.2783 -47.2552 -47.2552 -47.2397 -47.2397
   -47.2141 -47.2141 -47.2053 -47.2053 -47.2042 -47.2042 -47.1936 -47.1936
   -47.1866 -47.1866 -47.1819 -47.1819 -47.1793 -47.1793 -47.1426 -47.1426
   -47.1224 -47.1224 -47.0824 -47.0824 -47.0789 -47.0789 -47.0732 -47.0732
   -47.0537 -47.0537 -47.0522 -47.0522 -47.0519 -47.0519 -47.0252 -47.0252
   -47.0107 -47.0107 -47.0098 -47.0098 -46.9990 -46.9990 -46.9970 -46.9970
   -46.9903 -46.9903 -46.9892 -46.9892 -46.9760 -46.9760 -46.9739 -46.9739
   -26.2226 -26.2226 -26.2223 -26.2223 -26.2145 -26.2145 -26.2141 -26.2141
   -26.1601 -26.1601 -26.1592 -26.1592 -26.1501 -26.1501 -26.1493 -26.1493
   -25.9397 -25.9397 -25.9390 -25.9390 -25.9376 -25.9376 -25.9373 -25.9373
   -25.9345 -25.9345 -25.9342 -25.9342 -25.9184 -25.9184 -25.9174 -25.9174
   -25.8820 -25.8820 -25.8814 -25.8814 -25.8662 -25.8662 -25.8658 -25.8658
   -25.8626 -25.8626 -25.8623 -25.8623 -25.8579 -25.8579 -25.8576 -25.8576
     6.2735   6.2735   6.9584   6.9584   6.9629   6.9629   8.5240   8.5240
     9.2798   9.2798  10.3722  10.3722  10.3892  10.3892  10.5225  10.5225
    11.0974  11.0974  11.2132  11.2132  11.2992  11.2992  11.4365  11.4365
    11.5036  11.5036  11.5495  11.5495  11.5649  11.5649  11.5784  11.5784
    11.5945  11.5945  11.5974  11.5974  11.7639  11.7639  11.7824  11.7824
    11.8163  11.8163  11.8901  11.8901  11.9115  11.9115  11.9116  11.9116
    11.9374  11.9374  11.9829  11.9829  12.0472  12.0472  12.0915  12.0915
    12.0917  12.0917  12.1493  12.1493  12.5022  12.5022  12.5023  12.5023
    12.5383  12.5383  12.5421  12.5421  12.5470  12.5470  12.6040  12.6040
    12.8034  12.8034  12.8567  12.8567  13.0343  13.0343  13.0694  13.0694
    13.0837  13.0837  13.1249  13.1249  13.1593  13.1593  13.1855  13.1855
    13.3860  13.3860  13.4065  13.4065  13.7104  13.7104  13.9224  13.9224
    13.9544  13.9544  13.9806  13.9806  13.9998  13.9998  14.0306  14.0306
    14.1459  14.1459  14.1998  14.1998  14.3470  14.3470  14.3586  14.3586
    14.5134  14.5134  14.5280  14.5280  14.6430  14.6430  14.6439  14.6439
    14.6579  14.6579  14.6656  14.6656  14.6778  14.6778  14.6860  14.6860
    14.6892  14.6892  14.6978  14.6978  14.7136  14.7136  14.7232  14.7232
    14.7323  14.7323  14.7628  14.7628  14.7637  14.7637  14.7945  14.7945
    14.8090  14.8090  14.8451  14.8451  14.8536  14.8536  14.8718  14.8718
    14.9066  14.9066  15.0112  15.0112  15.0844  15.0844  15.3920  15.3920
    15.4457  15.4457  15.7071  15.7071  15.7091  15.7091  16.0187  16.0187
    16.0199  16.0199  16.0304  16.0304  16.0309  16.0309  16.1261  16.1261
    16.4258  16.4258  16.5741  16.5741  16.5951  16.5951  16.6138  16.6138
    16.6177  16.6177  16.6791  16.6791  16.7441  16.7441  16.9293  16.9293
    17.0497  17.0497  17.0819  17.0819  17.0932  17.0932  17.1536  17.1536
    18.4915  18.4915  18.5055  18.5055  18.6415  18.6415  18.7017  18.7017
    19.3045  19.3045  19.3606  19.3606  19.5651  19.5651  19.5929  19.5929
    20.4557  20.4557  20.4765  20.4765  20.4930  20.4930  20.9200  20.9200
    20.9565  20.9565  21.1626  21.1626  21.4595  21.4595  21.4678  21.4678
    21.7368  21.7368  21.7590  21.7590  22.5052  22.5052  22.5099  22.5099
    22.7265  22.7265  23.2110  23.2110  23.5042  23.5042  24.7075  24.7075
    25.0379  25.0379

          k = 0.0000 0.3984 0.0000 ( 12162 PWs)   bands (ev):

   -87.3926 -87.3926 -87.3894 -87.3894 -87.3880 -87.3880 -87.3842 -87.3842
   -87.3238 -87.3238 -87.3220 -87.3220 -87.3146 -87.3146 -87.3135 -87.3135
   -87.2930 -87.2930 -87.2925 -87.2925 -87.2885 -87.2885 -87.2881 -87.2881
   -87.2836 -87.2836 -87.2835 -87.2835 -87.2784 -87.2784 -87.2783 -87.2783
   -59.0821 -59.0821 -59.0820 -59.0820 -59.0792 -59.0792 -59.0792 -59.0792
   -59.0243 -59.0243 -59.0243 -59.0243 -59.0209 -59.0209 -59.0209 -59.0209
   -49.4308 -49.4308 -49.4241 -49.4241 -49.4204 -49.4204 -49.4121 -49.4121
   -49.3655 -49.3655 -49.3646 -49.3646 -49.3613 -49.3613 -49.3594 -49.3594
   -49.3346 -49.3346 -49.3327 -49.3327 -49.3266 -49.3266 -49.3250 -49.3250
   -49.2691 -49.2691 -49.2606 -49.2606 -49.2560 -49.2560 -49.2490 -49.2490
   -47.3322 -47.3322 -47.3220 -47.3220 -47.3150 -47.3150 -47.3024 -47.3024
   -47.2576 -47.2576 -47.2469 -47.2469 -47.2397 -47.2397 -47.2351 -47.2351
   -47.2024 -47.2024 -47.1907 -47.1907 -47.1856 -47.1856 -47.1790 -47.1790
   -47.1685 -47.1685 -47.1589 -47.1589 -47.1552 -47.1552 -47.1423 -47.1423
   -47.1160 -47.1160 -47.0941 -47.0941 -47.0858 -47.0858 -47.0792 -47.0792
   -47.0689 -47.0689 -47.0683 -47.0683 -47.0604 -47.0604 -47.0480 -47.0480
   -47.0438 -47.0438 -47.0402 -47.0402 -47.0248 -47.0248 -47.0232 -47.0232
   -47.0164 -47.0164 -47.0127 -47.0127 -46.9937 -46.9937 -46.9929 -46.9929
   -26.2211 -26.2211 -26.2209 -26.2209 -26.2127 -26.2127 -26.2126 -26.2126
   -26.1627 -26.1627 -26.1623 -26.1623 -26.1529 -26.1529 -26.1526 -26.1526
   -25.9410 -25.9410 -25.9408 -25.9408 -25.9349 -25.9349 -25.9340 -25.9340
   -25.9315 -25.9315 -25.9304 -25.9304 -25.9193 -25.9193 -25.9188 -25.9188
   -25.8804 -25.8804 -25.8802 -25.8802 -25.8687 -25.8687 -25.8681 -25.8681
   -25.8647 -25.8647 -25.8641 -25.8641 -25.8566 -25.8566 -25.8565 -25.8565
     7.3576   7.3576   8.0038   8.0038   8.0109   8.0109   9.5176   9.5176
    10.0382  10.0382  10.1970  10.1970  10.4656  10.4656  10.4822  10.4822
    10.9785  10.9785  11.0246  11.0246  11.1882  11.1882  11.2912  11.2912
    11.4207  11.4207  11.5144  11.5144  11.5987  11.5987  11.7073  11.7073
    11.7138  11.7138  11.8264  11.8264  11.8524  11.8524  11.8806  11.8806
    11.8893  11.8893  11.9966  11.9966  12.1230  12.1230  12.1718  12.1718
    12.2188  12.2188  12.2677  12.2677  12.3104  12.3104  12.3778  12.3778
    12.3927  12.3927  12.4318  12.4318  12.4429  12.4429  12.5638  12.5638
    12.5721  12.5721  12.6148  12.6148  12.6327  12.6327  12.6866  12.6866
    12.7377  12.7377  12.7487  12.7487  12.8296  12.8296  12.8892  12.8892
    12.9680  12.9680  13.0323  13.0323  13.0659  13.0659  13.1026  13.1026
    13.2041  13.2041  13.2505  13.2505  13.3191  13.3191  13.3473  13.3473
    13.3681  13.3681  13.5059  13.5059  13.5476  13.5476  13.5805  13.5805
    13.6036  13.6036  13.6751  13.6751  13.7553  13.7553  13.7763  13.7763
    13.8476  13.8476  13.8998  13.8998  13.9629  13.9629  13.9701  13.9701
    14.0473  14.0473  14.1279  14.1279  14.1561  14.1561  14.1871  14.1871
    14.2544  14.2544  14.2817  14.2817  14.3076  14.3076  14.3720  14.3720
    14.3984  14.3984  14.4651  14.4651  14.5413  14.5413  14.5811  14.5811
    14.6437  14.6437  14.7058  14.7058  14.7099  14.7099  14.7239  14.7239
    14.7898  14.7898  14.8014  14.8014  14.8157  14.8157  14.8542  14.8542
    14.9211  14.9211  14.9623  14.9623  14.9778  14.9778  15.1255  15.1255
    15.1488  15.1488  15.2199  15.2199  15.3296  15.3296  15.5011  15.5011
    15.8064  15.8064  15.8117  15.8117  16.2751  16.2751  16.3141  16.3141
    16.5150  16.5150  16.6146  16.6146  16.6883  16.6883  16.9623  16.9623
    16.9884  16.9884  17.0475  17.0475  17.0505  17.0505  17.2318  17.2318
    17.9703  17.9703  18.4766  18.4766  18.7993  18.7993  18.8436  18.8436
    20.4305  20.4305  20.6398  20.6398  20.6800  20.6800  21.0071  21.0071
    21.7686  21.7686  21.9316  21.9316  22.1191  22.1191  22.1614  22.1614
    22.2870  22.2870  22.3025  22.3025  22.9300  22.9300  23.2532  23.2532
    23.4780  23.4780  23.5867  23.5867  23.8589  23.8589  24.3115  24.3115
    24.3936  24.3936  25.1286  25.1286  25.4634  25.4634  25.5772  25.5772
    25.7712  25.7712

          k = 0.3451 0.5977 0.0000 ( 12162 PWs)   bands (ev):

   -87.3901 -87.3901 -87.3901 -87.3901 -87.3858 -87.3858 -87.3858 -87.3858
   -87.3147 -87.3147 -87.3147 -87.3147 -87.3047 -87.3047 -87.3047 -87.3047
   -87.3020 -87.3020 -87.3019 -87.3019 -87.2981 -87.2981 -87.2981 -87.2981
   -87.2835 -87.2835 -87.2835 -87.2835 -87.2783 -87.2783 -87.2783 -87.2783
   -59.0819 -59.0819 -59.0819 -59.0819 -59.0791 -59.0791 -59.0791 -59.0791
   -59.0244 -59.0244 -59.0244 -59.0244 -59.0210 -59.0210 -59.0210 -59.0210
   -49.4300 -49.4300 -49.4291 -49.4291 -49.4161 -49.4161 -49.4153 -49.4153
   -49.3629 -49.3629 -49.3613 -49.3613 -49.3579 -49.3579 -49.3568 -49.3568
   -49.3036 -49.3036 -49.3032 -49.3032 -49.2991 -49.2991 -49.2946 -49.2946
   -49.2936 -49.2936 -49.2886 -49.2886 -49.2825 -49.2825 -49.2811 -49.2811
   -47.3276 -47.3276 -47.3243 -47.3243 -47.3128 -47.3128 -47.3072 -47.3072
   -47.2269 -47.2269 -47.2217 -47.2217 -47.2158 -47.2158 -47.2105 -47.2105
   -47.2066 -47.2066 -47.2034 -47.2034 -47.2024 -47.2024 -47.1642 -47.1642
   -47.1539 -47.1539 -47.1501 -47.1501 -47.1413 -47.1413 -47.1285 -47.1285
   -47.1173 -47.1173 -47.0966 -47.0966 -47.0901 -47.0901 -47.0883 -47.0883
   -47.0724 -47.0724 -47.0695 -47.0695 -47.0674 -47.0674 -47.0649 -47.0649
   -47.0559 -47.0559 -47.0484 -47.0484 -47.0391 -47.0391 -47.0366 -47.0366
   -47.0344 -47.0344 -47.0270 -47.0270 -47.0067 -47.0067 -47.0067 -47.0067
   -26.2207 -26.2207 -26.2197 -26.2197 -26.2123 -26.2123 -26.2112 -26.2112
   -26.1640 -26.1640 -26.1640 -26.1640 -26.1543 -26.1543 -26.1542 -26.1542
   -25.9438 -25.9438 -25.9379 -25.9379 -25.9351 -25.9351 -25.9351 -25.9351
   -25.9273 -25.9273 -25.9271 -25.9271 -25.9237 -25.9237 -25.9163 -25.9163
   -25.8796 -25.8796 -25.8796 -25.8796 -25.8711 -25.8711 -25.8708 -25.8708
   -25.8648 -25.8648 -25.8635 -25.8635 -25.8560 -25.8560 -25.8560 -25.8560
     9.1298   9.1298   9.1308   9.1308   9.5775   9.5775   9.7019   9.7019
     9.7094   9.7094   9.8919   9.8919  10.0448  10.0448  10.0505  10.0505
    10.2210  10.2210  11.0421  11.0421  11.0425  11.0425  11.1236  11.1236
    11.1370  11.1370  11.1514  11.1514  11.1595  11.1595  11.7722  11.7722
    11.7775  11.7775  11.7811  11.7811  11.9899  11.9899  11.9977  11.9977
    12.1268  12.1268  12.1484  12.1484  12.3317  12.3317  12.3468  12.3468
    12.3759  12.3759  12.4028  12.4028  12.4527  12.4527  12.4565  12.4565
    12.4629  12.4629  12.4840  12.4840  12.5687  12.5687  12.6290  12.6290
    12.6503  12.6503  12.6650  12.6650  12.6864  12.6864  12.6881  12.6881
    12.7438  12.7438  12.7452  12.7452  12.7476  12.7476  12.8144  12.8144
    12.8177  12.8177  12.8230  12.8230  12.8548  12.8548  12.8916  12.8916
    12.9512  12.9512  12.9749  12.9749  12.9832  12.9832  13.0241  13.0241
    13.0509  13.0509  13.2421  13.2421  13.2482  13.2482  13.2596  13.2596
    13.4196  13.4196  13.5865  13.5865  13.5940  13.5940  13.6226  13.6226
    13.6299  13.6299  13.6697  13.6697  13.8571  13.8571  13.8649  13.8649
    13.9758  13.9758  14.0323  14.0323  14.0465  14.0465  14.0566  14.0566
    14.1371  14.1371  14.1544  14.1544  14.1905  14.1905  14.2665  14.2665
    14.3325  14.3325  14.3606  14.3606  14.3732  14.3732  14.4041  14.4041
    14.4486  14.4486  14.4648  14.4648  14.4931  14.4931  14.5201  14.5201
    14.5593  14.5593  14.5597  14.5597  14.6168  14.6168  14.7064  14.7064
    14.8880  14.8880  14.9300  14.9300  15.0295  15.0295  15.0312  15.0312
    15.0530  15.0530  15.1798  15.1798  15.1853  15.1853  15.3000  15.3000
    15.3720  15.3720  15.4499  15.4499  15.4502  15.4502  15.6612  15.6612
    15.8811  15.8811  15.8913  15.8913  15.9586  15.9586  17.4691  17.4691
    17.4878  17.4878  17.5219  17.5219  17.8094  17.8094  17.8172  17.8172
    18.4541  18.4541  20.3279  20.3279  20.3311  20.3311  20.5174  20.5174
    20.7769  20.7769  20.7772  20.7772  21.5560  21.5560  21.5574  21.5574
    21.5880  21.5880  21.6884  21.6884  21.6970  21.6970  21.8927  21.8927
    22.2104  22.2104  22.6840  22.6840  22.6889  22.6889  22.7034  22.7034
    23.6402  23.6402  23.6437  23.6437  24.1447  24.1447  24.1621  24.1621
    24.2471  24.2471  25.1544  25.1544  26.2554  26.2554  26.2662  26.2662
    26.2738  26.2738

     the Fermi energy is    15.5545 ev

!    total energy              =   -7950.42853365 Ry
     total all-electron energy =    -51824.280617 Ry
     estimated scf accuracy    <          1.2E-10 Ry
     smearing contrib. (-TS)   =       0.07114863 Ry
     internal energy E=F+TS    =   -7950.49968227 Ry

     The total energy is F=E-TS. E is the sum of the following terms:
     one-electron contribution =   -4193.75462333 Ry
     hartree contribution      =    2284.60235828 Ry
     xc contribution           =    -683.90995856 Ry
     ewald contribution        =   -3818.90333035 Ry
     one-center paw contrib.   =   -1538.53412831 Ry

     convergence has been achieved in  24 iterations

     Forces acting on atoms (cartesian axes, Ry/au):

     atom    1 type  1   force =     0.00000000    0.00000000    0.00015050
     atom    2 type  1   force =     0.00000000    0.00000000    0.00015050
     atom    3 type  1   force =    -0.00000000   -0.00000000   -0.00015050
     atom    4 type  1   force =     0.00000000    0.00000000   -0.00015050
     atom    5 type  1   force =     0.00000000    0.00000000    0.00002655
     atom    6 type  1   force =    -0.00000000   -0.00000000    0.00002655
     atom    7 type  1   force =    -0.00000000   -0.00000000   -0.00002655
     atom    8 type  1   force =    -0.00000000   -0.00000000   -0.00002655
     atom    9 type  2   force =    -0.00000000   -0.00000000    0.00005770
     atom   10 type  2   force =     0.00000000    0.00000000    0.00005770
     atom   11 type  2   force =    -0.00000000   -0.00000000   -0.00005770
     atom   12 type  2   force =     0.00000000    0.00000000   -0.00005770
     atom   13 type  2   force =     0.00000000    0.00002177   -0.00000000
     atom   14 type  2   force =    -0.00001885    0.00001088    0.00000000
     atom   15 type  2   force =    -0.00000000   -0.00002177    0.00000000
     atom   16 type  2   force =     0.00001885   -0.00001088   -0.00000000
     atom   17 type  2   force =    -0.00001885   -0.00001088   -0.00000000
     atom   18 type  2   force =     0.00001885    0.00001088    0.00000000
     atom   19 type  2   force =    -0.00000000   -0.00000000   -0.00000000
     atom   20 type  2   force =    -0.00000000   -0.00000000    0.00000000
     atom   21 type  2   force =    -0.00000000   -0.00000000   -0.00000000
     atom   22 type  2   force =    -0.00000000    0.00000000    0.00000000
     atom   23 type  2   force =     0.00000000   -0.00000000   -0.00000000
     atom   24 type  2   force =     0.00000000    0.00000000    0.00000000
     The non-local contrib.  to forces
     atom    1 type  1   force =    -0.00000000    0.00000000    0.02331373
     atom    2 type  1   force =     0.00000000    0.00000000    0.02331373
     atom    3 type  1   force =     0.00000000    0.00000000   -0.02331373
     atom    4 type  1   force =     0.00000000    0.00000000   -0.02331373
     atom    5 type  1   force =    -0.00000000    0.00000000   -0.00403603
     atom    6 type  1   force =    -0.00000000   -0.00000000   -0.00403603
     atom    7 type  1   force =    -0.00000000   -0.00000000    0.00403603
     atom    8 type  1   force =     0.00000000    0.00000000    0.00403603
     atom    9 type  2   force =    -0.00000000   -0.00000000    0.02498099
     atom   10 type  2   force =     0.00000000    0.00000000    0.02498099
     atom   11 type  2   force =    -0.00000000   -0.00000000   -0.02498099
     atom   12 type  2   force =     0.00000000    0.00000000   -0.02498099
     atom   13 type  2   force =    -0.00000000   -0.07673261   -0.00000000
     atom   14 type  2   force =     0.06645240   -0.03836630   -0.00000000
     atom   15 type  2   force =     0.00000000    0.07673261    0.00000000
     atom   16 type  2   force =    -0.06645240    0.03836630    0.00000000
     atom   17 type  2   force =     0.06645240    0.03836632    0.00000000
     atom   18 type  2   force =    -0.06645240   -0.03836632   -0.00000000
     atom   19 type  2   force =     0.00000000    0.00000000    0.00000000
     atom   20 type  2   force =     0.00000000    0.00000000    0.00000000
     atom   21 type  2   force =     0.00000000   -0.00000000   -0.00000000
     atom   22 type  2   force =     0.00000000    0.00000000    0.00000000
     atom   23 type  2   force =    -0.00000000   -0.00000000    0.00000000
     atom   24 type  2   force =    -0.00000000   -0.00000000   -0.00000000
     The ionic contribution  to forces
     atom    1 type  1   force =    -0.00001471    0.00001128   -0.69185267
     atom    2 type  1   force =     0.00001471   -0.00001128   -0.69185267
     atom    3 type  1   force =     0.00001471   -0.00001128    0.69185267
     atom    4 type  1   force =    -0.00001471    0.00001128    0.69185267
     atom    5 type  1   force =     0.00006337   -0.00003352    0.10455518
     atom    6 type  1   force =    -0.00006337    0.00003352    0.10455518
     atom    7 type  1   force =    -0.00006337    0.00003352   -0.10455518
     atom    8 type  1   force =     0.00006337   -0.00003352   -0.10455518
     atom    9 type  2   force =     0.00006620   -0.00003807    0.12925486
     atom   10 type  2   force =    -0.00006620    0.00003807    0.12925486
     atom   11 type  2   force =    -0.00006620    0.00003807   -0.12925486
     atom   12 type  2   force =     0.00006620   -0.00003807   -0.12925486
     atom   13 type  2   force =     0.00008170  -13.65609505   -0.00000000
     atom   14 type  2   force =    11.82661956   -6.82810414   -0.00000000
     atom   15 type  2   force =    -0.00008170   13.65609505   -0.00000000
     atom   16 type  2   force =   -11.82661956    6.82810414   -0.00000000
     atom   17 type  2   force =    11.82656406    6.82798064   -0.00000000
     atom   18 type  2   force =   -11.82656406   -6.82798064   -0.00000000
     atom   19 type  2   force =     0.00000000    0.00000000   -0.00000000
     atom   20 type  2   force =     0.00000000   -0.00000000   -0.00000000
     atom   21 type  2   force =     0.00000000    0.00000000   -0.00000000
     atom   22 type  2   force =     0.00000000   -0.00000000   -0.00000000
     atom   23 type  2   force =     0.00000000   -0.00000000   -0.00000000
     atom   24 type  2   force =     0.00000000    0.00000000   -0.00000000
     The local contribution  to forces
     atom    1 type  1   force =    -0.00000226   -0.00000125    0.66878344
     atom    2 type  1   force =     0.00000226    0.00000125    0.66878344
     atom    3 type  1   force =     0.00000226    0.00000125   -0.66878344
     atom    4 type  1   force =    -0.00000226   -0.00000125   -0.66878344
     atom    5 type  1   force =     0.00138184   -0.00080057   -0.10050274
     atom    6 type  1   force =    -0.00138184    0.00080057   -0.10050274
     atom    7 type  1   force =    -0.00138184    0.00080057    0.10050274
     atom    8 type  1   force =     0.00138184   -0.00080057    0.10050274
     atom    9 type  2   force =     0.00184050   -0.00106270   -0.15099131
     atom   10 type  2   force =    -0.00184050    0.00106270   -0.15099131
     atom   11 type  2   force =    -0.00184050    0.00106270    0.15099131
     atom   12 type  2   force =     0.00184050   -0.00106270    0.15099131
     atom   13 type  2   force =    -0.00184070   13.73298560    0.00000000
     atom   14 type  2   force =   -11.89061210    6.86504753    0.00000000
     atom   15 type  2   force =     0.00184070  -13.73298560    0.00000000
     atom   16 type  2   force =    11.89061210   -6.86504753    0.00000000
     atom   17 type  2   force =   -11.89403672   -6.86490218    0.00000000
     atom   18 type  2   force =    11.89403672    6.86490218    0.00000000
     atom   19 type  2   force =    -0.00000000   -0.00000000    0.00000000
     atom   20 type  2   force =    -0.00000000   -0.00000000    0.00000000
     atom   21 type  2   force =    -0.00000000    0.00000000   -0.00000000
     atom   22 type  2   force =    -0.00000000   -0.00000000    0.00000000
     atom   23 type  2   force =     0.00000000    0.00000000   -0.00000000
     atom   24 type  2   force =     0.00000000    0.00000000    0.00000000
     The core correction contribution to forces
     atom    1 type  1   force =    -0.00000000    0.00000000   -0.00009576
     atom    2 type  1   force =     0.00000000   -0.00000000   -0.00009576
     atom    3 type  1   force =     0.00000000   -0.00000000    0.00009576
     atom    4 type  1   force =    -0.00000000    0.00000000    0.00009576
     atom    5 type  1   force =     0.00000303   -0.00000175    0.00001021
     atom    6 type  1   force =    -0.00000303    0.00000175    0.00001021
     atom    7 type  1   force =    -0.00000303    0.00000175   -0.00001021
     atom    8 type  1   force =     0.00000303   -0.00000175   -0.00001021
     atom    9 type  2   force =     0.00000117   -0.00000067   -0.00318660
     atom   10 type  2   force =    -0.00000117    0.00000067   -0.00318660
     atom   11 type  2   force =    -0.00000117    0.00000067    0.00318660
     atom   12 type  2   force =     0.00000117   -0.00000067    0.00318660
     atom   13 type  2   force =    -0.00000116    0.00087735    0.00000000
     atom   14 type  2   force =    -0.00075802    0.00043764    0.00000000
     atom   15 type  2   force =     0.00000116   -0.00087735    0.00000000
     atom   16 type  2   force =     0.00075802   -0.00043764    0.00000000
     atom   17 type  2   force =    -0.00076039   -0.00043767    0.00000000
     atom   18 type  2   force =     0.00076039    0.00043767    0.00000000
     atom   19 type  2   force =    -0.00000000    0.00000000    0.00000000
     atom   20 type  2   force =    -0.00000000   -0.00000000    0.00000000
     atom   21 type  2   force =    -0.00000000    0.00000000    0.00000000
     atom   22 type  2   force =    -0.00000000   -0.00000000    0.00000000
     atom   23 type  2   force =     0.00000000    0.00000000    0.00000000
     atom   24 type  2   force =     0.00000000   -0.00000000    0.00000000
     The Hubbard contrib.    to forces
     atom    1 type  1   force =     0.00000000    0.00000000    0.00000000
     atom    2 type  1   force =     0.00000000    0.00000000    0.00000000
     atom    3 type  1   force =     0.00000000    0.00000000    0.00000000
     atom    4 type  1   force =     0.00000000    0.00000000    0.00000000
     atom    5 type  1   force =     0.00000000    0.00000000    0.00000000
     atom    6 type  1   force =     0.00000000    0.00000000    0.00000000
     atom    7 type  1   force =     0.00000000    0.00000000    0.00000000
     atom    8 type  1   force =     0.00000000    0.00000000    0.00000000
     atom    9 type  2   force =     0.00000000    0.00000000    0.00000000
     atom   10 type  2   force =     0.00000000    0.00000000    0.00000000
     atom   11 type  2   force =     0.00000000    0.00000000    0.00000000
     atom   12 type  2   force =     0.00000000    0.00000000    0.00000000
     atom   13 type  2   force =     0.00000000    0.00000000    0.00000000
     atom   14 type  2   force =     0.00000000    0.00000000    0.00000000
     atom   15 type  2   force =     0.00000000    0.00000000    0.00000000
     atom   16 type  2   force =     0.00000000    0.00000000    0.00000000
     atom   17 type  2   force =     0.00000000    0.00000000    0.00000000
     atom   18 type  2   force =     0.00000000    0.00000000    0.00000000
     atom   19 type  2   force =     0.00000000    0.00000000    0.00000000
     atom   20 type  2   force =     0.00000000    0.00000000    0.00000000
     atom   21 type  2   force =     0.00000000    0.00000000    0.00000000
     atom   22 type  2   force =     0.00000000    0.00000000    0.00000000
     atom   23 type  2   force =     0.00000000    0.00000000    0.00000000
     atom   24 type  2   force =     0.00000000    0.00000000    0.00000000
     The SCF correction term to forces
     atom    1 type  1   force =    -0.00000000    0.00000000    0.00000176
     atom    2 type  1   force =     0.00000000   -0.00000000    0.00000176
     atom    3 type  1   force =     0.00000000   -0.00000000   -0.00000176
     atom    4 type  1   force =    -0.00000000    0.00000000   -0.00000176
     atom    5 type  1   force =     0.00000000   -0.00000000   -0.00000006
     atom    6 type  1   force =    -0.00000000    0.00000000   -0.00000006
     atom    7 type  1   force =    -0.00000000    0.00000000    0.00000006
     atom    8 type  1   force =     0.00000000   -0.00000000    0.00000006
     atom    9 type  2   force =     0.00000002   -0.00000001   -0.00000025
     atom   10 type  2   force =    -0.00000002    0.00000001   -0.00000025
     atom   11 type  2   force =    -0.00000002    0.00000001    0.00000025
     atom   12 type  2   force =     0.00000002   -0.00000001    0.00000025
     atom   13 type  2   force =    -0.00000001   -0.00001402   -0.00000000
     atom   14 type  2   force =     0.00001215   -0.00000702    0.00000000
     atom   15 type  2   force =     0.00000001    0.00001402    0.00000000
     atom   16 type  2   force =    -0.00001215    0.00000702   -0.00000000
     atom   17 type  2   force =     0.00001214    0.00000702    0.00000000
     atom   18 type  2   force =    -0.00001214   -0.00000702   -0.00000000
     atom   19 type  2   force =    -0.00000000   -0.00000000    0.00000000
     atom   20 type  2   force =     0.00000000   -0.00000000    0.00000000
     atom   21 type  2   force =    -0.00000000    0.00000000   -0.00000000
     atom   22 type  2   force =    -0.00000000   -0.00000000    0.00000000
     atom   23 type  2   force =    -0.00000000   -0.00000000    0.00000000
     atom   24 type  2   force =     0.00000000    0.00000000    0.00000000

     Total force =     0.000331     Total SCF correction =     0.000035
     SCF correction compared to forces is large: reduce conv_thr to get better values


     Computing stress (Cartesian axis) and pressure

          total   stress  (Ry/bohr**3)                   (kbar)     P=        0.54
   0.00000363   0.00000000   0.00000000            0.53        0.00        0.00
   0.00000000   0.00000363   0.00000000            0.00        0.53        0.00
   0.00000000   0.00000000   0.00000384            0.00        0.00        0.56

     Message from routine bfgs:
     history already reset at previous step: exiting
     Energy error            =      2.8E-07 Ry
     Gradient error          =      1.5E-04 Ry/Bohr
     Cell gradient error     =      5.6E-01 kbar

     bfgs failed after  11 scf cycles and  10 bfgs steps, convergence not achieved
     (criteria: energy <  1.0E-05 Ry, force <  1.0E-03 Ry/Bohr, cell <  1.0E-02 kbar)

     End of BFGS Geometry Optimization

     Final enthalpy           =   -7950.4285336468 Ry

     File ./C36_out/laves_C36.bfgs deleted, as requested
Begin final coordinates
     new unit-cell volume =   1835.34516 a.u.^3 (   271.97009 Ang^3 )
     density =      6.92090 g/cm^3

CELL_PARAMETERS (angstrom)
   4.574131040  -0.000000019  -0.000000000
  -2.287066019   3.961313977  -0.000000000
  -0.000000000  -0.000000000  15.009743935

ATOMIC_POSITIONS (crystal)
Mg           -0.0000000000       -0.0000000000        0.4071452958
Mg            0.0000000000        0.0000000000        0.9071452958
Mg            0.0000000000        0.0000000000        0.5928547042
Mg            0.0000000000        0.0000000000        0.0928547042
Mg            0.3333330000        0.6666670000        0.6559838078
Mg            0.6666670000        0.3333330000        0.1559838078
Mg            0.6666670000        0.3333330000        0.3440161922
Mg            0.3333330000        0.6666670000        0.8440161922
Ni            0.3333330000        0.6666670000        0.3748436367
Ni            0.6666670000        0.3333330000        0.8748436367
Ni            0.6666670000        0.3333330000        0.6251563633
Ni            0.3333330000        0.6666670000        0.1251563633
Ni            0.1642356076        0.3284702163        0.2500000000
Ni            0.8357643924        0.1642356087        0.7500000000
Ni            0.8357643924        0.6715297837        0.7500000000
Ni            0.1642356076        0.8357643913        0.2500000000
Ni            0.6715297847        0.8357643924        0.2500000000
Ni            0.3284702153        0.1642356076        0.7500000000
Ni            0.5000000000        0.0000000000        0.5000000000
Ni            0.5000000000        0.5000000000       -0.0000000000
Ni            0.5000000000        0.0000000000       -0.0000000000
Ni            0.5000000000        0.5000000000        0.5000000000
Ni           -0.0000000000        0.5000000000       -0.0000000000
Ni           -0.0000000000        0.5000000000        0.5000000000
End final coordinates



     Writing config-only to output data dir ./C36_out/laves_C36.save/

     Writing all to output data dir ./C36_out/laves_C36.save/
 
     init_run     :     13.03s CPU     13.48s WALL (       1 calls)
     electrons    :   8344.55s CPU   8355.89s WALL (      11 calls)
     update_pot   :     66.55s CPU     66.57s WALL (      10 calls)
     forces       :     54.26s CPU     54.31s WALL (      11 calls)
     stress       :    272.28s CPU    272.58s WALL (      11 calls)

     Called by init_run:
     wfcinit      :      7.02s CPU      7.25s WALL (       1 calls)
                                        7.25s GPU  (       1 calls)
     potinit      :      4.30s CPU      4.34s WALL (       1 calls)
     hinit0       :      1.47s CPU      1.51s WALL (       1 calls)

     Called by electrons:
     c_bands      :   6343.60s CPU   6351.76s WALL (     376 calls)
     sum_band     :    910.25s CPU    911.54s WALL (     376 calls)
     v_of_rho     :     11.59s CPU     11.65s WALL (     386 calls)
     newd         :     86.17s CPU     91.92s WALL (     386 calls)
                                       68.97s GPU  (     376 calls)
     PAW_pot      :    951.65s CPU    952.36s WALL (     396 calls)
     mix_rho      :     84.37s CPU     85.22s WALL (     376 calls)

     Called by c_bands:
     init_us_2    :      4.33s CPU      4.34s WALL (    2355 calls)
     init_us_2:cp :      0.39s CPU      0.39s WALL (      30 calls)
     init_us_2:gp :      3.91s CPU      3.92s WALL (    2325 calls)
     cegterg      :   6198.42s CPU   6206.47s WALL (    1128 calls)

     Called by *egterg:
     cdiaghg      :    283.71s CPU    284.75s WALL (    3361 calls)
                                      284.63s GPU  (    3361 calls)
     h_psi        :   2961.84s CPU   2967.19s WALL (    3397 calls)
                                     2966.03s GPU  (    3397 calls)
     s_psi        :     27.75s CPU    534.37s WALL (    3397 calls)
                                      532.14s GPU  (    3397 calls)
     g_psi        :      0.02s CPU      4.35s WALL (    2266 calls)
                                        4.22s GPU  (    2266 calls)

     Called by h_psi:
     h_psi:calbec :      0.21s CPU    529.89s WALL (    3397 calls)
                                      529.86s GPU  (    3397 calls)
     vloc_psi     :   1906.70s CPU   1911.15s WALL (    3397 calls)
                                     1910.96s GPU  (    3397 calls)
     add_vuspsi   :     15.06s CPU    520.93s WALL (    3397 calls)
                                      520.62s GPU  (    3397 calls)

     General routines
     calbec       :     51.19s CPU     25.86s WALL (    4720 calls)
     fft          :     10.57s CPU     14.69s WALL (    9818 calls)
                                        4.13s GPU  (    8274 calls)
     ffts         :      4.67s CPU      6.78s WALL (   11236 calls)
                                        2.20s GPU  (    9692 calls)
     fftw         :     32.80s CPU   1243.05s WALL ( 5451756 calls)
                                     1182.17s GPU  ( 5451756 calls)
     interpolate  :     17.36s CPU     17.37s WALL (    1544 calls)
     davcio       :      0.00s CPU      0.10s WALL (       3 calls)
 
     Parallel routines
 
     PWSCF        :      2h27m CPU      2h27m WALL

 
   This run was terminated on:  19:47:35  28Mar2026            

=------------------------------------------------------------------------------=
   JOB DONE.
=------------------------------------------------------------------------------=
