
     Program PWSCF v.7.2 starts on  2Apr2026 at  2:44: 9 

     This program is part of the open-source Quantum ESPRESSO suite
     for quantum simulation of materials; please cite
         "P. Giannozzi et al., J. Phys.:Condens. Matter 21 395502 (2009);
         "P. Giannozzi et al., J. Phys.:Condens. Matter 29 465901 (2017);
         "P. Giannozzi et al., J. Chem. Phys. 152 154105 (2020);
          URL http://www.quantum-espresso.org", 
     in publications or presentations arising from this work. More details at
     http://www.quantum-espresso.org/quote

     Parallel version (MPI), running on     1 processors

     MPI processes distributed on     1 nodes
     2741 MiB available memory on the printing compute node when the environment starts
 
     Reading input from C36/in/laves_relax_002.in
Warning: card &CELL ignored
Warning: card / ignored

     Current dimensions of program PWSCF are:
     Max number of different atomic species (ntypx) = 10
     Max number of k-points (npk) =  40000
     Max angular momentum in pseudopotentials (lmaxx) =  4
     file Mg.pbe-spnl-kjpaw_psl.1.0.0.UPF: wavefunction(s)  2P renormalized
     file Ni.pbe-spn-kjpaw_psl.1.0.0.UPF: wavefunction(s)  3P 3D renormalized
 
     Subspace diagonalization in iterative solution of the eigenvalue problem:
     a serial algorithm will be used

 
     G-vector sticks info
     --------------------
     sticks:   dense  smooth     PW     G-vecs:    dense   smooth      PW
     Sum        2625    1301    367               357849   126433   18895
 
     Using Slab Decomposition
 

     Title: 
     C36_MgNi2                                                                  


     bravais-lattice index     =            0
     lattice parameter (alat)  =       8.9108  a.u.
     unit-cell volume          =    2016.5078 (a.u.)^3
     number of atoms/cell      =           24
     number of atomic types    =            2
     number of electrons       =       368.00
     number of Kohn-Sham states=          221
     kinetic-energy cutoff     =      60.0000  Ry
     charge density cutoff     =     480.0000  Ry
     scf convergence threshold =      1.0E-07
     mixing beta               =       0.2500
     number of iterations used =           20  plain     mixing
     energy convergence thresh.=      1.0E-05
     force convergence thresh. =      1.0E-03
     Exchange-correlation= SLA  PW   PBX  PBC
                           (   1   4   3   4   0   0   0)
     nstep                     =            5


     GPU acceleration is ACTIVE.


     celldm(1)=   8.910808  celldm(2)=   0.000000  celldm(3)=   0.000000
     celldm(4)=   0.000000  celldm(5)=   0.000000  celldm(6)=   0.000000

     crystal axes: (cart. coord. in units of alat)
               a(1) = (   0.999970   0.002381   0.007376 )  
               a(2) = (  -0.499740   0.864545  -0.008206 )  
               a(3) = (   0.001792  -0.005921   3.292173 )  

     reciprocal axes: (cart. coord. in units 2 pi/alat)
               b(1) = (  0.998652  0.577264  0.000495 )  
               b(2) = ( -0.002766  1.155099  0.002079 )  
               b(3) = ( -0.002244  0.001586  0.303755 )  


     PseudoPot. # 1 for Mg read from file:
     ./pseudo/Mg.pbe-spnl-kjpaw_psl.1.0.0.UPF
     MD5 check sum: fda14e0d92a6a9a5ebed782e5a4b3067
     Pseudo is Projector augmented-wave + core cor, Zval = 10.0
     Generated using &quot;atomic&quot; code by A. Dal Corso  v.6.3
     Shape of augmentation charge: PSQ
     Using radial grid of 1129 points,  4 beta functions with: 
                l(1) =   0
                l(2) =   0
                l(3) =   1
                l(4) =   1
     Q(r) pseudized with 0 coefficients 


     PseudoPot. # 2 for Ni read from file:
     ./pseudo/Ni.pbe-spn-kjpaw_psl.1.0.0.UPF
     MD5 check sum: 6e86b733589c3ad8389697b807d86aa7
     Pseudo is Projector augmented-wave + core cor, Zval = 18.0
     Generated using &quot;atomic&quot; code by A. Dal Corso  v.6.3
     Shape of augmentation charge: PSQ
     Using radial grid of 1195 points,  6 beta functions with: 
                l(1) =   0
                l(2) =   0
                l(3) =   1
                l(4) =   1
                l(5) =   2
                l(6) =   2
     Q(r) pseudized with 0 coefficients 


     atomic species   valence    mass     pseudopotential
        Mg            10.00    24.30500     Mg( 1.00)
        Ni            18.00    58.69340     Ni( 1.00)

     No symmetry found



   Cartesian axes

     site n.     atom                  positions (alat units)
         1           Mg  tau(   1) = (  -0.4960180   0.8608443   1.3302758  )
         2           Mg  tau(   2) = (   0.5002913   0.8609835   2.9834966  )
         3           Mg  tau(   3) = (   0.0036694  -0.0026466   1.9540151  )
         4           Mg  tau(   4) = (   0.9978885   0.0032236   0.3133494  )
         5           Mg  tau(   5) = (  -0.0018340   0.5732716   2.1566072  )
         6           Mg  tau(   6) = (   0.4993572   0.2876743   0.5136395  )
         7           Mg  tau(   7) = (   0.5005307   0.2876268   1.1375793  )
         8           Mg  tau(   8) = (   0.0038828   0.5730790   2.7796727  )
         9           Ni  tau(   9) = (   0.0037383   0.5771608   1.2287184  )
        10           Ni  tau(  10) = (   0.5001244   0.2849404   2.8817670  )
        11           Ni  tau(  11) = (   0.4995758   0.2873249   2.0573223  )
        12           Ni  tau(  12) = (   0.0011123   0.5778951   0.4088134  )
        13           Ni  tau(  13) = (  -0.0046049   0.2858216   0.8235142  )
        14           Ni  tau(  14) = (   0.7544065   0.1402929   2.4740732  )
        15           Ni  tau(  15) = (   0.5031961   0.5738163   2.4666946  )
        16           Ni  tau(  16) = (  -0.2491544   0.7235073   0.8125319  )
        17           Ni  tau(  17) = (   0.2504192   0.7186891   0.8213311  )
        18           Ni  tau(  18) = (   0.2503699   0.1393424   2.4696990  )
        19           Ni  tau(  19) = (   0.0019856   0.8602356   1.6422333  )
        20           Ni  tau(  20) = (   0.2507627   0.4329737   0.0004613  )
        21           Ni  tau(  21) = (   0.5022677  -0.0041435   3.2928066  )
        22           Ni  tau(  22) = (   0.2500606   0.4326368   1.6437505  )
        23           Ni  tau(  23) = (  -0.2488644   0.4289503   3.2865992  )
        24           Ni  tau(  24) = (   0.7487842   0.4309709   1.6508315  )

     number of k points=     5  Marzari-Vanderbilt smearing, width (Ry)=  0.0300
                       cart. coord. in units 2pi/alat
        k(    1) = (   0.0000000   0.0000000   0.0000000), wk =   0.2222222
        k(    2) = (  -0.0009220   0.3850331   0.0006930), wk =   0.4444444
        k(    3) = (   0.3328839   0.1924213   0.0001648), wk =   0.4444444
        k(    4) = (   0.3319620   0.5774544   0.0008578), wk =   0.4444444
        k(    5) = (   0.3338059  -0.1926118  -0.0005281), wk =   0.4444444

     Dense  grid:   357849 G-vectors     FFT dimensions: (  64,  64, 216)

     Smooth grid:   126433 G-vectors     FFT dimensions: (  45,  45, 150)

     Estimated max dynamical RAM per process >       1.98 GB

     Atomic positions and unit cell read from directory:
     ./C36/out_logs/C36_out_2/laves_C36.save/
     Atomic positions from file used, from input discarded
 

     Check: negative core charge=   -0.000009

     The initial density is read from file :
     ./C36/out_logs/C36_out_2/laves_C36.save/charge-density


     starting charge     357.8515, renormalised to     368.0000

     negative rho (up, down):  1.269E-01 0.000E+00
     Starting wfcs from file
     Checking if some PAW data can be deallocated... 

     total cpu time spent up to now is        3.6 secs

     Self-consistent Calculation

     iteration #  1     ecut=    60.00 Ry     beta= 0.25
     Davidson diagonalization with overlap
     c_bands:  1 eigenvalues not converged
     ethr =  1.00E-05,  avg # of iterations = 36.6

     negative rho (up, down):  3.735E+00 0.000E+00

     total cpu time spent up to now is       51.4 secs

     total energy              =   -6552.42044166 Ry
     estimated scf accuracy    <    4417.89592624 Ry

     iteration #  2     ecut=    60.00 Ry     beta= 0.25
     Davidson diagonalization with overlap
     ethr =  1.00E-02,  avg # of iterations = 21.4

     negative rho (up, down):  3.531E+00 0.000E+00

     total cpu time spent up to now is       98.8 secs

     total energy              =   -7208.44545286 Ry
     estimated scf accuracy    <   36015.27717617 Ry

     iteration #  3     ecut=    60.00 Ry     beta= 0.25
     Davidson diagonalization with overlap
     ethr =  1.00E-02,  avg # of iterations = 12.8

     negative rho (up, down):  3.763E+00 0.000E+00

     total cpu time spent up to now is      125.9 secs

     total energy              =   -7909.16272920 Ry
     estimated scf accuracy    <    4679.51242571 Ry

     iteration #  4     ecut=    60.00 Ry     beta= 0.25
     Davidson diagonalization with overlap
     ethr =  1.00E-02,  avg # of iterations = 12.6

     negative rho (up, down):  5.069E+00 0.000E+00

     total cpu time spent up to now is      145.0 secs

     total energy              =   -8014.78863941 Ry
     estimated scf accuracy    <     698.65406392 Ry

     iteration #  5     ecut=    60.00 Ry     beta= 0.25
     Davidson diagonalization with overlap
     ethr =  1.00E-02,  avg # of iterations =  3.0

     negative rho (up, down):  5.501E+00 0.000E+00

     total cpu time spent up to now is      154.1 secs

     total energy              =   -7985.96538154 Ry
     estimated scf accuracy    <     400.07882956 Ry

     iteration #  6     ecut=    60.00 Ry     beta= 0.25
     Davidson diagonalization with overlap
     ethr =  1.00E-02,  avg # of iterations =  5.8

     negative rho (up, down):  5.785E+00 0.000E+00

     total cpu time spent up to now is      165.5 secs

     total energy              =   -7951.66058263 Ry
     estimated scf accuracy    <    2040.30442255 Ry

     iteration #  7     ecut=    60.00 Ry     beta= 0.25
     Davidson diagonalization with overlap
     ethr =  1.00E-02,  avg # of iterations =  7.0

     negative rho (up, down):  6.456E+00 0.000E+00

     total cpu time spent up to now is      178.8 secs

     total energy              =   -7989.14642767 Ry
     estimated scf accuracy    <     340.69177783 Ry

     iteration #  8     ecut=    60.00 Ry     beta= 0.25
     Davidson diagonalization with overlap
     ethr =  1.00E-02,  avg # of iterations =  2.8

     negative rho (up, down):  6.685E+00 0.000E+00

     total cpu time spent up to now is      187.6 secs

     total energy              =   -7987.61648221 Ry
     estimated scf accuracy    <     261.29658971 Ry

     iteration #  9     ecut=    60.00 Ry     beta= 0.25
     Davidson diagonalization with overlap
     ethr =  1.00E-02,  avg # of iterations =  2.0

     negative rho (up, down):  6.614E+00 0.000E+00

     total cpu time spent up to now is      196.1 secs

     total energy              =   -7989.75911174 Ry
     estimated scf accuracy    <     302.84407493 Ry

     iteration # 10     ecut=    60.00 Ry     beta= 0.25
     Davidson diagonalization with overlap
     ethr =  1.00E-02,  avg # of iterations =  2.0

     negative rho (up, down):  6.495E+00 0.000E+00

     total cpu time spent up to now is      204.4 secs

     total energy              =   -7991.93897776 Ry
     estimated scf accuracy    <     114.97230447 Ry

     iteration # 11     ecut=    60.00 Ry     beta= 0.25
     Davidson diagonalization with overlap
     ethr =  1.00E-02,  avg # of iterations =  2.0

     negative rho (up, down):  6.335E+00 0.000E+00

     total cpu time spent up to now is      212.7 secs

     total energy              =   -7993.13209211 Ry
     estimated scf accuracy    <      18.77178084 Ry

     iteration # 12     ecut=    60.00 Ry     beta= 0.25
     Davidson diagonalization with overlap
     ethr =  5.10E-03,  avg # of iterations =  2.0

     negative rho (up, down):  6.179E+00 0.000E+00

     total cpu time spent up to now is      220.7 secs

     total energy              =   -7993.10817939 Ry
     estimated scf accuracy    <      33.30615270 Ry

     iteration # 13     ecut=    60.00 Ry     beta= 0.25
     Davidson diagonalization with overlap
     ethr =  5.10E-03,  avg # of iterations =  2.0

     negative rho (up, down):  6.064E+00 0.000E+00

     total cpu time spent up to now is      228.7 secs

     total energy              =   -7992.46025346 Ry
     estimated scf accuracy    <      47.26525822 Ry

     iteration # 14     ecut=    60.00 Ry     beta= 0.25
     Davidson diagonalization with overlap
     ethr =  5.10E-03,  avg # of iterations =  1.0

     negative rho (up, down):  5.937E+00 0.000E+00

     total cpu time spent up to now is      235.9 secs

     total energy              =   -7993.30572902 Ry
     estimated scf accuracy    <      25.35572287 Ry

     iteration # 15     ecut=    60.00 Ry     beta= 0.25
     Davidson diagonalization with overlap
     ethr =  5.10E-03,  avg # of iterations =  1.0

     negative rho (up, down):  5.769E+00 0.000E+00

     total cpu time spent up to now is      243.1 secs

     total energy              =   -7993.59896629 Ry
     estimated scf accuracy    <       9.28730554 Ry

     iteration # 16     ecut=    60.00 Ry     beta= 0.25
     Davidson diagonalization with overlap
     ethr =  2.52E-03,  avg # of iterations =  1.4

     negative rho (up, down):  5.497E+00 0.000E+00

     total cpu time spent up to now is      250.6 secs

     total energy              =   -7993.71185397 Ry
     estimated scf accuracy    <       7.64950773 Ry

     iteration # 17     ecut=    60.00 Ry     beta= 0.25
     Davidson diagonalization with overlap
     ethr =  2.08E-03,  avg # of iterations =  2.0

     negative rho (up, down):  5.386E+00 0.000E+00

     total cpu time spent up to now is      258.8 secs

     total energy              =   -7993.65147575 Ry
     estimated scf accuracy    <      10.48516929 Ry

     iteration # 18     ecut=    60.00 Ry     beta= 0.25
     Davidson diagonalization with overlap
     ethr =  2.08E-03,  avg # of iterations =  1.0

     negative rho (up, down):  5.141E+00 0.000E+00

     total cpu time spent up to now is      266.3 secs

     total energy              =   -7993.83099615 Ry
     estimated scf accuracy    <       8.83456554 Ry

     iteration # 19     ecut=    60.00 Ry     beta= 0.25
     Davidson diagonalization with overlap
     ethr =  2.08E-03,  avg # of iterations =  1.8

     negative rho (up, down):  4.815E+00 0.000E+00

     total cpu time spent up to now is      274.3 secs

     total energy              =   -7994.11267002 Ry
     estimated scf accuracy    <      13.76973826 Ry

     iteration # 20     ecut=    60.00 Ry     beta= 0.25
     Davidson diagonalization with overlap
     ethr =  2.08E-03,  avg # of iterations =  1.0

     negative rho (up, down):  4.701E+00 0.000E+00

     total cpu time spent up to now is      281.5 secs

     total energy              =   -7994.29919710 Ry
     estimated scf accuracy    <      12.69401226 Ry

     iteration # 21     ecut=    60.00 Ry     beta= 0.25
     Davidson diagonalization with overlap
     ethr =  2.08E-03,  avg # of iterations =  1.0

     negative rho (up, down):  4.702E+00 0.000E+00

     total cpu time spent up to now is      288.7 secs

     total energy              =   -7994.31510536 Ry
     estimated scf accuracy    <      11.65985483 Ry

     iteration # 22     ecut=    60.00 Ry     beta= 0.25
     Davidson diagonalization with overlap
     ethr =  2.08E-03,  avg # of iterations =  1.0

     negative rho (up, down):  4.704E+00 0.000E+00

     total cpu time spent up to now is      296.0 secs

     total energy              =   -7994.33107956 Ry
     estimated scf accuracy    <      11.22106946 Ry

     iteration # 23     ecut=    60.00 Ry     beta= 0.25
     Davidson diagonalization with overlap
     ethr =  2.08E-03,  avg # of iterations =  1.0

     negative rho (up, down):  4.727E+00 0.000E+00

     total cpu time spent up to now is      303.3 secs

     total energy              =   -7994.19126368 Ry
     estimated scf accuracy    <      13.74265836 Ry

     iteration # 24     ecut=    60.00 Ry     beta= 0.25
     Davidson diagonalization with overlap
     ethr =  2.08E-03,  avg # of iterations =  1.0

     negative rho (up, down):  4.730E+00 0.000E+00

     total cpu time spent up to now is      310.5 secs

     total energy              =   -7994.25961009 Ry
     estimated scf accuracy    <      14.79504797 Ry

     iteration # 25     ecut=    60.00 Ry     beta= 0.25
     Davidson diagonalization with overlap
     ethr =  2.08E-03,  avg # of iterations =  1.0

     negative rho (up, down):  4.730E+00 0.000E+00

     total cpu time spent up to now is      317.8 secs

     total energy              =   -7994.13134407 Ry
     estimated scf accuracy    <      13.56785963 Ry

     iteration # 26     ecut=    60.00 Ry     beta= 0.25
     Davidson diagonalization with overlap
     ethr =  2.08E-03,  avg # of iterations =  1.0

     negative rho (up, down):  4.403E+00 0.000E+00

     total cpu time spent up to now is      325.0 secs

     total energy              =   -7994.43378838 Ry
     estimated scf accuracy    <      12.06159937 Ry

     iteration # 27     ecut=    60.00 Ry     beta= 0.25
     Davidson diagonalization with overlap
     ethr =  2.08E-03,  avg # of iterations =  2.0

     negative rho (up, down):  4.155E+00 0.000E+00

     total cpu time spent up to now is      333.0 secs

     total energy              =   -7994.74037305 Ry
     estimated scf accuracy    <      24.03314736 Ry

     iteration # 28     ecut=    60.00 Ry     beta= 0.25
     Davidson diagonalization with overlap
     ethr =  2.08E-03,  avg # of iterations =  1.2

     negative rho (up, down):  4.270E+00 0.000E+00

     total cpu time spent up to now is      340.4 secs

     total energy              =   -7994.73046865 Ry
     estimated scf accuracy    <      21.62489822 Ry

     iteration # 29     ecut=    60.00 Ry     beta= 0.25
     Davidson diagonalization with overlap
     ethr =  2.08E-03,  avg # of iterations =  1.0

     negative rho (up, down):  4.276E+00 0.000E+00

     total cpu time spent up to now is      347.7 secs

     total energy              =   -7994.77703647 Ry
     estimated scf accuracy    <      30.23902134 Ry

     iteration # 30     ecut=    60.00 Ry     beta= 0.25
     Davidson diagonalization with overlap
     ethr =  2.08E-03,  avg # of iterations =  1.0

     negative rho (up, down):  4.480E+00 0.000E+00

     total cpu time spent up to now is      354.9 secs

     total energy              =   -7994.32802466 Ry
     estimated scf accuracy    <      22.82217417 Ry

     iteration # 31     ecut=    60.00 Ry     beta= 0.25
     Davidson diagonalization with overlap
     ethr =  2.08E-03,  avg # of iterations =  1.0

     negative rho (up, down):  4.391E+00 0.000E+00

     total cpu time spent up to now is      362.2 secs

     total energy              =   -7994.46381874 Ry
     estimated scf accuracy    <      19.53551895 Ry

     iteration # 32     ecut=    60.00 Ry     beta= 0.25
     Davidson diagonalization with overlap
     ethr =  2.08E-03,  avg # of iterations =  1.8

     negative rho (up, down):  4.137E+00 0.000E+00

     total cpu time spent up to now is      370.0 secs

     total energy              =   -7994.50296356 Ry
     estimated scf accuracy    <      17.99738674 Ry

     iteration # 33     ecut=    60.00 Ry     beta= 0.25
     Davidson diagonalization with overlap
     ethr =  2.08E-03,  avg # of iterations =  2.0

     negative rho (up, down):  4.160E+00 0.000E+00

     total cpu time spent up to now is      378.1 secs

     total energy              =   -7994.63290219 Ry
     estimated scf accuracy    <      26.68969549 Ry

     iteration # 34     ecut=    60.00 Ry     beta= 0.25
     Davidson diagonalization with overlap
     ethr =  2.08E-03,  avg # of iterations =  1.8

     negative rho (up, down):  4.158E+00 0.000E+00

     total cpu time spent up to now is      386.1 secs

     total energy              =   -7994.72327737 Ry
     estimated scf accuracy    <      24.62664654 Ry

     iteration # 35     ecut=    60.00 Ry     beta= 0.25
     Davidson diagonalization with overlap
     ethr =  2.08E-03,  avg # of iterations =  1.4

     negative rho (up, down):  4.365E+00 0.000E+00

     total cpu time spent up to now is      393.9 secs

     total energy              =   -7994.67332065 Ry
     estimated scf accuracy    <      21.64391367 Ry

     iteration # 36     ecut=    60.00 Ry     beta= 0.25
     Davidson diagonalization with overlap
     ethr =  2.08E-03,  avg # of iterations =  1.0

     negative rho (up, down):  4.939E+00 0.000E+00

     total cpu time spent up to now is      401.3 secs

     total energy              =   -7993.80925230 Ry
     estimated scf accuracy    <      24.26420394 Ry

     iteration # 37     ecut=    60.00 Ry     beta= 0.25
     Davidson diagonalization with overlap
     ethr =  2.08E-03,  avg # of iterations =  2.0

     negative rho (up, down):  4.941E+00 0.000E+00

     total cpu time spent up to now is      409.4 secs

     total energy              =   -7993.87176677 Ry
     estimated scf accuracy    <      20.88534467 Ry

     iteration # 38     ecut=    60.00 Ry     beta= 0.25
     Davidson diagonalization with overlap
     ethr =  2.08E-03,  avg # of iterations =  1.4

     negative rho (up, down):  5.009E+00 0.000E+00

     total cpu time spent up to now is      417.1 secs

     total energy              =   -7994.00276803 Ry
     estimated scf accuracy    <      15.28530690 Ry

     iteration # 39     ecut=    60.00 Ry     beta= 0.25
     Davidson diagonalization with overlap
     ethr =  2.08E-03,  avg # of iterations =  1.4

     negative rho (up, down):  4.542E+00 0.000E+00

     total cpu time spent up to now is      425.0 secs

     total energy              =   -7994.14269958 Ry
     estimated scf accuracy    <      26.16350682 Ry

     iteration # 40     ecut=    60.00 Ry     beta= 0.25
     Davidson diagonalization with overlap
     ethr =  2.08E-03,  avg # of iterations =  2.0

     negative rho (up, down):  4.405E+00 0.000E+00

     total cpu time spent up to now is      433.3 secs

     total energy              =   -7994.19508453 Ry
     estimated scf accuracy    <      18.34293719 Ry

     iteration # 41     ecut=    60.00 Ry     beta= 0.25
     Davidson diagonalization with overlap
     ethr =  2.08E-03,  avg # of iterations =  2.0

     negative rho (up, down):  4.390E+00 0.000E+00

     total cpu time spent up to now is      441.5 secs

     total energy              =   -7994.37461755 Ry
     estimated scf accuracy    <      21.89751805 Ry

     iteration # 42     ecut=    60.00 Ry     beta= 0.25
     Davidson diagonalization with overlap
     ethr =  2.08E-03,  avg # of iterations =  1.4

     negative rho (up, down):  4.377E+00 0.000E+00

     total cpu time spent up to now is      449.0 secs

     total energy              =   -7994.60761362 Ry
     estimated scf accuracy    <      19.10271588 Ry

     iteration # 43     ecut=    60.00 Ry     beta= 0.25
     Davidson diagonalization with overlap
     ethr =  2.08E-03,  avg # of iterations =  1.0

     negative rho (up, down):  4.407E+00 0.000E+00

     total cpu time spent up to now is      456.2 secs

     total energy              =   -7994.59579632 Ry
     estimated scf accuracy    <      19.32025871 Ry

     iteration # 44     ecut=    60.00 Ry     beta= 0.25
     Davidson diagonalization with overlap
     ethr =  2.08E-03,  avg # of iterations =  1.0

     negative rho (up, down):  4.442E+00 0.000E+00

     total cpu time spent up to now is      463.5 secs

     total energy              =   -7994.43423262 Ry
     estimated scf accuracy    <      20.61204482 Ry

     iteration # 45     ecut=    60.00 Ry     beta= 0.25
     Davidson diagonalization with overlap
     ethr =  2.08E-03,  avg # of iterations =  1.0

     negative rho (up, down):  4.436E+00 0.000E+00

     total cpu time spent up to now is      470.7 secs

     total energy              =   -7994.41616742 Ry
     estimated scf accuracy    <      21.80354914 Ry

     iteration # 46     ecut=    60.00 Ry     beta= 0.25
     Davidson diagonalization with overlap
     ethr =  2.08E-03,  avg # of iterations =  1.0

     negative rho (up, down):  4.426E+00 0.000E+00

     total cpu time spent up to now is      477.9 secs

     total energy              =   -7994.50268991 Ry
     estimated scf accuracy    <      19.10502693 Ry

     iteration # 47     ecut=    60.00 Ry     beta= 0.25
     Davidson diagonalization with overlap
     ethr =  2.08E-03,  avg # of iterations =  1.0

     negative rho (up, down):  4.464E+00 0.000E+00

     total cpu time spent up to now is      485.2 secs

     total energy              =   -7994.29594409 Ry
     estimated scf accuracy    <      24.32027514 Ry

     iteration # 48     ecut=    60.00 Ry     beta= 0.25
     Davidson diagonalization with overlap
     ethr =  2.08E-03,  avg # of iterations =  2.0

     negative rho (up, down):  4.315E+00 0.000E+00

     total cpu time spent up to now is      493.2 secs

     total energy              =   -7994.59282716 Ry
     estimated scf accuracy    <      21.72579942 Ry

     iteration # 49     ecut=    60.00 Ry     beta= 0.25
     Davidson diagonalization with overlap
     ethr =  2.08E-03,  avg # of iterations =  1.8

     negative rho (up, down):  4.194E+00 0.000E+00

     total cpu time spent up to now is      501.0 secs

     total energy              =   -7994.29349336 Ry
     estimated scf accuracy    <      26.38160516 Ry

     iteration # 50     ecut=    60.00 Ry     beta= 0.25
     Davidson diagonalization with overlap
     ethr =  2.08E-03,  avg # of iterations =  2.0

     negative rho (up, down):  4.177E+00 0.000E+00

     total cpu time spent up to now is      509.1 secs

     total energy              =   -7994.45738702 Ry
     estimated scf accuracy    <      17.73588134 Ry

     iteration # 51     ecut=    60.00 Ry     beta= 0.25
     Davidson diagonalization with overlap
     ethr =  2.08E-03,  avg # of iterations =  2.0

     negative rho (up, down):  4.068E+00 0.000E+00

     total cpu time spent up to now is      517.1 secs

     total energy              =   -7994.46382456 Ry
     estimated scf accuracy    <      18.66489901 Ry

     iteration # 52     ecut=    60.00 Ry     beta= 0.25
     Davidson diagonalization with overlap
     ethr =  2.08E-03,  avg # of iterations =  2.0

     negative rho (up, down):  3.940E+00 0.000E+00

     total cpu time spent up to now is      525.2 secs

     total energy              =   -7994.07198645 Ry
     estimated scf accuracy    <      85.17529123 Ry

     iteration # 53     ecut=    60.00 Ry     beta= 0.25
     Davidson diagonalization with overlap
     ethr =  2.08E-03,  avg # of iterations =  2.0

     negative rho (up, down):  3.697E+00 0.000E+00

     total cpu time spent up to now is      533.2 secs

     total energy              =   -7994.58536890 Ry
     estimated scf accuracy    <      21.95700106 Ry

     iteration # 54     ecut=    60.00 Ry     beta= 0.25
     Davidson diagonalization with overlap
     ethr =  2.08E-03,  avg # of iterations =  2.0

     negative rho (up, down):  3.462E+00 0.000E+00

     total cpu time spent up to now is      541.2 secs

     total energy              =   -7994.32991963 Ry
     estimated scf accuracy    <      40.63050360 Ry

     iteration # 55     ecut=    60.00 Ry     beta= 0.25
     Davidson diagonalization with overlap
     ethr =  2.08E-03,  avg # of iterations =  2.0

     negative rho (up, down):  3.412E+00 0.000E+00

     total cpu time spent up to now is      549.3 secs

     total energy              =   -7994.25187199 Ry
     estimated scf accuracy    <      31.16190324 Ry

     iteration # 56     ecut=    60.00 Ry     beta= 0.25
     Davidson diagonalization with overlap
     ethr =  2.08E-03,  avg # of iterations =  2.0

     negative rho (up, down):  3.288E+00 0.000E+00

     total cpu time spent up to now is      557.7 secs

     total energy              =   -7994.92291310 Ry
     estimated scf accuracy    <      21.51961359 Ry

     iteration # 57     ecut=    60.00 Ry     beta= 0.25
     Davidson diagonalization with overlap
     ethr =  2.08E-03,  avg # of iterations =  2.0

     negative rho (up, down):  3.097E+00 0.000E+00

     total cpu time spent up to now is      565.8 secs

     total energy              =   -7995.11479866 Ry
     estimated scf accuracy    <      13.55804324 Ry

     iteration # 58     ecut=    60.00 Ry     beta= 0.25
     Davidson diagonalization with overlap
     ethr =  2.08E-03,  avg # of iterations =  2.0

     negative rho (up, down):  2.975E+00 0.000E+00

     total cpu time spent up to now is      573.8 secs

     total energy              =   -7995.27041619 Ry
     estimated scf accuracy    <      14.19726885 Ry

     iteration # 59     ecut=    60.00 Ry     beta= 0.25
     Davidson diagonalization with overlap
     ethr =  2.08E-03,  avg # of iterations =  2.0

     negative rho (up, down):  2.859E+00 0.000E+00

     total cpu time spent up to now is      581.8 secs

     total energy              =   -7995.02873572 Ry
     estimated scf accuracy    <      34.07603702 Ry

     iteration # 60     ecut=    60.00 Ry     beta= 0.25
     Davidson diagonalization with overlap
     ethr =  2.08E-03,  avg # of iterations =  2.0

     negative rho (up, down):  2.920E+00 0.000E+00

     total cpu time spent up to now is      590.2 secs

     total energy              =   -7995.57686478 Ry
     estimated scf accuracy    <      29.13739137 Ry

     iteration # 61     ecut=    60.00 Ry     beta= 0.25
     Davidson diagonalization with overlap
     ethr =  2.08E-03,  avg # of iterations =  2.0

     negative rho (up, down):  2.912E+00 0.000E+00

     total cpu time spent up to now is      598.4 secs

     total energy              =   -7995.59472990 Ry
     estimated scf accuracy    <      31.53856782 Ry

     iteration # 62     ecut=    60.00 Ry     beta= 0.25
     Davidson diagonalization with overlap
     ethr =  2.08E-03,  avg # of iterations =  2.0

     negative rho (up, down):  2.884E+00 0.000E+00

     total cpu time spent up to now is      606.6 secs

     total energy              =   -7995.72340405 Ry
     estimated scf accuracy    <      20.14272282 Ry

     iteration # 63     ecut=    60.00 Ry     beta= 0.25
     Davidson diagonalization with overlap
     ethr =  2.08E-03,  avg # of iterations =  1.0

     negative rho (up, down):  2.887E+00 0.000E+00

     total cpu time spent up to now is      614.0 secs

     total energy              =   -7995.66338435 Ry
     estimated scf accuracy    <      19.23464054 Ry

     iteration # 64     ecut=    60.00 Ry     beta= 0.25
     Davidson diagonalization with overlap
     ethr =  2.08E-03,  avg # of iterations =  1.0

     negative rho (up, down):  2.868E+00 0.000E+00

     total cpu time spent up to now is      621.4 secs

     total energy              =   -7995.58233459 Ry
     estimated scf accuracy    <      18.53076713 Ry

     iteration # 65     ecut=    60.00 Ry     beta= 0.25
     Davidson diagonalization with overlap
     ethr =  2.08E-03,  avg # of iterations =  1.0

     negative rho (up, down):  2.849E+00 0.000E+00

     total cpu time spent up to now is      628.7 secs

     total energy              =   -7995.44452412 Ry
     estimated scf accuracy    <      16.89742732 Ry

     iteration # 66     ecut=    60.00 Ry     beta= 0.25
     Davidson diagonalization with overlap
     ethr =  2.08E-03,  avg # of iterations =  1.8

     negative rho (up, down):  2.770E+00 0.000E+00

     total cpu time spent up to now is      636.7 secs

     total energy              =   -7995.52469545 Ry
     estimated scf accuracy    <      19.04571327 Ry

     iteration # 67     ecut=    60.00 Ry     beta= 0.25
     Davidson diagonalization with overlap
     ethr =  2.08E-03,  avg # of iterations =  1.8

     negative rho (up, down):  2.702E+00 0.000E+00

     total cpu time spent up to now is      644.6 secs

     total energy              =   -7995.64274773 Ry
     estimated scf accuracy    <      12.52145420 Ry

     iteration # 68     ecut=    60.00 Ry     beta= 0.25
     Davidson diagonalization with overlap
     ethr =  2.08E-03,  avg # of iterations =  1.8

     negative rho (up, down):  2.652E+00 0.000E+00

     total cpu time spent up to now is      652.8 secs

     total energy              =   -7995.70711752 Ry
     estimated scf accuracy    <      14.81196212 Ry

     iteration # 69     ecut=    60.00 Ry     beta= 0.25
     Davidson diagonalization with overlap
     ethr =  2.08E-03,  avg # of iterations =  1.6

     negative rho (up, down):  2.625E+00 0.000E+00

     total cpu time spent up to now is      660.9 secs

     total energy              =   -7995.51118773 Ry
     estimated scf accuracy    <      14.64815653 Ry

     iteration # 70     ecut=    60.00 Ry     beta= 0.25
     Davidson diagonalization with overlap
     ethr =  2.08E-03,  avg # of iterations =  2.0

     negative rho (up, down):  2.542E+00 0.000E+00

     total cpu time spent up to now is      669.1 secs

     total energy              =   -7995.39382610 Ry
     estimated scf accuracy    <      18.98480504 Ry

     iteration # 71     ecut=    60.00 Ry     beta= 0.25
     Davidson diagonalization with overlap
     ethr =  2.08E-03,  avg # of iterations =  2.0

     negative rho (up, down):  2.546E+00 0.000E+00

     total cpu time spent up to now is      677.4 secs

     total energy              =   -7996.01881745 Ry
     estimated scf accuracy    <      18.80785090 Ry

     iteration # 72     ecut=    60.00 Ry     beta= 0.25
     Davidson diagonalization with overlap
     ethr =  2.08E-03,  avg # of iterations =  1.0

     negative rho (up, down):  2.572E+00 0.000E+00

     total cpu time spent up to now is      685.0 secs

     total energy              =   -7995.83492106 Ry
     estimated scf accuracy    <      19.50429689 Ry

     iteration # 73     ecut=    60.00 Ry     beta= 0.25
     Davidson diagonalization with overlap
     ethr =  2.08E-03,  avg # of iterations =  1.0

     negative rho (up, down):  2.540E+00 0.000E+00

     total cpu time spent up to now is      692.3 secs

     total energy              =   -7995.94170209 Ry
     estimated scf accuracy    <      15.91654002 Ry

     iteration # 74     ecut=    60.00 Ry     beta= 0.25
     Davidson diagonalization with overlap
     ethr =  2.08E-03,  avg # of iterations =  1.0

     negative rho (up, down):  2.765E+00 0.000E+00

     total cpu time spent up to now is      700.5 secs

     total energy              =   -7995.54693954 Ry
     estimated scf accuracy    <      18.08881067 Ry

     iteration # 75     ecut=    60.00 Ry     beta= 0.25
     Davidson diagonalization with overlap
     ethr =  2.08E-03,  avg # of iterations =  2.0

     negative rho (up, down):  2.840E+00 0.000E+00

     total cpu time spent up to now is      708.5 secs

     total energy              =   -7995.50582748 Ry
     estimated scf accuracy    <      18.23681838 Ry

     iteration # 76     ecut=    60.00 Ry     beta= 0.25
     Davidson diagonalization with overlap
     ethr =  2.08E-03,  avg # of iterations =  2.0

     negative rho (up, down):  2.963E+00 0.000E+00

     total cpu time spent up to now is      716.5 secs

     total energy              =   -7995.42311361 Ry
     estimated scf accuracy    <      20.11805989 Ry

     iteration # 77     ecut=    60.00 Ry     beta= 0.25
     Davidson diagonalization with overlap
     ethr =  2.08E-03,  avg # of iterations =  1.4

     negative rho (up, down):  2.841E+00 0.000E+00

     total cpu time spent up to now is      724.1 secs

     total energy              =   -7994.55152431 Ry
     estimated scf accuracy    <      73.44689170 Ry

     iteration # 78     ecut=    60.00 Ry     beta= 0.25
     Davidson diagonalization with overlap
     ethr =  2.08E-03,  avg # of iterations =  1.2

     negative rho (up, down):  2.631E+00 0.000E+00

     total cpu time spent up to now is      731.5 secs

     total energy              =   -7995.49442655 Ry
     estimated scf accuracy    <      22.60662589 Ry

     iteration # 79     ecut=    60.00 Ry     beta= 0.25
     Davidson diagonalization with overlap
     ethr =  2.08E-03,  avg # of iterations =  2.0

     negative rho (up, down):  2.553E+00 0.000E+00

     total cpu time spent up to now is      740.0 secs

     total energy              =   -7994.93806439 Ry
     estimated scf accuracy    <      33.53676629 Ry

     iteration # 80     ecut=    60.00 Ry     beta= 0.25
     Davidson diagonalization with overlap
     ethr =  2.08E-03,  avg # of iterations =  1.6

     negative rho (up, down):  2.566E+00 0.000E+00

     total cpu time spent up to now is      748.1 secs

     total energy              =   -7995.29750052 Ry
     estimated scf accuracy    <      25.35725042 Ry

     iteration # 81     ecut=    60.00 Ry     beta= 0.25
     Davidson diagonalization with overlap
     ethr =  2.08E-03,  avg # of iterations =  2.0

     negative rho (up, down):  2.583E+00 0.000E+00

     total cpu time spent up to now is      756.2 secs

     total energy              =   -7995.99848010 Ry
     estimated scf accuracy    <      17.01499666 Ry

     iteration # 82     ecut=    60.00 Ry     beta= 0.25
     Davidson diagonalization with overlap
     ethr =  2.08E-03,  avg # of iterations =  1.2

     negative rho (up, down):  2.575E+00 0.000E+00

     total cpu time spent up to now is      763.7 secs

     total energy              =   -7995.74751906 Ry
     estimated scf accuracy    <      28.12263690 Ry

     iteration # 83     ecut=    60.00 Ry     beta= 0.25
     Davidson diagonalization with overlap
     ethr =  2.08E-03,  avg # of iterations =  1.0

     negative rho (up, down):  2.506E+00 0.000E+00

     total cpu time spent up to now is      771.0 secs

     total energy              =   -7995.89264929 Ry
     estimated scf accuracy    <      19.02784379 Ry

     iteration # 84     ecut=    60.00 Ry     beta= 0.25
     Davidson diagonalization with overlap
     ethr =  2.08E-03,  avg # of iterations =  1.0

     negative rho (up, down):  2.482E+00 0.000E+00

     total cpu time spent up to now is      778.3 secs

     total energy              =   -7996.10298290 Ry
     estimated scf accuracy    <      20.86831306 Ry

     iteration # 85     ecut=    60.00 Ry     beta= 0.25
     Davidson diagonalization with overlap
     ethr =  2.08E-03,  avg # of iterations =  1.0

     negative rho (up, down):  2.542E+00 0.000E+00

     total cpu time spent up to now is      785.6 secs

     total energy              =   -7995.92119257 Ry
     estimated scf accuracy    <      19.42486700 Ry

     iteration # 86     ecut=    60.00 Ry     beta= 0.25
     Davidson diagonalization with overlap
     ethr =  2.08E-03,  avg # of iterations =  1.0

     negative rho (up, down):  2.598E+00 0.000E+00

     total cpu time spent up to now is      793.2 secs

     total energy              =   -7995.74695189 Ry
     estimated scf accuracy    <      18.47753744 Ry

     iteration # 87     ecut=    60.00 Ry     beta= 0.25
     Davidson diagonalization with overlap
     ethr =  2.08E-03,  avg # of iterations =  1.6

     negative rho (up, down):  2.563E+00 0.000E+00

     total cpu time spent up to now is      801.1 secs

     total energy              =   -7995.99432184 Ry
     estimated scf accuracy    <      16.95058014 Ry

     iteration # 88     ecut=    60.00 Ry     beta= 0.25
     Davidson diagonalization with overlap
     ethr =  2.08E-03,  avg # of iterations =  1.0

     negative rho (up, down):  2.394E+00 0.000E+00

     total cpu time spent up to now is      808.6 secs

     total energy              =   -7995.64775241 Ry
     estimated scf accuracy    <      18.67445533 Ry

     iteration # 89     ecut=    60.00 Ry     beta= 0.25
     Davidson diagonalization with overlap
     ethr =  2.08E-03,  avg # of iterations =  2.0

     negative rho (up, down):  2.275E+00 0.000E+00

     total cpu time spent up to now is      816.9 secs

     total energy              =   -7995.68520087 Ry
     estimated scf accuracy    <      26.48114252 Ry

     iteration # 90     ecut=    60.00 Ry     beta= 0.25
     Davidson diagonalization with overlap
     ethr =  2.08E-03,  avg # of iterations =  1.4

     negative rho (up, down):  2.227E+00 0.000E+00

     total cpu time spent up to now is      824.5 secs

     total energy              =   -7996.01425981 Ry
     estimated scf accuracy    <      19.20818610 Ry

     iteration # 91     ecut=    60.00 Ry     beta= 0.25
     Davidson diagonalization with overlap
     ethr =  2.08E-03,  avg # of iterations =  1.6

     negative rho (up, down):  2.197E+00 0.000E+00

     total cpu time spent up to now is      832.6 secs

     total energy              =   -7996.06291846 Ry
     estimated scf accuracy    <      16.99898512 Ry

     iteration # 92     ecut=    60.00 Ry     beta= 0.25
     Davidson diagonalization with overlap
     ethr =  2.08E-03,  avg # of iterations =  2.0

     negative rho (up, down):  2.190E+00 0.000E+00

     total cpu time spent up to now is      840.7 secs

     total energy              =   -7996.12757842 Ry
     estimated scf accuracy    <      18.98670410 Ry

     iteration # 93     ecut=    60.00 Ry     beta= 0.25
     Davidson diagonalization with overlap
     ethr =  2.08E-03,  avg # of iterations =  2.0

     negative rho (up, down):  2.187E+00 0.000E+00

     total cpu time spent up to now is      848.7 secs

     total energy              =   -7996.10420097 Ry
     estimated scf accuracy    <      19.35919742 Ry

     iteration # 94     ecut=    60.00 Ry     beta= 0.25
     Davidson diagonalization with overlap
     ethr =  2.08E-03,  avg # of iterations =  1.8

     negative rho (up, down):  2.175E+00 0.000E+00

     total cpu time spent up to now is      856.8 secs

     total energy              =   -7996.05648731 Ry
     estimated scf accuracy    <      15.30599550 Ry

     iteration # 95     ecut=    60.00 Ry     beta= 0.25
     Davidson diagonalization with overlap
     ethr =  2.08E-03,  avg # of iterations =  2.0

     negative rho (up, down):  2.241E+00 0.000E+00

     total cpu time spent up to now is      865.5 secs

     total energy              =   -7996.01087886 Ry
     estimated scf accuracy    <      31.71472832 Ry

     iteration # 96     ecut=    60.00 Ry     beta= 0.25
     Davidson diagonalization with overlap
     ethr =  2.08E-03,  avg # of iterations =  1.2

     negative rho (up, down):  2.230E+00 0.000E+00

     total cpu time spent up to now is      873.5 secs

     total energy              =   -7996.20166671 Ry
     estimated scf accuracy    <      26.62111381 Ry

     iteration # 97     ecut=    60.00 Ry     beta= 0.25
     Davidson diagonalization with overlap
     ethr =  2.08E-03,  avg # of iterations =  1.0

     negative rho (up, down):  2.219E+00 0.000E+00

     total cpu time spent up to now is      880.8 secs

     total energy              =   -7996.36081210 Ry
     estimated scf accuracy    <      20.39528825 Ry

     iteration # 98     ecut=    60.00 Ry     beta= 0.25
     Davidson diagonalization with overlap
     ethr =  2.08E-03,  avg # of iterations =  1.0

     negative rho (up, down):  2.185E+00 0.000E+00

     total cpu time spent up to now is      888.4 secs

     total energy              =   -7996.15449803 Ry
     estimated scf accuracy    <      20.03538559 Ry

     iteration # 99     ecut=    60.00 Ry     beta= 0.25
     Davidson diagonalization with overlap
     ethr =  2.08E-03,  avg # of iterations =  1.2

     negative rho (up, down):  1.997E+00 0.000E+00

     total cpu time spent up to now is      896.4 secs

     total energy              =   -7994.69144463 Ry
     estimated scf accuracy    <      87.38563146 Ry

     iteration #100     ecut=    60.00 Ry     beta= 0.25
     Davidson diagonalization with overlap
     ethr =  2.08E-03,  avg # of iterations =  2.0

     negative rho (up, down):  1.987E+00 0.000E+00

     total cpu time spent up to now is      905.4 secs

     total energy              =   -7996.15408923 Ry
     estimated scf accuracy    <      20.23736375 Ry

     iteration #101     ecut=    60.00 Ry     beta= 0.25
     Davidson diagonalization with overlap
     ethr =  2.08E-03,  avg # of iterations =  2.0

     negative rho (up, down):  1.901E+00 0.000E+00

     total cpu time spent up to now is      913.8 secs

     total energy              =   -7996.51728995 Ry
     estimated scf accuracy    <      18.02126862 Ry

     iteration #102     ecut=    60.00 Ry     beta= 0.25
     Davidson diagonalization with overlap
     ethr =  2.08E-03,  avg # of iterations =  1.0

     negative rho (up, down):  1.860E+00 0.000E+00

     total cpu time spent up to now is      921.4 secs

     total energy              =   -7995.55929938 Ry
     estimated scf accuracy    <      20.32104953 Ry

     iteration #103     ecut=    60.00 Ry     beta= 0.25
     Davidson diagonalization with overlap
     ethr =  2.08E-03,  avg # of iterations =  2.0

     negative rho (up, down):  1.827E+00 0.000E+00

     total cpu time spent up to now is      930.3 secs

     total energy              =   -7995.09352452 Ry
     estimated scf accuracy    <      72.98394099 Ry

     iteration #104     ecut=    60.00 Ry     beta= 0.25
     Davidson diagonalization with overlap
     ethr =  2.08E-03,  avg # of iterations =  2.0

     negative rho (up, down):  1.774E+00 0.000E+00

     total cpu time spent up to now is      938.6 secs

     total energy              =   -7996.46599121 Ry
     estimated scf accuracy    <      19.24115145 Ry

     iteration #105     ecut=    60.00 Ry     beta= 0.25
     Davidson diagonalization with overlap
     ethr =  2.08E-03,  avg # of iterations =  1.2

     negative rho (up, down):  1.687E+00 0.000E+00

     total cpu time spent up to now is      946.8 secs

     total energy              =   -7996.04188624 Ry
     estimated scf accuracy    <      28.61679030 Ry

     iteration #106     ecut=    60.00 Ry     beta= 0.25
     Davidson diagonalization with overlap
     ethr =  2.08E-03,  avg # of iterations =  1.2

     negative rho (up, down):  1.667E+00 0.000E+00

     total cpu time spent up to now is      954.3 secs

     total energy              =   -7996.36521093 Ry
     estimated scf accuracy    <      17.29446927 Ry

     iteration #107     ecut=    60.00 Ry     beta= 0.25
     Davidson diagonalization with overlap
     ethr =  2.08E-03,  avg # of iterations =  2.0

     negative rho (up, down):  1.568E+00 0.000E+00

     total cpu time spent up to now is      962.5 secs

     total energy              =   -7996.49563309 Ry
     estimated scf accuracy    <      14.27519215 Ry

     iteration #108     ecut=    60.00 Ry     beta= 0.25
     Davidson diagonalization with overlap
     ethr =  2.08E-03,  avg # of iterations =  2.0

     negative rho (up, down):  1.536E+00 0.000E+00

     total cpu time spent up to now is      970.5 secs

     total energy              =   -7995.89893894 Ry
     estimated scf accuracy    <      60.12662825 Ry

     iteration #109     ecut=    60.00 Ry     beta= 0.25
     Davidson diagonalization with overlap
     ethr =  2.08E-03,  avg # of iterations =  1.0

     negative rho (up, down):  1.562E+00 0.000E+00

     total cpu time spent up to now is      978.1 secs

     total energy              =   -7996.54346827 Ry
     estimated scf accuracy    <      18.45226855 Ry

     iteration #110     ecut=    60.00 Ry     beta= 0.25
     Davidson diagonalization with overlap
     ethr =  2.08E-03,  avg # of iterations =  2.0

     negative rho (up, down):  1.543E+00 0.000E+00

     total cpu time spent up to now is      986.4 secs

     total energy              =   -7996.63443513 Ry
     estimated scf accuracy    <      18.54321545 Ry

     iteration #111     ecut=    60.00 Ry     beta= 0.25
     Davidson diagonalization with overlap
     ethr =  2.08E-03,  avg # of iterations =  1.2

     negative rho (up, down):  1.500E+00 0.000E+00

     total cpu time spent up to now is      994.4 secs

     total energy              =   -7996.13125707 Ry
     estimated scf accuracy    <      72.11926871 Ry

     iteration #112     ecut=    60.00 Ry     beta= 0.25
     Davidson diagonalization with overlap
     ethr =  2.08E-03,  avg # of iterations =  1.0

     negative rho (up, down):  1.505E+00 0.000E+00

     total cpu time spent up to now is     1001.7 secs

     total energy              =   -7996.90507973 Ry
     estimated scf accuracy    <      18.06444328 Ry

     iteration #113     ecut=    60.00 Ry     beta= 0.25
     Davidson diagonalization with overlap
     ethr =  2.08E-03,  avg # of iterations =  1.0

     negative rho (up, down):  1.508E+00 0.000E+00

     total cpu time spent up to now is     1008.9 secs

     total energy              =   -7996.92060280 Ry
     estimated scf accuracy    <      16.46920918 Ry

     iteration #114     ecut=    60.00 Ry     beta= 0.25
     Davidson diagonalization with overlap
     ethr =  2.08E-03,  avg # of iterations =  1.0

     negative rho (up, down):  1.539E+00 0.000E+00

     total cpu time spent up to now is     1016.1 secs

     total energy              =   -7996.83061823 Ry
     estimated scf accuracy    <      17.11832924 Ry

     iteration #115     ecut=    60.00 Ry     beta= 0.25
     Davidson diagonalization with overlap
     ethr =  2.08E-03,  avg # of iterations =  1.0

     negative rho (up, down):  1.518E+00 0.000E+00

     total cpu time spent up to now is     1023.4 secs

     total energy              =   -7996.74071325 Ry
     estimated scf accuracy    <      17.73275704 Ry

     iteration #116     ecut=    60.00 Ry     beta= 0.25
     Davidson diagonalization with overlap
     ethr =  2.08E-03,  avg # of iterations =  1.8

     negative rho (up, down):  1.562E+00 0.000E+00

     total cpu time spent up to now is     1031.3 secs

     total energy              =   -7996.60944928 Ry
     estimated scf accuracy    <      17.62084793 Ry

     iteration #117     ecut=    60.00 Ry     beta= 0.25
     Davidson diagonalization with overlap
     ethr =  2.08E-03,  avg # of iterations =  2.0

     negative rho (up, down):  1.538E+00 0.000E+00

     total cpu time spent up to now is     1039.7 secs

     total energy              =   -7996.89042130 Ry
     estimated scf accuracy    <      19.45199342 Ry

     iteration #118     ecut=    60.00 Ry     beta= 0.25
     Davidson diagonalization with overlap
     ethr =  2.08E-03,  avg # of iterations =  1.0

     negative rho (up, down):  1.599E+00 0.000E+00

     total cpu time spent up to now is     1047.0 secs

     total energy              =   -7996.76478685 Ry
     estimated scf accuracy    <      16.93470348 Ry

     iteration #119     ecut=    60.00 Ry     beta= 0.25
     Davidson diagonalization with overlap
     ethr =  2.08E-03,  avg # of iterations =  1.0

     negative rho (up, down):  1.583E+00 0.000E+00

     total cpu time spent up to now is     1054.7 secs

     total energy              =   -7996.82681175 Ry
     estimated scf accuracy    <      15.63583690 Ry

     iteration #120     ecut=    60.00 Ry     beta= 0.25
     Davidson diagonalization with overlap
     ethr =  2.08E-03,  avg # of iterations =  1.0

     negative rho (up, down):  1.541E+00 0.000E+00

     total cpu time spent up to now is     1062.4 secs

     total energy              =   -7996.59507918 Ry
     estimated scf accuracy    <      26.84228111 Ry

     iteration #121     ecut=    60.00 Ry     beta= 0.25
     Davidson diagonalization with overlap
     ethr =  2.08E-03,  avg # of iterations =  1.2

     negative rho (up, down):  1.574E+00 0.000E+00

     total cpu time spent up to now is     1070.1 secs

     total energy              =   -7995.62500824 Ry
     estimated scf accuracy    <      99.33722249 Ry

     iteration #122     ecut=    60.00 Ry     beta= 0.25
     Davidson diagonalization with overlap
     ethr =  2.08E-03,  avg # of iterations =  1.6

     negative rho (up, down):  1.532E+00 0.000E+00

     total cpu time spent up to now is     1078.8 secs

     total energy              =   -7996.80781477 Ry
     estimated scf accuracy    <      25.88581412 Ry

     iteration #123     ecut=    60.00 Ry     beta= 0.25
     Davidson diagonalization with overlap
     ethr =  2.08E-03,  avg # of iterations =  1.8

     negative rho (up, down):  1.490E+00 0.000E+00

     total cpu time spent up to now is     1087.0 secs

     total energy              =   -7996.55274255 Ry
     estimated scf accuracy    <      19.29217727 Ry

     iteration #124     ecut=    60.00 Ry     beta= 0.25
     Davidson diagonalization with overlap
     ethr =  2.08E-03,  avg # of iterations =  2.0

     negative rho (up, down):  1.469E+00 0.000E+00

     total cpu time spent up to now is     1095.7 secs

     total energy              =   -7996.20692370 Ry
     estimated scf accuracy    <      32.95649901 Ry

     iteration #125     ecut=    60.00 Ry     beta= 0.25
     Davidson diagonalization with overlap
     ethr =  2.08E-03,  avg # of iterations =  2.0

     negative rho (up, down):  1.443E+00 0.000E+00

     total cpu time spent up to now is     1104.3 secs

     total energy              =   -7996.26550255 Ry
     estimated scf accuracy    <      53.14446186 Ry

     iteration #126     ecut=    60.00 Ry     beta= 0.25
     Davidson diagonalization with overlap
     ethr =  2.08E-03,  avg # of iterations =  1.0

     negative rho (up, down):  1.436E+00 0.000E+00

     total cpu time spent up to now is     1111.9 secs

     total energy              =   -7996.84618671 Ry
     estimated scf accuracy    <      20.27252396 Ry

     iteration #127     ecut=    60.00 Ry     beta= 0.25
     Davidson diagonalization with overlap
     ethr =  2.08E-03,  avg # of iterations =  1.0

     negative rho (up, down):  1.348E+00 0.000E+00

     total cpu time spent up to now is     1119.5 secs

     total energy              =   -7996.72194672 Ry
     estimated scf accuracy    <      12.82519200 Ry

     iteration #128     ecut=    60.00 Ry     beta= 0.25
     Davidson diagonalization with overlap
     ethr =  2.08E-03,  avg # of iterations =  1.2

     negative rho (up, down):  1.331E+00 0.000E+00

     total cpu time spent up to now is     1127.3 secs

     total energy              =   -7996.41718963 Ry
     estimated scf accuracy    <      26.38636240 Ry

     iteration #129     ecut=    60.00 Ry     beta= 0.25
     Davidson diagonalization with overlap
     ethr =  2.08E-03,  avg # of iterations =  1.2

     negative rho (up, down):  1.245E+00 0.000E+00

     total cpu time spent up to now is     1135.1 secs

     total energy              =   -7996.54174900 Ry
     estimated scf accuracy    <      14.36850114 Ry

     iteration #130     ecut=    60.00 Ry     beta= 0.25
     Davidson diagonalization with overlap
     ethr =  2.08E-03,  avg # of iterations =  2.0

     negative rho (up, down):  1.174E+00 0.000E+00

     total cpu time spent up to now is     1143.4 secs

     total energy              =   -7993.17907860 Ry
     estimated scf accuracy    <     247.14506770 Ry

     iteration #131     ecut=    60.00 Ry     beta= 0.25
     Davidson diagonalization with overlap
     ethr =  2.08E-03,  avg # of iterations =  2.0

     negative rho (up, down):  1.168E+00 0.000E+00

     total cpu time spent up to now is     1152.2 secs

     total energy              =   -7996.92575994 Ry
     estimated scf accuracy    <      19.84935664 Ry

     iteration #132     ecut=    60.00 Ry     beta= 0.25
     Davidson diagonalization with overlap
     ethr =  2.08E-03,  avg # of iterations =  2.0

     negative rho (up, down):  1.120E+00 0.000E+00

     total cpu time spent up to now is     1160.4 secs

     total energy              =   -7996.80821347 Ry
     estimated scf accuracy    <      10.78425734 Ry

     iteration #133     ecut=    60.00 Ry     beta= 0.25
     Davidson diagonalization with overlap
     ethr =  2.08E-03,  avg # of iterations =  2.0

     negative rho (up, down):  1.097E+00 0.000E+00

     total cpu time spent up to now is     1168.8 secs

     total energy              =   -7996.68480212 Ry
     estimated scf accuracy    <      21.10776632 Ry

     iteration #134     ecut=    60.00 Ry     beta= 0.25
     Davidson diagonalization with overlap
     ethr =  2.08E-03,  avg # of iterations =  2.0

     negative rho (up, down):  1.088E+00 0.000E+00

     total cpu time spent up to now is     1177.0 secs

     total energy              =   -7996.84545945 Ry
     estimated scf accuracy    <      13.37220551 Ry

     iteration #135     ecut=    60.00 Ry     beta= 0.25
     Davidson diagonalization with overlap
     ethr =  2.08E-03,  avg # of iterations =  2.0

     negative rho (up, down):  1.077E+00 0.000E+00

     total cpu time spent up to now is     1185.4 secs

     total energy              =   -7996.95124815 Ry
     estimated scf accuracy    <      13.18078004 Ry

     iteration #136     ecut=    60.00 Ry     beta= 0.25
     Davidson diagonalization with overlap
     ethr =  2.08E-03,  avg # of iterations =  2.0

     negative rho (up, down):  1.052E+00 0.000E+00

     total cpu time spent up to now is     1193.5 secs

     total energy              =   -7997.07437947 Ry
     estimated scf accuracy    <      10.28207089 Ry

     iteration #137     ecut=    60.00 Ry     beta= 0.25
     Davidson diagonalization with overlap
     ethr =  2.08E-03,  avg # of iterations =  1.0

     negative rho (up, down):  1.059E+00 0.000E+00

     total cpu time spent up to now is     1201.0 secs

     total energy              =   -7997.15483420 Ry
     estimated scf accuracy    <       7.90926725 Ry

     iteration #138     ecut=    60.00 Ry     beta= 0.25
     Davidson diagonalization with overlap
     ethr =  2.08E-03,  avg # of iterations =  1.0

     negative rho (up, down):  1.120E+00 0.000E+00

     total cpu time spent up to now is     1208.2 secs

     total energy              =   -7996.98743827 Ry
     estimated scf accuracy    <       7.73476012 Ry

     iteration #139     ecut=    60.00 Ry     beta= 0.25
     Davidson diagonalization with overlap
     ethr =  2.08E-03,  avg # of iterations =  1.0

     negative rho (up, down):  1.080E+00 0.000E+00

     total cpu time spent up to now is     1215.7 secs

     total energy              =   -7996.70647052 Ry
     estimated scf accuracy    <      12.29702910 Ry

     iteration #140     ecut=    60.00 Ry     beta= 0.25
     Davidson diagonalization with overlap
     ethr =  2.08E-03,  avg # of iterations =  2.0

     negative rho (up, down):  1.073E+00 0.000E+00

     total cpu time spent up to now is     1223.9 secs

     total energy              =   -7996.87749968 Ry
     estimated scf accuracy    <      12.66563104 Ry

     iteration #141     ecut=    60.00 Ry     beta= 0.25
     Davidson diagonalization with overlap
     ethr =  2.08E-03,  avg # of iterations =  2.0

     negative rho (up, down):  1.074E+00 0.000E+00

     total cpu time spent up to now is     1232.2 secs

     total energy              =   -7996.98384253 Ry
     estimated scf accuracy    <      10.62710951 Ry

     iteration #142     ecut=    60.00 Ry     beta= 0.25
     Davidson diagonalization with overlap
     ethr =  2.08E-03,  avg # of iterations =  1.0

     negative rho (up, down):  1.056E+00 0.000E+00

     total cpu time spent up to now is     1239.6 secs

     total energy              =   -7996.61019798 Ry
     estimated scf accuracy    <      18.50841222 Ry

     iteration #143     ecut=    60.00 Ry     beta= 0.25
     Davidson diagonalization with overlap
     ethr =  2.08E-03,  avg # of iterations =  1.2

     negative rho (up, down):  1.035E+00 0.000E+00

     total cpu time spent up to now is     1247.3 secs

     total energy              =   -7995.73034572 Ry
     estimated scf accuracy    <      64.34920961 Ry

     iteration #144     ecut=    60.00 Ry     beta= 0.25
     Davidson diagonalization with overlap
     ethr =  2.08E-03,  avg # of iterations =  1.2

     negative rho (up, down):  9.848E-01 0.000E+00

     total cpu time spent up to now is     1254.8 secs

     total energy              =   -7997.11038446 Ry
     estimated scf accuracy    <       7.52260460 Ry

     iteration #145     ecut=    60.00 Ry     beta= 0.25
     Davidson diagonalization with overlap
     ethr =  2.04E-03,  avg # of iterations =  1.0

     negative rho (up, down):  9.903E-01 0.000E+00

     total cpu time spent up to now is     1262.2 secs

     total energy              =   -7997.03190438 Ry
     estimated scf accuracy    <      10.17696849 Ry

     iteration #146     ecut=    60.00 Ry     beta= 0.25
     Davidson diagonalization with overlap
     ethr =  2.04E-03,  avg # of iterations =  1.2

     negative rho (up, down):  9.913E-01 0.000E+00

     total cpu time spent up to now is     1269.8 secs

     total energy              =   -7997.18689537 Ry
     estimated scf accuracy    <       8.82822447 Ry

     iteration #147     ecut=    60.00 Ry     beta= 0.25
     Davidson diagonalization with overlap
     ethr =  2.04E-03,  avg # of iterations =  1.0

     negative rho (up, down):  1.038E+00 0.000E+00

     total cpu time spent up to now is     1277.2 secs

     total energy              =   -7997.05057545 Ry
     estimated scf accuracy    <       7.73214080 Ry

     iteration #148     ecut=    60.00 Ry     beta= 0.25
     Davidson diagonalization with overlap
     ethr =  2.04E-03,  avg # of iterations =  1.2

     negative rho (up, down):  1.074E+00 0.000E+00

     total cpu time spent up to now is     1284.8 secs

     total energy              =   -7996.89458571 Ry
     estimated scf accuracy    <       8.70290684 Ry

     iteration #149     ecut=    60.00 Ry     beta= 0.25
     Davidson diagonalization with overlap
     ethr =  2.04E-03,  avg # of iterations =  1.2

     negative rho (up, down):  1.097E+00 0.000E+00

     total cpu time spent up to now is     1292.4 secs

     total energy              =   -7996.95292682 Ry
     estimated scf accuracy    <       7.56269216 Ry

     iteration #150     ecut=    60.00 Ry     beta= 0.25
     Davidson diagonalization with overlap
     ethr =  2.04E-03,  avg # of iterations =  1.0

     negative rho (up, down):  1.107E+00 0.000E+00

     total cpu time spent up to now is     1299.8 secs

     total energy              =   -7997.03322274 Ry
     estimated scf accuracy    <       7.32765297 Ry

     iteration #151     ecut=    60.00 Ry     beta= 0.25
     Davidson diagonalization with overlap
     ethr =  1.99E-03,  avg # of iterations =  1.0

     negative rho (up, down):  1.088E+00 0.000E+00

     total cpu time spent up to now is     1307.1 secs

     total energy              =   -7996.94705605 Ry
     estimated scf accuracy    <       6.26640460 Ry

     iteration #152     ecut=    60.00 Ry     beta= 0.25
     Davidson diagonalization with overlap
     ethr =  1.70E-03,  avg # of iterations =  1.0

     negative rho (up, down):  1.118E+00 0.000E+00

     total cpu time spent up to now is     1314.3 secs

     total energy              =   -7996.07777217 Ry
     estimated scf accuracy    <      69.82342115 Ry

     iteration #153     ecut=    60.00 Ry     beta= 0.25
     Davidson diagonalization with overlap
     ethr =  1.70E-03,  avg # of iterations =  1.0

     negative rho (up, down):  1.123E+00 0.000E+00

     total cpu time spent up to now is     1321.7 secs

     total energy              =   -7997.00009435 Ry
     estimated scf accuracy    <       8.23458119 Ry

     iteration #154     ecut=    60.00 Ry     beta= 0.25
     Davidson diagonalization with overlap
     ethr =  1.70E-03,  avg # of iterations =  1.0

     negative rho (up, down):  1.137E+00 0.000E+00

     total cpu time spent up to now is     1329.1 secs

     total energy              =   -7997.00835103 Ry
     estimated scf accuracy    <       6.65722844 Ry

     iteration #155     ecut=    60.00 Ry     beta= 0.25
     Davidson diagonalization with overlap
     ethr =  1.70E-03,  avg # of iterations =  1.0

     negative rho (up, down):  1.111E+00 0.000E+00

     total cpu time spent up to now is     1336.6 secs

     total energy              =   -7996.99733099 Ry
     estimated scf accuracy    <       7.01474441 Ry

     iteration #156     ecut=    60.00 Ry     beta= 0.25
     Davidson diagonalization with overlap
     ethr =  1.70E-03,  avg # of iterations =  1.0

     negative rho (up, down):  1.140E+00 0.000E+00

     total cpu time spent up to now is     1344.2 secs

     total energy              =   -7996.94988578 Ry
     estimated scf accuracy    <       8.50521604 Ry

     iteration #157     ecut=    60.00 Ry     beta= 0.25
     Davidson diagonalization with overlap
     ethr =  1.70E-03,  avg # of iterations =  1.0

     negative rho (up, down):  1.119E+00 0.000E+00

     total cpu time spent up to now is     1351.6 secs

     total energy              =   -7996.94149214 Ry
     estimated scf accuracy    <       9.25125128 Ry

     iteration #158     ecut=    60.00 Ry     beta= 0.25
     Davidson diagonalization with overlap
     ethr =  1.70E-03,  avg # of iterations =  2.0

     negative rho (up, down):  1.106E+00 0.000E+00

     total cpu time spent up to now is     1359.6 secs

     total energy              =   -7996.76207020 Ry
     estimated scf accuracy    <      14.05363958 Ry

     iteration #159     ecut=    60.00 Ry     beta= 0.25
     Davidson diagonalization with overlap
     ethr =  1.70E-03,  avg # of iterations =  1.8

     negative rho (up, down):  1.073E+00 0.000E+00

     total cpu time spent up to now is     1367.6 secs

     total energy              =   -7996.90069657 Ry
     estimated scf accuracy    <       9.55220943 Ry

     iteration #160     ecut=    60.00 Ry     beta= 0.25
     Davidson diagonalization with overlap
     ethr =  1.70E-03,  avg # of iterations =  1.4

     negative rho (up, down):  1.112E+00 0.000E+00

     total cpu time spent up to now is     1375.2 secs

     total energy              =   -7996.96479262 Ry
     estimated scf accuracy    <       8.79987282 Ry

     iteration #161     ecut=    60.00 Ry     beta= 0.25
     Davidson diagonalization with overlap
     ethr =  1.70E-03,  avg # of iterations =  2.0

     negative rho (up, down):  1.116E+00 0.000E+00

     total cpu time spent up to now is     1383.3 secs

     total energy              =   -7996.90686771 Ry
     estimated scf accuracy    <       9.40829779 Ry

     iteration #162     ecut=    60.00 Ry     beta= 0.25
     Davidson diagonalization with overlap
     ethr =  1.70E-03,  avg # of iterations =  2.0

     negative rho (up, down):  1.117E+00 0.000E+00

     total cpu time spent up to now is     1391.3 secs

     total energy              =   -7996.79890289 Ry
     estimated scf accuracy    <      10.80114408 Ry

     iteration #163     ecut=    60.00 Ry     beta= 0.25
     Davidson diagonalization with overlap
     ethr =  1.70E-03,  avg # of iterations =  2.0

     negative rho (up, down):  1.094E+00 0.000E+00

     total cpu time spent up to now is     1399.5 secs

     total energy              =   -7997.01495687 Ry
     estimated scf accuracy    <       7.32731764 Ry

     iteration #164     ecut=    60.00 Ry     beta= 0.25
     Davidson diagonalization with overlap
     ethr =  1.70E-03,  avg # of iterations =  1.0

     negative rho (up, down):  1.124E+00 0.000E+00

     total cpu time spent up to now is     1407.3 secs

     total energy              =   -7997.00192793 Ry
     estimated scf accuracy    <       7.03319976 Ry

     iteration #165     ecut=    60.00 Ry     beta= 0.25
     Davidson diagonalization with overlap
     ethr =  1.70E-03,  avg # of iterations =  1.0

     negative rho (up, down):  1.125E+00 0.000E+00

     total cpu time spent up to now is     1414.7 secs

     total energy              =   -7996.95854998 Ry
     estimated scf accuracy    <      11.31322256 Ry

     iteration #166     ecut=    60.00 Ry     beta= 0.25
     Davidson diagonalization with overlap
     ethr =  1.70E-03,  avg # of iterations =  1.0

     negative rho (up, down):  1.116E+00 0.000E+00

     total cpu time spent up to now is     1422.7 secs

     total energy              =   -7997.07120036 Ry
     estimated scf accuracy    <       8.72740743 Ry

     iteration #167     ecut=    60.00 Ry     beta= 0.25
     Davidson diagonalization with overlap
     ethr =  1.70E-03,  avg # of iterations =  1.0

     negative rho (up, down):  8.933E-01 0.000E+00

     total cpu time spent up to now is     1430.0 secs

     total energy              =   -7997.05909618 Ry
     estimated scf accuracy    <       9.74721787 Ry

     iteration #168     ecut=    60.00 Ry     beta= 0.25
     Davidson diagonalization with overlap
     ethr =  1.70E-03,  avg # of iterations =  1.4

     negative rho (up, down):  9.125E-01 0.000E+00

     total cpu time spent up to now is     1438.2 secs

     total energy              =   -7996.61610156 Ry
     estimated scf accuracy    <      14.05781552 Ry

     iteration #169     ecut=    60.00 Ry     beta= 0.25
     Davidson diagonalization with overlap
     ethr =  1.70E-03,  avg # of iterations =  2.0

     negative rho (up, down):  8.948E-01 0.000E+00

     total cpu time spent up to now is     1446.5 secs

     total energy              =   -7997.29821884 Ry
     estimated scf accuracy    <      15.44550165 Ry

     iteration #170     ecut=    60.00 Ry     beta= 0.25
     Davidson diagonalization with overlap
     ethr =  1.70E-03,  avg # of iterations =  1.0

     negative rho (up, down):  9.317E-01 0.000E+00

     total cpu time spent up to now is     1454.2 secs

     total energy              =   -7997.15718695 Ry
     estimated scf accuracy    <      12.70025942 Ry

     iteration #171     ecut=    60.00 Ry     beta= 0.25
     Davidson diagonalization with overlap
     ethr =  1.70E-03,  avg # of iterations =  1.8

     negative rho (up, down):  9.242E-01 0.000E+00

     total cpu time spent up to now is     1462.1 secs

     total energy              =   -7997.02808502 Ry
     estimated scf accuracy    <      18.43571821 Ry

     iteration #172     ecut=    60.00 Ry     beta= 0.25
     Davidson diagonalization with overlap
     ethr =  1.70E-03,  avg # of iterations =  2.0

     negative rho (up, down):  8.754E-01 0.000E+00

     total cpu time spent up to now is     1470.4 secs

     total energy              =   -7997.21976664 Ry
     estimated scf accuracy    <      13.46243442 Ry

     iteration #173     ecut=    60.00 Ry     beta= 0.25
     Davidson diagonalization with overlap
     ethr =  1.70E-03,  avg # of iterations =  2.0

     negative rho (up, down):  8.481E-01 0.000E+00

     total cpu time spent up to now is     1478.5 secs

     total energy              =   -7996.87567878 Ry
     estimated scf accuracy    <      25.94466731 Ry

     iteration #174     ecut=    60.00 Ry     beta= 0.25
     Davidson diagonalization with overlap
     ethr =  1.70E-03,  avg # of iterations =  2.0

     negative rho (up, down):  8.727E-01 0.000E+00

     total cpu time spent up to now is     1486.7 secs

     total energy              =   -7996.87833767 Ry
     estimated scf accuracy    <      45.26145463 Ry

     iteration #175     ecut=    60.00 Ry     beta= 0.25
     Davidson diagonalization with overlap
     ethr =  1.70E-03,  avg # of iterations =  1.0

     negative rho (up, down):  8.785E-01 0.000E+00

     total cpu time spent up to now is     1494.1 secs

     total energy              =   -7997.37130529 Ry
     estimated scf accuracy    <      14.23680291 Ry

     iteration #176     ecut=    60.00 Ry     beta= 0.25
     Davidson diagonalization with overlap
     ethr =  1.70E-03,  avg # of iterations =  1.0

     negative rho (up, down):  9.135E-01 0.000E+00

     total cpu time spent up to now is     1501.6 secs

     total energy              =   -7997.22130545 Ry
     estimated scf accuracy    <      14.17047723 Ry

     iteration #177     ecut=    60.00 Ry     beta= 0.25
     Davidson diagonalization with overlap
     ethr =  1.70E-03,  avg # of iterations =  1.0

     negative rho (up, down):  1.034E+00 0.000E+00

     total cpu time spent up to now is     1509.2 secs

     total energy              =   -7996.81147794 Ry
     estimated scf accuracy    <      11.97043556 Ry

     iteration #178     ecut=    60.00 Ry     beta= 0.25
     Davidson diagonalization with overlap
     ethr =  1.70E-03,  avg # of iterations =  2.0

     negative rho (up, down):  1.105E+00 0.000E+00

     total cpu time spent up to now is     1517.7 secs

     total energy              =   -7996.61680844 Ry
     estimated scf accuracy    <      28.96164303 Ry

     iteration #179     ecut=    60.00 Ry     beta= 0.25
     Davidson diagonalization with overlap
     ethr =  1.70E-03,  avg # of iterations =  1.2

     negative rho (up, down):  1.026E+00 0.000E+00

     total cpu time spent up to now is     1525.4 secs

     total energy              =   -7996.95621649 Ry
     estimated scf accuracy    <      13.37580627 Ry

     iteration #180     ecut=    60.00 Ry     beta= 0.25
     Davidson diagonalization with overlap
     ethr =  1.70E-03,  avg # of iterations =  2.0

     negative rho (up, down):  1.050E+00 0.000E+00

     total cpu time spent up to now is     1533.6 secs

     total energy              =   -7996.73547879 Ry
     estimated scf accuracy    <      18.48640259 Ry

     iteration #181     ecut=    60.00 Ry     beta= 0.25
     Davidson diagonalization with overlap
     ethr =  1.70E-03,  avg # of iterations =  2.0

     negative rho (up, down):  1.096E+00 0.000E+00

     total cpu time spent up to now is     1541.9 secs

     total energy              =   -7996.89311910 Ry
     estimated scf accuracy    <      14.52016694 Ry

     iteration #182     ecut=    60.00 Ry     beta= 0.25
     Davidson diagonalization with overlap
     ethr =  1.70E-03,  avg # of iterations =  1.0

     negative rho (up, down):  1.108E+00 0.000E+00

     total cpu time spent up to now is     1549.3 secs

     total energy              =   -7996.97597769 Ry
     estimated scf accuracy    <       9.17238978 Ry

     iteration #183     ecut=    60.00 Ry     beta= 0.25
     Davidson diagonalization with overlap
     ethr =  1.70E-03,  avg # of iterations =  2.0

     negative rho (up, down):  1.371E+00 0.000E+00

     total cpu time spent up to now is     1557.7 secs

     total energy              =   -7996.49092141 Ry
     estimated scf accuracy    <      19.89922608 Ry

     iteration #184     ecut=    60.00 Ry     beta= 0.25
     Davidson diagonalization with overlap
     ethr =  1.70E-03,  avg # of iterations =  2.0

     negative rho (up, down):  1.476E+00 0.000E+00

     total cpu time spent up to now is     1565.8 secs

     total energy              =   -7996.78641605 Ry
     estimated scf accuracy    <      22.65043377 Ry

     iteration #185     ecut=    60.00 Ry     beta= 0.25
     Davidson diagonalization with overlap
     ethr =  1.70E-03,  avg # of iterations =  1.8

     negative rho (up, down):  1.377E+00 0.000E+00

     total cpu time spent up to now is     1574.1 secs

     total energy              =   -7996.97180457 Ry
     estimated scf accuracy    <      16.25398176 Ry

     iteration #186     ecut=    60.00 Ry     beta= 0.25
     Davidson diagonalization with overlap
     ethr =  1.70E-03,  avg # of iterations =  1.2

     negative rho (up, down):  1.067E+00 0.000E+00

     total cpu time spent up to now is     1581.5 secs

     total energy              =   -7996.66102190 Ry
     estimated scf accuracy    <      15.59512848 Ry

     iteration #187     ecut=    60.00 Ry     beta= 0.25
     Davidson diagonalization with overlap
     ethr =  1.70E-03,  avg # of iterations =  2.0

     negative rho (up, down):  1.294E+00 0.000E+00

     total cpu time spent up to now is     1590.0 secs

     total energy              =   -7995.35023625 Ry
     estimated scf accuracy    <      63.82451334 Ry

     iteration #188     ecut=    60.00 Ry     beta= 0.25
     Davidson diagonalization with overlap
     ethr =  1.70E-03,  avg # of iterations =  2.0

     negative rho (up, down):  1.293E+00 0.000E+00

     total cpu time spent up to now is     1598.5 secs

     total energy              =   -7997.04104245 Ry
     estimated scf accuracy    <      17.95861361 Ry

     iteration #189     ecut=    60.00 Ry     beta= 0.25
     Davidson diagonalization with overlap
     ethr =  1.70E-03,  avg # of iterations =  1.0

     negative rho (up, down):  1.193E+00 0.000E+00

     total cpu time spent up to now is     1605.9 secs

     total energy              =   -7996.94457436 Ry
     estimated scf accuracy    <      13.81700311 Ry

     iteration #190     ecut=    60.00 Ry     beta= 0.25
     Davidson diagonalization with overlap
     ethr =  1.70E-03,  avg # of iterations =  2.0

     negative rho (up, down):  1.211E+00 0.000E+00

     total cpu time spent up to now is     1614.2 secs

     total energy              =   -7997.08315157 Ry
     estimated scf accuracy    <      10.60564126 Ry

     iteration #191     ecut=    60.00 Ry     beta= 0.25
     Davidson diagonalization with overlap
     ethr =  1.70E-03,  avg # of iterations =  1.0

     negative rho (up, down):  1.214E+00 0.000E+00

     total cpu time spent up to now is     1621.8 secs

     total energy              =   -7997.11994450 Ry
     estimated scf accuracy    <      11.59446930 Ry

     iteration #192     ecut=    60.00 Ry     beta= 0.25
     Davidson diagonalization with overlap
     ethr =  1.70E-03,  avg # of iterations =  1.0

     negative rho (up, down):  1.218E+00 0.000E+00

     total cpu time spent up to now is     1629.1 secs

     total energy              =   -7997.00788174 Ry
     estimated scf accuracy    <      11.32309268 Ry

     iteration #193     ecut=    60.00 Ry     beta= 0.25
     Davidson diagonalization with overlap
     ethr =  1.70E-03,  avg # of iterations =  1.0

     negative rho (up, down):  1.137E+00 0.000E+00

     total cpu time spent up to now is     1636.4 secs

     total energy              =   -7996.73734664 Ry
     estimated scf accuracy    <      33.36278983 Ry

     iteration #194     ecut=    60.00 Ry     beta= 0.25
     Davidson diagonalization with overlap
     ethr =  1.70E-03,  avg # of iterations =  1.6

     negative rho (up, down):  1.050E+00 0.000E+00

     total cpu time spent up to now is     1644.3 secs

     total energy              =   -7997.07113749 Ry
     estimated scf accuracy    <      17.06440536 Ry

     iteration #195     ecut=    60.00 Ry     beta= 0.25
     Davidson diagonalization with overlap
     ethr =  1.70E-03,  avg # of iterations =  1.0

     negative rho (up, down):  1.085E+00 0.000E+00

     total cpu time spent up to now is     1651.9 secs

     total energy              =   -7997.24780684 Ry
     estimated scf accuracy    <      11.22285673 Ry

     iteration #196     ecut=    60.00 Ry     beta= 0.25
     Davidson diagonalization with overlap
     ethr =  1.70E-03,  avg # of iterations =  1.8

     negative rho (up, down):  8.833E-01 0.000E+00

     total cpu time spent up to now is     1659.8 secs

     total energy              =   -7996.86906854 Ry
     estimated scf accuracy    <      44.56501921 Ry

     iteration #197     ecut=    60.00 Ry     beta= 0.25
     Davidson diagonalization with overlap
     ethr =  1.70E-03,  avg # of iterations =  2.0

     negative rho (up, down):  9.402E-01 0.000E+00

     total cpu time spent up to now is     1668.2 secs

     total energy              =   -7996.67672029 Ry
     estimated scf accuracy    <      22.84449754 Ry

     iteration #198     ecut=    60.00 Ry     beta= 0.25
     Davidson diagonalization with overlap
     ethr =  1.70E-03,  avg # of iterations =  2.0

     negative rho (up, down):  9.477E-01 0.000E+00

     total cpu time spent up to now is     1676.4 secs

     total energy              =   -7997.22337581 Ry
     estimated scf accuracy    <      13.69083595 Ry

     iteration #199     ecut=    60.00 Ry     beta= 0.25
     Davidson diagonalization with overlap
     ethr =  1.70E-03,  avg # of iterations =  1.0

     negative rho (up, down):  9.716E-01 0.000E+00

     total cpu time spent up to now is     1683.8 secs

     total energy              =   -7997.33793080 Ry
     estimated scf accuracy    <      12.20022406 Ry

     iteration #200     ecut=    60.00 Ry     beta= 0.25
     Davidson diagonalization with overlap
     ethr =  1.70E-03,  avg # of iterations =  1.0

     negative rho (up, down):  9.662E-01 0.000E+00

     total cpu time spent up to now is     1691.1 secs

     total energy              =   -7997.25765820 Ry
     estimated scf accuracy    <      13.79279692 Ry

     iteration #201     ecut=    60.00 Ry     beta= 0.25
     Davidson diagonalization with overlap
     ethr =  1.70E-03,  avg # of iterations =  1.0

     negative rho (up, down):  9.866E-01 0.000E+00

     total cpu time spent up to now is     1698.6 secs

     total energy              =   -7997.20570409 Ry
     estimated scf accuracy    <      12.04469240 Ry

     iteration #202     ecut=    60.00 Ry     beta= 0.25
     Davidson diagonalization with overlap
     ethr =  1.70E-03,  avg # of iterations =  1.4

     negative rho (up, down):  9.808E-01 0.000E+00

     total cpu time spent up to now is     1706.3 secs

     total energy              =   -7997.14364138 Ry
     estimated scf accuracy    <      17.62861735 Ry

     iteration #203     ecut=    60.00 Ry     beta= 0.25
     Davidson diagonalization with overlap
     ethr =  1.70E-03,  avg # of iterations =  1.0

     negative rho (up, down):  1.066E+00 0.000E+00

     total cpu time spent up to now is     1714.2 secs

     total energy              =   -7996.57283876 Ry
     estimated scf accuracy    <      46.02623053 Ry

     iteration #204     ecut=    60.00 Ry     beta= 0.25
     Davidson diagonalization with overlap
     ethr =  1.70E-03,  avg # of iterations =  1.6

     negative rho (up, down):  1.104E+00 0.000E+00

     total cpu time spent up to now is     1722.1 secs

     total energy              =   -7996.94995665 Ry
     estimated scf accuracy    <      14.55984957 Ry

     iteration #205     ecut=    60.00 Ry     beta= 0.25
     Davidson diagonalization with overlap
     ethr =  1.70E-03,  avg # of iterations =  2.0

     negative rho (up, down):  1.148E+00 0.000E+00

     total cpu time spent up to now is     1730.2 secs

     total energy              =   -7996.55719770 Ry
     estimated scf accuracy    <      26.04695745 Ry

     iteration #206     ecut=    60.00 Ry     beta= 0.25
     Davidson diagonalization with overlap
     ethr =  1.70E-03,  avg # of iterations =  1.4

     negative rho (up, down):  9.596E-01 0.000E+00

     total cpu time spent up to now is     1738.4 secs

     total energy              =   -7996.90598821 Ry
     estimated scf accuracy    <      21.74443966 Ry

     iteration #207     ecut=    60.00 Ry     beta= 0.25
     Davidson diagonalization with overlap
     ethr =  1.70E-03,  avg # of iterations =  2.0

     negative rho (up, down):  9.833E-01 0.000E+00

     total cpu time spent up to now is     1746.9 secs

     total energy              =   -7996.85690609 Ry
     estimated scf accuracy    <      20.81149806 Ry

     iteration #208     ecut=    60.00 Ry     beta= 0.25
     Davidson diagonalization with overlap
     ethr =  1.70E-03,  avg # of iterations =  2.0

     negative rho (up, down):  9.798E-01 0.000E+00

     total cpu time spent up to now is     1755.4 secs

     total energy              =   -7997.11755605 Ry
     estimated scf accuracy    <      16.44100180 Ry

     iteration #209     ecut=    60.00 Ry     beta= 0.25
     Davidson diagonalization with overlap
     ethr =  1.70E-03,  avg # of iterations =  1.6

     negative rho (up, down):  1.017E+00 0.000E+00

     total cpu time spent up to now is     1763.3 secs

     total energy              =   -7995.34481975 Ry
     estimated scf accuracy    <      70.76355202 Ry

     iteration #210     ecut=    60.00 Ry     beta= 0.25
     Davidson diagonalization with overlap
     ethr =  1.70E-03,  avg # of iterations =  2.0

     negative rho (up, down):  1.032E+00 0.000E+00

     total cpu time spent up to now is     1771.5 secs

     total energy              =   -7996.97741956 Ry
     estimated scf accuracy    <      20.36458873 Ry

     iteration #211     ecut=    60.00 Ry     beta= 0.25
     Davidson diagonalization with overlap
     ethr =  1.70E-03,  avg # of iterations =  2.0

     negative rho (up, down):  1.077E+00 0.000E+00

     total cpu time spent up to now is     1779.8 secs

     total energy              =   -7996.99336727 Ry
     estimated scf accuracy    <      20.45029828 Ry

     iteration #212     ecut=    60.00 Ry     beta= 0.25
     Davidson diagonalization with overlap
     ethr =  1.70E-03,  avg # of iterations =  1.8

     negative rho (up, down):  1.070E+00 0.000E+00

     total cpu time spent up to now is     1788.1 secs

     total energy              =   -7997.31803465 Ry
     estimated scf accuracy    <      19.80886693 Ry

     iteration #213     ecut=    60.00 Ry     beta= 0.25
     Davidson diagonalization with overlap
     ethr =  1.70E-03,  avg # of iterations =  1.0

     negative rho (up, down):  1.079E+00 0.000E+00

     total cpu time spent up to now is     1795.6 secs

     total energy              =   -7997.24161721 Ry
     estimated scf accuracy    <      18.60142113 Ry

     iteration #214     ecut=    60.00 Ry     beta= 0.25
     Davidson diagonalization with overlap
     ethr =  1.70E-03,  avg # of iterations =  1.8

     negative rho (up, down):  1.051E+00 0.000E+00

     total cpu time spent up to now is     1803.6 secs

     total energy              =   -7997.17669828 Ry
     estimated scf accuracy    <      17.45883769 Ry

     iteration #215     ecut=    60.00 Ry     beta= 0.25
     Davidson diagonalization with overlap
     ethr =  1.70E-03,  avg # of iterations =  1.2

     negative rho (up, down):  1.131E+00 0.000E+00

     total cpu time spent up to now is     1811.2 secs

     total energy              =   -7996.40024410 Ry
     estimated scf accuracy    <      43.32736189 Ry

     iteration #216     ecut=    60.00 Ry     beta= 0.25
     Davidson diagonalization with overlap
     ethr =  1.70E-03,  avg # of iterations =  2.0

     negative rho (up, down):  1.085E+00 0.000E+00

     total cpu time spent up to now is     1819.3 secs

     total energy              =   -7997.00591530 Ry
     estimated scf accuracy    <      21.60045685 Ry

     iteration #217     ecut=    60.00 Ry     beta= 0.25
     Davidson diagonalization with overlap
     ethr =  1.70E-03,  avg # of iterations =  1.8

     negative rho (up, down):  9.681E-01 0.000E+00

     total cpu time spent up to now is     1827.8 secs

     total energy              =   -7996.88986391 Ry
     estimated scf accuracy    <      13.39512420 Ry

     iteration #218     ecut=    60.00 Ry     beta= 0.25
     Davidson diagonalization with overlap
     ethr =  1.70E-03,  avg # of iterations =  2.0

     negative rho (up, down):  1.064E+00 0.000E+00

     total cpu time spent up to now is     1836.5 secs

     total energy              =   -7995.85567293 Ry
     estimated scf accuracy    <      49.71675739 Ry

     iteration #219     ecut=    60.00 Ry     beta= 0.25
     Davidson diagonalization with overlap
     ethr =  1.70E-03,  avg # of iterations =  2.0

     negative rho (up, down):  1.019E+00 0.000E+00

     total cpu time spent up to now is     1845.4 secs

     total energy              =   -7996.04750111 Ry
     estimated scf accuracy    <      73.39100269 Ry

     iteration #220     ecut=    60.00 Ry     beta= 0.25
     Davidson diagonalization with overlap
     ethr =  1.70E-03,  avg # of iterations =  2.0

     negative rho (up, down):  9.445E-01 0.000E+00

     total cpu time spent up to now is     1854.0 secs

     total energy              =   -7996.69611997 Ry
     estimated scf accuracy    <      17.54824242 Ry

     iteration #221     ecut=    60.00 Ry     beta= 0.25
     Davidson diagonalization with overlap
     ethr =  1.70E-03,  avg # of iterations =  2.0

     negative rho (up, down):  9.455E-01 0.000E+00

     total cpu time spent up to now is     1862.3 secs

     total energy              =   -7996.86149431 Ry
     estimated scf accuracy    <      13.79722679 Ry

     iteration #222     ecut=    60.00 Ry     beta= 0.25
     Davidson diagonalization with overlap
     ethr =  1.70E-03,  avg # of iterations =  2.0

     negative rho (up, down):  9.071E-01 0.000E+00

     total cpu time spent up to now is     1871.2 secs

     total energy              =   -7996.74981327 Ry
     estimated scf accuracy    <      25.25388351 Ry

     iteration #223     ecut=    60.00 Ry     beta= 0.25
     Davidson diagonalization with overlap
     ethr =  1.70E-03,  avg # of iterations =  2.0

     negative rho (up, down):  9.101E-01 0.000E+00

     total cpu time spent up to now is     1879.8 secs

     total energy              =   -7996.98431394 Ry
     estimated scf accuracy    <      12.56518130 Ry

     iteration #224     ecut=    60.00 Ry     beta= 0.25
     Davidson diagonalization with overlap
     ethr =  1.70E-03,  avg # of iterations =  1.4

     negative rho (up, down):  9.013E-01 0.000E+00

     total cpu time spent up to now is     1887.7 secs

     total energy              =   -7997.00345720 Ry
     estimated scf accuracy    <      11.81986944 Ry

     iteration #225     ecut=    60.00 Ry     beta= 0.25
     Davidson diagonalization with overlap
     ethr =  1.70E-03,  avg # of iterations =  1.0

     negative rho (up, down):  8.986E-01 0.000E+00

     total cpu time spent up to now is     1894.9 secs

     total energy              =   -7997.10541061 Ry
     estimated scf accuracy    <       4.83378632 Ry

     iteration #226     ecut=    60.00 Ry     beta= 0.25
     Davidson diagonalization with overlap
     ethr =  1.31E-03,  avg # of iterations =  1.2

     negative rho (up, down):  8.779E-01 0.000E+00

     total cpu time spent up to now is     1902.9 secs

     total energy              =   -7997.16128546 Ry
     estimated scf accuracy    <       7.39956455 Ry

     iteration #227     ecut=    60.00 Ry     beta= 0.25
     Davidson diagonalization with overlap
     ethr =  1.31E-03,  avg # of iterations =  1.0

     negative rho (up, down):  8.759E-01 0.000E+00

     total cpu time spent up to now is     1910.1 secs

     total energy              =   -7997.08459161 Ry
     estimated scf accuracy    <       6.36085790 Ry

     iteration #228     ecut=    60.00 Ry     beta= 0.25
     Davidson diagonalization with overlap
     ethr =  1.31E-03,  avg # of iterations =  2.0

     negative rho (up, down):  8.507E-01 0.000E+00

     total cpu time spent up to now is     1918.6 secs

     total energy              =   -7997.15011151 Ry
     estimated scf accuracy    <       6.50026396 Ry

     iteration #229     ecut=    60.00 Ry     beta= 0.25
     Davidson diagonalization with overlap
     ethr =  1.31E-03,  avg # of iterations =  1.0

     negative rho (up, down):  8.248E-01 0.000E+00

     total cpu time spent up to now is     1925.8 secs

     total energy              =   -7996.98754467 Ry
     estimated scf accuracy    <       6.02417839 Ry

     iteration #230     ecut=    60.00 Ry     beta= 0.25
     Davidson diagonalization with overlap
     ethr =  1.31E-03,  avg # of iterations =  2.0

     negative rho (up, down):  8.196E-01 0.000E+00

     total cpu time spent up to now is     1934.6 secs

     total energy              =   -7996.92234410 Ry
     estimated scf accuracy    <      11.53892414 Ry

     iteration #231     ecut=    60.00 Ry     beta= 0.25
     Davidson diagonalization with overlap
     ethr =  1.31E-03,  avg # of iterations =  2.0

     negative rho (up, down):  8.029E-01 0.000E+00

     total cpu time spent up to now is     1942.8 secs

     total energy              =   -7997.15599530 Ry
     estimated scf accuracy    <       5.59048416 Ry

     iteration #232     ecut=    60.00 Ry     beta= 0.25
     Davidson diagonalization with overlap
     ethr =  1.31E-03,  avg # of iterations =  1.6

     negative rho (up, down):  8.119E-01 0.000E+00

     total cpu time spent up to now is     1950.8 secs

     total energy              =   -7997.07562495 Ry
     estimated scf accuracy    <       7.52918350 Ry

     iteration #233     ecut=    60.00 Ry     beta= 0.25
     Davidson diagonalization with overlap
     ethr =  1.31E-03,  avg # of iterations =  2.0

     negative rho (up, down):  7.828E-01 0.000E+00

     total cpu time spent up to now is     1958.8 secs

     total energy              =   -7997.14948510 Ry
     estimated scf accuracy    <      11.30533870 Ry

     iteration #234     ecut=    60.00 Ry     beta= 0.25
     Davidson diagonalization with overlap
     ethr =  1.31E-03,  avg # of iterations =  1.8

     negative rho (up, down):  7.518E-01 0.000E+00

     total cpu time spent up to now is     1966.8 secs

     total energy              =   -7997.29065331 Ry
     estimated scf accuracy    <       4.29694184 Ry

     iteration #235     ecut=    60.00 Ry     beta= 0.25
     Davidson diagonalization with overlap
     ethr =  1.17E-03,  avg # of iterations =  1.2

     negative rho (up, down):  7.407E-01 0.000E+00

     total cpu time spent up to now is     1974.3 secs

     total energy              =   -7997.23054617 Ry
     estimated scf accuracy    <       5.83625319 Ry

     iteration #236     ecut=    60.00 Ry     beta= 0.25
     Davidson diagonalization with overlap
     ethr =  1.17E-03,  avg # of iterations =  2.0

     negative rho (up, down):  7.414E-01 0.000E+00

     total cpu time spent up to now is     1982.8 secs

     total energy              =   -7997.28175003 Ry
     estimated scf accuracy    <       5.42772969 Ry

     iteration #237     ecut=    60.00 Ry     beta= 0.25
     Davidson diagonalization with overlap
     ethr =  1.17E-03,  avg # of iterations =  1.0

     negative rho (up, down):  7.260E-01 0.000E+00

     total cpu time spent up to now is     1990.2 secs

     total energy              =   -7997.31028825 Ry
     estimated scf accuracy    <       3.97237895 Ry

     iteration #238     ecut=    60.00 Ry     beta= 0.25
     Davidson diagonalization with overlap
     ethr =  1.08E-03,  avg # of iterations =  1.2

     negative rho (up, down):  7.410E-01 0.000E+00

     total cpu time spent up to now is     1998.1 secs

     total energy              =   -7997.22382836 Ry
     estimated scf accuracy    <       5.86496640 Ry

     iteration #239     ecut=    60.00 Ry     beta= 0.25
     Davidson diagonalization with overlap
     ethr =  1.08E-03,  avg # of iterations =  2.0

     negative rho (up, down):  7.304E-01 0.000E+00

     total cpu time spent up to now is     2006.1 secs

     total energy              =   -7997.27049699 Ry
     estimated scf accuracy    <       4.44027366 Ry

     iteration #240     ecut=    60.00 Ry     beta= 0.25
     Davidson diagonalization with overlap
     ethr =  1.08E-03,  avg # of iterations =  1.4

     negative rho (up, down):  7.386E-01 0.000E+00

     total cpu time spent up to now is     2013.7 secs

     total energy              =   -7997.11228540 Ry
     estimated scf accuracy    <       8.68875728 Ry

     iteration #241     ecut=    60.00 Ry     beta= 0.25
     Davidson diagonalization with overlap
     ethr =  1.08E-03,  avg # of iterations =  2.0

     negative rho (up, down):  7.527E-01 0.000E+00

     total cpu time spent up to now is     2022.1 secs

     total energy              =   -7997.22624934 Ry
     estimated scf accuracy    <       7.98982297 Ry

     iteration #242     ecut=    60.00 Ry     beta= 0.25
     Davidson diagonalization with overlap
     ethr =  1.08E-03,  avg # of iterations =  2.0

     negative rho (up, down):  7.153E-01 0.000E+00

     total cpu time spent up to now is     2030.3 secs

     total energy              =   -7997.21055040 Ry
     estimated scf accuracy    <       6.53004456 Ry

     iteration #243     ecut=    60.00 Ry     beta= 0.25
     Davidson diagonalization with overlap
     ethr =  1.08E-03,  avg # of iterations =  1.6

     negative rho (up, down):  7.095E-01 0.000E+00

     total cpu time spent up to now is     2038.7 secs

     total energy              =   -7997.25828444 Ry
     estimated scf accuracy    <       2.90568946 Ry

     iteration #244     ecut=    60.00 Ry     beta= 0.25
     Davidson diagonalization with overlap
     ethr =  7.90E-04,  avg # of iterations =  1.0

     negative rho (up, down):  6.909E-01 0.000E+00

     total cpu time spent up to now is     2046.1 secs

     total energy              =   -7997.27602830 Ry
     estimated scf accuracy    <       2.94003802 Ry

     iteration #245     ecut=    60.00 Ry     beta= 0.25
     Davidson diagonalization with overlap
     ethr =  7.90E-04,  avg # of iterations =  1.8

     negative rho (up, down):  7.022E-01 0.000E+00

     total cpu time spent up to now is     2054.3 secs

     total energy              =   -7997.25619219 Ry
     estimated scf accuracy    <       4.38052532 Ry

     iteration #246     ecut=    60.00 Ry     beta= 0.25
     Davidson diagonalization with overlap
     ethr =  7.90E-04,  avg # of iterations =  1.2

     negative rho (up, down):  7.135E-01 0.000E+00

     total cpu time spent up to now is     2061.7 secs

     total energy              =   -7997.25341085 Ry
     estimated scf accuracy    <       1.37627983 Ry

     iteration #247     ecut=    60.00 Ry     beta= 0.25
     Davidson diagonalization with overlap
     ethr =  3.74E-04,  avg # of iterations =  2.0

     negative rho (up, down):  7.083E-01 0.000E+00

     total cpu time spent up to now is     2070.1 secs

     total energy              =   -7997.29123578 Ry
     estimated scf accuracy    <       1.19459306 Ry

     iteration #248     ecut=    60.00 Ry     beta= 0.25
     Davidson diagonalization with overlap
     ethr =  3.25E-04,  avg # of iterations =  1.0

     negative rho (up, down):  7.049E-01 0.000E+00

     total cpu time spent up to now is     2077.4 secs

     total energy              =   -7997.29560904 Ry
     estimated scf accuracy    <       0.64528450 Ry

     iteration #249     ecut=    60.00 Ry     beta= 0.25
     Davidson diagonalization with overlap
     ethr =  1.75E-04,  avg # of iterations =  1.0

     negative rho (up, down):  7.052E-01 0.000E+00

     total cpu time spent up to now is     2085.2 secs

     total energy              =   -7997.29968057 Ry
     estimated scf accuracy    <       0.76983461 Ry

     iteration #250     ecut=    60.00 Ry     beta= 0.25
     Davidson diagonalization with overlap
     ethr =  1.75E-04,  avg # of iterations =  1.0

     negative rho (up, down):  6.939E-01 0.000E+00

     total cpu time spent up to now is     2092.7 secs

     total energy              =   -7997.27047726 Ry
     estimated scf accuracy    <       1.02234057 Ry

     iteration #251     ecut=    60.00 Ry     beta= 0.25
     Davidson diagonalization with overlap
     ethr =  1.75E-04,  avg # of iterations =  2.0

     negative rho (up, down):  7.029E-01 0.000E+00

     total cpu time spent up to now is     2101.0 secs

     total energy              =   -7997.27220126 Ry
     estimated scf accuracy    <       0.69864668 Ry

     iteration #252     ecut=    60.00 Ry     beta= 0.25
     Davidson diagonalization with overlap
     ethr =  1.75E-04,  avg # of iterations =  2.0

     negative rho (up, down):  7.002E-01 0.000E+00

     total cpu time spent up to now is     2109.3 secs

     total energy              =   -7997.29000030 Ry
     estimated scf accuracy    <       0.41059207 Ry

     iteration #253     ecut=    60.00 Ry     beta= 0.25
     Davidson diagonalization with overlap
     ethr =  1.12E-04,  avg # of iterations =  1.6

     negative rho (up, down):  6.971E-01 0.000E+00

     total cpu time spent up to now is     2117.1 secs

     total energy              =   -7997.28614848 Ry
     estimated scf accuracy    <       0.45063993 Ry

     iteration #254     ecut=    60.00 Ry     beta= 0.25
     Davidson diagonalization with overlap
     ethr =  1.12E-04,  avg # of iterations =  2.0

     negative rho (up, down):  6.986E-01 0.000E+00

     total cpu time spent up to now is     2125.1 secs

     total energy              =   -7997.28438690 Ry
     estimated scf accuracy    <       0.24715901 Ry

     iteration #255     ecut=    60.00 Ry     beta= 0.25
     Davidson diagonalization with overlap
     ethr =  6.72E-05,  avg # of iterations =  2.0

     negative rho (up, down):  6.989E-01 0.000E+00

     total cpu time spent up to now is     2134.1 secs

     total energy              =   -7997.27483597 Ry
     estimated scf accuracy    <       0.74099687 Ry

     iteration #256     ecut=    60.00 Ry     beta= 0.25
     Davidson diagonalization with overlap
     ethr =  6.72E-05,  avg # of iterations =  2.0

     negative rho (up, down):  6.932E-01 0.000E+00

     total cpu time spent up to now is     2143.1 secs

     total energy              =   -7997.28805028 Ry
     estimated scf accuracy    <       0.16961163 Ry

     iteration #257     ecut=    60.00 Ry     beta= 0.25
     Davidson diagonalization with overlap
     ethr =  4.61E-05,  avg # of iterations =  2.0

     negative rho (up, down):  6.943E-01 0.000E+00

     total cpu time spent up to now is     2152.1 secs

     total energy              =   -7997.27416526 Ry
     estimated scf accuracy    <       0.90551181 Ry

     iteration #258     ecut=    60.00 Ry     beta= 0.25
     Davidson diagonalization with overlap
     ethr =  4.61E-05,  avg # of iterations =  2.0

     negative rho (up, down):  6.957E-01 0.000E+00

     total cpu time spent up to now is     2160.8 secs

     total energy              =   -7997.29215200 Ry
     estimated scf accuracy    <       0.18393828 Ry

     iteration #259     ecut=    60.00 Ry     beta= 0.25
     Davidson diagonalization with overlap
     ethr =  4.61E-05,  avg # of iterations =  1.4

     negative rho (up, down):  6.947E-01 0.000E+00

     total cpu time spent up to now is     2168.6 secs

     total energy              =   -7997.29588383 Ry
     estimated scf accuracy    <       0.03580624 Ry

     iteration #260     ecut=    60.00 Ry     beta= 0.25
     Davidson diagonalization with overlap
     ethr =  9.73E-06,  avg # of iterations =  2.0

     negative rho (up, down):  6.932E-01 0.000E+00

     total cpu time spent up to now is     2176.7 secs

     total energy              =   -7997.29637051 Ry
     estimated scf accuracy    <       0.02836296 Ry

     iteration #261     ecut=    60.00 Ry     beta= 0.25
     Davidson diagonalization with overlap
     ethr =  7.71E-06,  avg # of iterations =  2.0

     negative rho (up, down):  6.942E-01 0.000E+00

     total cpu time spent up to now is     2185.4 secs

     total energy              =   -7997.29423044 Ry
     estimated scf accuracy    <       0.12823233 Ry

     iteration #262     ecut=    60.00 Ry     beta= 0.25
     Davidson diagonalization with overlap
     ethr =  7.71E-06,  avg # of iterations =  2.0

     negative rho (up, down):  6.936E-01 0.000E+00

     total cpu time spent up to now is     2194.0 secs

     total energy              =   -7997.29699961 Ry
     estimated scf accuracy    <       0.02648660 Ry

     iteration #263     ecut=    60.00 Ry     beta= 0.25
     Davidson diagonalization with overlap
     ethr =  7.20E-06,  avg # of iterations =  1.2

     negative rho (up, down):  6.937E-01 0.000E+00

     total cpu time spent up to now is     2201.3 secs

     total energy              =   -7997.29712892 Ry
     estimated scf accuracy    <       0.01528109 Ry

     iteration #264     ecut=    60.00 Ry     beta= 0.25
     Davidson diagonalization with overlap
     ethr =  4.15E-06,  avg # of iterations =  1.0

     negative rho (up, down):  6.940E-01 0.000E+00

     total cpu time spent up to now is     2208.7 secs

     total energy              =   -7997.29709127 Ry
     estimated scf accuracy    <       0.00575223 Ry

     iteration #265     ecut=    60.00 Ry     beta= 0.25
     Davidson diagonalization with overlap
     ethr =  1.56E-06,  avg # of iterations =  1.2

     negative rho (up, down):  6.938E-01 0.000E+00

     total cpu time spent up to now is     2216.1 secs

     total energy              =   -7997.29723495 Ry
     estimated scf accuracy    <       0.00514026 Ry

     iteration #266     ecut=    60.00 Ry     beta= 0.25
     Davidson diagonalization with overlap
     ethr =  1.40E-06,  avg # of iterations =  1.4

     negative rho (up, down):  6.935E-01 0.000E+00

     total cpu time spent up to now is     2223.7 secs

     total energy              =   -7997.29752351 Ry
     estimated scf accuracy    <       0.00259342 Ry

     iteration #267     ecut=    60.00 Ry     beta= 0.25
     Davidson diagonalization with overlap
     ethr =  7.05E-07,  avg # of iterations =  2.0

     negative rho (up, down):  6.937E-01 0.000E+00

     total cpu time spent up to now is     2231.8 secs

     total energy              =   -7997.29733311 Ry
     estimated scf accuracy    <       0.00365379 Ry

     iteration #268     ecut=    60.00 Ry     beta= 0.25
     Davidson diagonalization with overlap
     ethr =  7.05E-07,  avg # of iterations =  2.0

     negative rho (up, down):  6.936E-01 0.000E+00

     total cpu time spent up to now is     2240.0 secs

     total energy              =   -7997.29746555 Ry
     estimated scf accuracy    <       0.00100331 Ry

     iteration #269     ecut=    60.00 Ry     beta= 0.25
     Davidson diagonalization with overlap
     ethr =  2.73E-07,  avg # of iterations =  1.8

     negative rho (up, down):  6.934E-01 0.000E+00

     total cpu time spent up to now is     2248.4 secs

     total energy              =   -7997.29768306 Ry
     estimated scf accuracy    <       0.00054823 Ry

     iteration #270     ecut=    60.00 Ry     beta= 0.25
     Davidson diagonalization with overlap
     ethr =  1.49E-07,  avg # of iterations =  2.0

     negative rho (up, down):  6.933E-01 0.000E+00

     total cpu time spent up to now is     2256.4 secs

     total energy              =   -7997.29777648 Ry
     estimated scf accuracy    <       0.00043816 Ry

     iteration #271     ecut=    60.00 Ry     beta= 0.25
     Davidson diagonalization with overlap
     ethr =  1.19E-07,  avg # of iterations =  1.0

     negative rho (up, down):  6.932E-01 0.000E+00

     total cpu time spent up to now is     2264.1 secs

     total energy              =   -7997.29786853 Ry
     estimated scf accuracy    <       0.00022635 Ry

     iteration #272     ecut=    60.00 Ry     beta= 0.25
     Davidson diagonalization with overlap
     ethr =  6.15E-08,  avg # of iterations =  2.0

     negative rho (up, down):  6.931E-01 0.000E+00

     total cpu time spent up to now is     2272.2 secs

     total energy              =   -7997.29796300 Ry
     estimated scf accuracy    <       0.00027689 Ry

     iteration #273     ecut=    60.00 Ry     beta= 0.25
     Davidson diagonalization with overlap
     ethr =  6.15E-08,  avg # of iterations =  2.0

     negative rho (up, down):  6.931E-01 0.000E+00

     total cpu time spent up to now is     2280.5 secs

     total energy              =   -7997.29790305 Ry
     estimated scf accuracy    <       0.00020943 Ry

     iteration #274     ecut=    60.00 Ry     beta= 0.25
     Davidson diagonalization with overlap
     ethr =  5.69E-08,  avg # of iterations =  1.4

     negative rho (up, down):  6.931E-01 0.000E+00

     total cpu time spent up to now is     2288.0 secs

     total energy              =   -7997.29793528 Ry
     estimated scf accuracy    <       0.00008778 Ry

     iteration #275     ecut=    60.00 Ry     beta= 0.25
     Davidson diagonalization with overlap
     ethr =  2.39E-08,  avg # of iterations =  2.0

     negative rho (up, down):  6.931E-01 0.000E+00

     total cpu time spent up to now is     2296.1 secs

     total energy              =   -7997.29795437 Ry
     estimated scf accuracy    <       0.00006335 Ry

     iteration #276     ecut=    60.00 Ry     beta= 0.25
     Davidson diagonalization with overlap
     ethr =  1.72E-08,  avg # of iterations =  2.0

     negative rho (up, down):  6.931E-01 0.000E+00

     total cpu time spent up to now is     2304.1 secs

     total energy              =   -7997.29795233 Ry
     estimated scf accuracy    <       0.00003891 Ry

     iteration #277     ecut=    60.00 Ry     beta= 0.25
     Davidson diagonalization with overlap
     ethr =  1.06E-08,  avg # of iterations =  2.0

     negative rho (up, down):  6.931E-01 0.000E+00

     total cpu time spent up to now is     2312.9 secs

     total energy              =   -7997.29797111 Ry
     estimated scf accuracy    <       0.00013111 Ry

     iteration #278     ecut=    60.00 Ry     beta= 0.25
     Davidson diagonalization with overlap
     ethr =  1.06E-08,  avg # of iterations =  2.0

     negative rho (up, down):  6.931E-01 0.000E+00

     total cpu time spent up to now is     2321.4 secs

     total energy              =   -7997.29796784 Ry
     estimated scf accuracy    <       0.00001035 Ry

     iteration #279     ecut=    60.00 Ry     beta= 0.25
     Davidson diagonalization with overlap
     ethr =  2.81E-09,  avg # of iterations =  2.0

     negative rho (up, down):  6.931E-01 0.000E+00

     total cpu time spent up to now is     2330.0 secs

     total energy              =   -7997.29797926 Ry
     estimated scf accuracy    <       0.00003911 Ry

     iteration #280     ecut=    60.00 Ry     beta= 0.25
     Davidson diagonalization with overlap
     ethr =  2.81E-09,  avg # of iterations =  2.0

     negative rho (up, down):  6.931E-01 0.000E+00

     total cpu time spent up to now is     2338.6 secs

     total energy              =   -7997.29798138 Ry
     estimated scf accuracy    <       0.00000503 Ry

     iteration #281     ecut=    60.00 Ry     beta= 0.25
     Davidson diagonalization with overlap
     ethr =  1.37E-09,  avg # of iterations =  2.0

     negative rho (up, down):  6.931E-01 0.000E+00

     total cpu time spent up to now is     2347.2 secs

     total energy              =   -7997.29800955 Ry
     estimated scf accuracy    <       0.00000567 Ry

     iteration #282     ecut=    60.00 Ry     beta= 0.25
     Davidson diagonalization with overlap
     ethr =  1.37E-09,  avg # of iterations =  2.0

     negative rho (up, down):  6.930E-01 0.000E+00

     total cpu time spent up to now is     2356.1 secs

     total energy              =   -7997.29801993 Ry
     estimated scf accuracy    <       0.00000305 Ry

     iteration #283     ecut=    60.00 Ry     beta= 0.25
     Davidson diagonalization with overlap
     ethr =  8.29E-10,  avg # of iterations =  2.0

     negative rho (up, down):  6.930E-01 0.000E+00

     total cpu time spent up to now is     2364.8 secs

     total energy              =   -7997.29802734 Ry
     estimated scf accuracy    <       0.00001335 Ry

     iteration #284     ecut=    60.00 Ry     beta= 0.25
     Davidson diagonalization with overlap
     ethr =  8.29E-10,  avg # of iterations =  2.0

     negative rho (up, down):  6.930E-01 0.000E+00

     total cpu time spent up to now is     2373.4 secs

     total energy              =   -7997.29801915 Ry
     estimated scf accuracy    <       0.00000379 Ry

     iteration #285     ecut=    60.00 Ry     beta= 0.25
     Davidson diagonalization with overlap
     ethr =  8.29E-10,  avg # of iterations =  1.0

     negative rho (up, down):  6.930E-01 0.000E+00

     total cpu time spent up to now is     2380.8 secs

     total energy              =   -7997.29802577 Ry
     estimated scf accuracy    <       0.00000275 Ry

     iteration #286     ecut=    60.00 Ry     beta= 0.25
     Davidson diagonalization with overlap
     ethr =  7.47E-10,  avg # of iterations =  1.2

     negative rho (up, down):  6.930E-01 0.000E+00

     total cpu time spent up to now is     2388.6 secs

     total energy              =   -7997.29803204 Ry
     estimated scf accuracy    <       0.00000121 Ry

     iteration #287     ecut=    60.00 Ry     beta= 0.25
     Davidson diagonalization with overlap
     ethr =  3.28E-10,  avg # of iterations =  2.0

     negative rho (up, down):  6.930E-01 0.000E+00

     total cpu time spent up to now is     2396.9 secs

     total energy              =   -7997.29802325 Ry
     estimated scf accuracy    <       0.00000298 Ry

     iteration #288     ecut=    60.00 Ry     beta= 0.25
     Davidson diagonalization with overlap
     ethr =  3.28E-10,  avg # of iterations =  2.0

     negative rho (up, down):  6.930E-01 0.000E+00

     total cpu time spent up to now is     2405.4 secs

     total energy              =   -7997.29802500 Ry
     estimated scf accuracy    <       0.00000188 Ry

     iteration #289     ecut=    60.00 Ry     beta= 0.25
     Davidson diagonalization with overlap
     ethr =  3.28E-10,  avg # of iterations =  2.0

     negative rho (up, down):  6.930E-01 0.000E+00

     total cpu time spent up to now is     2414.0 secs

     total energy              =   -7997.29801813 Ry
     estimated scf accuracy    <       0.00000082 Ry

     iteration #290     ecut=    60.00 Ry     beta= 0.25
     Davidson diagonalization with overlap
     ethr =  2.22E-10,  avg # of iterations =  2.0

     negative rho (up, down):  6.930E-01 0.000E+00

     total cpu time spent up to now is     2422.7 secs

     total energy              =   -7997.29802379 Ry
     estimated scf accuracy    <       0.00000192 Ry

     iteration #291     ecut=    60.00 Ry     beta= 0.25
     Davidson diagonalization with overlap
     ethr =  2.22E-10,  avg # of iterations =  2.0

     negative rho (up, down):  6.930E-01 0.000E+00

     total cpu time spent up to now is     2431.7 secs

     total energy              =   -7997.29802960 Ry
     estimated scf accuracy    <       0.00000085 Ry

     iteration #292     ecut=    60.00 Ry     beta= 0.25
     Davidson diagonalization with overlap
     ethr =  2.22E-10,  avg # of iterations =  2.0

     negative rho (up, down):  6.930E-01 0.000E+00

     total cpu time spent up to now is     2439.8 secs

     total energy              =   -7997.29802643 Ry
     estimated scf accuracy    <       0.00000063 Ry

     iteration #293     ecut=    60.00 Ry     beta= 0.25
     Davidson diagonalization with overlap
     ethr =  1.71E-10,  avg # of iterations =  2.0

     negative rho (up, down):  6.930E-01 0.000E+00

     total cpu time spent up to now is     2447.9 secs

     total energy              =   -7997.29802522 Ry
     estimated scf accuracy    <       0.00000027 Ry

     iteration #294     ecut=    60.00 Ry     beta= 0.25
     Davidson diagonalization with overlap
     ethr =  7.43E-11,  avg # of iterations =  2.0

     negative rho (up, down):  6.930E-01 0.000E+00

     total cpu time spent up to now is     2455.9 secs

     total energy              =   -7997.29802321 Ry
     estimated scf accuracy    <       0.00000031 Ry

     iteration #295     ecut=    60.00 Ry     beta= 0.25
     Davidson diagonalization with overlap
     ethr =  7.43E-11,  avg # of iterations =  2.0

     negative rho (up, down):  6.930E-01 0.000E+00

     total cpu time spent up to now is     2464.2 secs

     total energy              =   -7997.29802414 Ry
     estimated scf accuracy    <       0.00000050 Ry

     iteration #296     ecut=    60.00 Ry     beta= 0.25
     Davidson diagonalization with overlap
     ethr =  7.43E-11,  avg # of iterations =  2.0

     negative rho (up, down):  6.930E-01 0.000E+00

     total cpu time spent up to now is     2472.8 secs

     total energy              =   -7997.29802261 Ry
     estimated scf accuracy    <       0.00000056 Ry

     iteration #297     ecut=    60.00 Ry     beta= 0.25
     Davidson diagonalization with overlap
     ethr =  7.43E-11,  avg # of iterations =  2.0

     negative rho (up, down):  6.930E-01 0.000E+00

     total cpu time spent up to now is     2481.3 secs

     total energy              =   -7997.29802297 Ry
     estimated scf accuracy    <       0.00000041 Ry

     iteration #298     ecut=    60.00 Ry     beta= 0.25
     Davidson diagonalization with overlap
     ethr =  7.43E-11,  avg # of iterations =  2.0

     negative rho (up, down):  6.930E-01 0.000E+00

     total cpu time spent up to now is     2490.3 secs

     total energy              =   -7997.29801961 Ry
     estimated scf accuracy    <       0.00000019 Ry

     iteration #299     ecut=    60.00 Ry     beta= 0.25
     Davidson diagonalization with overlap
     ethr =  5.25E-11,  avg # of iterations =  2.0

     negative rho (up, down):  6.930E-01 0.000E+00

     total cpu time spent up to now is     2498.7 secs

     total energy              =   -7997.29801969 Ry
     estimated scf accuracy    <       0.00000037 Ry

     iteration #300     ecut=    60.00 Ry     beta= 0.25
     Davidson diagonalization with overlap
     ethr =  5.25E-11,  avg # of iterations =  2.0

     negative rho (up, down):  6.931E-01 0.000E+00

     total cpu time spent up to now is     2507.0 secs

     End of self-consistent calculation

          k = 0.0000 0.0000 0.0000 ( 15681 PWs)   bands (ev):

   -89.1782 -89.1491 -89.1381 -89.1334 -89.1312 -89.1025 -89.0710 -89.0468
   -89.0378 -89.0338 -89.0187 -89.0092 -89.0005 -88.9987 -88.9981 -88.9979
   -61.2230 -61.2083 -61.2023 -61.1984 -61.1821 -61.1549 -61.1513 -61.1381
   -49.8521 -49.7389 -49.7180 -49.6903 -49.6641 -49.6355 -49.6288 -49.6130
   -49.5727 -49.5501 -49.5201 -49.5156 -49.5096 -49.5051 -49.4933 -49.4868
   -49.4841 -49.4804 -49.4745 -49.4654 -49.4551 -49.4473 -49.4398 -49.4176
   -49.4133 -49.4083 -49.4031 -49.3931 -49.3882 -49.3800 -49.3747 -49.3708
   -49.3569 -49.3512 -49.3433 -49.3376 -49.3358 -49.3354 -49.3327 -49.3272
   -49.3242 -49.3229 -49.2987 -49.2804 -49.2750 -49.2618 -49.2558 -49.2513
   -27.9794 -27.9760 -27.9695 -27.9609 -27.9606 -27.9583 -27.9537 -27.9503
   -27.9467 -27.9404 -27.9391 -27.9387 -27.9356 -27.9344 -27.9231 -27.9034
   -27.8994 -27.8957 -27.8946 -27.8932 -27.8931 -27.8820 -27.8815 -27.8762
     5.2553   5.8673   5.9625   7.4050   8.0810   9.2836   9.4217   9.4901
    10.0145  10.0734  10.2576  10.3118  10.3409  10.3477  10.3531  10.4516
    10.5138  10.5197  10.6688  10.6791  10.7018  10.7385  10.7512  10.7651
    10.7678  10.7763  10.9500  10.9514  10.9597  10.9703  11.2168  11.2352
    11.3515  11.3807  11.3915  11.4040  11.5944  11.6074  11.7816  11.7965
    11.8060  11.8298  11.8497  11.8753  12.0698  12.0870  12.2881  12.4952
    12.5565  12.5648  12.5782  12.6261  12.7689  12.7793  12.8834  12.9021
    13.0401  13.0648  13.0779  13.1078  13.1293  13.1576  13.2025  13.2095
    13.2141  13.2323  13.2371  13.2449  13.2610  13.2703  13.2776  13.2860
    13.2870  13.2932  13.2998  13.3700  13.3822  13.5188  13.5296  13.8281
    13.8428  14.0707  14.0929  14.2545  14.3791  14.3990  14.4107  14.5931
    14.8434  14.9556  14.9954  15.0520  15.0542  15.0960  15.1313  15.2578
    15.4603  15.4729  15.4851  15.5170  16.8099  16.8383  16.9112  16.9912
    17.4456  17.4938  17.7958  17.8509  18.4677  18.5380  18.5746  18.7906
    18.8818  19.1421  19.4835  19.4906  19.8330  19.9101  20.3182  20.5518
    20.5799  20.8453  21.1199  22.3383  22.5497

          k =-0.0009 0.3850 0.0007 ( 15830 PWs)   bands (ev):

   -89.1713 -89.1537 -89.1382 -89.1363 -89.1316 -89.1022 -89.0694 -89.0408
   -89.0322 -89.0276 -89.0241 -89.0168 -89.0073 -89.0003 -88.9988 -88.9985
   -61.2227 -61.2082 -61.2027 -61.1983 -61.1819 -61.1551 -61.1515 -61.1382
   -49.8159 -49.7220 -49.6988 -49.6531 -49.6472 -49.6325 -49.6140 -49.6014
   -49.5825 -49.5511 -49.5254 -49.5085 -49.5029 -49.4960 -49.4908 -49.4870
   -49.4819 -49.4767 -49.4613 -49.4572 -49.4518 -49.4481 -49.4429 -49.4260
   -49.4205 -49.4149 -49.4088 -49.4012 -49.4000 -49.3878 -49.3697 -49.3681
   -49.3606 -49.3564 -49.3510 -49.3479 -49.3440 -49.3422 -49.3369 -49.3308
   -49.3297 -49.3235 -49.3169 -49.3044 -49.2887 -49.2785 -49.2722 -49.2597
   -27.9805 -27.9771 -27.9705 -27.9614 -27.9586 -27.9577 -27.9543 -27.9509
   -27.9468 -27.9436 -27.9386 -27.9377 -27.9361 -27.9336 -27.9250 -27.9023
   -27.8990 -27.8959 -27.8947 -27.8933 -27.8922 -27.8827 -27.8813 -27.8754
     6.2776   6.8612   6.9502   8.3431   8.8179   9.0054   9.3122   9.3528
     9.8511   9.9174  10.0643  10.1863  10.2563  10.3659  10.4385  10.5393
    10.5640  10.5786  10.7158  10.7244  10.7467  10.8434  10.9407  10.9596
    11.0328  11.0612  11.1309  11.1698  11.1969  11.2213  11.2690  11.3108
    11.3565  11.3886  11.4168  11.4296  11.4842  11.5481  11.5705  11.6733
    11.6960  11.7644  11.7711  11.7968  11.8887  11.9788  12.0020  12.0321
    12.0615  12.1711  12.2026  12.2194  12.2488  12.3008  12.4057  12.4305
    12.4550  12.5202  12.5603  12.6311  12.6411  12.6937  12.7369  12.7522
    12.8371  12.8505  12.8890  12.9229  12.9663  13.0233  13.0476  13.0931
    13.1303  13.1683  13.2092  13.2532  13.2667  13.3115  13.3252  13.3419
    13.3757  13.4486  13.4653  13.5918  13.6154  13.6503  13.7306  13.9053
    14.1569  14.1967  14.5966  14.6419  14.8220  14.9574  15.0006  15.2234
    15.2813  15.3424  15.4099  15.5787  16.2436  16.6546  16.9967  17.0412
    18.4375  18.7575  18.8537  19.0023  19.8164  19.9445  20.0583  20.1792
    20.2232  20.3381  20.8150  21.2727  21.3764  21.3908  21.8956  22.0535
    22.2698  22.8198  23.1647  23.3749  23.4837

          k = 0.3329 0.1924 0.0002 ( 15835 PWs)   bands (ev):

   -89.1713 -89.1540 -89.1382 -89.1358 -89.1317 -89.1023 -89.0695 -89.0410
   -89.0347 -89.0277 -89.0241 -89.0093 -89.0069 -89.0034 -89.0002 -88.9991
   -61.2227 -61.2082 -61.2027 -61.1983 -61.1819 -61.1551 -61.1515 -61.1382
   -49.8158 -49.7244 -49.7006 -49.6536 -49.6446 -49.6276 -49.6130 -49.6026
   -49.5829 -49.5525 -49.5218 -49.5082 -49.5075 -49.5019 -49.4934 -49.4871
   -49.4784 -49.4718 -49.4652 -49.4579 -49.4530 -49.4484 -49.4401 -49.4319
   -49.4207 -49.4131 -49.4057 -49.4023 -49.3932 -49.3925 -49.3708 -49.3643
   -49.3587 -49.3575 -49.3536 -49.3488 -49.3444 -49.3414 -49.3392 -49.3351
   -49.3334 -49.3238 -49.3043 -49.3009 -49.2892 -49.2844 -49.2724 -49.2559
   -27.9806 -27.9764 -27.9712 -27.9617 -27.9580 -27.9578 -27.9546 -27.9508
   -27.9467 -27.9429 -27.9391 -27.9377 -27.9361 -27.9342 -27.9245 -27.9024
   -27.8991 -27.8960 -27.8950 -27.8932 -27.8919 -27.8832 -27.8809 -27.8753
     6.2741   6.8584   6.9473   8.3446   8.8206   8.9911   9.3059   9.3464
     9.8512   9.9117  10.0636  10.1780  10.2629  10.3618  10.4355  10.5333
    10.5719  10.5761  10.7121  10.7237  10.7448  10.8429  10.9333  10.9691
    11.0411  11.0545  11.1265  11.1612  11.1944  11.2277  11.2660  11.3118
    11.3586  11.3869  11.4049  11.4291  11.4898  11.5392  11.5738  11.6776
    11.6983  11.7618  11.7817  11.8066  11.8959  11.9743  12.0001  12.0313
    12.0643  12.1614  12.1879  12.2256  12.2506  12.2997  12.4094  12.4209
    12.4678  12.5114  12.5718  12.6349  12.6526  12.7032  12.7342  12.7482
    12.8394  12.8520  12.8773  12.9149  12.9739  13.0375  13.0551  13.0986
    13.1322  13.1618  13.2075  13.2559  13.2682  13.3150  13.3362  13.3429
    13.3892  13.4515  13.4695  13.5873  13.6061  13.6496  13.7358  13.9019
    14.1567  14.1866  14.6097  14.6305  14.8232  14.9623  15.0105  15.2432
    15.2883  15.3464  15.4260  15.5963  16.2264  16.6644  16.9950  17.0521
    18.4337  18.7918  18.8397  19.0098  19.8105  19.9412  20.0785  20.1612
    20.2341  20.3585  20.8238  21.2680  21.3681  21.3978  21.8720  22.0437
    22.2573  22.8173  23.1426  23.3888  23.4706

          k = 0.3320 0.5775 0.0009 ( 15842 PWs)   bands (ev):

   -89.1634 -89.1606 -89.1383 -89.1367 -89.1321 -89.1021 -89.0688 -89.0377
   -89.0298 -89.0255 -89.0220 -89.0170 -89.0122 -89.0022 -89.0014 -88.9996
   -61.2225 -61.2082 -61.2028 -61.1983 -61.1818 -61.1552 -61.1515 -61.1383
   -49.7779 -49.7524 -49.6602 -49.6487 -49.6291 -49.6159 -49.6047 -49.5852
   -49.5795 -49.5596 -49.5521 -49.5095 -49.5043 -49.4986 -49.4954 -49.4930
   -49.4863 -49.4662 -49.4600 -49.4519 -49.4464 -49.4416 -49.4378 -49.4322
   -49.4242 -49.4180 -49.4125 -49.4049 -49.4030 -49.3923 -49.3757 -49.3680
   -49.3645 -49.3609 -49.3550 -49.3489 -49.3464 -49.3383 -49.3359 -49.3322
   -49.3278 -49.3181 -49.3102 -49.3061 -49.3028 -49.2908 -49.2867 -49.2797
   -27.9816 -27.9757 -27.9725 -27.9622 -27.9578 -27.9556 -27.9549 -27.9513
   -27.9465 -27.9459 -27.9388 -27.9381 -27.9364 -27.9312 -27.9265 -27.9015
   -27.8977 -27.8969 -27.8966 -27.8923 -27.8911 -27.8838 -27.8801 -27.8750
     7.9639   7.9890   8.3747   8.4816   8.5097   8.7263   8.8755   8.9141
     8.9829   9.8439   9.8787   9.9050   9.9297   9.9596   9.9835  10.5997
    10.6144  10.6436  10.7837  10.8095  10.9336  10.9413  11.1094  11.1172
    11.1417  11.1610  11.2394  11.2508  11.2680  11.2755  11.3313  11.3997
    11.4144  11.4396  11.4502  11.4649  11.5121  11.5298  11.5366  11.5388
    11.5550  11.5922  11.6508  11.6650  11.7044  11.7227  11.7588  11.7743
    11.7978  11.9061  11.9530  11.9754  12.1410  12.2223  12.2389  12.2855
    12.3107  12.3299  12.5057  12.5120  12.5998  12.6276  12.6398  12.6691
    12.6995  12.7164  12.7933  12.8167  12.8786  12.9162  12.9208  12.9566
    13.0048  13.0234  13.0368  13.0468  13.0742  13.1034  13.1327  13.2231
    13.3747  13.4125  13.4785  13.5049  13.5214  13.6160  13.6288  13.6891
    13.7940  13.8669  13.8780  14.0412  14.2321  14.2508  14.3044  15.6802
    15.7176  15.7915  16.0218  16.0700  16.5761  18.4703  18.4900  18.6232
    18.8871  18.9058  19.5625  19.6040  19.6533  19.7182  19.7423  19.8718
    20.2005  20.5647  20.6623  20.6730  21.4832  21.5501  21.8986  21.9286
    22.0296  22.7332  23.9479  24.0290  24.0750

          k = 0.3338-0.1926-0.0005 ( 15820 PWs)   bands (ev):

   -89.1714 -89.1538 -89.1383 -89.1347 -89.1328 -89.1023 -89.0697 -89.0431
   -89.0334 -89.0279 -89.0189 -89.0129 -89.0049 -89.0032 -89.0009 -89.0007
   -61.2227 -61.2082 -61.2027 -61.1983 -61.1819 -61.1551 -61.1515 -61.1382
   -49.8131 -49.7246 -49.7002 -49.6544 -49.6486 -49.6254 -49.6187 -49.5991
   -49.5816 -49.5495 -49.5226 -49.5076 -49.5039 -49.4970 -49.4884 -49.4864
   -49.4772 -49.4759 -49.4675 -49.4636 -49.4566 -49.4493 -49.4434 -49.4325
   -49.4221 -49.4158 -49.4108 -49.4069 -49.3892 -49.3777 -49.3751 -49.3664
   -49.3635 -49.3546 -49.3491 -49.3471 -49.3465 -49.3379 -49.3347 -49.3302
   -49.3278 -49.3229 -49.3154 -49.2959 -49.2856 -49.2837 -49.2727 -49.2703
   -27.9797 -27.9776 -27.9707 -27.9608 -27.9594 -27.9582 -27.9540 -27.9500
   -27.9478 -27.9433 -27.9386 -27.9378 -27.9366 -27.9332 -27.9248 -27.9023
   -27.8986 -27.8969 -27.8942 -27.8931 -27.8923 -27.8832 -27.8808 -27.8753
     6.2774   6.8584   6.9528   8.3474   8.8178   9.0092   9.3176   9.3633
     9.8633   9.9047  10.0675  10.1561  10.2782  10.3533  10.4396  10.5373
    10.5651  10.5811  10.7101  10.7269  10.7326  10.8243  10.9370  10.9496
    11.0268  11.0420  11.1256  11.1682  11.2013  11.2286  11.2646  11.3081
    11.3769  11.4031  11.4196  11.4349  11.4811  11.5272  11.5729  11.6717
    11.7036  11.7646  11.7791  11.8032  11.8986  11.9772  12.0066  12.0442
    12.0513  12.1593  12.1953  12.2142  12.2567  12.3193  12.4056  12.4280
    12.4834  12.5172  12.5401  12.6272  12.6615  12.7065  12.7250  12.7677
    12.8468  12.8616  12.8913  12.9326  12.9610  13.0284  13.0532  13.1091
    13.1421  13.1644  13.2126  13.2349  13.2615  13.3153  13.3216  13.3313
    13.3823  13.4430  13.4698  13.5958  13.6059  13.6497  13.7402  13.8980
    14.1686  14.2019  14.5928  14.6386  14.8144  14.9451  15.0052  15.2026
    15.2778  15.3412  15.3936  15.5554  16.2242  16.6776  17.0115  17.0258
    18.4043  18.7524  18.8478  19.0052  19.8098  19.9342  20.0327  20.1883
    20.2166  20.3438  20.8241  21.2939  21.3518  21.4018  21.8868  22.0397
    22.2891  22.8261  23.1325  23.3687  23.4645

     the Fermi energy is    13.9383 ev

!    total energy              =   -7997.29800578 Ry
     total all-electron energy =    -51870.373876 Ry
     estimated scf accuracy    <       0.00000003 Ry
     smearing contrib. (-TS)   =       0.09161719 Ry
     internal energy E=F+TS    =   -7997.38962297 Ry

     The total energy is F=E-TS. E is the sum of the following terms:
     one-electron contribution =   -4396.71649837 Ry
     hartree contribution      =    2374.87073205 Ry
     xc contribution           =    -697.97179307 Ry
     ewald contribution        =   -3698.43110641 Ry
     one-center paw contrib.   =   -1579.14095717 Ry

     convergence has been achieved in 300 iterations

     negative rho (up, down):  6.931E-01 0.000E+00

     Forces acting on atoms (cartesian axes, Ry/au):

     atom    1 type  1   force =    -0.00154585    0.01730567    0.02024076
     atom    2 type  1   force =    -0.01207645    0.01851221    0.00076954
     atom    3 type  1   force =    -0.00849931    0.02266175    0.01053489
     atom    4 type  1   force =    -0.01978910    0.02891658    0.03468441
     atom    5 type  1   force =    -0.00051467    0.01539519    0.01716785
     atom    6 type  1   force =    -0.00978414    0.02847002    0.03114851
     atom    7 type  1   force =    -0.01353199    0.02735504    0.01347605
     atom    8 type  1   force =    -0.00647676    0.01907314    0.00210723
     atom    9 type  2   force =    -0.00694669    0.03013313    0.04057323
     atom   10 type  2   force =     0.01403384    0.01173198   -0.00896895
     atom   11 type  2   force =     0.05335759   -0.05299835   -0.06079367
     atom   12 type  2   force =     0.00009003   -0.13048817    0.10764597
     atom   13 type  2   force =    -0.00245795    0.03245358    0.01269281
     atom   14 type  2   force =    -0.01938987    0.02468304    0.01212691
     atom   15 type  2   force =    -0.01085285    0.00874831    0.02160320
     atom   16 type  2   force =     0.10976650   -0.13720882   -0.19821358
     atom   17 type  2   force =     0.05301250   -0.07926926   -0.08858981
     atom   18 type  2   force =     0.00210065    0.02649623    0.01618764
     atom   19 type  2   force =    -0.01267037    0.01068676    0.01264243
     atom   20 type  2   force =    -0.03091368    0.02971953    0.04789294
     atom   21 type  2   force =    -0.04423422    0.02767515    0.03190926
     atom   22 type  2   force =    -0.00933646   -0.00766666   -0.02550508
     atom   23 type  2   force =     0.00812784   -0.00716685    0.00464776
     atom   24 type  2   force =    -0.03146856    0.03478078   -0.05598033
     The non-local contrib.  to forces
     atom    1 type  1   force =     0.02014580   -0.01147006    0.01031124
     atom    2 type  1   force =    -0.00263565   -0.01273155    0.00754519
     atom    3 type  1   force =    -0.00021156    0.01265154   -0.02677323
     atom    4 type  1   force =    -0.03908802    0.03589067   -0.00076987
     atom    5 type  1   force =     0.03115191   -0.01199921   -0.01511525
     atom    6 type  1   force =    -0.02350206    0.02619353    0.02910520
     atom    7 type  1   force =    -0.02089939    0.02669387    0.00891821
     atom    8 type  1   force =    -0.00231348   -0.00427119   -0.01545329
     atom    9 type  2   force =     0.52040652   -1.63998257   -2.58573660
     atom   10 type  2   force =     1.02902413   -1.53222229   -2.08471716
     atom   11 type  2   force =     0.55864436   -0.62043246   -4.41522420
     atom   12 type  2   force =     0.02631996   -2.56923977    0.48920962
     atom   13 type  2   force =    -0.04421343   -0.21868006    0.01100789
     atom   14 type  2   force =     0.09373790   -0.04527859   -0.07176787
     atom   15 type  2   force =     0.03828089    0.08284453   -0.07513466
     atom   16 type  2   force =     1.05782249   -3.08180436   -2.31261790
     atom   17 type  2   force =     0.68202374   -1.78834825   -2.05928317
     atom   18 type  2   force =    -0.08509213   -0.06612976   -0.05677379
     atom   19 type  2   force =    -0.54987776   -0.77601273   -1.46748533
     atom   20 type  2   force =    -0.01117331   -0.08948090   -0.17575918
     atom   21 type  2   force =     1.20396929   -1.34396634   -3.08647676
     atom   22 type  2   force =     0.05533109   -0.99224379   -2.66246527
     atom   23 type  2   force =    -0.69238894   -3.19505682    0.45555876
     atom   24 type  2   force =    -0.35846226   -0.39079608   -2.56147701
     The ionic contribution  to forces
     atom    1 type  1   force =     0.66266561   -0.57269410    0.30046453
     atom    2 type  1   force =    -0.06858153   -0.25906895   -4.09463237
     atom    3 type  1   force =    -0.13604424    0.35840604   -0.22909509
     atom    4 type  1   force =    -1.29578127    1.20332849    3.65056806
     atom    5 type  1   force =     0.98606003   -0.47384214   -1.63792185
     atom    6 type  1   force =    -0.73475067    0.61909942    4.62131988
     atom    7 type  1   force =    -0.68450841    0.69764695    1.85582391
     atom    8 type  1   force =    -0.19108959   -0.14158092   -4.09235679
     atom    9 type  2   force =    -0.28918140    0.22231654    2.68018658
     atom   10 type  2   force =     1.95382259   -0.77089556   -8.04126140
     atom   11 type  2   force =    -0.43645960    0.15890142   -0.96972003
     atom   12 type  2   force =     2.54762095   -1.91838554    8.71058070
     atom   13 type  2   force =    -0.06631704  -11.09238288    5.07743769
     atom   14 type  2   force =     9.48833441   -5.59134596   -4.64544662
     atom   15 type  2   force =    -0.33517591   11.18281961   -3.99337914
     atom   16 type  2   force =   -10.10656392    5.89019129    6.32532397
     atom   17 type  2   force =    10.69950833    4.79576307    5.15459327
     atom   18 type  2   force =    -9.63925294   -5.20458160   -4.38790884
     atom   19 type  2   force =    -0.32588122   -0.75953872   -0.13557025
     atom   20 type  2   force =    -3.25891151    0.61216897   -1.21015235
     atom   21 type  2   force =     1.28554024    2.03616622   -2.90383444
     atom   22 type  2   force =     0.73957055    0.40566723    0.20493097
     atom   23 type  2   force =    -0.23553147   -1.42200396   -2.36737836
     atom   24 type  2   force =    -0.55909200    0.02384509    0.12742797
     The local contribution  to forces
     atom    1 type  1   force =    -0.67701793    0.58320897   -0.30371248
     atom    2 type  1   force =     0.06635683    0.27202976    4.07442999
     atom    3 type  1   force =     0.13499361   -0.36656307    0.25299904
     atom    4 type  1   force =     1.32213419   -1.22835660   -3.62847961
     atom    5 type  1   force =    -1.01033754    0.48294998    1.65687286
     atom    6 type  1   force =     0.75562751   -0.63491026   -4.63249719
     atom    7 type  1   force =     0.69901315   -0.71507886   -1.86452094
     atom    8 type  1   force =     0.19417397    0.14668684    4.09641301
     atom    9 type  2   force =    -0.19441460    1.31223445   -0.24642331
     atom   10 type  2   force =    -2.88451496    2.18068513    9.94626501
     atom   11 type  2   force =    -0.03396830    0.36003843    5.07755595
     atom   12 type  2   force =    -2.56514057    4.14237955   -9.06948886
     atom   13 type  2   force =     0.11305219   11.31583806   -5.08783509
     atom   14 type  2   force =    -9.59152572    5.64233004    4.71217849
     atom   15 type  2   force =     0.29551177  -11.27321476    4.07261240
     atom   16 type  2   force =     9.22736193   -3.15074527   -4.35559798
     atom   17 type  2   force =   -11.27663076   -3.23865663   -3.34995190
     atom   18 type  2   force =     9.73102044    5.27668391    4.44426438
     atom   19 type  2   force =     0.82124098    1.45909296    1.47070324
     atom   20 type  2   force =     3.24715797   -0.51614935    1.41200579
     atom   21 type  2   force =    -2.44901476   -0.76551571    5.80792622
     atom   22 type  2   force =    -0.79270603    0.48765198    2.22018985
     atom   23 type  2   force =     0.89912819    4.37372717    1.93032046
     atom   24 type  2   force =     0.86460233    0.35235230    2.16551819
     The core correction contribution to forces
     atom    1 type  1   force =    -0.00009042    0.00003104   -0.00008881
     atom    2 type  1   force =     0.00003713    0.00004881   -0.00000107
     atom    3 type  1   force =     0.00001282   -0.00006680    0.00013963
     atom    4 type  1   force =     0.00019727   -0.00017771   -0.00005422
     atom    5 type  1   force =    -0.00014071    0.00005408    0.00004587
     atom    6 type  1   force =     0.00009296   -0.00014556   -0.00017705
     atom    7 type  1   force =     0.00011131   -0.00013825   -0.00003692
     atom    8 type  1   force =     0.00000014    0.00000570    0.00009731
     atom    9 type  2   force =    -0.03650981    0.11735392    0.17933380
     atom   10 type  2   force =    -0.07701382    0.11592437    0.15720449
     atom   11 type  2   force =    -0.02746598    0.03031331    0.23334881
     atom   12 type  2   force =    -0.00144310    0.19652888   -0.03614043
     atom   13 type  2   force =     0.00227461    0.00943678   -0.00130005
     atom   14 type  2   force =    -0.00269196    0.00075614    0.00381826
     atom   15 type  2   force =    -0.00221646   -0.00194197    0.00416630
     atom   16 type  2   force =    -0.06161460    0.18696779    0.13137653
     atom   17 type  2   force =    -0.04462741    0.13374878    0.15271379
     atom   18 type  2   force =     0.00268142    0.00229329    0.00327427
     atom   19 type  2   force =     0.04907117    0.06893471    0.13171090
     atom   20 type  2   force =    -0.00073238    0.00494574    0.00830134
     atom   21 type  2   force =    -0.07748901    0.08275769    0.20084236
     atom   22 type  2   force =    -0.00427445    0.07302165    0.19861886
     atom   23 type  2   force =     0.04416645    0.21792519   -0.02731784
     atom   24 type  2   force =     0.02872301    0.03115199    0.19934689
     The Hubbard contrib.    to forces
     atom    1 type  1   force =     0.00000000    0.00000000    0.00000000
     atom    2 type  1   force =     0.00000000    0.00000000    0.00000000
     atom    3 type  1   force =     0.00000000    0.00000000    0.00000000
     atom    4 type  1   force =     0.00000000    0.00000000    0.00000000
     atom    5 type  1   force =     0.00000000    0.00000000    0.00000000
     atom    6 type  1   force =     0.00000000    0.00000000    0.00000000
     atom    7 type  1   force =     0.00000000    0.00000000    0.00000000
     atom    8 type  1   force =     0.00000000    0.00000000    0.00000000
     atom    9 type  2   force =     0.00000000    0.00000000    0.00000000
     atom   10 type  2   force =     0.00000000    0.00000000    0.00000000
     atom   11 type  2   force =     0.00000000    0.00000000    0.00000000
     atom   12 type  2   force =     0.00000000    0.00000000    0.00000000
     atom   13 type  2   force =     0.00000000    0.00000000    0.00000000
     atom   14 type  2   force =     0.00000000    0.00000000    0.00000000
     atom   15 type  2   force =     0.00000000    0.00000000    0.00000000
     atom   16 type  2   force =     0.00000000    0.00000000    0.00000000
     atom   17 type  2   force =     0.00000000    0.00000000    0.00000000
     atom   18 type  2   force =     0.00000000    0.00000000    0.00000000
     atom   19 type  2   force =     0.00000000    0.00000000    0.00000000
     atom   20 type  2   force =     0.00000000    0.00000000    0.00000000
     atom   21 type  2   force =     0.00000000    0.00000000    0.00000000
     atom   22 type  2   force =     0.00000000    0.00000000    0.00000000
     atom   23 type  2   force =     0.00000000    0.00000000    0.00000000
     atom   24 type  2   force =     0.00000000    0.00000000    0.00000000
     The SCF correction term to forces
     atom    1 type  1   force =     0.00000137   -0.00000188   -0.00007906
     atom    2 type  1   force =    -0.00000296    0.00000243    0.00008247
     atom    3 type  1   force =     0.00000035    0.00000233   -0.00008080
     atom    4 type  1   force =    -0.00000100    0.00000004    0.00007472
     atom    5 type  1   force =     0.00000191    0.00000079   -0.00005912
     atom    6 type  1   force =    -0.00000160    0.00000118    0.00005232
     atom    7 type  1   force =     0.00000162   -0.00000037   -0.00005356
     atom    8 type  1   force =     0.00000247    0.00000101    0.00006164
     atom    9 type  2   force =     0.00000287   -0.00002090   -0.00013257
     atom   10 type  2   force =    -0.00003382    0.00000864    0.00019476
     atom   11 type  2   force =    -0.00014262   -0.00005075   -0.00009953
     atom   12 type  2   force =    -0.00001693   -0.00000299    0.00013961
     atom   13 type  2   force =    -0.00000401    0.00000998    0.00003703
     atom   14 type  2   force =     0.00000577   -0.00001028   -0.00000069
     atom   15 type  2   force =    -0.00000287    0.00000919   -0.00000705
     atom   16 type  2   force =     0.00001088   -0.00004997   -0.00004353
     atom   17 type  2   force =    -0.00001112   -0.00000793   -0.00000713
     atom   18 type  2   force =    -0.00000585   -0.00000132   -0.00001372
     atom   19 type  2   force =     0.00002673   -0.00002116   -0.00006147
     atom   20 type  2   force =    -0.00000417    0.00000337    0.00015201
     atom   21 type  2   force =     0.00001030    0.00000158    0.00010654
     atom   22 type  2   force =    -0.00000733    0.00000457   -0.00012483
     atom   23 type  2   force =     0.00000388    0.00000988    0.00011941
     atom   24 type  2   force =     0.00001063   -0.00000422   -0.00014171

     Total force =     0.393585     Total SCF correction =     0.000494


     Computing stress (Cartesian axis) and pressure


     negative rho (up, down):  6.931E-01 0.000E+00
          total   stress  (Ry/bohr**3)                   (kbar)     P=       46.79
   0.00027687  -0.00002229  -0.00001891           40.73       -3.28       -2.78
  -0.00002229   0.00031585   0.00003288           -3.28       46.46        4.84
  -0.00001891   0.00003288   0.00036143           -2.78        4.84       53.17

     Energy error            =      6.2E-01 Ry
     Gradient error          =      2.0E-01 Ry/Bohr

     number of scf cycles    =   2
     number of bfgs steps    =   1

     energy             old  =   -7997.9147298841 Ry
     energy             new  =   -7997.2980057765 Ry

     CASE: energy            _new > energy            _old


 %%%%%%%%%%%%%%%%%%%%%%%%%%%%%%%%%%%%%%%%%%%%%%%%%%%%%%%%%%%%%%%%%%%%%%%%%%%%%%
     Error in routine bfgs (1):
     dE0s is positive which should never happen
 %%%%%%%%%%%%%%%%%%%%%%%%%%%%%%%%%%%%%%%%%%%%%%%%%%%%%%%%%%%%%%%%%%%%%%%%%%%%%%

     stopping ...
